# vtk DataFile Version 2.0
./vtk
ASCII

DATASET UNSTRUCTURED_GRID
POINTS 16865 double
0 0 0.0
1 0 0.0
2 0 0.0
3 0 0.0
4 0 0.0
5 0 0.0
6 0 0.0
7 0 0.0
8 0 0.0
9 0 0.0
10 0 0.0
11 0 0.0
12 0 0.0
13 0 0.0
14 0 0.0
15 0 0.0
16 0 0.0
17 0 0.0
18 0 0.0
19 0 0.0
20 0 0.0
21 0 0.0
22 0 0.0
23 0 0.0
24 0 0.0
25 0 0.0
26 0 0.0
27 0 0.0
28 0 0.0
29 0 0.0
30 0 0.0
31 0 0.0
32 0 0.0
33 0 0.0
34 0 0.0
35 0 0.0
36 0 0.0
37 0 0.0
38 0 0.0
39 0 0.0
40 0 0.0
41 0 0.0
42 0 0.0
43 0 0.0
44 0 0.0
45 0 0.0
46 0 0.0
47 0 0.0
48 0 0.0
49 0 0.0
50 0 0.0
51 0 0.0
52 0 0.0
53 0 0.0
54 0 0.0
55 0 0.0
56 0 0.0
57 0 0.0
58 0 0.0
59 0 0.0
60 0 0.0
61 0 0.0
62 0 0.0
63 0 0.0
64 0 0.0
65 0 0.0
66 0 0.0
67 0 0.0
68 0 0.0
69 0 0.0
70 0 0.0
71 0 0.0
72 0 0.0
73 0 0.0
74 0 0.0
75 0 0.0
76 0 0.0
77 0 0.0
78 0 0.0
79 0 0.0
80 0 0.0
81 0 0.0
82 0 0.0
83 0 0.0
84 0 0.0
85 0 0.0
86 0 0.0
87 0 0.0
88 0 0.0
89 0 0.0
90 0 0.0
91 0 0.0
92 0 0.0
93 0 0.0
94 0 0.0
95 0 0.0
96 0 0.0
97 0 0.0
98 0 0.0
99 0 0.0
100 0 0.0
101 0 0.0
102 0 0.0
103 0 0.0
104 0 0.0
105 0 0.0
106 0 0.0
107 0 0.0
108 0 0.0
109 0 0.0
110 0 0.0
111 0 0.0
112 0 0.0
113 0 0.0
114 0 0.0
115 0 0.0
116 0 0.0
117 0 0.0
118 0 0.0
119 0 0.0
120 0 0.0
0 -0.0952 0.0
2 -0.0952 0.0
4 -0.0952 0.0
6 -0.0952 0.0
8 -0.0952 0.0
10 -0.0952 0.0
12 -0.0952 0.0
14 -0.0952 0.0
16 -0.0952 0.0
18 -0.0952 0.0
20 -0.0952 0.0
22 -0.0952 0.0
24 -0.0952 0.0
26 -0.0952 0.0
28 -0.0952 0.0
30 -0.0952 0.0
32 -0.0952 0.0
34 -0.0952 0.0
36 -0.0952 0.0
38 -0.0952 0.0
40 -0.0952 0.0
42 -0.0952 0.0
44 -0.0952 0.0
46 -0.0952 0.0
48 -0.0952 0.0
50 -0.0952 0.0
52 -0.0952 0.0
54 -0.0952 0.0
56 -0.0952 0.0
58 -0.0952 0.0
60 -0.0952 0.0
62 -0.0952 0.0
64 -0.0952 0.0
66 -0.0952 0.0
68 -0.0952 0.0
70 -0.0952 0.0
72 -0.0952 0.0
74 -0.0952 0.0
76 -0.0952 0.0
78 -0.0952 0.0
80 -0.0952 0.0
82 -0.0952 0.0
84 -0.0952 0.0
86 -0.0952 0.0
88 -0.0952 0.0
90 -0.0952 0.0
92 -0.0952 0.0
94 -0.0952 0.0
96 -0.0952 0.0
98 -0.0952 0.0
100 -0.0952 0.0
102 -0.0952 0.0
104 -0.0952 0.0
106 -0.0952 0.0
108 -0.0952 0.0
110 -0.0952 0.0
112 -0.0952 0.0
114 -0.0952 0.0
116 -0.0952 0.0
118 -0.0952 0.0
120 -0.0952 0.0
0 -0.1905 0.0
1 -0.1905 0.0
2 -0.1905 0.0
3 -0.1905 0.0
4 -0.1905 0.0
5 -0.1905 0.0
6 -0.1905 0.0
7 -0.1905 0.0
8 -0.1905 0.0
9 -0.1905 0.0
10 -0.1905 0.0
11 -0.1905 0.0
12 -0.1905 0.0
13 -0.1905 0.0
14 -0.1905 0.0
15 -0.1905 0.0
16 -0.1905 0.0
17 -0.1905 0.0
18 -0.1905 0.0
19 -0.1905 0.0
20 -0.1905 0.0
21 -0.1905 0.0
22 -0.1905 0.0
23 -0.1905 0.0
24 -0.1905 0.0
25 -0.1905 0.0
26 -0.1905 0.0
27 -0.1905 0.0
28 -0.1905 0.0
29 -0.1905 0.0
30 -0.1905 0.0
31 -0.1905 0.0
32 -0.1905 0.0
33 -0.1905 0.0
34 -0.1905 0.0
35 -0.1905 0.0
36 -0.1905 0.0
37 -0.1905 0.0
38 -0.1905 0.0
39 -0.1905 0.0
40 -0.1905 0.0
41 -0.1905 0.0
42 -0.1905 0.0
43 -0.1905 0.0
44 -0.1905 0.0
45 -0.1905 0.0
46 -0.1905 0.0
47 -0.1905 0.0
48 -0.1905 0.0
49 -0.1905 0.0
50 -0.1905 0.0
51 -0.1905 0.0
52 -0.1905 0.0
53 -0.1905 0.0
54 -0.1905 0.0
55 -0.1905 0.0
56 -0.1905 0.0
57 -0.1905 0.0
58 -0.1905 0.0
59 -0.1905 0.0
60 -0.1905 0.0
61 -0.1905 0.0
62 -0.1905 0.0
63 -0.1905 0.0
64 -0.1905 0.0
65 -0.1905 0.0
66 -0.1905 0.0
67 -0.1905 0.0
68 -0.1905 0.0
69 -0.1905 0.0
70 -0.1905 0.0
71 -0.1905 0.0
72 -0.1905 0.0
73 -0.1905 0.0
74 -0.1905 0.0
75 -0.1905 0.0
76 -0.1905 0.0
77 -0.1905 0.0
78 -0.1905 0.0
79 -0.1905 0.0
80 -0.1905 0.0
81 -0.1905 0.0
82 -0.1905 0.0
83 -0.1905 0.0
84 -0.1905 0.0
85 -0.1905 0.0
86 -0.1905 0.0
87 -0.1905 0.0
88 -0.1905 0.0
89 -0.1905 0.0
90 -0.1905 0.0
91 -0.1905 0.0
92 -0.1905 0.0
93 -0.1905 0.0
94 -0.1905 0.0
95 -0.1905 0.0
96 -0.1905 0.0
97 -0.1905 0.0
98 -0.1905 0.0
99 -0.1905 0.0
100 -0.1905 0.0
101 -0.1905 0.0
102 -0.1905 0.0
103 -0.1905 0.0
104 -0.1905 0.0
105 -0.1905 0.0
106 -0.1905 0.0
107 -0.1905 0.0
108 -0.1905 0.0
109 -0.1905 0.0
110 -0.1905 0.0
111 -0.1905 0.0
112 -0.1905 0.0
113 -0.1905 0.0
114 -0.1905 0.0
115 -0.1905 0.0
116 -0.1905 0.0
117 -0.1905 0.0
118 -0.1905 0.0
119 -0.1905 0.0
120 -0.1905 0.0
0 -0.2857 0.0
2 -0.2857 0.0
4 -0.2857 0.0
6 -0.2857 0.0
8 -0.2857 0.0
10 -0.2857 0.0
12 -0.2857 0.0
14 -0.2857 0.0
16 -0.2857 0.0
18 -0.2857 0.0
20 -0.2857 0.0
22 -0.2857 0.0
24 -0.2857 0.0
26 -0.2857 0.0
28 -0.2857 0.0
30 -0.2857 0.0
32 -0.2857 0.0
34 -0.2857 0.0
36 -0.2857 0.0
38 -0.2857 0.0
40 -0.2857 0.0
42 -0.2857 0.0
44 -0.2857 0.0
46 -0.2857 0.0
48 -0.2857 0.0
50 -0.2857 0.0
52 -0.2857 0.0
54 -0.2857 0.0
56 -0.2857 0.0
58 -0.2857 0.0
60 -0.2857 0.0
62 -0.2857 0.0
64 -0.2857 0.0
66 -0.2857 0.0
68 -0.2857 0.0
70 -0.2857 0.0
72 -0.2857 0.0
74 -0.2857 0.0
76 -0.2857 0.0
78 -0.2857 0.0
80 -0.2857 0.0
82 -0.2857 0.0
84 -0.2857 0.0
86 -0.2857 0.0
88 -0.2857 0.0
90 -0.2857 0.0
92 -0.2857 0.0
94 -0.2857 0.0
96 -0.2857 0.0
98 -0.2857 0.0
100 -0.2857 0.0
102 -0.2857 0.0
104 -0.2857 0.0
106 -0.2857 0.0
108 -0.2857 0.0
110 -0.2857 0.0
112 -0.2857 0.0
114 -0.2857 0.0
116 -0.2857 0.0
118 -0.2857 0.0
120 -0.2857 0.0
0 -0.381 0.0
1 -0.381 0.0
2 -0.381 0.0
3 -0.381 0.0
4 -0.381 0.0
5 -0.381 0.0
6 -0.381 0.0
7 -0.381 0.0
8 -0.381 0.0
9 -0.381 0.0
10 -0.381 0.0
11 -0.381 0.0
12 -0.381 0.0
13 -0.381 0.0
14 -0.381 0.0
15 -0.381 0.0
16 -0.381 0.0
17 -0.381 0.0
18 -0.381 0.0
19 -0.381 0.0
20 -0.381 0.0
21 -0.381 0.0
22 -0.381 0.0
23 -0.381 0.0
24 -0.381 0.0
25 -0.381 0.0
26 -0.381 0.0
27 -0.381 0.0
28 -0.381 0.0
29 -0.381 0.0
30 -0.381 0.0
31 -0.381 0.0
32 -0.381 0.0
33 -0.381 0.0
34 -0.381 0.0
35 -0.381 0.0
36 -0.381 0.0
37 -0.381 0.0
38 -0.381 0.0
39 -0.381 0.0
40 -0.381 0.0
41 -0.381 0.0
42 -0.381 0.0
43 -0.381 0.0
44 -0.381 0.0
45 -0.381 0.0
46 -0.381 0.0
47 -0.381 0.0
48 -0.381 0.0
49 -0.381 0.0
50 -0.381 0.0
51 -0.381 0.0
52 -0.381 0.0
53 -0.381 0.0
54 -0.381 0.0
55 -0.381 0.0
56 -0.381 0.0
57 -0.381 0.0
58 -0.381 0.0
59 -0.381 0.0
60 -0.381 0.0
61 -0.381 0.0
62 -0.381 0.0
63 -0.381 0.0
64 -0.381 0.0
65 -0.381 0.0
66 -0.381 0.0
67 -0.381 0.0
68 -0.381 0.0
69 -0.381 0.0
70 -0.381 0.0
71 -0.381 0.0
72 -0.381 0.0
73 -0.381 0.0
74 -0.381 0.0
75 -0.381 0.0
76 -0.381 0.0
77 -0.381 0.0
78 -0.381 0.0
79 -0.381 0.0
80 -0.381 0.0
81 -0.381 0.0
82 -0.381 0.0
83 -0.381 0.0
84 -0.381 0.0
85 -0.381 0.0
86 -0.381 0.0
87 -0.381 0.0
88 -0.381 0.0
89 -0.381 0.0
90 -0.381 0.0
91 -0.381 0.0
92 -0.381 0.0
93 -0.381 0.0
94 -0.381 0.0
95 -0.381 0.0
96 -0.381 0.0
97 -0.381 0.0
98 -0.381 0.0
99 -0.381 0.0
100 -0.381 0.0
101 -0.381 0.0
102 -0.381 0.0
103 -0.381 0.0
104 -0.381 0.0
105 -0.381 0.0
106 -0.381 0.0
107 -0.381 0.0
108 -0.381 0.0
109 -0.381 0.0
110 -0.381 0.0
111 -0.381 0.0
112 -0.381 0.0
113 -0.381 0.0
114 -0.381 0.0
115 -0.381 0.0
116 -0.381 0.0
117 -0.381 0.0
118 -0.381 0.0
119 -0.381 0.0
120 -0.381 0.0
0 -0.4762 0.0
2 -0.4762 0.0
4 -0.4762 0.0
6 -0.4762 0.0
8 -0.4762 0.0
10 -0.4762 0.0
12 -0.4762 0.0
14 -0.4762 0.0
16 -0.4762 0.0
18 -0.4762 0.0
20 -0.4762 0.0
22 -0.4762 0.0
24 -0.4762 0.0
26 -0.4762 0.0
28 -0.4762 0.0
30 -0.4762 0.0
32 -0.4762 0.0
34 -0.4762 0.0
36 -0.4762 0.0
38 -0.4762 0.0
40 -0.4762 0.0
42 -0.4762 0.0
44 -0.4762 0.0
46 -0.4762 0.0
48 -0.4762 0.0
50 -0.4762 0.0
52 -0.4762 0.0
54 -0.4762 0.0
56 -0.4762 0.0
58 -0.4762 0.0
60 -0.4762 0.0
62 -0.4762 0.0
64 -0.4762 0.0
66 -0.4762 0.0
68 -0.4762 0.0
70 -0.4762 0.0
72 -0.4762 0.0
74 -0.4762 0.0
76 -0.4762 0.0
78 -0.4762 0.0
80 -0.4762 0.0
82 -0.4762 0.0
84 -0.4762 0.0
86 -0.4762 0.0
88 -0.4762 0.0
90 -0.4762 0.0
92 -0.4762 0.0
94 -0.4762 0.0
96 -0.4762 0.0
98 -0.4762 0.0
100 -0.4762 0.0
102 -0.4762 0.0
104 -0.4762 0.0
106 -0.4762 0.0
108 -0.4762 0.0
110 -0.4762 0.0
112 -0.4762 0.0
114 -0.4762 0.0
116 -0.4762 0.0
118 -0.4762 0.0
120 -0.4762 0.0
0 -0.5714 0.0
1 -0.5714 0.0
2 -0.5714 0.0
3 -0.5714 0.0
4 -0.5714 0.0
5 -0.5714 0.0
6 -0.5714 0.0
7 -0.5714 0.0
8 -0.5714 0.0
9 -0.5714 0.0
10 -0.5714 0.0
11 -0.5714 0.0
12 -0.5714 0.0
13 -0.5714 0.0
14 -0.5714 0.0
15 -0.5714 0.0
16 -0.5714 0.0
17 -0.5714 0.0
18 -0.5714 0.0
19 -0.5714 0.0
20 -0.5714 0.0
21 -0.5714 0.0
22 -0.5714 0.0
23 -0.5714 0.0
24 -0.5714 0.0
25 -0.5714 0.0
26 -0.5714 0.0
27 -0.5714 0.0
28 -0.5714 0.0
29 -0.5714 0.0
30 -0.5714 0.0
31 -0.5714 0.0
32 -0.5714 0.0
33 -0.5714 0.0
34 -0.5714 0.0
35 -0.5714 0.0
36 -0.5714 0.0
37 -0.5714 0.0
38 -0.5714 0.0
39 -0.5714 0.0
40 -0.5714 0.0
41 -0.5714 0.0
42 -0.5714 0.0
43 -0.5714 0.0
44 -0.5714 0.0
45 -0.5714 0.0
46 -0.5714 0.0
47 -0.5714 0.0
48 -0.5714 0.0
49 -0.5714 0.0
50 -0.5714 0.0
51 -0.5714 0.0
52 -0.5714 0.0
53 -0.5714 0.0
54 -0.5714 0.0
55 -0.5714 0.0
56 -0.5714 0.0
57 -0.5714 0.0
58 -0.5714 0.0
59 -0.5714 0.0
60 -0.5714 0.0
61 -0.5714 0.0
62 -0.5714 0.0
63 -0.5714 0.0
64 -0.5714 0.0
65 -0.5714 0.0
66 -0.5714 0.0
67 -0.5714 0.0
68 -0.5714 0.0
69 -0.5714 0.0
70 -0.5714 0.0
71 -0.5714 0.0
72 -0.5714 0.0
73 -0.5714 0.0
74 -0.5714 0.0
75 -0.5714 0.0
76 -0.5714 0.0
77 -0.5714 0.0
78 -0.5714 0.0
79 -0.5714 0.0
80 -0.5714 0.0
81 -0.5714 0.0
82 -0.5714 0.0
83 -0.5714 0.0
84 -0.5714 0.0
85 -0.5714 0.0
86 -0.5714 0.0
87 -0.5714 0.0
88 -0.5714 0.0
89 -0.5714 0.0
90 -0.5714 0.0
91 -0.5714 0.0
92 -0.5714 0.0
93 -0.5714 0.0
94 -0.5714 0.0
95 -0.5714 0.0
96 -0.5714 0.0
97 -0.5714 0.0
98 -0.5714 0.0
99 -0.5714 0.0
100 -0.5714 0.0
101 -0.5714 0.0
102 -0.5714 0.0
103 -0.5714 0.0
104 -0.5714 0.0
105 -0.5714 0.0
106 -0.5714 0.0
107 -0.5714 0.0
108 -0.5714 0.0
109 -0.5714 0.0
110 -0.5714 0.0
111 -0.5714 0.0
112 -0.5714 0.0
113 -0.5714 0.0
114 -0.5714 0.0
115 -0.5714 0.0
116 -0.5714 0.0
117 -0.5714 0.0
118 -0.5714 0.0
119 -0.5714 0.0
120 -0.5714 0.0
0 -0.6667 0.0
2 -0.6667 0.0
4 -0.6667 0.0
6 -0.6667 0.0
8 -0.6667 0.0
10 -0.6667 0.0
12 -0.6667 0.0
14 -0.6667 0.0
16 -0.6667 0.0
18 -0.6667 0.0
20 -0.6667 0.0
22 -0.6667 0.0
24 -0.6667 0.0
26 -0.6667 0.0
28 -0.6667 0.0
30 -0.6667 0.0
32 -0.6667 0.0
34 -0.6667 0.0
36 -0.6667 0.0
38 -0.6667 0.0
40 -0.6667 0.0
42 -0.6667 0.0
44 -0.6667 0.0
46 -0.6667 0.0
48 -0.6667 0.0
50 -0.6667 0.0
52 -0.6667 0.0
54 -0.6667 0.0
56 -0.6667 0.0
58 -0.6667 0.0
60 -0.6667 0.0
62 -0.6667 0.0
64 -0.6667 0.0
66 -0.6667 0.0
68 -0.6667 0.0
70 -0.6667 0.0
72 -0.6667 0.0
74 -0.6667 0.0
76 -0.6667 0.0
78 -0.6667 0.0
80 -0.6667 0.0
82 -0.6667 0.0
84 -0.6667 0.0
86 -0.6667 0.0
88 -0.6667 0.0
90 -0.6667 0.0
92 -0.6667 0.0
94 -0.6667 0.0
96 -0.6667 0.0
98 -0.6667 0.0
100 -0.6667 0.0
102 -0.6667 0.0
104 -0.6667 0.0
106 -0.6667 0.0
108 -0.6667 0.0
110 -0.6667 0.0
112 -0.6667 0.0
114 -0.6667 0.0
116 -0.6667 0.0
118 -0.6667 0.0
120 -0.6667 0.0
0 -0.7619 0.0
1 -0.7619 0.0
2 -0.7619 0.0
3 -0.7619 0.0
4 -0.7619 0.0
5 -0.7619 0.0
6 -0.7619 0.0
7 -0.7619 0.0
8 -0.7619 0.0
9 -0.7619 0.0
10 -0.7619 0.0
11 -0.7619 0.0
12 -0.7619 0.0
13 -0.7619 0.0
14 -0.7619 0.0
15 -0.7619 0.0
16 -0.7619 0.0
17 -0.7619 0.0
18 -0.7619 0.0
19 -0.7619 0.0
20 -0.7619 0.0
21 -0.7619 0.0
22 -0.7619 0.0
23 -0.7619 0.0
24 -0.7619 0.0
25 -0.7619 0.0
26 -0.7619 0.0
27 -0.7619 0.0
28 -0.7619 0.0
29 -0.7619 0.0
30 -0.7619 0.0
31 -0.7619 0.0
32 -0.7619 0.0
33 -0.7619 0.0
34 -0.7619 0.0
35 -0.7619 0.0
36 -0.7619 0.0
37 -0.7619 0.0
38 -0.7619 0.0
39 -0.7619 0.0
40 -0.7619 0.0
41 -0.7619 0.0
42 -0.7619 0.0
43 -0.7619 0.0
44 -0.7619 0.0
45 -0.7619 0.0
46 -0.7619 0.0
47 -0.7619 0.0
48 -0.7619 0.0
49 -0.7619 0.0
50 -0.7619 0.0
51 -0.7619 0.0
52 -0.7619 0.0
53 -0.7619 0.0
54 -0.7619 0.0
55 -0.7619 0.0
56 -0.7619 0.0
57 -0.7619 0.0
58 -0.7619 0.0
59 -0.7619 0.0
60 -0.7619 0.0
61 -0.7619 0.0
62 -0.7619 0.0
63 -0.7619 0.0
64 -0.7619 0.0
65 -0.7619 0.0
66 -0.7619 0.0
67 -0.7619 0.0
68 -0.7619 0.0
69 -0.7619 0.0
70 -0.7619 0.0
71 -0.7619 0.0
72 -0.7619 0.0
73 -0.7619 0.0
74 -0.7619 0.0
75 -0.7619 0.0
76 -0.7619 0.0
77 -0.7619 0.0
78 -0.7619 0.0
79 -0.7619 0.0
80 -0.7619 0.0
81 -0.7619 0.0
82 -0.7619 0.0
83 -0.7619 0.0
84 -0.7619 0.0
85 -0.7619 0.0
86 -0.7619 0.0
87 -0.7619 0.0
88 -0.7619 0.0
89 -0.7619 0.0
90 -0.7619 0.0
91 -0.7619 0.0
92 -0.7619 0.0
93 -0.7619 0.0
94 -0.7619 0.0
95 -0.7619 0.0
96 -0.7619 0.0
97 -0.7619 0.0
98 -0.7619 0.0
99 -0.7619 0.0
100 -0.7619 0.0
101 -0.7619 0.0
102 -0.7619 0.0
103 -0.7619 0.0
104 -0.7619 0.0
105 -0.7619 0.0
106 -0.7619 0.0
107 -0.7619 0.0
108 -0.7619 0.0
109 -0.7619 0.0
110 -0.7619 0.0
111 -0.7619 0.0
112 -0.7619 0.0
113 -0.7619 0.0
114 -0.7619 0.0
115 -0.7619 0.0
116 -0.7619 0.0
117 -0.7619 0.0
118 -0.7619 0.0
119 -0.7619 0.0
120 -0.7619 0.0
0 -0.8571 0.0
2 -0.8571 0.0
4 -0.8571 0.0
6 -0.8571 0.0
8 -0.8571 0.0
10 -0.8571 0.0
12 -0.8571 0.0
14 -0.8571 0.0
16 -0.8571 0.0
18 -0.8571 0.0
20 -0.8571 0.0
22 -0.8571 0.0
24 -0.8571 0.0
26 -0.8571 0.0
28 -0.8571 0.0
30 -0.8571 0.0
32 -0.8571 0.0
34 -0.8571 0.0
36 -0.8571 0.0
38 -0.8571 0.0
40 -0.8571 0.0
42 -0.8571 0.0
44 -0.8571 0.0
46 -0.8571 0.0
48 -0.8571 0.0
50 -0.8571 0.0
52 -0.8571 0.0
54 -0.8571 0.0
56 -0.8571 0.0
58 -0.8571 0.0
60 -0.8571 0.0
62 -0.8571 0.0
64 -0.8571 0.0
66 -0.8571 0.0
68 -0.8571 0.0
70 -0.8571 0.0
72 -0.8571 0.0
74 -0.8571 0.0
76 -0.8571 0.0
78 -0.8571 0.0
80 -0.8571 0.0
82 -0.8571 0.0
84 -0.8571 0.0
86 -0.8571 0.0
88 -0.8571 0.0
90 -0.8571 0.0
92 -0.8571 0.0
94 -0.8571 0.0
96 -0.8571 0.0
98 -0.8571 0.0
100 -0.8571 0.0
102 -0.8571 0.0
104 -0.8571 0.0
106 -0.8571 0.0
108 -0.8571 0.0
110 -0.8571 0.0
112 -0.8571 0.0
114 -0.8571 0.0
116 -0.8571 0.0
118 -0.8571 0.0
120 -0.8571 0.0
0 -0.9524 0.0
1 -0.9524 0.0
2 -0.9524 0.0
3 -0.9524 0.0
4 -0.9524 0.0
5 -0.9524 0.0
6 -0.9524 0.0
7 -0.9524 0.0
8 -0.9524 0.0
9 -0.9524 0.0
10 -0.9524 0.0
11 -0.9524 0.0
12 -0.9524 0.0
13 -0.9524 0.0
14 -0.9524 0.0
15 -0.9524 0.0
16 -0.9524 0.0
17 -0.9524 0.0
18 -0.9524 0.0
19 -0.9524 0.0
20 -0.9524 0.0
21 -0.9524 0.0
22 -0.9524 0.0
23 -0.9524 0.0
24 -0.9524 0.0
25 -0.9524 0.0
26 -0.9524 0.0
27 -0.9524 0.0
28 -0.9524 0.0
29 -0.9524 0.0
30 -0.9524 0.0
31 -0.9524 0.0
32 -0.9524 0.0
33 -0.9524 0.0
34 -0.9524 0.0
35 -0.9524 0.0
36 -0.9524 0.0
37 -0.9524 0.0
38 -0.9524 0.0
39 -0.9524 0.0
40 -0.9524 0.0
41 -0.9524 0.0
42 -0.9524 0.0
43 -0.9524 0.0
44 -0.9524 0.0
45 -0.9524 0.0
46 -0.9524 0.0
47 -0.9524 0.0
48 -0.9524 0.0
49 -0.9524 0.0
50 -0.9524 0.0
51 -0.9524 0.0
52 -0.9524 0.0
53 -0.9524 0.0
54 -0.9524 0.0
55 -0.9524 0.0
56 -0.9524 0.0
57 -0.9524 0.0
58 -0.9524 0.0
59 -0.9524 0.0
60 -0.9524 0.0
61 -0.9524 0.0
62 -0.9524 0.0
63 -0.9524 0.0
64 -0.9524 0.0
65 -0.9524 0.0
66 -0.9524 0.0
67 -0.9524 0.0
68 -0.9524 0.0
69 -0.9524 0.0
70 -0.9524 0.0
71 -0.9524 0.0
72 -0.9524 0.0
73 -0.9524 0.0
74 -0.9524 0.0
75 -0.9524 0.0
76 -0.9524 0.0
77 -0.9524 0.0
78 -0.9524 0.0
79 -0.9524 0.0
80 -0.9524 0.0
81 -0.9524 0.0
82 -0.9524 0.0
83 -0.9524 0.0
84 -0.9524 0.0
85 -0.9524 0.0
86 -0.9524 0.0
87 -0.9524 0.0
88 -0.9524 0.0
89 -0.9524 0.0
90 -0.9524 0.0
91 -0.9524 0.0
92 -0.9524 0.0
93 -0.9524 0.0
94 -0.9524 0.0
95 -0.9524 0.0
96 -0.9524 0.0
97 -0.9524 0.0
98 -0.9524 0.0
99 -0.9524 0.0
100 -0.9524 0.0
101 -0.9524 0.0
102 -0.9524 0.0
103 -0.9524 0.0
104 -0.9524 0.0
105 -0.9524 0.0
106 -0.9524 0.0
107 -0.9524 0.0
108 -0.9524 0.0
109 -0.9524 0.0
110 -0.9524 0.0
111 -0.9524 0.0
112 -0.9524 0.0
113 -0.9524 0.0
114 -0.9524 0.0
115 -0.9524 0.0
116 -0.9524 0.0
117 -0.9524 0.0
118 -0.9524 0.0
119 -0.9524 0.0
120 -0.9524 0.0
0 -1.0476 0.0
2 -1.0476 0.0
4 -1.0476 0.0
6 -1.0476 0.0
8 -1.0476 0.0
10 -1.0476 0.0
12 -1.0476 0.0
14 -1.0476 0.0
16 -1.0476 0.0
18 -1.0476 0.0
20 -1.0476 0.0
22 -1.0476 0.0
24 -1.0476 0.0
26 -1.0476 0.0
28 -1.0476 0.0
30 -1.0476 0.0
32 -1.0476 0.0
34 -1.0476 0.0
36 -1.0476 0.0
38 -1.0476 0.0
40 -1.0476 0.0
42 -1.0476 0.0
44 -1.0476 0.0
46 -1.0476 0.0
48 -1.0476 0.0
50 -1.0476 0.0
52 -1.0476 0.0
54 -1.0476 0.0
56 -1.0476 0.0
58 -1.0476 0.0
60 -1.0476 0.0
62 -1.0476 0.0
64 -1.0476 0.0
66 -1.0476 0.0
68 -1.0476 0.0
70 -1.0476 0.0
72 -1.0476 0.0
74 -1.0476 0.0
76 -1.0476 0.0
78 -1.0476 0.0
80 -1.0476 0.0
82 -1.0476 0.0
84 -1.0476 0.0
86 -1.0476 0.0
88 -1.0476 0.0
90 -1.0476 0.0
92 -1.0476 0.0
94 -1.0476 0.0
96 -1.0476 0.0
98 -1.0476 0.0
100 -1.0476 0.0
102 -1.0476 0.0
104 -1.0476 0.0
106 -1.0476 0.0
108 -1.0476 0.0
110 -1.0476 0.0
112 -1.0476 0.0
114 -1.0476 0.0
116 -1.0476 0.0
118 -1.0476 0.0
120 -1.0476 0.0
0 -1.1429 0.0
1 -1.1429 0.0
2 -1.1429 0.0
3 -1.1429 0.0
4 -1.1429 0.0
5 -1.1429 0.0
6 -1.1429 0.0
7 -1.1429 0.0
8 -1.1429 0.0
9 -1.1429 0.0
10 -1.1429 0.0
11 -1.1429 0.0
12 -1.1429 0.0
13 -1.1429 0.0
14 -1.1429 0.0
15 -1.1429 0.0
16 -1.1429 0.0
17 -1.1429 0.0
18 -1.1429 0.0
19 -1.1429 0.0
20 -1.1429 0.0
21 -1.1429 0.0
22 -1.1429 0.0
23 -1.1429 0.0
24 -1.1429 0.0
25 -1.1429 0.0
26 -1.1429 0.0
27 -1.1429 0.0
28 -1.1429 0.0
29 -1.1429 0.0
30 -1.1429 0.0
31 -1.1429 0.0
32 -1.1429 0.0
33 -1.1429 0.0
34 -1.1429 0.0
35 -1.1429 0.0
36 -1.1429 0.0
37 -1.1429 0.0
38 -1.1429 0.0
39 -1.1429 0.0
40 -1.1429 0.0
41 -1.1429 0.0
42 -1.1429 0.0
43 -1.1429 0.0
44 -1.1429 0.0
45 -1.1429 0.0
46 -1.1429 0.0
47 -1.1429 0.0
48 -1.1429 0.0
49 -1.1429 0.0
50 -1.1429 0.0
51 -1.1429 0.0
52 -1.1429 0.0
53 -1.1429 0.0
54 -1.1429 0.0
55 -1.1429 0.0
56 -1.1429 0.0
57 -1.1429 0.0
58 -1.1429 0.0
59 -1.1429 0.0
60 -1.1429 0.0
61 -1.1429 0.0
62 -1.1429 0.0
63 -1.1429 0.0
64 -1.1429 0.0
65 -1.1429 0.0
66 -1.1429 0.0
67 -1.1429 0.0
68 -1.1429 0.0
69 -1.1429 0.0
70 -1.1429 0.0
71 -1.1429 0.0
72 -1.1429 0.0
73 -1.1429 0.0
74 -1.1429 0.0
75 -1.1429 0.0
76 -1.1429 0.0
77 -1.1429 0.0
78 -1.1429 0.0
79 -1.1429 0.0
80 -1.1429 0.0
81 -1.1429 0.0
82 -1.1429 0.0
83 -1.1429 0.0
84 -1.1429 0.0
85 -1.1429 0.0
86 -1.1429 0.0
87 -1.1429 0.0
88 -1.1429 0.0
89 -1.1429 0.0
90 -1.1429 0.0
91 -1.1429 0.0
92 -1.1429 0.0
93 -1.1429 0.0
94 -1.1429 0.0
95 -1.1429 0.0
96 -1.1429 0.0
97 -1.1429 0.0
98 -1.1429 0.0
99 -1.1429 0.0
100 -1.1429 0.0
101 -1.1429 0.0
102 -1.1429 0.0
103 -1.1429 0.0
104 -1.1429 0.0
105 -1.1429 0.0
106 -1.1429 0.0
107 -1.1429 0.0
108 -1.1429 0.0
109 -1.1429 0.0
110 -1.1429 0.0
111 -1.1429 0.0
112 -1.1429 0.0
113 -1.1429 0.0
114 -1.1429 0.0
115 -1.1429 0.0
116 -1.1429 0.0
117 -1.1429 0.0
118 -1.1429 0.0
119 -1.1429 0.0
120 -1.1429 0.0
0 -1.2381 0.0
2 -1.2381 0.0
4 -1.2381 0.0
6 -1.2381 0.0
8 -1.2381 0.0
10 -1.2381 0.0
12 -1.2381 0.0
14 -1.2381 0.0
16 -1.2381 0.0
18 -1.2381 0.0
20 -1.2381 0.0
22 -1.2381 0.0
24 -1.2381 0.0
26 -1.2381 0.0
28 -1.2381 0.0
30 -1.2381 0.0
32 -1.2381 0.0
34 -1.2381 0.0
36 -1.2381 0.0
38 -1.2381 0.0
40 -1.2381 0.0
42 -1.2381 0.0
44 -1.2381 0.0
46 -1.2381 0.0
48 -1.2381 0.0
50 -1.2381 0.0
52 -1.2381 0.0
54 -1.2381 0.0
56 -1.2381 0.0
58 -1.2381 0.0
60 -1.2381 0.0
62 -1.2381 0.0
64 -1.2381 0.0
66 -1.2381 0.0
68 -1.2381 0.0
70 -1.2381 0.0
72 -1.2381 0.0
74 -1.2381 0.0
76 -1.2381 0.0
78 -1.2381 0.0
80 -1.2381 0.0
82 -1.2381 0.0
84 -1.2381 0.0
86 -1.2381 0.0
88 -1.2381 0.0
90 -1.2381 0.0
92 -1.2381 0.0
94 -1.2381 0.0
96 -1.2381 0.0
98 -1.2381 0.0
100 -1.2381 0.0
102 -1.2381 0.0
104 -1.2381 0.0
106 -1.2381 0.0
108 -1.2381 0.0
110 -1.2381 0.0
112 -1.2381 0.0
114 -1.2381 0.0
116 -1.2381 0.0
118 -1.2381 0.0
120 -1.2381 0.0
0 -1.3333 0.0
1 -1.3333 0.0
2 -1.3333 0.0
3 -1.3333 0.0
4 -1.3333 0.0
5 -1.3333 0.0
6 -1.3333 0.0
7 -1.3333 0.0
8 -1.3333 0.0
9 -1.3333 0.0
10 -1.3333 0.0
11 -1.3333 0.0
12 -1.3333 0.0
13 -1.3333 0.0
14 -1.3333 0.0
15 -1.3333 0.0
16 -1.3333 0.0
17 -1.3333 0.0
18 -1.3333 0.0
19 -1.3333 0.0
20 -1.3333 0.0
21 -1.3333 0.0
22 -1.3333 0.0
23 -1.3333 0.0
24 -1.3333 0.0
25 -1.3333 0.0
26 -1.3333 0.0
27 -1.3333 0.0
28 -1.3333 0.0
29 -1.3333 0.0
30 -1.3333 0.0
31 -1.3333 0.0
32 -1.3333 0.0
33 -1.3333 0.0
34 -1.3333 0.0
35 -1.3333 0.0
36 -1.3333 0.0
37 -1.3333 0.0
38 -1.3333 0.0
39 -1.3333 0.0
40 -1.3333 0.0
41 -1.3333 0.0
42 -1.3333 0.0
43 -1.3333 0.0
44 -1.3333 0.0
45 -1.3333 0.0
46 -1.3333 0.0
47 -1.3333 0.0
48 -1.3333 0.0
49 -1.3333 0.0
50 -1.3333 0.0
51 -1.3333 0.0
52 -1.3333 0.0
53 -1.3333 0.0
54 -1.3333 0.0
55 -1.3333 0.0
56 -1.3333 0.0
57 -1.3333 0.0
58 -1.3333 0.0
59 -1.3333 0.0
60 -1.3333 0.0
61 -1.3333 0.0
62 -1.3333 0.0
63 -1.3333 0.0
64 -1.3333 0.0
65 -1.3333 0.0
66 -1.3333 0.0
67 -1.3333 0.0
68 -1.3333 0.0
69 -1.3333 0.0
70 -1.3333 0.0
71 -1.3333 0.0
72 -1.3333 0.0
73 -1.3333 0.0
74 -1.3333 0.0
75 -1.3333 0.0
76 -1.3333 0.0
77 -1.3333 0.0
78 -1.3333 0.0
79 -1.3333 0.0
80 -1.3333 0.0
81 -1.3333 0.0
82 -1.3333 0.0
83 -1.3333 0.0
84 -1.3333 0.0
85 -1.3333 0.0
86 -1.3333 0.0
87 -1.3333 0.0
88 -1.3333 0.0
89 -1.3333 0.0
90 -1.3333 0.0
91 -1.3333 0.0
92 -1.3333 0.0
93 -1.3333 0.0
94 -1.3333 0.0
95 -1.3333 0.0
96 -1.3333 0.0
97 -1.3333 0.0
98 -1.3333 0.0
99 -1.3333 0.0
100 -1.3333 0.0
101 -1.3333 0.0
102 -1.3333 0.0
103 -1.3333 0.0
104 -1.3333 0.0
105 -1.3333 0.0
106 -1.3333 0.0
107 -1.3333 0.0
108 -1.3333 0.0
109 -1.3333 0.0
110 -1.3333 0.0
111 -1.3333 0.0
112 -1.3333 0.0
113 -1.3333 0.0
114 -1.3333 0.0
115 -1.3333 0.0
116 -1.3333 0.0
117 -1.3333 0.0
118 -1.3333 0.0
119 -1.3333 0.0
120 -1.3333 0.0
0 -1.4286 0.0
2 -1.4286 0.0
4 -1.4286 0.0
6 -1.4286 0.0
8 -1.4286 0.0
10 -1.4286 0.0
12 -1.4286 0.0
14 -1.4286 0.0
16 -1.4286 0.0
18 -1.4286 0.0
20 -1.4286 0.0
22 -1.4286 0.0
24 -1.4286 0.0
26 -1.4286 0.0
28 -1.4286 0.0
30 -1.4286 0.0
32 -1.4286 0.0
34 -1.4286 0.0
36 -1.4286 0.0
38 -1.4286 0.0
40 -1.4286 0.0
42 -1.4286 0.0
44 -1.4286 0.0
46 -1.4286 0.0
48 -1.4286 0.0
50 -1.4286 0.0
52 -1.4286 0.0
54 -1.4286 0.0
56 -1.4286 0.0
58 -1.4286 0.0
60 -1.4286 0.0
62 -1.4286 0.0
64 -1.4286 0.0
66 -1.4286 0.0
68 -1.4286 0.0
70 -1.4286 0.0
72 -1.4286 0.0
74 -1.4286 0.0
76 -1.4286 0.0
78 -1.4286 0.0
80 -1.4286 0.0
82 -1.4286 0.0
84 -1.4286 0.0
86 -1.4286 0.0
88 -1.4286 0.0
90 -1.4286 0.0
92 -1.4286 0.0
94 -1.4286 0.0
96 -1.4286 0.0
98 -1.4286 0.0
100 -1.4286 0.0
102 -1.4286 0.0
104 -1.4286 0.0
106 -1.4286 0.0
108 -1.4286 0.0
110 -1.4286 0.0
112 -1.4286 0.0
114 -1.4286 0.0
116 -1.4286 0.0
118 -1.4286 0.0
120 -1.4286 0.0
0 -1.5238 0.0
1 -1.5238 0.0
2 -1.5238 0.0
3 -1.5238 0.0
4 -1.5238 0.0
5 -1.5238 0.0
6 -1.5238 0.0
7 -1.5238 0.0
8 -1.5238 0.0
9 -1.5238 0.0
10 -1.5238 0.0
11 -1.5238 0.0
12 -1.5238 0.0
13 -1.5238 0.0
14 -1.5238 0.0
15 -1.5238 0.0
16 -1.5238 0.0
17 -1.5238 0.0
18 -1.5238 0.0
19 -1.5238 0.0
20 -1.5238 0.0
21 -1.5238 0.0
22 -1.5238 0.0
23 -1.5238 0.0
24 -1.5238 0.0
25 -1.5238 0.0
26 -1.5238 0.0
27 -1.5238 0.0
28 -1.5238 0.0
29 -1.5238 0.0
30 -1.5238 0.0
31 -1.5238 0.0
32 -1.5238 0.0
33 -1.5238 0.0
34 -1.5238 0.0
35 -1.5238 0.0
36 -1.5238 0.0
37 -1.5238 0.0
38 -1.5238 0.0
39 -1.5238 0.0
40 -1.5238 0.0
41 -1.5238 0.0
42 -1.5238 0.0
43 -1.5238 0.0
44 -1.5238 0.0
45 -1.5238 0.0
46 -1.5238 0.0
47 -1.5238 0.0
48 -1.5238 0.0
49 -1.5238 0.0
50 -1.5238 0.0
51 -1.5238 0.0
52 -1.5238 0.0
53 -1.5238 0.0
54 -1.5238 0.0
55 -1.5238 0.0
56 -1.5238 0.0
57 -1.5238 0.0
58 -1.5238 0.0
59 -1.5238 0.0
60 -1.5238 0.0
61 -1.5238 0.0
62 -1.5238 0.0
63 -1.5238 0.0
64 -1.5238 0.0
65 -1.5238 0.0
66 -1.5238 0.0
67 -1.5238 0.0
68 -1.5238 0.0
69 -1.5238 0.0
70 -1.5238 0.0
71 -1.5238 0.0
72 -1.5238 0.0
73 -1.5238 0.0
74 -1.5238 0.0
75 -1.5238 0.0
76 -1.5238 0.0
77 -1.5238 0.0
78 -1.5238 0.0
79 -1.5238 0.0
80 -1.5238 0.0
81 -1.5238 0.0
82 -1.5238 0.0
83 -1.5238 0.0
84 -1.5238 0.0
85 -1.5238 0.0
86 -1.5238 0.0
87 -1.5238 0.0
88 -1.5238 0.0
89 -1.5238 0.0
90 -1.5238 0.0
91 -1.5238 0.0
92 -1.5238 0.0
93 -1.5238 0.0
94 -1.5238 0.0
95 -1.5238 0.0
96 -1.5238 0.0
97 -1.5238 0.0
98 -1.5238 0.0
99 -1.5238 0.0
100 -1.5238 0.0
101 -1.5238 0.0
102 -1.5238 0.0
103 -1.5238 0.0
104 -1.5238 0.0
105 -1.5238 0.0
106 -1.5238 0.0
107 -1.5238 0.0
108 -1.5238 0.0
109 -1.5238 0.0
110 -1.5238 0.0
111 -1.5238 0.0
112 -1.5238 0.0
113 -1.5238 0.0
114 -1.5238 0.0
115 -1.5238 0.0
116 -1.5238 0.0
117 -1.5238 0.0
118 -1.5238 0.0
119 -1.5238 0.0
120 -1.5238 0.0
0 -1.619 0.0
2 -1.619 0.0
4 -1.619 0.0
6 -1.619 0.0
8 -1.619 0.0
10 -1.619 0.0
12 -1.619 0.0
14 -1.619 0.0
16 -1.619 0.0
18 -1.619 0.0
20 -1.619 0.0
22 -1.619 0.0
24 -1.619 0.0
26 -1.619 0.0
28 -1.619 0.0
30 -1.619 0.0
32 -1.619 0.0
34 -1.619 0.0
36 -1.619 0.0
38 -1.619 0.0
40 -1.619 0.0
42 -1.619 0.0
44 -1.619 0.0
46 -1.619 0.0
48 -1.619 0.0
50 -1.619 0.0
52 -1.619 0.0
54 -1.619 0.0
56 -1.619 0.0
58 -1.619 0.0
60 -1.619 0.0
62 -1.619 0.0
64 -1.619 0.0
66 -1.619 0.0
68 -1.619 0.0
70 -1.619 0.0
72 -1.619 0.0
74 -1.619 0.0
76 -1.619 0.0
78 -1.619 0.0
80 -1.619 0.0
82 -1.619 0.0
84 -1.619 0.0
86 -1.619 0.0
88 -1.619 0.0
90 -1.619 0.0
92 -1.619 0.0
94 -1.619 0.0
96 -1.619 0.0
98 -1.619 0.0
100 -1.619 0.0
102 -1.619 0.0
104 -1.619 0.0
106 -1.619 0.0
108 -1.619 0.0
110 -1.619 0.0
112 -1.619 0.0
114 -1.619 0.0
116 -1.619 0.0
118 -1.619 0.0
120 -1.619 0.0
0 -1.7143 0.0
1 -1.7143 0.0
2 -1.7143 0.0
3 -1.7143 0.0
4 -1.7143 0.0
5 -1.7143 0.0
6 -1.7143 0.0
7 -1.7143 0.0
8 -1.7143 0.0
9 -1.7143 0.0
10 -1.7143 0.0
11 -1.7143 0.0
12 -1.7143 0.0
13 -1.7143 0.0
14 -1.7143 0.0
15 -1.7143 0.0
16 -1.7143 0.0
17 -1.7143 0.0
18 -1.7143 0.0
19 -1.7143 0.0
20 -1.7143 0.0
21 -1.7143 0.0
22 -1.7143 0.0
23 -1.7143 0.0
24 -1.7143 0.0
25 -1.7143 0.0
26 -1.7143 0.0
27 -1.7143 0.0
28 -1.7143 0.0
29 -1.7143 0.0
30 -1.7143 0.0
31 -1.7143 0.0
32 -1.7143 0.0
33 -1.7143 0.0
34 -1.7143 0.0
35 -1.7143 0.0
36 -1.7143 0.0
37 -1.7143 0.0
38 -1.7143 0.0
39 -1.7143 0.0
40 -1.7143 0.0
41 -1.7143 0.0
42 -1.7143 0.0
43 -1.7143 0.0
44 -1.7143 0.0
45 -1.7143 0.0
46 -1.7143 0.0
47 -1.7143 0.0
48 -1.7143 0.0
49 -1.7143 0.0
50 -1.7143 0.0
51 -1.7143 0.0
52 -1.7143 0.0
53 -1.7143 0.0
54 -1.7143 0.0
55 -1.7143 0.0
56 -1.7143 0.0
57 -1.7143 0.0
58 -1.7143 0.0
59 -1.7143 0.0
60 -1.7143 0.0
61 -1.7143 0.0
62 -1.7143 0.0
63 -1.7143 0.0
64 -1.7143 0.0
65 -1.7143 0.0
66 -1.7143 0.0
67 -1.7143 0.0
68 -1.7143 0.0
69 -1.7143 0.0
70 -1.7143 0.0
71 -1.7143 0.0
72 -1.7143 0.0
73 -1.7143 0.0
74 -1.7143 0.0
75 -1.7143 0.0
76 -1.7143 0.0
77 -1.7143 0.0
78 -1.7143 0.0
79 -1.7143 0.0
80 -1.7143 0.0
81 -1.7143 0.0
82 -1.7143 0.0
83 -1.7143 0.0
84 -1.7143 0.0
85 -1.7143 0.0
86 -1.7143 0.0
87 -1.7143 0.0
88 -1.7143 0.0
89 -1.7143 0.0
90 -1.7143 0.0
91 -1.7143 0.0
92 -1.7143 0.0
93 -1.7143 0.0
94 -1.7143 0.0
95 -1.7143 0.0
96 -1.7143 0.0
97 -1.7143 0.0
98 -1.7143 0.0
99 -1.7143 0.0
100 -1.7143 0.0
101 -1.7143 0.0
102 -1.7143 0.0
103 -1.7143 0.0
104 -1.7143 0.0
105 -1.7143 0.0
106 -1.7143 0.0
107 -1.7143 0.0
108 -1.7143 0.0
109 -1.7143 0.0
110 -1.7143 0.0
111 -1.7143 0.0
112 -1.7143 0.0
113 -1.7143 0.0
114 -1.7143 0.0
115 -1.7143 0.0
116 -1.7143 0.0
117 -1.7143 0.0
118 -1.7143 0.0
119 -1.7143 0.0
120 -1.7143 0.0
0 -1.8095 0.0
2 -1.8095 0.0
4 -1.8095 0.0
6 -1.8095 0.0
8 -1.8095 0.0
10 -1.8095 0.0
12 -1.8095 0.0
14 -1.8095 0.0
16 -1.8095 0.0
18 -1.8095 0.0
20 -1.8095 0.0
22 -1.8095 0.0
24 -1.8095 0.0
26 -1.8095 0.0
28 -1.8095 0.0
30 -1.8095 0.0
32 -1.8095 0.0
34 -1.8095 0.0
36 -1.8095 0.0
38 -1.8095 0.0
40 -1.8095 0.0
42 -1.8095 0.0
44 -1.8095 0.0
46 -1.8095 0.0
48 -1.8095 0.0
50 -1.8095 0.0
52 -1.8095 0.0
54 -1.8095 0.0
56 -1.8095 0.0
58 -1.8095 0.0
60 -1.8095 0.0
62 -1.8095 0.0
64 -1.8095 0.0
66 -1.8095 0.0
68 -1.8095 0.0
70 -1.8095 0.0
72 -1.8095 0.0
74 -1.8095 0.0
76 -1.8095 0.0
78 -1.8095 0.0
80 -1.8095 0.0
82 -1.8095 0.0
84 -1.8095 0.0
86 -1.8095 0.0
88 -1.8095 0.0
90 -1.8095 0.0
92 -1.8095 0.0
94 -1.8095 0.0
96 -1.8095 0.0
98 -1.8095 0.0
100 -1.8095 0.0
102 -1.8095 0.0
104 -1.8095 0.0
106 -1.8095 0.0
108 -1.8095 0.0
110 -1.8095 0.0
112 -1.8095 0.0
114 -1.8095 0.0
116 -1.8095 0.0
118 -1.8095 0.0
120 -1.8095 0.0
0 -1.9048 0.0
1 -1.9048 0.0
2 -1.9048 0.0
3 -1.9048 0.0
4 -1.9048 0.0
5 -1.9048 0.0
6 -1.9048 0.0
7 -1.9048 0.0
8 -1.9048 0.0
9 -1.9048 0.0
10 -1.9048 0.0
11 -1.9048 0.0
12 -1.9048 0.0
13 -1.9048 0.0
14 -1.9048 0.0
15 -1.9048 0.0
16 -1.9048 0.0
17 -1.9048 0.0
18 -1.9048 0.0
19 -1.9048 0.0
20 -1.9048 0.0
21 -1.9048 0.0
22 -1.9048 0.0
23 -1.9048 0.0
24 -1.9048 0.0
25 -1.9048 0.0
26 -1.9048 0.0
27 -1.9048 0.0
28 -1.9048 0.0
29 -1.9048 0.0
30 -1.9048 0.0
31 -1.9048 0.0
32 -1.9048 0.0
33 -1.9048 0.0
34 -1.9048 0.0
35 -1.9048 0.0
36 -1.9048 0.0
37 -1.9048 0.0
38 -1.9048 0.0
39 -1.9048 0.0
40 -1.9048 0.0
41 -1.9048 0.0
42 -1.9048 0.0
43 -1.9048 0.0
44 -1.9048 0.0
45 -1.9048 0.0
46 -1.9048 0.0
47 -1.9048 0.0
48 -1.9048 0.0
49 -1.9048 0.0
50 -1.9048 0.0
51 -1.9048 0.0
52 -1.9048 0.0
53 -1.9048 0.0
54 -1.9048 0.0
55 -1.9048 0.0
56 -1.9048 0.0
57 -1.9048 0.0
58 -1.9048 0.0
59 -1.9048 0.0
60 -1.9048 0.0
61 -1.9048 0.0
62 -1.9048 0.0
63 -1.9048 0.0
64 -1.9048 0.0
65 -1.9048 0.0
66 -1.9048 0.0
67 -1.9048 0.0
68 -1.9048 0.0
69 -1.9048 0.0
70 -1.9048 0.0
71 -1.9048 0.0
72 -1.9048 0.0
73 -1.9048 0.0
74 -1.9048 0.0
75 -1.9048 0.0
76 -1.9048 0.0
77 -1.9048 0.0
78 -1.9048 0.0
79 -1.9048 0.0
80 -1.9048 0.0
81 -1.9048 0.0
82 -1.9048 0.0
83 -1.9048 0.0
84 -1.9048 0.0
85 -1.9048 0.0
86 -1.9048 0.0
87 -1.9048 0.0
88 -1.9048 0.0
89 -1.9048 0.0
90 -1.9048 0.0
91 -1.9048 0.0
92 -1.9048 0.0
93 -1.9048 0.0
94 -1.9048 0.0
95 -1.9048 0.0
96 -1.9048 0.0
97 -1.9048 0.0
98 -1.9048 0.0
99 -1.9048 0.0
100 -1.9048 0.0
101 -1.9048 0.0
102 -1.9048 0.0
103 -1.9048 0.0
104 -1.9048 0.0
105 -1.9048 0.0
106 -1.9048 0.0
107 -1.9048 0.0
108 -1.9048 0.0
109 -1.9048 0.0
110 -1.9048 0.0
111 -1.9048 0.0
112 -1.9048 0.0
113 -1.9048 0.0
114 -1.9048 0.0
115 -1.9048 0.0
116 -1.9048 0.0
117 -1.9048 0.0
118 -1.9048 0.0
119 -1.9048 0.0
120 -1.9048 0.0
0 -2 0.0
2 -2 0.0
4 -2 0.0
6 -2 0.0
8 -2 0.0
10 -2 0.0
12 -2 0.0
14 -2 0.0
16 -2 0.0
18 -2 0.0
20 -2 0.0
22 -2 0.0
24 -2 0.0
26 -2 0.0
28 -2 0.0
30 -2 0.0
32 -2 0.0
34 -2 0.0
36 -2 0.0
38 -2 0.0
40 -2 0.0
42 -2 0.0
44 -2 0.0
46 -2 0.0
48 -2 0.0
50 -2 0.0
52 -2 0.0
54 -2 0.0
56 -2 0.0
58 -2 0.0
60 -2 0.0
62 -2 0.0
64 -2 0.0
66 -2 0.0
68 -2 0.0
70 -2 0.0
72 -2 0.0
74 -2 0.0
76 -2 0.0
78 -2 0.0
80 -2 0.0
82 -2 0.0
84 -2 0.0
86 -2 0.0
88 -2 0.0
90 -2 0.0
92 -2 0.0
94 -2 0.0
96 -2 0.0
98 -2 0.0
100 -2 0.0
102 -2 0.0
104 -2 0.0
106 -2 0.0
108 -2 0.0
110 -2 0.0
112 -2 0.0
114 -2 0.0
116 -2 0.0
118 -2 0.0
120 -2 0.0
0 -2.0952 0.0
1 -2.0952 0.0
2 -2.0952 0.0
3 -2.0952 0.0
4 -2.0952 0.0
5 -2.0952 0.0
6 -2.0952 0.0
7 -2.0952 0.0
8 -2.0952 0.0
9 -2.0952 0.0
10 -2.0952 0.0
11 -2.0952 0.0
12 -2.0952 0.0
13 -2.0952 0.0
14 -2.0952 0.0
15 -2.0952 0.0
16 -2.0952 0.0
17 -2.0952 0.0
18 -2.0952 0.0
19 -2.0952 0.0
20 -2.0952 0.0
21 -2.0952 0.0
22 -2.0952 0.0
23 -2.0952 0.0
24 -2.0952 0.0
25 -2.0952 0.0
26 -2.0952 0.0
27 -2.0952 0.0
28 -2.0952 0.0
29 -2.0952 0.0
30 -2.0952 0.0
31 -2.0952 0.0
32 -2.0952 0.0
33 -2.0952 0.0
34 -2.0952 0.0
35 -2.0952 0.0
36 -2.0952 0.0
37 -2.0952 0.0
38 -2.0952 0.0
39 -2.0952 0.0
40 -2.0952 0.0
41 -2.0952 0.0
42 -2.0952 0.0
43 -2.0952 0.0
44 -2.0952 0.0
45 -2.0952 0.0
46 -2.0952 0.0
47 -2.0952 0.0
48 -2.0952 0.0
49 -2.0952 0.0
50 -2.0952 0.0
51 -2.0952 0.0
52 -2.0952 0.0
53 -2.0952 0.0
54 -2.0952 0.0
55 -2.0952 0.0
56 -2.0952 0.0
57 -2.0952 0.0
58 -2.0952 0.0
59 -2.0952 0.0
60 -2.0952 0.0
61 -2.0952 0.0
62 -2.0952 0.0
63 -2.0952 0.0
64 -2.0952 0.0
65 -2.0952 0.0
66 -2.0952 0.0
67 -2.0952 0.0
68 -2.0952 0.0
69 -2.0952 0.0
70 -2.0952 0.0
71 -2.0952 0.0
72 -2.0952 0.0
73 -2.0952 0.0
74 -2.0952 0.0
75 -2.0952 0.0
76 -2.0952 0.0
77 -2.0952 0.0
78 -2.0952 0.0
79 -2.0952 0.0
80 -2.0952 0.0
81 -2.0952 0.0
82 -2.0952 0.0
83 -2.0952 0.0
84 -2.0952 0.0
85 -2.0952 0.0
86 -2.0952 0.0
87 -2.0952 0.0
88 -2.0952 0.0
89 -2.0952 0.0
90 -2.0952 0.0
91 -2.0952 0.0
92 -2.0952 0.0
93 -2.0952 0.0
94 -2.0952 0.0
95 -2.0952 0.0
96 -2.0952 0.0
97 -2.0952 0.0
98 -2.0952 0.0
99 -2.0952 0.0
100 -2.0952 0.0
101 -2.0952 0.0
102 -2.0952 0.0
103 -2.0952 0.0
104 -2.0952 0.0
105 -2.0952 0.0
106 -2.0952 0.0
107 -2.0952 0.0
108 -2.0952 0.0
109 -2.0952 0.0
110 -2.0952 0.0
111 -2.0952 0.0
112 -2.0952 0.0
113 -2.0952 0.0
114 -2.0952 0.0
115 -2.0952 0.0
116 -2.0952 0.0
117 -2.0952 0.0
118 -2.0952 0.0
119 -2.0952 0.0
120 -2.0952 0.0
0 -2.1905 0.0
2 -2.1905 0.0
4 -2.1905 0.0
6 -2.1905 0.0
8 -2.1905 0.0
10 -2.1905 0.0
12 -2.1905 0.0
14 -2.1905 0.0
16 -2.1905 0.0
18 -2.1905 0.0
20 -2.1905 0.0
22 -2.1905 0.0
24 -2.1905 0.0
26 -2.1905 0.0
28 -2.1905 0.0
30 -2.1905 0.0
32 -2.1905 0.0
34 -2.1905 0.0
36 -2.1905 0.0
38 -2.1905 0.0
40 -2.1905 0.0
42 -2.1905 0.0
44 -2.1905 0.0
46 -2.1905 0.0
48 -2.1905 0.0
50 -2.1905 0.0
52 -2.1905 0.0
54 -2.1905 0.0
56 -2.1905 0.0
58 -2.1905 0.0
60 -2.1905 0.0
62 -2.1905 0.0
64 -2.1905 0.0
66 -2.1905 0.0
68 -2.1905 0.0
70 -2.1905 0.0
72 -2.1905 0.0
74 -2.1905 0.0
76 -2.1905 0.0
78 -2.1905 0.0
80 -2.1905 0.0
82 -2.1905 0.0
84 -2.1905 0.0
86 -2.1905 0.0
88 -2.1905 0.0
90 -2.1905 0.0
92 -2.1905 0.0
94 -2.1905 0.0
96 -2.1905 0.0
98 -2.1905 0.0
100 -2.1905 0.0
102 -2.1905 0.0
104 -2.1905 0.0
106 -2.1905 0.0
108 -2.1905 0.0
110 -2.1905 0.0
112 -2.1905 0.0
114 -2.1905 0.0
116 -2.1905 0.0
118 -2.1905 0.0
120 -2.1905 0.0
0 -2.2857 0.0
1 -2.2857 0.0
2 -2.2857 0.0
3 -2.2857 0.0
4 -2.2857 0.0
5 -2.2857 0.0
6 -2.2857 0.0
7 -2.2857 0.0
8 -2.2857 0.0
9 -2.2857 0.0
10 -2.2857 0.0
11 -2.2857 0.0
12 -2.2857 0.0
13 -2.2857 0.0
14 -2.2857 0.0
15 -2.2857 0.0
16 -2.2857 0.0
17 -2.2857 0.0
18 -2.2857 0.0
19 -2.2857 0.0
20 -2.2857 0.0
21 -2.2857 0.0
22 -2.2857 0.0
23 -2.2857 0.0
24 -2.2857 0.0
25 -2.2857 0.0
26 -2.2857 0.0
27 -2.2857 0.0
28 -2.2857 0.0
29 -2.2857 0.0
30 -2.2857 0.0
31 -2.2857 0.0
32 -2.2857 0.0
33 -2.2857 0.0
34 -2.2857 0.0
35 -2.2857 0.0
36 -2.2857 0.0
37 -2.2857 0.0
38 -2.2857 0.0
39 -2.2857 0.0
40 -2.2857 0.0
41 -2.2857 0.0
42 -2.2857 0.0
43 -2.2857 0.0
44 -2.2857 0.0
45 -2.2857 0.0
46 -2.2857 0.0
47 -2.2857 0.0
48 -2.2857 0.0
49 -2.2857 0.0
50 -2.2857 0.0
51 -2.2857 0.0
52 -2.2857 0.0
53 -2.2857 0.0
54 -2.2857 0.0
55 -2.2857 0.0
56 -2.2857 0.0
57 -2.2857 0.0
58 -2.2857 0.0
59 -2.2857 0.0
60 -2.2857 0.0
61 -2.2857 0.0
62 -2.2857 0.0
63 -2.2857 0.0
64 -2.2857 0.0
65 -2.2857 0.0
66 -2.2857 0.0
67 -2.2857 0.0
68 -2.2857 0.0
69 -2.2857 0.0
70 -2.2857 0.0
71 -2.2857 0.0
72 -2.2857 0.0
73 -2.2857 0.0
74 -2.2857 0.0
75 -2.2857 0.0
76 -2.2857 0.0
77 -2.2857 0.0
78 -2.2857 0.0
79 -2.2857 0.0
80 -2.2857 0.0
81 -2.2857 0.0
82 -2.2857 0.0
83 -2.2857 0.0
84 -2.2857 0.0
85 -2.2857 0.0
86 -2.2857 0.0
87 -2.2857 0.0
88 -2.2857 0.0
89 -2.2857 0.0
90 -2.2857 0.0
91 -2.2857 0.0
92 -2.2857 0.0
93 -2.2857 0.0
94 -2.2857 0.0
95 -2.2857 0.0
96 -2.2857 0.0
97 -2.2857 0.0
98 -2.2857 0.0
99 -2.2857 0.0
100 -2.2857 0.0
101 -2.2857 0.0
102 -2.2857 0.0
103 -2.2857 0.0
104 -2.2857 0.0
105 -2.2857 0.0
106 -2.2857 0.0
107 -2.2857 0.0
108 -2.2857 0.0
109 -2.2857 0.0
110 -2.2857 0.0
111 -2.2857 0.0
112 -2.2857 0.0
113 -2.2857 0.0
114 -2.2857 0.0
115 -2.2857 0.0
116 -2.2857 0.0
117 -2.2857 0.0
118 -2.2857 0.0
119 -2.2857 0.0
120 -2.2857 0.0
0 -2.381 0.0
2 -2.381 0.0
4 -2.381 0.0
6 -2.381 0.0
8 -2.381 0.0
10 -2.381 0.0
12 -2.381 0.0
14 -2.381 0.0
16 -2.381 0.0
18 -2.381 0.0
20 -2.381 0.0
22 -2.381 0.0
24 -2.381 0.0
26 -2.381 0.0
28 -2.381 0.0
30 -2.381 0.0
32 -2.381 0.0
34 -2.381 0.0
36 -2.381 0.0
38 -2.381 0.0
40 -2.381 0.0
42 -2.381 0.0
44 -2.381 0.0
46 -2.381 0.0
48 -2.381 0.0
50 -2.381 0.0
52 -2.381 0.0
54 -2.381 0.0
56 -2.381 0.0
58 -2.381 0.0
60 -2.381 0.0
62 -2.381 0.0
64 -2.381 0.0
66 -2.381 0.0
68 -2.381 0.0
70 -2.381 0.0
72 -2.381 0.0
74 -2.381 0.0
76 -2.381 0.0
78 -2.381 0.0
80 -2.381 0.0
82 -2.381 0.0
84 -2.381 0.0
86 -2.381 0.0
88 -2.381 0.0
90 -2.381 0.0
92 -2.381 0.0
94 -2.381 0.0
96 -2.381 0.0
98 -2.381 0.0
100 -2.381 0.0
102 -2.381 0.0
104 -2.381 0.0
106 -2.381 0.0
108 -2.381 0.0
110 -2.381 0.0
112 -2.381 0.0
114 -2.381 0.0
116 -2.381 0.0
118 -2.381 0.0
120 -2.381 0.0
0 -2.4762 0.0
1 -2.4762 0.0
2 -2.4762 0.0
3 -2.4762 0.0
4 -2.4762 0.0
5 -2.4762 0.0
6 -2.4762 0.0
7 -2.4762 0.0
8 -2.4762 0.0
9 -2.4762 0.0
10 -2.4762 0.0
11 -2.4762 0.0
12 -2.4762 0.0
13 -2.4762 0.0
14 -2.4762 0.0
15 -2.4762 0.0
16 -2.4762 0.0
17 -2.4762 0.0
18 -2.4762 0.0
19 -2.4762 0.0
20 -2.4762 0.0
21 -2.4762 0.0
22 -2.4762 0.0
23 -2.4762 0.0
24 -2.4762 0.0
25 -2.4762 0.0
26 -2.4762 0.0
27 -2.4762 0.0
28 -2.4762 0.0
29 -2.4762 0.0
30 -2.4762 0.0
31 -2.4762 0.0
32 -2.4762 0.0
33 -2.4762 0.0
34 -2.4762 0.0
35 -2.4762 0.0
36 -2.4762 0.0
37 -2.4762 0.0
38 -2.4762 0.0
39 -2.4762 0.0
40 -2.4762 0.0
41 -2.4762 0.0
42 -2.4762 0.0
43 -2.4762 0.0
44 -2.4762 0.0
45 -2.4762 0.0
46 -2.4762 0.0
47 -2.4762 0.0
48 -2.4762 0.0
49 -2.4762 0.0
50 -2.4762 0.0
51 -2.4762 0.0
52 -2.4762 0.0
53 -2.4762 0.0
54 -2.4762 0.0
55 -2.4762 0.0
56 -2.4762 0.0
57 -2.4762 0.0
58 -2.4762 0.0
59 -2.4762 0.0
60 -2.4762 0.0
61 -2.4762 0.0
62 -2.4762 0.0
63 -2.4762 0.0
64 -2.4762 0.0
65 -2.4762 0.0
66 -2.4762 0.0
67 -2.4762 0.0
68 -2.4762 0.0
69 -2.4762 0.0
70 -2.4762 0.0
71 -2.4762 0.0
72 -2.4762 0.0
73 -2.4762 0.0
74 -2.4762 0.0
75 -2.4762 0.0
76 -2.4762 0.0
77 -2.4762 0.0
78 -2.4762 0.0
79 -2.4762 0.0
80 -2.4762 0.0
81 -2.4762 0.0
82 -2.4762 0.0
83 -2.4762 0.0
84 -2.4762 0.0
85 -2.4762 0.0
86 -2.4762 0.0
87 -2.4762 0.0
88 -2.4762 0.0
89 -2.4762 0.0
90 -2.4762 0.0
91 -2.4762 0.0
92 -2.4762 0.0
93 -2.4762 0.0
94 -2.4762 0.0
95 -2.4762 0.0
96 -2.4762 0.0
97 -2.4762 0.0
98 -2.4762 0.0
99 -2.4762 0.0
100 -2.4762 0.0
101 -2.4762 0.0
102 -2.4762 0.0
103 -2.4762 0.0
104 -2.4762 0.0
105 -2.4762 0.0
106 -2.4762 0.0
107 -2.4762 0.0
108 -2.4762 0.0
109 -2.4762 0.0
110 -2.4762 0.0
111 -2.4762 0.0
112 -2.4762 0.0
113 -2.4762 0.0
114 -2.4762 0.0
115 -2.4762 0.0
116 -2.4762 0.0
117 -2.4762 0.0
118 -2.4762 0.0
119 -2.4762 0.0
120 -2.4762 0.0
0 -2.5714 0.0
2 -2.5714 0.0
4 -2.5714 0.0
6 -2.5714 0.0
8 -2.5714 0.0
10 -2.5714 0.0
12 -2.5714 0.0
14 -2.5714 0.0
16 -2.5714 0.0
18 -2.5714 0.0
20 -2.5714 0.0
22 -2.5714 0.0
24 -2.5714 0.0
26 -2.5714 0.0
28 -2.5714 0.0
30 -2.5714 0.0
32 -2.5714 0.0
34 -2.5714 0.0
36 -2.5714 0.0
38 -2.5714 0.0
40 -2.5714 0.0
42 -2.5714 0.0
44 -2.5714 0.0
46 -2.5714 0.0
48 -2.5714 0.0
50 -2.5714 0.0
52 -2.5714 0.0
54 -2.5714 0.0
56 -2.5714 0.0
58 -2.5714 0.0
60 -2.5714 0.0
62 -2.5714 0.0
64 -2.5714 0.0
66 -2.5714 0.0
68 -2.5714 0.0
70 -2.5714 0.0
72 -2.5714 0.0
74 -2.5714 0.0
76 -2.5714 0.0
78 -2.5714 0.0
80 -2.5714 0.0
82 -2.5714 0.0
84 -2.5714 0.0
86 -2.5714 0.0
88 -2.5714 0.0
90 -2.5714 0.0
92 -2.5714 0.0
94 -2.5714 0.0
96 -2.5714 0.0
98 -2.5714 0.0
100 -2.5714 0.0
102 -2.5714 0.0
104 -2.5714 0.0
106 -2.5714 0.0
108 -2.5714 0.0
110 -2.5714 0.0
112 -2.5714 0.0
114 -2.5714 0.0
116 -2.5714 0.0
118 -2.5714 0.0
120 -2.5714 0.0
0 -2.6667 0.0
1 -2.6667 0.0
2 -2.6667 0.0
3 -2.6667 0.0
4 -2.6667 0.0
5 -2.6667 0.0
6 -2.6667 0.0
7 -2.6667 0.0
8 -2.6667 0.0
9 -2.6667 0.0
10 -2.6667 0.0
11 -2.6667 0.0
12 -2.6667 0.0
13 -2.6667 0.0
14 -2.6667 0.0
15 -2.6667 0.0
16 -2.6667 0.0
17 -2.6667 0.0
18 -2.6667 0.0
19 -2.6667 0.0
20 -2.6667 0.0
21 -2.6667 0.0
22 -2.6667 0.0
23 -2.6667 0.0
24 -2.6667 0.0
25 -2.6667 0.0
26 -2.6667 0.0
27 -2.6667 0.0
28 -2.6667 0.0
29 -2.6667 0.0
30 -2.6667 0.0
31 -2.6667 0.0
32 -2.6667 0.0
33 -2.6667 0.0
34 -2.6667 0.0
35 -2.6667 0.0
36 -2.6667 0.0
37 -2.6667 0.0
38 -2.6667 0.0
39 -2.6667 0.0
40 -2.6667 0.0
41 -2.6667 0.0
42 -2.6667 0.0
43 -2.6667 0.0
44 -2.6667 0.0
45 -2.6667 0.0
46 -2.6667 0.0
47 -2.6667 0.0
48 -2.6667 0.0
49 -2.6667 0.0
50 -2.6667 0.0
51 -2.6667 0.0
52 -2.6667 0.0
53 -2.6667 0.0
54 -2.6667 0.0
55 -2.6667 0.0
56 -2.6667 0.0
57 -2.6667 0.0
58 -2.6667 0.0
59 -2.6667 0.0
60 -2.6667 0.0
61 -2.6667 0.0
62 -2.6667 0.0
63 -2.6667 0.0
64 -2.6667 0.0
65 -2.6667 0.0
66 -2.6667 0.0
67 -2.6667 0.0
68 -2.6667 0.0
69 -2.6667 0.0
70 -2.6667 0.0
71 -2.6667 0.0
72 -2.6667 0.0
73 -2.6667 0.0
74 -2.6667 0.0
75 -2.6667 0.0
76 -2.6667 0.0
77 -2.6667 0.0
78 -2.6667 0.0
79 -2.6667 0.0
80 -2.6667 0.0
81 -2.6667 0.0
82 -2.6667 0.0
83 -2.6667 0.0
84 -2.6667 0.0
85 -2.6667 0.0
86 -2.6667 0.0
87 -2.6667 0.0
88 -2.6667 0.0
89 -2.6667 0.0
90 -2.6667 0.0
91 -2.6667 0.0
92 -2.6667 0.0
93 -2.6667 0.0
94 -2.6667 0.0
95 -2.6667 0.0
96 -2.6667 0.0
97 -2.6667 0.0
98 -2.6667 0.0
99 -2.6667 0.0
100 -2.6667 0.0
101 -2.6667 0.0
102 -2.6667 0.0
103 -2.6667 0.0
104 -2.6667 0.0
105 -2.6667 0.0
106 -2.6667 0.0
107 -2.6667 0.0
108 -2.6667 0.0
109 -2.6667 0.0
110 -2.6667 0.0
111 -2.6667 0.0
112 -2.6667 0.0
113 -2.6667 0.0
114 -2.6667 0.0
115 -2.6667 0.0
116 -2.6667 0.0
117 -2.6667 0.0
118 -2.6667 0.0
119 -2.6667 0.0
120 -2.6667 0.0
0 -2.7619 0.0
2 -2.7619 0.0
4 -2.7619 0.0
6 -2.7619 0.0
8 -2.7619 0.0
10 -2.7619 0.0
12 -2.7619 0.0
14 -2.7619 0.0
16 -2.7619 0.0
18 -2.7619 0.0
20 -2.7619 0.0
22 -2.7619 0.0
24 -2.7619 0.0
26 -2.7619 0.0
28 -2.7619 0.0
30 -2.7619 0.0
32 -2.7619 0.0
34 -2.7619 0.0
36 -2.7619 0.0
38 -2.7619 0.0
40 -2.7619 0.0
42 -2.7619 0.0
44 -2.7619 0.0
46 -2.7619 0.0
48 -2.7619 0.0
50 -2.7619 0.0
52 -2.7619 0.0
54 -2.7619 0.0
56 -2.7619 0.0
58 -2.7619 0.0
60 -2.7619 0.0
62 -2.7619 0.0
64 -2.7619 0.0
66 -2.7619 0.0
68 -2.7619 0.0
70 -2.7619 0.0
72 -2.7619 0.0
74 -2.7619 0.0
76 -2.7619 0.0
78 -2.7619 0.0
80 -2.7619 0.0
82 -2.7619 0.0
84 -2.7619 0.0
86 -2.7619 0.0
88 -2.7619 0.0
90 -2.7619 0.0
92 -2.7619 0.0
94 -2.7619 0.0
96 -2.7619 0.0
98 -2.7619 0.0
100 -2.7619 0.0
102 -2.7619 0.0
104 -2.7619 0.0
106 -2.7619 0.0
108 -2.7619 0.0
110 -2.7619 0.0
112 -2.7619 0.0
114 -2.7619 0.0
116 -2.7619 0.0
118 -2.7619 0.0
120 -2.7619 0.0
0 -2.8571 0.0
1 -2.8571 0.0
2 -2.8571 0.0
3 -2.8571 0.0
4 -2.8571 0.0
5 -2.8571 0.0
6 -2.8571 0.0
7 -2.8571 0.0
8 -2.8571 0.0
9 -2.8571 0.0
10 -2.8571 0.0
11 -2.8571 0.0
12 -2.8571 0.0
13 -2.8571 0.0
14 -2.8571 0.0
15 -2.8571 0.0
16 -2.8571 0.0
17 -2.8571 0.0
18 -2.8571 0.0
19 -2.8571 0.0
20 -2.8571 0.0
21 -2.8571 0.0
22 -2.8571 0.0
23 -2.8571 0.0
24 -2.8571 0.0
25 -2.8571 0.0
26 -2.8571 0.0
27 -2.8571 0.0
28 -2.8571 0.0
29 -2.8571 0.0
30 -2.8571 0.0
31 -2.8571 0.0
32 -2.8571 0.0
33 -2.8571 0.0
34 -2.8571 0.0
35 -2.8571 0.0
36 -2.8571 0.0
37 -2.8571 0.0
38 -2.8571 0.0
39 -2.8571 0.0
40 -2.8571 0.0
41 -2.8571 0.0
42 -2.8571 0.0
43 -2.8571 0.0
44 -2.8571 0.0
45 -2.8571 0.0
46 -2.8571 0.0
47 -2.8571 0.0
48 -2.8571 0.0
49 -2.8571 0.0
50 -2.8571 0.0
51 -2.8571 0.0
52 -2.8571 0.0
53 -2.8571 0.0
54 -2.8571 0.0
55 -2.8571 0.0
56 -2.8571 0.0
57 -2.8571 0.0
58 -2.8571 0.0
59 -2.8571 0.0
60 -2.8571 0.0
61 -2.8571 0.0
62 -2.8571 0.0
63 -2.8571 0.0
64 -2.8571 0.0
65 -2.8571 0.0
66 -2.8571 0.0
67 -2.8571 0.0
68 -2.8571 0.0
69 -2.8571 0.0
70 -2.8571 0.0
71 -2.8571 0.0
72 -2.8571 0.0
73 -2.8571 0.0
74 -2.8571 0.0
75 -2.8571 0.0
76 -2.8571 0.0
77 -2.8571 0.0
78 -2.8571 0.0
79 -2.8571 0.0
80 -2.8571 0.0
81 -2.8571 0.0
82 -2.8571 0.0
83 -2.8571 0.0
84 -2.8571 0.0
85 -2.8571 0.0
86 -2.8571 0.0
87 -2.8571 0.0
88 -2.8571 0.0
89 -2.8571 0.0
90 -2.8571 0.0
91 -2.8571 0.0
92 -2.8571 0.0
93 -2.8571 0.0
94 -2.8571 0.0
95 -2.8571 0.0
96 -2.8571 0.0
97 -2.8571 0.0
98 -2.8571 0.0
99 -2.8571 0.0
100 -2.8571 0.0
101 -2.8571 0.0
102 -2.8571 0.0
103 -2.8571 0.0
104 -2.8571 0.0
105 -2.8571 0.0
106 -2.8571 0.0
107 -2.8571 0.0
108 -2.8571 0.0
109 -2.8571 0.0
110 -2.8571 0.0
111 -2.8571 0.0
112 -2.8571 0.0
113 -2.8571 0.0
114 -2.8571 0.0
115 -2.8571 0.0
116 -2.8571 0.0
117 -2.8571 0.0
118 -2.8571 0.0
119 -2.8571 0.0
120 -2.8571 0.0
0 -2.9524 0.0
2 -2.9524 0.0
4 -2.9524 0.0
6 -2.9524 0.0
8 -2.9524 0.0
10 -2.9524 0.0
12 -2.9524 0.0
14 -2.9524 0.0
16 -2.9524 0.0
18 -2.9524 0.0
20 -2.9524 0.0
22 -2.9524 0.0
24 -2.9524 0.0
26 -2.9524 0.0
28 -2.9524 0.0
30 -2.9524 0.0
32 -2.9524 0.0
34 -2.9524 0.0
36 -2.9524 0.0
38 -2.9524 0.0
40 -2.9524 0.0
42 -2.9524 0.0
44 -2.9524 0.0
46 -2.9524 0.0
48 -2.9524 0.0
50 -2.9524 0.0
52 -2.9524 0.0
54 -2.9524 0.0
56 -2.9524 0.0
58 -2.9524 0.0
60 -2.9524 0.0
62 -2.9524 0.0
64 -2.9524 0.0
66 -2.9524 0.0
68 -2.9524 0.0
70 -2.9524 0.0
72 -2.9524 0.0
74 -2.9524 0.0
76 -2.9524 0.0
78 -2.9524 0.0
80 -2.9524 0.0
82 -2.9524 0.0
84 -2.9524 0.0
86 -2.9524 0.0
88 -2.9524 0.0
90 -2.9524 0.0
92 -2.9524 0.0
94 -2.9524 0.0
96 -2.9524 0.0
98 -2.9524 0.0
100 -2.9524 0.0
102 -2.9524 0.0
104 -2.9524 0.0
106 -2.9524 0.0
108 -2.9524 0.0
110 -2.9524 0.0
112 -2.9524 0.0
114 -2.9524 0.0
116 -2.9524 0.0
118 -2.9524 0.0
120 -2.9524 0.0
0 -3.0476 0.0
1 -3.0476 0.0
2 -3.0476 0.0
3 -3.0476 0.0
4 -3.0476 0.0
5 -3.0476 0.0
6 -3.0476 0.0
7 -3.0476 0.0
8 -3.0476 0.0
9 -3.0476 0.0
10 -3.0476 0.0
11 -3.0476 0.0
12 -3.0476 0.0
13 -3.0476 0.0
14 -3.0476 0.0
15 -3.0476 0.0
16 -3.0476 0.0
17 -3.0476 0.0
18 -3.0476 0.0
19 -3.0476 0.0
20 -3.0476 0.0
21 -3.0476 0.0
22 -3.0476 0.0
23 -3.0476 0.0
24 -3.0476 0.0
25 -3.0476 0.0
26 -3.0476 0.0
27 -3.0476 0.0
28 -3.0476 0.0
29 -3.0476 0.0
30 -3.0476 0.0
31 -3.0476 0.0
32 -3.0476 0.0
33 -3.0476 0.0
34 -3.0476 0.0
35 -3.0476 0.0
36 -3.0476 0.0
37 -3.0476 0.0
38 -3.0476 0.0
39 -3.0476 0.0
40 -3.0476 0.0
41 -3.0476 0.0
42 -3.0476 0.0
43 -3.0476 0.0
44 -3.0476 0.0
45 -3.0476 0.0
46 -3.0476 0.0
47 -3.0476 0.0
48 -3.0476 0.0
49 -3.0476 0.0
50 -3.0476 0.0
51 -3.0476 0.0
52 -3.0476 0.0
53 -3.0476 0.0
54 -3.0476 0.0
55 -3.0476 0.0
56 -3.0476 0.0
57 -3.0476 0.0
58 -3.0476 0.0
59 -3.0476 0.0
60 -3.0476 0.0
61 -3.0476 0.0
62 -3.0476 0.0
63 -3.0476 0.0
64 -3.0476 0.0
65 -3.0476 0.0
66 -3.0476 0.0
67 -3.0476 0.0
68 -3.0476 0.0
69 -3.0476 0.0
70 -3.0476 0.0
71 -3.0476 0.0
72 -3.0476 0.0
73 -3.0476 0.0
74 -3.0476 0.0
75 -3.0476 0.0
76 -3.0476 0.0
77 -3.0476 0.0
78 -3.0476 0.0
79 -3.0476 0.0
80 -3.0476 0.0
81 -3.0476 0.0
82 -3.0476 0.0
83 -3.0476 0.0
84 -3.0476 0.0
85 -3.0476 0.0
86 -3.0476 0.0
87 -3.0476 0.0
88 -3.0476 0.0
89 -3.0476 0.0
90 -3.0476 0.0
91 -3.0476 0.0
92 -3.0476 0.0
93 -3.0476 0.0
94 -3.0476 0.0
95 -3.0476 0.0
96 -3.0476 0.0
97 -3.0476 0.0
98 -3.0476 0.0
99 -3.0476 0.0
100 -3.0476 0.0
101 -3.0476 0.0
102 -3.0476 0.0
103 -3.0476 0.0
104 -3.0476 0.0
105 -3.0476 0.0
106 -3.0476 0.0
107 -3.0476 0.0
108 -3.0476 0.0
109 -3.0476 0.0
110 -3.0476 0.0
111 -3.0476 0.0
112 -3.0476 0.0
113 -3.0476 0.0
114 -3.0476 0.0
115 -3.0476 0.0
116 -3.0476 0.0
117 -3.0476 0.0
118 -3.0476 0.0
119 -3.0476 0.0
120 -3.0476 0.0
0 -3.1429 0.0
2 -3.1429 0.0
4 -3.1429 0.0
6 -3.1429 0.0
8 -3.1429 0.0
10 -3.1429 0.0
12 -3.1429 0.0
14 -3.1429 0.0
16 -3.1429 0.0
18 -3.1429 0.0
20 -3.1429 0.0
22 -3.1429 0.0
24 -3.1429 0.0
26 -3.1429 0.0
28 -3.1429 0.0
30 -3.1429 0.0
32 -3.1429 0.0
34 -3.1429 0.0
36 -3.1429 0.0
38 -3.1429 0.0
40 -3.1429 0.0
42 -3.1429 0.0
44 -3.1429 0.0
46 -3.1429 0.0
48 -3.1429 0.0
50 -3.1429 0.0
52 -3.1429 0.0
54 -3.1429 0.0
56 -3.1429 0.0
58 -3.1429 0.0
60 -3.1429 0.0
62 -3.1429 0.0
64 -3.1429 0.0
66 -3.1429 0.0
68 -3.1429 0.0
70 -3.1429 0.0
72 -3.1429 0.0
74 -3.1429 0.0
76 -3.1429 0.0
78 -3.1429 0.0
80 -3.1429 0.0
82 -3.1429 0.0
84 -3.1429 0.0
86 -3.1429 0.0
88 -3.1429 0.0
90 -3.1429 0.0
92 -3.1429 0.0
94 -3.1429 0.0
96 -3.1429 0.0
98 -3.1429 0.0
100 -3.1429 0.0
102 -3.1429 0.0
104 -3.1429 0.0
106 -3.1429 0.0
108 -3.1429 0.0
110 -3.1429 0.0
112 -3.1429 0.0
114 -3.1429 0.0
116 -3.1429 0.0
118 -3.1429 0.0
120 -3.1429 0.0
0 -3.2381 0.0
1 -3.2381 0.0
2 -3.2381 0.0
3 -3.2381 0.0
4 -3.2381 0.0
5 -3.2381 0.0
6 -3.2381 0.0
7 -3.2381 0.0
8 -3.2381 0.0
9 -3.2381 0.0
10 -3.2381 0.0
11 -3.2381 0.0
12 -3.2381 0.0
13 -3.2381 0.0
14 -3.2381 0.0
15 -3.2381 0.0
16 -3.2381 0.0
17 -3.2381 0.0
18 -3.2381 0.0
19 -3.2381 0.0
20 -3.2381 0.0
21 -3.2381 0.0
22 -3.2381 0.0
23 -3.2381 0.0
24 -3.2381 0.0
25 -3.2381 0.0
26 -3.2381 0.0
27 -3.2381 0.0
28 -3.2381 0.0
29 -3.2381 0.0
30 -3.2381 0.0
31 -3.2381 0.0
32 -3.2381 0.0
33 -3.2381 0.0
34 -3.2381 0.0
35 -3.2381 0.0
36 -3.2381 0.0
37 -3.2381 0.0
38 -3.2381 0.0
39 -3.2381 0.0
40 -3.2381 0.0
41 -3.2381 0.0
42 -3.2381 0.0
43 -3.2381 0.0
44 -3.2381 0.0
45 -3.2381 0.0
46 -3.2381 0.0
47 -3.2381 0.0
48 -3.2381 0.0
49 -3.2381 0.0
50 -3.2381 0.0
51 -3.2381 0.0
52 -3.2381 0.0
53 -3.2381 0.0
54 -3.2381 0.0
55 -3.2381 0.0
56 -3.2381 0.0
57 -3.2381 0.0
58 -3.2381 0.0
59 -3.2381 0.0
60 -3.2381 0.0
61 -3.2381 0.0
62 -3.2381 0.0
63 -3.2381 0.0
64 -3.2381 0.0
65 -3.2381 0.0
66 -3.2381 0.0
67 -3.2381 0.0
68 -3.2381 0.0
69 -3.2381 0.0
70 -3.2381 0.0
71 -3.2381 0.0
72 -3.2381 0.0
73 -3.2381 0.0
74 -3.2381 0.0
75 -3.2381 0.0
76 -3.2381 0.0
77 -3.2381 0.0
78 -3.2381 0.0
79 -3.2381 0.0
80 -3.2381 0.0
81 -3.2381 0.0
82 -3.2381 0.0
83 -3.2381 0.0
84 -3.2381 0.0
85 -3.2381 0.0
86 -3.2381 0.0
87 -3.2381 0.0
88 -3.2381 0.0
89 -3.2381 0.0
90 -3.2381 0.0
91 -3.2381 0.0
92 -3.2381 0.0
93 -3.2381 0.0
94 -3.2381 0.0
95 -3.2381 0.0
96 -3.2381 0.0
97 -3.2381 0.0
98 -3.2381 0.0
99 -3.2381 0.0
100 -3.2381 0.0
101 -3.2381 0.0
102 -3.2381 0.0
103 -3.2381 0.0
104 -3.2381 0.0
105 -3.2381 0.0
106 -3.2381 0.0
107 -3.2381 0.0
108 -3.2381 0.0
109 -3.2381 0.0
110 -3.2381 0.0
111 -3.2381 0.0
112 -3.2381 0.0
113 -3.2381 0.0
114 -3.2381 0.0
115 -3.2381 0.0
116 -3.2381 0.0
117 -3.2381 0.0
118 -3.2381 0.0
119 -3.2381 0.0
120 -3.2381 0.0
0 -3.3333 0.0
2 -3.3333 0.0
4 -3.3333 0.0
6 -3.3333 0.0
8 -3.3333 0.0
10 -3.3333 0.0
12 -3.3333 0.0
14 -3.3333 0.0
16 -3.3333 0.0
18 -3.3333 0.0
20 -3.3333 0.0
22 -3.3333 0.0
24 -3.3333 0.0
26 -3.3333 0.0
28 -3.3333 0.0
30 -3.3333 0.0
32 -3.3333 0.0
34 -3.3333 0.0
36 -3.3333 0.0
38 -3.3333 0.0
40 -3.3333 0.0
42 -3.3333 0.0
44 -3.3333 0.0
46 -3.3333 0.0
48 -3.3333 0.0
50 -3.3333 0.0
52 -3.3333 0.0
54 -3.3333 0.0
56 -3.3333 0.0
58 -3.3333 0.0
60 -3.3333 0.0
62 -3.3333 0.0
64 -3.3333 0.0
66 -3.3333 0.0
68 -3.3333 0.0
70 -3.3333 0.0
72 -3.3333 0.0
74 -3.3333 0.0
76 -3.3333 0.0
78 -3.3333 0.0
80 -3.3333 0.0
82 -3.3333 0.0
84 -3.3333 0.0
86 -3.3333 0.0
88 -3.3333 0.0
90 -3.3333 0.0
92 -3.3333 0.0
94 -3.3333 0.0
96 -3.3333 0.0
98 -3.3333 0.0
100 -3.3333 0.0
102 -3.3333 0.0
104 -3.3333 0.0
106 -3.3333 0.0
108 -3.3333 0.0
110 -3.3333 0.0
112 -3.3333 0.0
114 -3.3333 0.0
116 -3.3333 0.0
118 -3.3333 0.0
120 -3.3333 0.0
0 -3.4286 0.0
1 -3.4286 0.0
2 -3.4286 0.0
3 -3.4286 0.0
4 -3.4286 0.0
5 -3.4286 0.0
6 -3.4286 0.0
7 -3.4286 0.0
8 -3.4286 0.0
9 -3.4286 0.0
10 -3.4286 0.0
11 -3.4286 0.0
12 -3.4286 0.0
13 -3.4286 0.0
14 -3.4286 0.0
15 -3.4286 0.0
16 -3.4286 0.0
17 -3.4286 0.0
18 -3.4286 0.0
19 -3.4286 0.0
20 -3.4286 0.0
21 -3.4286 0.0
22 -3.4286 0.0
23 -3.4286 0.0
24 -3.4286 0.0
25 -3.4286 0.0
26 -3.4286 0.0
27 -3.4286 0.0
28 -3.4286 0.0
29 -3.4286 0.0
30 -3.4286 0.0
31 -3.4286 0.0
32 -3.4286 0.0
33 -3.4286 0.0
34 -3.4286 0.0
35 -3.4286 0.0
36 -3.4286 0.0
37 -3.4286 0.0
38 -3.4286 0.0
39 -3.4286 0.0
40 -3.4286 0.0
41 -3.4286 0.0
42 -3.4286 0.0
43 -3.4286 0.0
44 -3.4286 0.0
45 -3.4286 0.0
46 -3.4286 0.0
47 -3.4286 0.0
48 -3.4286 0.0
49 -3.4286 0.0
50 -3.4286 0.0
51 -3.4286 0.0
52 -3.4286 0.0
53 -3.4286 0.0
54 -3.4286 0.0
55 -3.4286 0.0
56 -3.4286 0.0
57 -3.4286 0.0
58 -3.4286 0.0
59 -3.4286 0.0
60 -3.4286 0.0
61 -3.4286 0.0
62 -3.4286 0.0
63 -3.4286 0.0
64 -3.4286 0.0
65 -3.4286 0.0
66 -3.4286 0.0
67 -3.4286 0.0
68 -3.4286 0.0
69 -3.4286 0.0
70 -3.4286 0.0
71 -3.4286 0.0
72 -3.4286 0.0
73 -3.4286 0.0
74 -3.4286 0.0
75 -3.4286 0.0
76 -3.4286 0.0
77 -3.4286 0.0
78 -3.4286 0.0
79 -3.4286 0.0
80 -3.4286 0.0
81 -3.4286 0.0
82 -3.4286 0.0
83 -3.4286 0.0
84 -3.4286 0.0
85 -3.4286 0.0
86 -3.4286 0.0
87 -3.4286 0.0
88 -3.4286 0.0
89 -3.4286 0.0
90 -3.4286 0.0
91 -3.4286 0.0
92 -3.4286 0.0
93 -3.4286 0.0
94 -3.4286 0.0
95 -3.4286 0.0
96 -3.4286 0.0
97 -3.4286 0.0
98 -3.4286 0.0
99 -3.4286 0.0
100 -3.4286 0.0
101 -3.4286 0.0
102 -3.4286 0.0
103 -3.4286 0.0
104 -3.4286 0.0
105 -3.4286 0.0
106 -3.4286 0.0
107 -3.4286 0.0
108 -3.4286 0.0
109 -3.4286 0.0
110 -3.4286 0.0
111 -3.4286 0.0
112 -3.4286 0.0
113 -3.4286 0.0
114 -3.4286 0.0
115 -3.4286 0.0
116 -3.4286 0.0
117 -3.4286 0.0
118 -3.4286 0.0
119 -3.4286 0.0
120 -3.4286 0.0
0 -3.5238 0.0
2 -3.5238 0.0
4 -3.5238 0.0
6 -3.5238 0.0
8 -3.5238 0.0
10 -3.5238 0.0
12 -3.5238 0.0
14 -3.5238 0.0
16 -3.5238 0.0
18 -3.5238 0.0
20 -3.5238 0.0
22 -3.5238 0.0
24 -3.5238 0.0
26 -3.5238 0.0
28 -3.5238 0.0
30 -3.5238 0.0
32 -3.5238 0.0
34 -3.5238 0.0
36 -3.5238 0.0
38 -3.5238 0.0
40 -3.5238 0.0
42 -3.5238 0.0
44 -3.5238 0.0
46 -3.5238 0.0
48 -3.5238 0.0
50 -3.5238 0.0
52 -3.5238 0.0
54 -3.5238 0.0
56 -3.5238 0.0
58 -3.5238 0.0
60 -3.5238 0.0
62 -3.5238 0.0
64 -3.5238 0.0
66 -3.5238 0.0
68 -3.5238 0.0
70 -3.5238 0.0
72 -3.5238 0.0
74 -3.5238 0.0
76 -3.5238 0.0
78 -3.5238 0.0
80 -3.5238 0.0
82 -3.5238 0.0
84 -3.5238 0.0
86 -3.5238 0.0
88 -3.5238 0.0
90 -3.5238 0.0
92 -3.5238 0.0
94 -3.5238 0.0
96 -3.5238 0.0
98 -3.5238 0.0
100 -3.5238 0.0
102 -3.5238 0.0
104 -3.5238 0.0
106 -3.5238 0.0
108 -3.5238 0.0
110 -3.5238 0.0
112 -3.5238 0.0
114 -3.5238 0.0
116 -3.5238 0.0
118 -3.5238 0.0
120 -3.5238 0.0
0 -3.619 0.0
1 -3.619 0.0
2 -3.619 0.0
3 -3.619 0.0
4 -3.619 0.0
5 -3.619 0.0
6 -3.619 0.0
7 -3.619 0.0
8 -3.619 0.0
9 -3.619 0.0
10 -3.619 0.0
11 -3.619 0.0
12 -3.619 0.0
13 -3.619 0.0
14 -3.619 0.0
15 -3.619 0.0
16 -3.619 0.0
17 -3.619 0.0
18 -3.619 0.0
19 -3.619 0.0
20 -3.619 0.0
21 -3.619 0.0
22 -3.619 0.0
23 -3.619 0.0
24 -3.619 0.0
25 -3.619 0.0
26 -3.619 0.0
27 -3.619 0.0
28 -3.619 0.0
29 -3.619 0.0
30 -3.619 0.0
31 -3.619 0.0
32 -3.619 0.0
33 -3.619 0.0
34 -3.619 0.0
35 -3.619 0.0
36 -3.619 0.0
37 -3.619 0.0
38 -3.619 0.0
39 -3.619 0.0
40 -3.619 0.0
41 -3.619 0.0
42 -3.619 0.0
43 -3.619 0.0
44 -3.619 0.0
45 -3.619 0.0
46 -3.619 0.0
47 -3.619 0.0
48 -3.619 0.0
49 -3.619 0.0
50 -3.619 0.0
51 -3.619 0.0
52 -3.619 0.0
53 -3.619 0.0
54 -3.619 0.0
55 -3.619 0.0
56 -3.619 0.0
57 -3.619 0.0
58 -3.619 0.0
59 -3.619 0.0
60 -3.619 0.0
61 -3.619 0.0
62 -3.619 0.0
63 -3.619 0.0
64 -3.619 0.0
65 -3.619 0.0
66 -3.619 0.0
67 -3.619 0.0
68 -3.619 0.0
69 -3.619 0.0
70 -3.619 0.0
71 -3.619 0.0
72 -3.619 0.0
73 -3.619 0.0
74 -3.619 0.0
75 -3.619 0.0
76 -3.619 0.0
77 -3.619 0.0
78 -3.619 0.0
79 -3.619 0.0
80 -3.619 0.0
81 -3.619 0.0
82 -3.619 0.0
83 -3.619 0.0
84 -3.619 0.0
85 -3.619 0.0
86 -3.619 0.0
87 -3.619 0.0
88 -3.619 0.0
89 -3.619 0.0
90 -3.619 0.0
91 -3.619 0.0
92 -3.619 0.0
93 -3.619 0.0
94 -3.619 0.0
95 -3.619 0.0
96 -3.619 0.0
97 -3.619 0.0
98 -3.619 0.0
99 -3.619 0.0
100 -3.619 0.0
101 -3.619 0.0
102 -3.619 0.0
103 -3.619 0.0
104 -3.619 0.0
105 -3.619 0.0
106 -3.619 0.0
107 -3.619 0.0
108 -3.619 0.0
109 -3.619 0.0
110 -3.619 0.0
111 -3.619 0.0
112 -3.619 0.0
113 -3.619 0.0
114 -3.619 0.0
115 -3.619 0.0
116 -3.619 0.0
117 -3.619 0.0
118 -3.619 0.0
119 -3.619 0.0
120 -3.619 0.0
0 -3.7143 0.0
2 -3.7143 0.0
4 -3.7143 0.0
6 -3.7143 0.0
8 -3.7143 0.0
10 -3.7143 0.0
12 -3.7143 0.0
14 -3.7143 0.0
16 -3.7143 0.0
18 -3.7143 0.0
20 -3.7143 0.0
22 -3.7143 0.0
24 -3.7143 0.0
26 -3.7143 0.0
28 -3.7143 0.0
30 -3.7143 0.0
32 -3.7143 0.0
34 -3.7143 0.0
36 -3.7143 0.0
38 -3.7143 0.0
40 -3.7143 0.0
42 -3.7143 0.0
44 -3.7143 0.0
46 -3.7143 0.0
48 -3.7143 0.0
50 -3.7143 0.0
52 -3.7143 0.0
54 -3.7143 0.0
56 -3.7143 0.0
58 -3.7143 0.0
60 -3.7143 0.0
62 -3.7143 0.0
64 -3.7143 0.0
66 -3.7143 0.0
68 -3.7143 0.0
70 -3.7143 0.0
72 -3.7143 0.0
74 -3.7143 0.0
76 -3.7143 0.0
78 -3.7143 0.0
80 -3.7143 0.0
82 -3.7143 0.0
84 -3.7143 0.0
86 -3.7143 0.0
88 -3.7143 0.0
90 -3.7143 0.0
92 -3.7143 0.0
94 -3.7143 0.0
96 -3.7143 0.0
98 -3.7143 0.0
100 -3.7143 0.0
102 -3.7143 0.0
104 -3.7143 0.0
106 -3.7143 0.0
108 -3.7143 0.0
110 -3.7143 0.0
112 -3.7143 0.0
114 -3.7143 0.0
116 -3.7143 0.0
118 -3.7143 0.0
120 -3.7143 0.0
0 -3.8095 0.0
1 -3.8095 0.0
2 -3.8095 0.0
3 -3.8095 0.0
4 -3.8095 0.0
5 -3.8095 0.0
6 -3.8095 0.0
7 -3.8095 0.0
8 -3.8095 0.0
9 -3.8095 0.0
10 -3.8095 0.0
11 -3.8095 0.0
12 -3.8095 0.0
13 -3.8095 0.0
14 -3.8095 0.0
15 -3.8095 0.0
16 -3.8095 0.0
17 -3.8095 0.0
18 -3.8095 0.0
19 -3.8095 0.0
20 -3.8095 0.0
21 -3.8095 0.0
22 -3.8095 0.0
23 -3.8095 0.0
24 -3.8095 0.0
25 -3.8095 0.0
26 -3.8095 0.0
27 -3.8095 0.0
28 -3.8095 0.0
29 -3.8095 0.0
30 -3.8095 0.0
31 -3.8095 0.0
32 -3.8095 0.0
33 -3.8095 0.0
34 -3.8095 0.0
35 -3.8095 0.0
36 -3.8095 0.0
37 -3.8095 0.0
38 -3.8095 0.0
39 -3.8095 0.0
40 -3.8095 0.0
41 -3.8095 0.0
42 -3.8095 0.0
43 -3.8095 0.0
44 -3.8095 0.0
45 -3.8095 0.0
46 -3.8095 0.0
47 -3.8095 0.0
48 -3.8095 0.0
49 -3.8095 0.0
50 -3.8095 0.0
51 -3.8095 0.0
52 -3.8095 0.0
53 -3.8095 0.0
54 -3.8095 0.0
55 -3.8095 0.0
56 -3.8095 0.0
57 -3.8095 0.0
58 -3.8095 0.0
59 -3.8095 0.0
60 -3.8095 0.0
61 -3.8095 0.0
62 -3.8095 0.0
63 -3.8095 0.0
64 -3.8095 0.0
65 -3.8095 0.0
66 -3.8095 0.0
67 -3.8095 0.0
68 -3.8095 0.0
69 -3.8095 0.0
70 -3.8095 0.0
71 -3.8095 0.0
72 -3.8095 0.0
73 -3.8095 0.0
74 -3.8095 0.0
75 -3.8095 0.0
76 -3.8095 0.0
77 -3.8095 0.0
78 -3.8095 0.0
79 -3.8095 0.0
80 -3.8095 0.0
81 -3.8095 0.0
82 -3.8095 0.0
83 -3.8095 0.0
84 -3.8095 0.0
85 -3.8095 0.0
86 -3.8095 0.0
87 -3.8095 0.0
88 -3.8095 0.0
89 -3.8095 0.0
90 -3.8095 0.0
91 -3.8095 0.0
92 -3.8095 0.0
93 -3.8095 0.0
94 -3.8095 0.0
95 -3.8095 0.0
96 -3.8095 0.0
97 -3.8095 0.0
98 -3.8095 0.0
99 -3.8095 0.0
100 -3.8095 0.0
101 -3.8095 0.0
102 -3.8095 0.0
103 -3.8095 0.0
104 -3.8095 0.0
105 -3.8095 0.0
106 -3.8095 0.0
107 -3.8095 0.0
108 -3.8095 0.0
109 -3.8095 0.0
110 -3.8095 0.0
111 -3.8095 0.0
112 -3.8095 0.0
113 -3.8095 0.0
114 -3.8095 0.0
115 -3.8095 0.0
116 -3.8095 0.0
117 -3.8095 0.0
118 -3.8095 0.0
119 -3.8095 0.0
120 -3.8095 0.0
0 -3.9048 0.0
2 -3.9048 0.0
4 -3.9048 0.0
6 -3.9048 0.0
8 -3.9048 0.0
10 -3.9048 0.0
12 -3.9048 0.0
14 -3.9048 0.0
16 -3.9048 0.0
18 -3.9048 0.0
20 -3.9048 0.0
22 -3.9048 0.0
24 -3.9048 0.0
26 -3.9048 0.0
28 -3.9048 0.0
30 -3.9048 0.0
32 -3.9048 0.0
34 -3.9048 0.0
36 -3.9048 0.0
38 -3.9048 0.0
40 -3.9048 0.0
42 -3.9048 0.0
44 -3.9048 0.0
46 -3.9048 0.0
48 -3.9048 0.0
50 -3.9048 0.0
52 -3.9048 0.0
54 -3.9048 0.0
56 -3.9048 0.0
58 -3.9048 0.0
60 -3.9048 0.0
62 -3.9048 0.0
64 -3.9048 0.0
66 -3.9048 0.0
68 -3.9048 0.0
70 -3.9048 0.0
72 -3.9048 0.0
74 -3.9048 0.0
76 -3.9048 0.0
78 -3.9048 0.0
80 -3.9048 0.0
82 -3.9048 0.0
84 -3.9048 0.0
86 -3.9048 0.0
88 -3.9048 0.0
90 -3.9048 0.0
92 -3.9048 0.0
94 -3.9048 0.0
96 -3.9048 0.0
98 -3.9048 0.0
100 -3.9048 0.0
102 -3.9048 0.0
104 -3.9048 0.0
106 -3.9048 0.0
108 -3.9048 0.0
110 -3.9048 0.0
112 -3.9048 0.0
114 -3.9048 0.0
116 -3.9048 0.0
118 -3.9048 0.0
120 -3.9048 0.0
0 -4 0.0
1 -4 0.0
2 -4 0.0
3 -4 0.0
4 -4 0.0
5 -4 0.0
6 -4 0.0
7 -4 0.0
8 -4 0.0
9 -4 0.0
10 -4 0.0
11 -4 0.0
12 -4 0.0
13 -4 0.0
14 -4 0.0
15 -4 0.0
16 -4 0.0
17 -4 0.0
18 -4 0.0
19 -4 0.0
20 -4 0.0
21 -4 0.0
22 -4 0.0
23 -4 0.0
24 -4 0.0
25 -4 0.0
26 -4 0.0
27 -4 0.0
28 -4 0.0
29 -4 0.0
30 -4 0.0
31 -4 0.0
32 -4 0.0
33 -4 0.0
34 -4 0.0
35 -4 0.0
36 -4 0.0
37 -4 0.0
38 -4 0.0
39 -4 0.0
40 -4 0.0
41 -4 0.0
42 -4 0.0
43 -4 0.0
44 -4 0.0
45 -4 0.0
46 -4 0.0
47 -4 0.0
48 -4 0.0
49 -4 0.0
50 -4 0.0
51 -4 0.0
52 -4 0.0
53 -4 0.0
54 -4 0.0
55 -4 0.0
56 -4 0.0
57 -4 0.0
58 -4 0.0
59 -4 0.0
60 -4 0.0
61 -4 0.0
62 -4 0.0
63 -4 0.0
64 -4 0.0
65 -4 0.0
66 -4 0.0
67 -4 0.0
68 -4 0.0
69 -4 0.0
70 -4 0.0
71 -4 0.0
72 -4 0.0
73 -4 0.0
74 -4 0.0
75 -4 0.0
76 -4 0.0
77 -4 0.0
78 -4 0.0
79 -4 0.0
80 -4 0.0
81 -4 0.0
82 -4 0.0
83 -4 0.0
84 -4 0.0
85 -4 0.0
86 -4 0.0
87 -4 0.0
88 -4 0.0
89 -4 0.0
90 -4 0.0
91 -4 0.0
92 -4 0.0
93 -4 0.0
94 -4 0.0
95 -4 0.0
96 -4 0.0
97 -4 0.0
98 -4 0.0
99 -4 0.0
100 -4 0.0
101 -4 0.0
102 -4 0.0
103 -4 0.0
104 -4 0.0
105 -4 0.0
106 -4 0.0
107 -4 0.0
108 -4 0.0
109 -4 0.0
110 -4 0.0
111 -4 0.0
112 -4 0.0
113 -4 0.0
114 -4 0.0
115 -4 0.0
116 -4 0.0
117 -4 0.0
118 -4 0.0
119 -4 0.0
120 -4 0.0
0 -4.1 0.0
2 -4.1 0.0
4 -4.1 0.0
6 -4.1 0.0
8 -4.1 0.0
10 -4.1 0.0
12 -4.1 0.0
14 -4.1 0.0
16 -4.1 0.0
18 -4.1 0.0
20 -4.1 0.0
22 -4.1 0.0
24 -4.1 0.0
26 -4.1 0.0
28 -4.1 0.0
30 -4.1 0.0
32 -4.1 0.0
34 -4.1 0.0
36 -4.1 0.0
38 -4.1 0.0
40 -4.1 0.0
42 -4.1 0.0
44 -4.1 0.0
46 -4.1 0.0
48 -4.1 0.0
50 -4.1 0.0
52 -4.1 0.0
54 -4.1 0.0
56 -4.1 0.0
58 -4.1 0.0
60 -4.1 0.0
62 -4.1 0.0
64 -4.1 0.0
66 -4.1 0.0
68 -4.1 0.0
70 -4.1 0.0
72 -4.1 0.0
74 -4.1 0.0
76 -4.1 0.0
78 -4.1 0.0
80 -4.1 0.0
82 -4.1 0.0
84 -4.1 0.0
86 -4.1 0.0
88 -4.1 0.0
90 -4.1 0.0
92 -4.1 0.0
94 -4.1 0.0
96 -4.1 0.0
98 -4.1 0.0
100 -4.1 0.0
102 -4.1 0.0
104 -4.1 0.0
106 -4.1 0.0
108 -4.1 0.0
110 -4.1 0.0
112 -4.1 0.0
114 -4.1 0.0
116 -4.1 0.0
118 -4.1 0.0
120 -4.1 0.0
0 -4.2 0.0
1 -4.2 0.0
2 -4.2 0.0
3 -4.2 0.0
4 -4.2 0.0
5 -4.2 0.0
6 -4.2 0.0
7 -4.2 0.0
8 -4.2 0.0
9 -4.2 0.0
10 -4.2 0.0
11 -4.2 0.0
12 -4.2 0.0
13 -4.2 0.0
14 -4.2 0.0
15 -4.2 0.0
16 -4.2 0.0
17 -4.2 0.0
18 -4.2 0.0
19 -4.2 0.0
20 -4.2 0.0
21 -4.2 0.0
22 -4.2 0.0
23 -4.2 0.0
24 -4.2 0.0
25 -4.2 0.0
26 -4.2 0.0
27 -4.2 0.0
28 -4.2 0.0
29 -4.2 0.0
30 -4.2 0.0
31 -4.2 0.0
32 -4.2 0.0
33 -4.2 0.0
34 -4.2 0.0
35 -4.2 0.0
36 -4.2 0.0
37 -4.2 0.0
38 -4.2 0.0
39 -4.2 0.0
40 -4.2 0.0
41 -4.2 0.0
42 -4.2 0.0
43 -4.2 0.0
44 -4.2 0.0
45 -4.2 0.0
46 -4.2 0.0
47 -4.2 0.0
48 -4.2 0.0
49 -4.2 0.0
50 -4.2 0.0
51 -4.2 0.0
52 -4.2 0.0
53 -4.2 0.0
54 -4.2 0.0
55 -4.2 0.0
56 -4.2 0.0
57 -4.2 0.0
58 -4.2 0.0
59 -4.2 0.0
60 -4.2 0.0
61 -4.2 0.0
62 -4.2 0.0
63 -4.2 0.0
64 -4.2 0.0
65 -4.2 0.0
66 -4.2 0.0
67 -4.2 0.0
68 -4.2 0.0
69 -4.2 0.0
70 -4.2 0.0
71 -4.2 0.0
72 -4.2 0.0
73 -4.2 0.0
74 -4.2 0.0
75 -4.2 0.0
76 -4.2 0.0
77 -4.2 0.0
78 -4.2 0.0
79 -4.2 0.0
80 -4.2 0.0
81 -4.2 0.0
82 -4.2 0.0
83 -4.2 0.0
84 -4.2 0.0
85 -4.2 0.0
86 -4.2 0.0
87 -4.2 0.0
88 -4.2 0.0
89 -4.2 0.0
90 -4.2 0.0
91 -4.2 0.0
92 -4.2 0.0
93 -4.2 0.0
94 -4.2 0.0
95 -4.2 0.0
96 -4.2 0.0
97 -4.2 0.0
98 -4.2 0.0
99 -4.2 0.0
100 -4.2 0.0
101 -4.2 0.0
102 -4.2 0.0
103 -4.2 0.0
104 -4.2 0.0
105 -4.2 0.0
106 -4.2 0.0
107 -4.2 0.0
108 -4.2 0.0
109 -4.2 0.0
110 -4.2 0.0
111 -4.2 0.0
112 -4.2 0.0
113 -4.2 0.0
114 -4.2 0.0
115 -4.2 0.0
116 -4.2 0.0
117 -4.2 0.0
118 -4.2 0.0
119 -4.2 0.0
120 -4.2 0.0
0 -4.3 0.0
2 -4.3 0.0
4 -4.3 0.0
6 -4.3 0.0
8 -4.3 0.0
10 -4.3 0.0
12 -4.3 0.0
14 -4.3 0.0
16 -4.3 0.0
18 -4.3 0.0
20 -4.3 0.0
22 -4.3 0.0
24 -4.3 0.0
26 -4.3 0.0
28 -4.3 0.0
30 -4.3 0.0
32 -4.3 0.0
34 -4.3 0.0
36 -4.3 0.0
38 -4.3 0.0
40 -4.3 0.0
42 -4.3 0.0
44 -4.3 0.0
46 -4.3 0.0
48 -4.3 0.0
50 -4.3 0.0
52 -4.3 0.0
54 -4.3 0.0
56 -4.3 0.0
58 -4.3 0.0
60 -4.3 0.0
62 -4.3 0.0
64 -4.3 0.0
66 -4.3 0.0
68 -4.3 0.0
70 -4.3 0.0
72 -4.3 0.0
74 -4.3 0.0
76 -4.3 0.0
78 -4.3 0.0
80 -4.3 0.0
82 -4.3 0.0
84 -4.3 0.0
86 -4.3 0.0
88 -4.3 0.0
90 -4.3 0.0
92 -4.3 0.0
94 -4.3 0.0
96 -4.3 0.0
98 -4.3 0.0
100 -4.3 0.0
102 -4.3 0.0
104 -4.3 0.0
106 -4.3 0.0
108 -4.3 0.0
110 -4.3 0.0
112 -4.3 0.0
114 -4.3 0.0
116 -4.3 0.0
118 -4.3 0.0
120 -4.3 0.0
0 -4.4 0.0
1 -4.4 0.0
2 -4.4 0.0
3 -4.4 0.0
4 -4.4 0.0
5 -4.4 0.0
6 -4.4 0.0
7 -4.4 0.0
8 -4.4 0.0
9 -4.4 0.0
10 -4.4 0.0
11 -4.4 0.0
12 -4.4 0.0
13 -4.4 0.0
14 -4.4 0.0
15 -4.4 0.0
16 -4.4 0.0
17 -4.4 0.0
18 -4.4 0.0
19 -4.4 0.0
20 -4.4 0.0
21 -4.4 0.0
22 -4.4 0.0
23 -4.4 0.0
24 -4.4 0.0
25 -4.4 0.0
26 -4.4 0.0
27 -4.4 0.0
28 -4.4 0.0
29 -4.4 0.0
30 -4.4 0.0
31 -4.4 0.0
32 -4.4 0.0
33 -4.4 0.0
34 -4.4 0.0
35 -4.4 0.0
36 -4.4 0.0
37 -4.4 0.0
38 -4.4 0.0
39 -4.4 0.0
40 -4.4 0.0
41 -4.4 0.0
42 -4.4 0.0
43 -4.4 0.0
44 -4.4 0.0
45 -4.4 0.0
46 -4.4 0.0
47 -4.4 0.0
48 -4.4 0.0
49 -4.4 0.0
50 -4.4 0.0
51 -4.4 0.0
52 -4.4 0.0
53 -4.4 0.0
54 -4.4 0.0
55 -4.4 0.0
56 -4.4 0.0
57 -4.4 0.0
58 -4.4 0.0
59 -4.4 0.0
60 -4.4 0.0
61 -4.4 0.0
62 -4.4 0.0
63 -4.4 0.0
64 -4.4 0.0
65 -4.4 0.0
66 -4.4 0.0
67 -4.4 0.0
68 -4.4 0.0
69 -4.4 0.0
70 -4.4 0.0
71 -4.4 0.0
72 -4.4 0.0
73 -4.4 0.0
74 -4.4 0.0
75 -4.4 0.0
76 -4.4 0.0
77 -4.4 0.0
78 -4.4 0.0
79 -4.4 0.0
80 -4.4 0.0
81 -4.4 0.0
82 -4.4 0.0
83 -4.4 0.0
84 -4.4 0.0
85 -4.4 0.0
86 -4.4 0.0
87 -4.4 0.0
88 -4.4 0.0
89 -4.4 0.0
90 -4.4 0.0
91 -4.4 0.0
92 -4.4 0.0
93 -4.4 0.0
94 -4.4 0.0
95 -4.4 0.0
96 -4.4 0.0
97 -4.4 0.0
98 -4.4 0.0
99 -4.4 0.0
100 -4.4 0.0
101 -4.4 0.0
102 -4.4 0.0
103 -4.4 0.0
104 -4.4 0.0
105 -4.4 0.0
106 -4.4 0.0
107 -4.4 0.0
108 -4.4 0.0
109 -4.4 0.0
110 -4.4 0.0
111 -4.4 0.0
112 -4.4 0.0
113 -4.4 0.0
114 -4.4 0.0
115 -4.4 0.0
116 -4.4 0.0
117 -4.4 0.0
118 -4.4 0.0
119 -4.4 0.0
120 -4.4 0.0
0 -4.5 0.0
2 -4.5 0.0
4 -4.5 0.0
6 -4.5 0.0
8 -4.5 0.0
10 -4.5 0.0
12 -4.5 0.0
14 -4.5 0.0
16 -4.5 0.0
18 -4.5 0.0
20 -4.5 0.0
22 -4.5 0.0
24 -4.5 0.0
26 -4.5 0.0
28 -4.5 0.0
30 -4.5 0.0
32 -4.5 0.0
34 -4.5 0.0
36 -4.5 0.0
38 -4.5 0.0
40 -4.5 0.0
42 -4.5 0.0
44 -4.5 0.0
46 -4.5 0.0
48 -4.5 0.0
50 -4.5 0.0
52 -4.5 0.0
54 -4.5 0.0
56 -4.5 0.0
58 -4.5 0.0
60 -4.5 0.0
62 -4.5 0.0
64 -4.5 0.0
66 -4.5 0.0
68 -4.5 0.0
70 -4.5 0.0
72 -4.5 0.0
74 -4.5 0.0
76 -4.5 0.0
78 -4.5 0.0
80 -4.5 0.0
82 -4.5 0.0
84 -4.5 0.0
86 -4.5 0.0
88 -4.5 0.0
90 -4.5 0.0
92 -4.5 0.0
94 -4.5 0.0
96 -4.5 0.0
98 -4.5 0.0
100 -4.5 0.0
102 -4.5 0.0
104 -4.5 0.0
106 -4.5 0.0
108 -4.5 0.0
110 -4.5 0.0
112 -4.5 0.0
114 -4.5 0.0
116 -4.5 0.0
118 -4.5 0.0
120 -4.5 0.0
0 -4.6 0.0
1 -4.6 0.0
2 -4.6 0.0
3 -4.6 0.0
4 -4.6 0.0
5 -4.6 0.0
6 -4.6 0.0
7 -4.6 0.0
8 -4.6 0.0
9 -4.6 0.0
10 -4.6 0.0
11 -4.6 0.0
12 -4.6 0.0
13 -4.6 0.0
14 -4.6 0.0
15 -4.6 0.0
16 -4.6 0.0
17 -4.6 0.0
18 -4.6 0.0
19 -4.6 0.0
20 -4.6 0.0
21 -4.6 0.0
22 -4.6 0.0
23 -4.6 0.0
24 -4.6 0.0
25 -4.6 0.0
26 -4.6 0.0
27 -4.6 0.0
28 -4.6 0.0
29 -4.6 0.0
30 -4.6 0.0
31 -4.6 0.0
32 -4.6 0.0
33 -4.6 0.0
34 -4.6 0.0
35 -4.6 0.0
36 -4.6 0.0
37 -4.6 0.0
38 -4.6 0.0
39 -4.6 0.0
40 -4.6 0.0
41 -4.6 0.0
42 -4.6 0.0
43 -4.6 0.0
44 -4.6 0.0
45 -4.6 0.0
46 -4.6 0.0
47 -4.6 0.0
48 -4.6 0.0
49 -4.6 0.0
50 -4.6 0.0
51 -4.6 0.0
52 -4.6 0.0
53 -4.6 0.0
54 -4.6 0.0
55 -4.6 0.0
56 -4.6 0.0
57 -4.6 0.0
58 -4.6 0.0
59 -4.6 0.0
60 -4.6 0.0
61 -4.6 0.0
62 -4.6 0.0
63 -4.6 0.0
64 -4.6 0.0
65 -4.6 0.0
66 -4.6 0.0
67 -4.6 0.0
68 -4.6 0.0
69 -4.6 0.0
70 -4.6 0.0
71 -4.6 0.0
72 -4.6 0.0
73 -4.6 0.0
74 -4.6 0.0
75 -4.6 0.0
76 -4.6 0.0
77 -4.6 0.0
78 -4.6 0.0
79 -4.6 0.0
80 -4.6 0.0
81 -4.6 0.0
82 -4.6 0.0
83 -4.6 0.0
84 -4.6 0.0
85 -4.6 0.0
86 -4.6 0.0
87 -4.6 0.0
88 -4.6 0.0
89 -4.6 0.0
90 -4.6 0.0
91 -4.6 0.0
92 -4.6 0.0
93 -4.6 0.0
94 -4.6 0.0
95 -4.6 0.0
96 -4.6 0.0
97 -4.6 0.0
98 -4.6 0.0
99 -4.6 0.0
100 -4.6 0.0
101 -4.6 0.0
102 -4.6 0.0
103 -4.6 0.0
104 -4.6 0.0
105 -4.6 0.0
106 -4.6 0.0
107 -4.6 0.0
108 -4.6 0.0
109 -4.6 0.0
110 -4.6 0.0
111 -4.6 0.0
112 -4.6 0.0
113 -4.6 0.0
114 -4.6 0.0
115 -4.6 0.0
116 -4.6 0.0
117 -4.6 0.0
118 -4.6 0.0
119 -4.6 0.0
120 -4.6 0.0
0 -4.7 0.0
2 -4.7 0.0
4 -4.7 0.0
6 -4.7 0.0
8 -4.7 0.0
10 -4.7 0.0
12 -4.7 0.0
14 -4.7 0.0
16 -4.7 0.0
18 -4.7 0.0
20 -4.7 0.0
22 -4.7 0.0
24 -4.7 0.0
26 -4.7 0.0
28 -4.7 0.0
30 -4.7 0.0
32 -4.7 0.0
34 -4.7 0.0
36 -4.7 0.0
38 -4.7 0.0
40 -4.7 0.0
42 -4.7 0.0
44 -4.7 0.0
46 -4.7 0.0
48 -4.7 0.0
50 -4.7 0.0
52 -4.7 0.0
54 -4.7 0.0
56 -4.7 0.0
58 -4.7 0.0
60 -4.7 0.0
62 -4.7 0.0
64 -4.7 0.0
66 -4.7 0.0
68 -4.7 0.0
70 -4.7 0.0
72 -4.7 0.0
74 -4.7 0.0
76 -4.7 0.0
78 -4.7 0.0
80 -4.7 0.0
82 -4.7 0.0
84 -4.7 0.0
86 -4.7 0.0
88 -4.7 0.0
90 -4.7 0.0
92 -4.7 0.0
94 -4.7 0.0
96 -4.7 0.0
98 -4.7 0.0
100 -4.7 0.0
102 -4.7 0.0
104 -4.7 0.0
106 -4.7 0.0
108 -4.7 0.0
110 -4.7 0.0
112 -4.7 0.0
114 -4.7 0.0
116 -4.7 0.0
118 -4.7 0.0
120 -4.7 0.0
0 -4.8 0.0
1 -4.8 0.0
2 -4.8 0.0
3 -4.8 0.0
4 -4.8 0.0
5 -4.8 0.0
6 -4.8 0.0
7 -4.8 0.0
8 -4.8 0.0
9 -4.8 0.0
10 -4.8 0.0
11 -4.8 0.0
12 -4.8 0.0
13 -4.8 0.0
14 -4.8 0.0
15 -4.8 0.0
16 -4.8 0.0
17 -4.8 0.0
18 -4.8 0.0
19 -4.8 0.0
20 -4.8 0.0
21 -4.8 0.0
22 -4.8 0.0
23 -4.8 0.0
24 -4.8 0.0
25 -4.8 0.0
26 -4.8 0.0
27 -4.8 0.0
28 -4.8 0.0
29 -4.8 0.0
30 -4.8 0.0
31 -4.8 0.0
32 -4.8 0.0
33 -4.8 0.0
34 -4.8 0.0
35 -4.8 0.0
36 -4.8 0.0
37 -4.8 0.0
38 -4.8 0.0
39 -4.8 0.0
40 -4.8 0.0
41 -4.8 0.0
42 -4.8 0.0
43 -4.8 0.0
44 -4.8 0.0
45 -4.8 0.0
46 -4.8 0.0
47 -4.8 0.0
48 -4.8 0.0
49 -4.8 0.0
50 -4.8 0.0
51 -4.8 0.0
52 -4.8 0.0
53 -4.8 0.0
54 -4.8 0.0
55 -4.8 0.0
56 -4.8 0.0
57 -4.8 0.0
58 -4.8 0.0
59 -4.8 0.0
60 -4.8 0.0
61 -4.8 0.0
62 -4.8 0.0
63 -4.8 0.0
64 -4.8 0.0
65 -4.8 0.0
66 -4.8 0.0
67 -4.8 0.0
68 -4.8 0.0
69 -4.8 0.0
70 -4.8 0.0
71 -4.8 0.0
72 -4.8 0.0
73 -4.8 0.0
74 -4.8 0.0
75 -4.8 0.0
76 -4.8 0.0
77 -4.8 0.0
78 -4.8 0.0
79 -4.8 0.0
80 -4.8 0.0
81 -4.8 0.0
82 -4.8 0.0
83 -4.8 0.0
84 -4.8 0.0
85 -4.8 0.0
86 -4.8 0.0
87 -4.8 0.0
88 -4.8 0.0
89 -4.8 0.0
90 -4.8 0.0
91 -4.8 0.0
92 -4.8 0.0
93 -4.8 0.0
94 -4.8 0.0
95 -4.8 0.0
96 -4.8 0.0
97 -4.8 0.0
98 -4.8 0.0
99 -4.8 0.0
100 -4.8 0.0
101 -4.8 0.0
102 -4.8 0.0
103 -4.8 0.0
104 -4.8 0.0
105 -4.8 0.0
106 -4.8 0.0
107 -4.8 0.0
108 -4.8 0.0
109 -4.8 0.0
110 -4.8 0.0
111 -4.8 0.0
112 -4.8 0.0
113 -4.8 0.0
114 -4.8 0.0
115 -4.8 0.0
116 -4.8 0.0
117 -4.8 0.0
118 -4.8 0.0
119 -4.8 0.0
120 -4.8 0.0
0 -4.9 0.0
2 -4.9 0.0
4 -4.9 0.0
6 -4.9 0.0
8 -4.9 0.0
10 -4.9 0.0
12 -4.9 0.0
14 -4.9 0.0
16 -4.9 0.0
18 -4.9 0.0
20 -4.9 0.0
22 -4.9 0.0
24 -4.9 0.0
26 -4.9 0.0
28 -4.9 0.0
30 -4.9 0.0
32 -4.9 0.0
34 -4.9 0.0
36 -4.9 0.0
38 -4.9 0.0
40 -4.9 0.0
42 -4.9 0.0
44 -4.9 0.0
46 -4.9 0.0
48 -4.9 0.0
50 -4.9 0.0
52 -4.9 0.0
54 -4.9 0.0
56 -4.9 0.0
58 -4.9 0.0
60 -4.9 0.0
62 -4.9 0.0
64 -4.9 0.0
66 -4.9 0.0
68 -4.9 0.0
70 -4.9 0.0
72 -4.9 0.0
74 -4.9 0.0
76 -4.9 0.0
78 -4.9 0.0
80 -4.9 0.0
82 -4.9 0.0
84 -4.9 0.0
86 -4.9 0.0
88 -4.9 0.0
90 -4.9 0.0
92 -4.9 0.0
94 -4.9 0.0
96 -4.9 0.0
98 -4.9 0.0
100 -4.9 0.0
102 -4.9 0.0
104 -4.9 0.0
106 -4.9 0.0
108 -4.9 0.0
110 -4.9 0.0
112 -4.9 0.0
114 -4.9 0.0
116 -4.9 0.0
118 -4.9 0.0
120 -4.9 0.0
0 -5 0.0
1 -5 0.0
2 -5 0.0
3 -5 0.0
4 -5 0.0
5 -5 0.0
6 -5 0.0
7 -5 0.0
8 -5 0.0
9 -5 0.0
10 -5 0.0
11 -5 0.0
12 -5 0.0
13 -5 0.0
14 -5 0.0
15 -5 0.0
16 -5 0.0
17 -5 0.0
18 -5 0.0
19 -5 0.0
20 -5 0.0
21 -5 0.0
22 -5 0.0
23 -5 0.0
24 -5 0.0
25 -5 0.0
26 -5 0.0
27 -5 0.0
28 -5 0.0
29 -5 0.0
30 -5 0.0
31 -5 0.0
32 -5 0.0
33 -5 0.0
34 -5 0.0
35 -5 0.0
36 -5 0.0
37 -5 0.0
38 -5 0.0
39 -5 0.0
40 -5 0.0
41 -5 0.0
42 -5 0.0
43 -5 0.0
44 -5 0.0
45 -5 0.0
46 -5 0.0
47 -5 0.0
48 -5 0.0
49 -5 0.0
50 -5 0.0
51 -5 0.0
52 -5 0.0
53 -5 0.0
54 -5 0.0
55 -5 0.0
56 -5 0.0
57 -5 0.0
58 -5 0.0
59 -5 0.0
60 -5 0.0
61 -5 0.0
62 -5 0.0
63 -5 0.0
64 -5 0.0
65 -5 0.0
66 -5 0.0
67 -5 0.0
68 -5 0.0
69 -5 0.0
70 -5 0.0
71 -5 0.0
72 -5 0.0
73 -5 0.0
74 -5 0.0
75 -5 0.0
76 -5 0.0
77 -5 0.0
78 -5 0.0
79 -5 0.0
80 -5 0.0
81 -5 0.0
82 -5 0.0
83 -5 0.0
84 -5 0.0
85 -5 0.0
86 -5 0.0
87 -5 0.0
88 -5 0.0
89 -5 0.0
90 -5 0.0
91 -5 0.0
92 -5 0.0
93 -5 0.0
94 -5 0.0
95 -5 0.0
96 -5 0.0
97 -5 0.0
98 -5 0.0
99 -5 0.0
100 -5 0.0
101 -5 0.0
102 -5 0.0
103 -5 0.0
104 -5 0.0
105 -5 0.0
106 -5 0.0
107 -5 0.0
108 -5 0.0
109 -5 0.0
110 -5 0.0
111 -5 0.0
112 -5 0.0
113 -5 0.0
114 -5 0.0
115 -5 0.0
116 -5 0.0
117 -5 0.0
118 -5 0.0
119 -5 0.0
120 -5 0.0
0 -5.1 0.0
2 -5.1 0.0
4 -5.1 0.0
6 -5.1 0.0
8 -5.1 0.0
10 -5.1 0.0
12 -5.1 0.0
14 -5.1 0.0
16 -5.1 0.0
18 -5.1 0.0
20 -5.1 0.0
22 -5.1 0.0
24 -5.1 0.0
26 -5.1 0.0
28 -5.1 0.0
30 -5.1 0.0
32 -5.1 0.0
34 -5.1 0.0
36 -5.1 0.0
38 -5.1 0.0
40 -5.1 0.0
42 -5.1 0.0
44 -5.1 0.0
46 -5.1 0.0
48 -5.1 0.0
50 -5.1 0.0
52 -5.1 0.0
54 -5.1 0.0
56 -5.1 0.0
58 -5.1 0.0
60 -5.1 0.0
62 -5.1 0.0
64 -5.1 0.0
66 -5.1 0.0
68 -5.1 0.0
70 -5.1 0.0
72 -5.1 0.0
74 -5.1 0.0
76 -5.1 0.0
78 -5.1 0.0
80 -5.1 0.0
82 -5.1 0.0
84 -5.1 0.0
86 -5.1 0.0
88 -5.1 0.0
90 -5.1 0.0
92 -5.1 0.0
94 -5.1 0.0
96 -5.1 0.0
98 -5.1 0.0
100 -5.1 0.0
102 -5.1 0.0
104 -5.1 0.0
106 -5.1 0.0
108 -5.1 0.0
110 -5.1 0.0
112 -5.1 0.0
114 -5.1 0.0
116 -5.1 0.0
118 -5.1 0.0
120 -5.1 0.0
0 -5.2 0.0
1 -5.2 0.0
2 -5.2 0.0
3 -5.2 0.0
4 -5.2 0.0
5 -5.2 0.0
6 -5.2 0.0
7 -5.2 0.0
8 -5.2 0.0
9 -5.2 0.0
10 -5.2 0.0
11 -5.2 0.0
12 -5.2 0.0
13 -5.2 0.0
14 -5.2 0.0
15 -5.2 0.0
16 -5.2 0.0
17 -5.2 0.0
18 -5.2 0.0
19 -5.2 0.0
20 -5.2 0.0
21 -5.2 0.0
22 -5.2 0.0
23 -5.2 0.0
24 -5.2 0.0
25 -5.2 0.0
26 -5.2 0.0
27 -5.2 0.0
28 -5.2 0.0
29 -5.2 0.0
30 -5.2 0.0
31 -5.2 0.0
32 -5.2 0.0
33 -5.2 0.0
34 -5.2 0.0
35 -5.2 0.0
36 -5.2 0.0
37 -5.2 0.0
38 -5.2 0.0
39 -5.2 0.0
40 -5.2 0.0
41 -5.2 0.0
42 -5.2 0.0
43 -5.2 0.0
44 -5.2 0.0
45 -5.2 0.0
46 -5.2 0.0
47 -5.2 0.0
48 -5.2 0.0
49 -5.2 0.0
50 -5.2 0.0
51 -5.2 0.0
52 -5.2 0.0
53 -5.2 0.0
54 -5.2 0.0
55 -5.2 0.0
56 -5.2 0.0
57 -5.2 0.0
58 -5.2 0.0
59 -5.2 0.0
60 -5.2 0.0
61 -5.2 0.0
62 -5.2 0.0
63 -5.2 0.0
64 -5.2 0.0
65 -5.2 0.0
66 -5.2 0.0
67 -5.2 0.0
68 -5.2 0.0
69 -5.2 0.0
70 -5.2 0.0
71 -5.2 0.0
72 -5.2 0.0
73 -5.2 0.0
74 -5.2 0.0
75 -5.2 0.0
76 -5.2 0.0
77 -5.2 0.0
78 -5.2 0.0
79 -5.2 0.0
80 -5.2 0.0
81 -5.2 0.0
82 -5.2 0.0
83 -5.2 0.0
84 -5.2 0.0
85 -5.2 0.0
86 -5.2 0.0
87 -5.2 0.0
88 -5.2 0.0
89 -5.2 0.0
90 -5.2 0.0
91 -5.2 0.0
92 -5.2 0.0
93 -5.2 0.0
94 -5.2 0.0
95 -5.2 0.0
96 -5.2 0.0
97 -5.2 0.0
98 -5.2 0.0
99 -5.2 0.0
100 -5.2 0.0
101 -5.2 0.0
102 -5.2 0.0
103 -5.2 0.0
104 -5.2 0.0
105 -5.2 0.0
106 -5.2 0.0
107 -5.2 0.0
108 -5.2 0.0
109 -5.2 0.0
110 -5.2 0.0
111 -5.2 0.0
112 -5.2 0.0
113 -5.2 0.0
114 -5.2 0.0
115 -5.2 0.0
116 -5.2 0.0
117 -5.2 0.0
118 -5.2 0.0
119 -5.2 0.0
120 -5.2 0.0
0 -5.3 0.0
2 -5.3 0.0
4 -5.3 0.0
6 -5.3 0.0
8 -5.3 0.0
10 -5.3 0.0
12 -5.3 0.0
14 -5.3 0.0
16 -5.3 0.0
18 -5.3 0.0
20 -5.3 0.0
22 -5.3 0.0
24 -5.3 0.0
26 -5.3 0.0
28 -5.3 0.0
30 -5.3 0.0
32 -5.3 0.0
34 -5.3 0.0
36 -5.3 0.0
38 -5.3 0.0
40 -5.3 0.0
42 -5.3 0.0
44 -5.3 0.0
46 -5.3 0.0
48 -5.3 0.0
50 -5.3 0.0
52 -5.3 0.0
54 -5.3 0.0
56 -5.3 0.0
58 -5.3 0.0
60 -5.3 0.0
62 -5.3 0.0
64 -5.3 0.0
66 -5.3 0.0
68 -5.3 0.0
70 -5.3 0.0
72 -5.3 0.0
74 -5.3 0.0
76 -5.3 0.0
78 -5.3 0.0
80 -5.3 0.0
82 -5.3 0.0
84 -5.3 0.0
86 -5.3 0.0
88 -5.3 0.0
90 -5.3 0.0
92 -5.3 0.0
94 -5.3 0.0
96 -5.3 0.0
98 -5.3 0.0
100 -5.3 0.0
102 -5.3 0.0
104 -5.3 0.0
106 -5.3 0.0
108 -5.3 0.0
110 -5.3 0.0
112 -5.3 0.0
114 -5.3 0.0
116 -5.3 0.0
118 -5.3 0.0
120 -5.3 0.0
0 -5.4 0.0
1 -5.4 0.0
2 -5.4 0.0
3 -5.4 0.0
4 -5.4 0.0
5 -5.4 0.0
6 -5.4 0.0
7 -5.4 0.0
8 -5.4 0.0
9 -5.4 0.0
10 -5.4 0.0
11 -5.4 0.0
12 -5.4 0.0
13 -5.4 0.0
14 -5.4 0.0
15 -5.4 0.0
16 -5.4 0.0
17 -5.4 0.0
18 -5.4 0.0
19 -5.4 0.0
20 -5.4 0.0
21 -5.4 0.0
22 -5.4 0.0
23 -5.4 0.0
24 -5.4 0.0
25 -5.4 0.0
26 -5.4 0.0
27 -5.4 0.0
28 -5.4 0.0
29 -5.4 0.0
30 -5.4 0.0
31 -5.4 0.0
32 -5.4 0.0
33 -5.4 0.0
34 -5.4 0.0
35 -5.4 0.0
36 -5.4 0.0
37 -5.4 0.0
38 -5.4 0.0
39 -5.4 0.0
40 -5.4 0.0
41 -5.4 0.0
42 -5.4 0.0
43 -5.4 0.0
44 -5.4 0.0
45 -5.4 0.0
46 -5.4 0.0
47 -5.4 0.0
48 -5.4 0.0
49 -5.4 0.0
50 -5.4 0.0
51 -5.4 0.0
52 -5.4 0.0
53 -5.4 0.0
54 -5.4 0.0
55 -5.4 0.0
56 -5.4 0.0
57 -5.4 0.0
58 -5.4 0.0
59 -5.4 0.0
60 -5.4 0.0
61 -5.4 0.0
62 -5.4 0.0
63 -5.4 0.0
64 -5.4 0.0
65 -5.4 0.0
66 -5.4 0.0
67 -5.4 0.0
68 -5.4 0.0
69 -5.4 0.0
70 -5.4 0.0
71 -5.4 0.0
72 -5.4 0.0
73 -5.4 0.0
74 -5.4 0.0
75 -5.4 0.0
76 -5.4 0.0
77 -5.4 0.0
78 -5.4 0.0
79 -5.4 0.0
80 -5.4 0.0
81 -5.4 0.0
82 -5.4 0.0
83 -5.4 0.0
84 -5.4 0.0
85 -5.4 0.0
86 -5.4 0.0
87 -5.4 0.0
88 -5.4 0.0
89 -5.4 0.0
90 -5.4 0.0
91 -5.4 0.0
92 -5.4 0.0
93 -5.4 0.0
94 -5.4 0.0
95 -5.4 0.0
96 -5.4 0.0
97 -5.4 0.0
98 -5.4 0.0
99 -5.4 0.0
100 -5.4 0.0
101 -5.4 0.0
102 -5.4 0.0
103 -5.4 0.0
104 -5.4 0.0
105 -5.4 0.0
106 -5.4 0.0
107 -5.4 0.0
108 -5.4 0.0
109 -5.4 0.0
110 -5.4 0.0
111 -5.4 0.0
112 -5.4 0.0
113 -5.4 0.0
114 -5.4 0.0
115 -5.4 0.0
116 -5.4 0.0
117 -5.4 0.0
118 -5.4 0.0
119 -5.4 0.0
120 -5.4 0.0
0 -5.5 0.0
2 -5.5 0.0
4 -5.5 0.0
6 -5.5 0.0
8 -5.5 0.0
10 -5.5 0.0
12 -5.5 0.0
14 -5.5 0.0
16 -5.5 0.0
18 -5.5 0.0
20 -5.5 0.0
22 -5.5 0.0
24 -5.5 0.0
26 -5.5 0.0
28 -5.5 0.0
30 -5.5 0.0
32 -5.5 0.0
34 -5.5 0.0
36 -5.5 0.0
38 -5.5 0.0
40 -5.5 0.0
42 -5.5 0.0
44 -5.5 0.0
46 -5.5 0.0
48 -5.5 0.0
50 -5.5 0.0
52 -5.5 0.0
54 -5.5 0.0
56 -5.5 0.0
58 -5.5 0.0
60 -5.5 0.0
62 -5.5 0.0
64 -5.5 0.0
66 -5.5 0.0
68 -5.5 0.0
70 -5.5 0.0
72 -5.5 0.0
74 -5.5 0.0
76 -5.5 0.0
78 -5.5 0.0
80 -5.5 0.0
82 -5.5 0.0
84 -5.5 0.0
86 -5.5 0.0
88 -5.5 0.0
90 -5.5 0.0
92 -5.5 0.0
94 -5.5 0.0
96 -5.5 0.0
98 -5.5 0.0
100 -5.5 0.0
102 -5.5 0.0
104 -5.5 0.0
106 -5.5 0.0
108 -5.5 0.0
110 -5.5 0.0
112 -5.5 0.0
114 -5.5 0.0
116 -5.5 0.0
118 -5.5 0.0
120 -5.5 0.0
0 -5.6 0.0
1 -5.6 0.0
2 -5.6 0.0
3 -5.6 0.0
4 -5.6 0.0
5 -5.6 0.0
6 -5.6 0.0
7 -5.6 0.0
8 -5.6 0.0
9 -5.6 0.0
10 -5.6 0.0
11 -5.6 0.0
12 -5.6 0.0
13 -5.6 0.0
14 -5.6 0.0
15 -5.6 0.0
16 -5.6 0.0
17 -5.6 0.0
18 -5.6 0.0
19 -5.6 0.0
20 -5.6 0.0
21 -5.6 0.0
22 -5.6 0.0
23 -5.6 0.0
24 -5.6 0.0
25 -5.6 0.0
26 -5.6 0.0
27 -5.6 0.0
28 -5.6 0.0
29 -5.6 0.0
30 -5.6 0.0
31 -5.6 0.0
32 -5.6 0.0
33 -5.6 0.0
34 -5.6 0.0
35 -5.6 0.0
36 -5.6 0.0
37 -5.6 0.0
38 -5.6 0.0
39 -5.6 0.0
40 -5.6 0.0
41 -5.6 0.0
42 -5.6 0.0
43 -5.6 0.0
44 -5.6 0.0
45 -5.6 0.0
46 -5.6 0.0
47 -5.6 0.0
48 -5.6 0.0
49 -5.6 0.0
50 -5.6 0.0
51 -5.6 0.0
52 -5.6 0.0
53 -5.6 0.0
54 -5.6 0.0
55 -5.6 0.0
56 -5.6 0.0
57 -5.6 0.0
58 -5.6 0.0
59 -5.6 0.0
60 -5.6 0.0
61 -5.6 0.0
62 -5.6 0.0
63 -5.6 0.0
64 -5.6 0.0
65 -5.6 0.0
66 -5.6 0.0
67 -5.6 0.0
68 -5.6 0.0
69 -5.6 0.0
70 -5.6 0.0
71 -5.6 0.0
72 -5.6 0.0
73 -5.6 0.0
74 -5.6 0.0
75 -5.6 0.0
76 -5.6 0.0
77 -5.6 0.0
78 -5.6 0.0
79 -5.6 0.0
80 -5.6 0.0
81 -5.6 0.0
82 -5.6 0.0
83 -5.6 0.0
84 -5.6 0.0
85 -5.6 0.0
86 -5.6 0.0
87 -5.6 0.0
88 -5.6 0.0
89 -5.6 0.0
90 -5.6 0.0
91 -5.6 0.0
92 -5.6 0.0
93 -5.6 0.0
94 -5.6 0.0
95 -5.6 0.0
96 -5.6 0.0
97 -5.6 0.0
98 -5.6 0.0
99 -5.6 0.0
100 -5.6 0.0
101 -5.6 0.0
102 -5.6 0.0
103 -5.6 0.0
104 -5.6 0.0
105 -5.6 0.0
106 -5.6 0.0
107 -5.6 0.0
108 -5.6 0.0
109 -5.6 0.0
110 -5.6 0.0
111 -5.6 0.0
112 -5.6 0.0
113 -5.6 0.0
114 -5.6 0.0
115 -5.6 0.0
116 -5.6 0.0
117 -5.6 0.0
118 -5.6 0.0
119 -5.6 0.0
120 -5.6 0.0
0 -5.7 0.0
2 -5.7 0.0
4 -5.7 0.0
6 -5.7 0.0
8 -5.7 0.0
10 -5.7 0.0
12 -5.7 0.0
14 -5.7 0.0
16 -5.7 0.0
18 -5.7 0.0
20 -5.7 0.0
22 -5.7 0.0
24 -5.7 0.0
26 -5.7 0.0
28 -5.7 0.0
30 -5.7 0.0
32 -5.7 0.0
34 -5.7 0.0
36 -5.7 0.0
38 -5.7 0.0
40 -5.7 0.0
42 -5.7 0.0
44 -5.7 0.0
46 -5.7 0.0
48 -5.7 0.0
50 -5.7 0.0
52 -5.7 0.0
54 -5.7 0.0
56 -5.7 0.0
58 -5.7 0.0
60 -5.7 0.0
62 -5.7 0.0
64 -5.7 0.0
66 -5.7 0.0
68 -5.7 0.0
70 -5.7 0.0
72 -5.7 0.0
74 -5.7 0.0
76 -5.7 0.0
78 -5.7 0.0
80 -5.7 0.0
82 -5.7 0.0
84 -5.7 0.0
86 -5.7 0.0
88 -5.7 0.0
90 -5.7 0.0
92 -5.7 0.0
94 -5.7 0.0
96 -5.7 0.0
98 -5.7 0.0
100 -5.7 0.0
102 -5.7 0.0
104 -5.7 0.0
106 -5.7 0.0
108 -5.7 0.0
110 -5.7 0.0
112 -5.7 0.0
114 -5.7 0.0
116 -5.7 0.0
118 -5.7 0.0
120 -5.7 0.0
0 -5.8 0.0
1 -5.8 0.0
2 -5.8 0.0
3 -5.8 0.0
4 -5.8 0.0
5 -5.8 0.0
6 -5.8 0.0
7 -5.8 0.0
8 -5.8 0.0
9 -5.8 0.0
10 -5.8 0.0
11 -5.8 0.0
12 -5.8 0.0
13 -5.8 0.0
14 -5.8 0.0
15 -5.8 0.0
16 -5.8 0.0
17 -5.8 0.0
18 -5.8 0.0
19 -5.8 0.0
20 -5.8 0.0
21 -5.8 0.0
22 -5.8 0.0
23 -5.8 0.0
24 -5.8 0.0
25 -5.8 0.0
26 -5.8 0.0
27 -5.8 0.0
28 -5.8 0.0
29 -5.8 0.0
30 -5.8 0.0
31 -5.8 0.0
32 -5.8 0.0
33 -5.8 0.0
34 -5.8 0.0
35 -5.8 0.0
36 -5.8 0.0
37 -5.8 0.0
38 -5.8 0.0
39 -5.8 0.0
40 -5.8 0.0
41 -5.8 0.0
42 -5.8 0.0
43 -5.8 0.0
44 -5.8 0.0
45 -5.8 0.0
46 -5.8 0.0
47 -5.8 0.0
48 -5.8 0.0
49 -5.8 0.0
50 -5.8 0.0
51 -5.8 0.0
52 -5.8 0.0
53 -5.8 0.0
54 -5.8 0.0
55 -5.8 0.0
56 -5.8 0.0
57 -5.8 0.0
58 -5.8 0.0
59 -5.8 0.0
60 -5.8 0.0
61 -5.8 0.0
62 -5.8 0.0
63 -5.8 0.0
64 -5.8 0.0
65 -5.8 0.0
66 -5.8 0.0
67 -5.8 0.0
68 -5.8 0.0
69 -5.8 0.0
70 -5.8 0.0
71 -5.8 0.0
72 -5.8 0.0
73 -5.8 0.0
74 -5.8 0.0
75 -5.8 0.0
76 -5.8 0.0
77 -5.8 0.0
78 -5.8 0.0
79 -5.8 0.0
80 -5.8 0.0
81 -5.8 0.0
82 -5.8 0.0
83 -5.8 0.0
84 -5.8 0.0
85 -5.8 0.0
86 -5.8 0.0
87 -5.8 0.0
88 -5.8 0.0
89 -5.8 0.0
90 -5.8 0.0
91 -5.8 0.0
92 -5.8 0.0
93 -5.8 0.0
94 -5.8 0.0
95 -5.8 0.0
96 -5.8 0.0
97 -5.8 0.0
98 -5.8 0.0
99 -5.8 0.0
100 -5.8 0.0
101 -5.8 0.0
102 -5.8 0.0
103 -5.8 0.0
104 -5.8 0.0
105 -5.8 0.0
106 -5.8 0.0
107 -5.8 0.0
108 -5.8 0.0
109 -5.8 0.0
110 -5.8 0.0
111 -5.8 0.0
112 -5.8 0.0
113 -5.8 0.0
114 -5.8 0.0
115 -5.8 0.0
116 -5.8 0.0
117 -5.8 0.0
118 -5.8 0.0
119 -5.8 0.0
120 -5.8 0.0
0 -5.9 0.0
2 -5.9 0.0
4 -5.9 0.0
6 -5.9 0.0
8 -5.9 0.0
10 -5.9 0.0
12 -5.9 0.0
14 -5.9 0.0
16 -5.9 0.0
18 -5.9 0.0
20 -5.9 0.0
22 -5.9 0.0
24 -5.9 0.0
26 -5.9 0.0
28 -5.9 0.0
30 -5.9 0.0
32 -5.9 0.0
34 -5.9 0.0
36 -5.9 0.0
38 -5.9 0.0
40 -5.9 0.0
42 -5.9 0.0
44 -5.9 0.0
46 -5.9 0.0
48 -5.9 0.0
50 -5.9 0.0
52 -5.9 0.0
54 -5.9 0.0
56 -5.9 0.0
58 -5.9 0.0
60 -5.9 0.0
62 -5.9 0.0
64 -5.9 0.0
66 -5.9 0.0
68 -5.9 0.0
70 -5.9 0.0
72 -5.9 0.0
74 -5.9 0.0
76 -5.9 0.0
78 -5.9 0.0
80 -5.9 0.0
82 -5.9 0.0
84 -5.9 0.0
86 -5.9 0.0
88 -5.9 0.0
90 -5.9 0.0
92 -5.9 0.0
94 -5.9 0.0
96 -5.9 0.0
98 -5.9 0.0
100 -5.9 0.0
102 -5.9 0.0
104 -5.9 0.0
106 -5.9 0.0
108 -5.9 0.0
110 -5.9 0.0
112 -5.9 0.0
114 -5.9 0.0
116 -5.9 0.0
118 -5.9 0.0
120 -5.9 0.0
0 -6 0.0
1 -6 0.0
2 -6 0.0
3 -6 0.0
4 -6 0.0
5 -6 0.0
6 -6 0.0
7 -6 0.0
8 -6 0.0
9 -6 0.0
10 -6 0.0
11 -6 0.0
12 -6 0.0
13 -6 0.0
14 -6 0.0
15 -6 0.0
16 -6 0.0
17 -6 0.0
18 -6 0.0
19 -6 0.0
20 -6 0.0
21 -6 0.0
22 -6 0.0
23 -6 0.0
24 -6 0.0
25 -6 0.0
26 -6 0.0
27 -6 0.0
28 -6 0.0
29 -6 0.0
30 -6 0.0
31 -6 0.0
32 -6 0.0
33 -6 0.0
34 -6 0.0
35 -6 0.0
36 -6 0.0
37 -6 0.0
38 -6 0.0
39 -6 0.0
40 -6 0.0
41 -6 0.0
42 -6 0.0
43 -6 0.0
44 -6 0.0
45 -6 0.0
46 -6 0.0
47 -6 0.0
48 -6 0.0
49 -6 0.0
50 -6 0.0
51 -6 0.0
52 -6 0.0
53 -6 0.0
54 -6 0.0
55 -6 0.0
56 -6 0.0
57 -6 0.0
58 -6 0.0
59 -6 0.0
60 -6 0.0
61 -6 0.0
62 -6 0.0
63 -6 0.0
64 -6 0.0
65 -6 0.0
66 -6 0.0
67 -6 0.0
68 -6 0.0
69 -6 0.0
70 -6 0.0
71 -6 0.0
72 -6 0.0
73 -6 0.0
74 -6 0.0
75 -6 0.0
76 -6 0.0
77 -6 0.0
78 -6 0.0
79 -6 0.0
80 -6 0.0
81 -6 0.0
82 -6 0.0
83 -6 0.0
84 -6 0.0
85 -6 0.0
86 -6 0.0
87 -6 0.0
88 -6 0.0
89 -6 0.0
90 -6 0.0
91 -6 0.0
92 -6 0.0
93 -6 0.0
94 -6 0.0
95 -6 0.0
96 -6 0.0
97 -6 0.0
98 -6 0.0
99 -6 0.0
100 -6 0.0
101 -6 0.0
102 -6 0.0
103 -6 0.0
104 -6 0.0
105 -6 0.0
106 -6 0.0
107 -6 0.0
108 -6 0.0
109 -6 0.0
110 -6 0.0
111 -6 0.0
112 -6 0.0
113 -6 0.0
114 -6 0.0
115 -6 0.0
116 -6 0.0
117 -6 0.0
118 -6 0.0
119 -6 0.0
120 -6 0.0
0 -6.1 0.0
2 -6.1 0.0
4 -6.1 0.0
6 -6.1 0.0
8 -6.1 0.0
10 -6.1 0.0
12 -6.1 0.0
14 -6.1 0.0
16 -6.1 0.0
18 -6.1 0.0
20 -6.1 0.0
22 -6.1 0.0
24 -6.1 0.0
26 -6.1 0.0
28 -6.1 0.0
30 -6.1 0.0
32 -6.1 0.0
34 -6.1 0.0
36 -6.1 0.0
38 -6.1 0.0
40 -6.1 0.0
42 -6.1 0.0
44 -6.1 0.0
46 -6.1 0.0
48 -6.1 0.0
50 -6.1 0.0
52 -6.1 0.0
54 -6.1 0.0
56 -6.1 0.0
58 -6.1 0.0
60 -6.1 0.0
62 -6.1 0.0
64 -6.1 0.0
66 -6.1 0.0
68 -6.1 0.0
70 -6.1 0.0
72 -6.1 0.0
74 -6.1 0.0
76 -6.1 0.0
78 -6.1 0.0
80 -6.1 0.0
82 -6.1 0.0
84 -6.1 0.0
86 -6.1 0.0
88 -6.1 0.0
90 -6.1 0.0
92 -6.1 0.0
94 -6.1 0.0
96 -6.1 0.0
98 -6.1 0.0
100 -6.1 0.0
102 -6.1 0.0
104 -6.1 0.0
106 -6.1 0.0
108 -6.1 0.0
110 -6.1 0.0
112 -6.1 0.0
114 -6.1 0.0
116 -6.1 0.0
118 -6.1 0.0
120 -6.1 0.0
0 -6.2 0.0
1 -6.2 0.0
2 -6.2 0.0
3 -6.2 0.0
4 -6.2 0.0
5 -6.2 0.0
6 -6.2 0.0
7 -6.2 0.0
8 -6.2 0.0
9 -6.2 0.0
10 -6.2 0.0
11 -6.2 0.0
12 -6.2 0.0
13 -6.2 0.0
14 -6.2 0.0
15 -6.2 0.0
16 -6.2 0.0
17 -6.2 0.0
18 -6.2 0.0
19 -6.2 0.0
20 -6.2 0.0
21 -6.2 0.0
22 -6.2 0.0
23 -6.2 0.0
24 -6.2 0.0
25 -6.2 0.0
26 -6.2 0.0
27 -6.2 0.0
28 -6.2 0.0
29 -6.2 0.0
30 -6.2 0.0
31 -6.2 0.0
32 -6.2 0.0
33 -6.2 0.0
34 -6.2 0.0
35 -6.2 0.0
36 -6.2 0.0
37 -6.2 0.0
38 -6.2 0.0
39 -6.2 0.0
40 -6.2 0.0
41 -6.2 0.0
42 -6.2 0.0
43 -6.2 0.0
44 -6.2 0.0
45 -6.2 0.0
46 -6.2 0.0
47 -6.2 0.0
48 -6.2 0.0
49 -6.2 0.0
50 -6.2 0.0
51 -6.2 0.0
52 -6.2 0.0
53 -6.2 0.0
54 -6.2 0.0
55 -6.2 0.0
56 -6.2 0.0
57 -6.2 0.0
58 -6.2 0.0
59 -6.2 0.0
60 -6.2 0.0
61 -6.2 0.0
62 -6.2 0.0
63 -6.2 0.0
64 -6.2 0.0
65 -6.2 0.0
66 -6.2 0.0
67 -6.2 0.0
68 -6.2 0.0
69 -6.2 0.0
70 -6.2 0.0
71 -6.2 0.0
72 -6.2 0.0
73 -6.2 0.0
74 -6.2 0.0
75 -6.2 0.0
76 -6.2 0.0
77 -6.2 0.0
78 -6.2 0.0
79 -6.2 0.0
80 -6.2 0.0
81 -6.2 0.0
82 -6.2 0.0
83 -6.2 0.0
84 -6.2 0.0
85 -6.2 0.0
86 -6.2 0.0
87 -6.2 0.0
88 -6.2 0.0
89 -6.2 0.0
90 -6.2 0.0
91 -6.2 0.0
92 -6.2 0.0
93 -6.2 0.0
94 -6.2 0.0
95 -6.2 0.0
96 -6.2 0.0
97 -6.2 0.0
98 -6.2 0.0
99 -6.2 0.0
100 -6.2 0.0
101 -6.2 0.0
102 -6.2 0.0
103 -6.2 0.0
104 -6.2 0.0
105 -6.2 0.0
106 -6.2 0.0
107 -6.2 0.0
108 -6.2 0.0
109 -6.2 0.0
110 -6.2 0.0
111 -6.2 0.0
112 -6.2 0.0
113 -6.2 0.0
114 -6.2 0.0
115 -6.2 0.0
116 -6.2 0.0
117 -6.2 0.0
118 -6.2 0.0
119 -6.2 0.0
120 -6.2 0.0
0 -6.3 0.0
2 -6.3 0.0
4 -6.3 0.0
6 -6.3 0.0
8 -6.3 0.0
10 -6.3 0.0
12 -6.3 0.0
14 -6.3 0.0
16 -6.3 0.0
18 -6.3 0.0
20 -6.3 0.0
22 -6.3 0.0
24 -6.3 0.0
26 -6.3 0.0
28 -6.3 0.0
30 -6.3 0.0
32 -6.3 0.0
34 -6.3 0.0
36 -6.3 0.0
38 -6.3 0.0
40 -6.3 0.0
42 -6.3 0.0
44 -6.3 0.0
46 -6.3 0.0
48 -6.3 0.0
50 -6.3 0.0
52 -6.3 0.0
54 -6.3 0.0
56 -6.3 0.0
58 -6.3 0.0
60 -6.3 0.0
62 -6.3 0.0
64 -6.3 0.0
66 -6.3 0.0
68 -6.3 0.0
70 -6.3 0.0
72 -6.3 0.0
74 -6.3 0.0
76 -6.3 0.0
78 -6.3 0.0
80 -6.3 0.0
82 -6.3 0.0
84 -6.3 0.0
86 -6.3 0.0
88 -6.3 0.0
90 -6.3 0.0
92 -6.3 0.0
94 -6.3 0.0
96 -6.3 0.0
98 -6.3 0.0
100 -6.3 0.0
102 -6.3 0.0
104 -6.3 0.0
106 -6.3 0.0
108 -6.3 0.0
110 -6.3 0.0
112 -6.3 0.0
114 -6.3 0.0
116 -6.3 0.0
118 -6.3 0.0
120 -6.3 0.0
0 -6.4 0.0
1 -6.4 0.0
2 -6.4 0.0
3 -6.4 0.0
4 -6.4 0.0
5 -6.4 0.0
6 -6.4 0.0
7 -6.4 0.0
8 -6.4 0.0
9 -6.4 0.0
10 -6.4 0.0
11 -6.4 0.0
12 -6.4 0.0
13 -6.4 0.0
14 -6.4 0.0
15 -6.4 0.0
16 -6.4 0.0
17 -6.4 0.0
18 -6.4 0.0
19 -6.4 0.0
20 -6.4 0.0
21 -6.4 0.0
22 -6.4 0.0
23 -6.4 0.0
24 -6.4 0.0
25 -6.4 0.0
26 -6.4 0.0
27 -6.4 0.0
28 -6.4 0.0
29 -6.4 0.0
30 -6.4 0.0
31 -6.4 0.0
32 -6.4 0.0
33 -6.4 0.0
34 -6.4 0.0
35 -6.4 0.0
36 -6.4 0.0
37 -6.4 0.0
38 -6.4 0.0
39 -6.4 0.0
40 -6.4 0.0
41 -6.4 0.0
42 -6.4 0.0
43 -6.4 0.0
44 -6.4 0.0
45 -6.4 0.0
46 -6.4 0.0
47 -6.4 0.0
48 -6.4 0.0
49 -6.4 0.0
50 -6.4 0.0
51 -6.4 0.0
52 -6.4 0.0
53 -6.4 0.0
54 -6.4 0.0
55 -6.4 0.0
56 -6.4 0.0
57 -6.4 0.0
58 -6.4 0.0
59 -6.4 0.0
60 -6.4 0.0
61 -6.4 0.0
62 -6.4 0.0
63 -6.4 0.0
64 -6.4 0.0
65 -6.4 0.0
66 -6.4 0.0
67 -6.4 0.0
68 -6.4 0.0
69 -6.4 0.0
70 -6.4 0.0
71 -6.4 0.0
72 -6.4 0.0
73 -6.4 0.0
74 -6.4 0.0
75 -6.4 0.0
76 -6.4 0.0
77 -6.4 0.0
78 -6.4 0.0
79 -6.4 0.0
80 -6.4 0.0
81 -6.4 0.0
82 -6.4 0.0
83 -6.4 0.0
84 -6.4 0.0
85 -6.4 0.0
86 -6.4 0.0
87 -6.4 0.0
88 -6.4 0.0
89 -6.4 0.0
90 -6.4 0.0
91 -6.4 0.0
92 -6.4 0.0
93 -6.4 0.0
94 -6.4 0.0
95 -6.4 0.0
96 -6.4 0.0
97 -6.4 0.0
98 -6.4 0.0
99 -6.4 0.0
100 -6.4 0.0
101 -6.4 0.0
102 -6.4 0.0
103 -6.4 0.0
104 -6.4 0.0
105 -6.4 0.0
106 -6.4 0.0
107 -6.4 0.0
108 -6.4 0.0
109 -6.4 0.0
110 -6.4 0.0
111 -6.4 0.0
112 -6.4 0.0
113 -6.4 0.0
114 -6.4 0.0
115 -6.4 0.0
116 -6.4 0.0
117 -6.4 0.0
118 -6.4 0.0
119 -6.4 0.0
120 -6.4 0.0
0 -6.5 0.0
2 -6.5 0.0
4 -6.5 0.0
6 -6.5 0.0
8 -6.5 0.0
10 -6.5 0.0
12 -6.5 0.0
14 -6.5 0.0
16 -6.5 0.0
18 -6.5 0.0
20 -6.5 0.0
22 -6.5 0.0
24 -6.5 0.0
26 -6.5 0.0
28 -6.5 0.0
30 -6.5 0.0
32 -6.5 0.0
34 -6.5 0.0
36 -6.5 0.0
38 -6.5 0.0
40 -6.5 0.0
42 -6.5 0.0
44 -6.5 0.0
46 -6.5 0.0
48 -6.5 0.0
50 -6.5 0.0
52 -6.5 0.0
54 -6.5 0.0
56 -6.5 0.0
58 -6.5 0.0
60 -6.5 0.0
62 -6.5 0.0
64 -6.5 0.0
66 -6.5 0.0
68 -6.5 0.0
70 -6.5 0.0
72 -6.5 0.0
74 -6.5 0.0
76 -6.5 0.0
78 -6.5 0.0
80 -6.5 0.0
82 -6.5 0.0
84 -6.5 0.0
86 -6.5 0.0
88 -6.5 0.0
90 -6.5 0.0
92 -6.5 0.0
94 -6.5 0.0
96 -6.5 0.0
98 -6.5 0.0
100 -6.5 0.0
102 -6.5 0.0
104 -6.5 0.0
106 -6.5 0.0
108 -6.5 0.0
110 -6.5 0.0
112 -6.5 0.0
114 -6.5 0.0
116 -6.5 0.0
118 -6.5 0.0
120 -6.5 0.0
0 -6.6 0.0
1 -6.6 0.0
2 -6.6 0.0
3 -6.6 0.0
4 -6.6 0.0
5 -6.6 0.0
6 -6.6 0.0
7 -6.6 0.0
8 -6.6 0.0
9 -6.6 0.0
10 -6.6 0.0
11 -6.6 0.0
12 -6.6 0.0
13 -6.6 0.0
14 -6.6 0.0
15 -6.6 0.0
16 -6.6 0.0
17 -6.6 0.0
18 -6.6 0.0
19 -6.6 0.0
20 -6.6 0.0
21 -6.6 0.0
22 -6.6 0.0
23 -6.6 0.0
24 -6.6 0.0
25 -6.6 0.0
26 -6.6 0.0
27 -6.6 0.0
28 -6.6 0.0
29 -6.6 0.0
30 -6.6 0.0
31 -6.6 0.0
32 -6.6 0.0
33 -6.6 0.0
34 -6.6 0.0
35 -6.6 0.0
36 -6.6 0.0
37 -6.6 0.0
38 -6.6 0.0
39 -6.6 0.0
40 -6.6 0.0
41 -6.6 0.0
42 -6.6 0.0
43 -6.6 0.0
44 -6.6 0.0
45 -6.6 0.0
46 -6.6 0.0
47 -6.6 0.0
48 -6.6 0.0
49 -6.6 0.0
50 -6.6 0.0
51 -6.6 0.0
52 -6.6 0.0
53 -6.6 0.0
54 -6.6 0.0
55 -6.6 0.0
56 -6.6 0.0
57 -6.6 0.0
58 -6.6 0.0
59 -6.6 0.0
60 -6.6 0.0
61 -6.6 0.0
62 -6.6 0.0
63 -6.6 0.0
64 -6.6 0.0
65 -6.6 0.0
66 -6.6 0.0
67 -6.6 0.0
68 -6.6 0.0
69 -6.6 0.0
70 -6.6 0.0
71 -6.6 0.0
72 -6.6 0.0
73 -6.6 0.0
74 -6.6 0.0
75 -6.6 0.0
76 -6.6 0.0
77 -6.6 0.0
78 -6.6 0.0
79 -6.6 0.0
80 -6.6 0.0
81 -6.6 0.0
82 -6.6 0.0
83 -6.6 0.0
84 -6.6 0.0
85 -6.6 0.0
86 -6.6 0.0
87 -6.6 0.0
88 -6.6 0.0
89 -6.6 0.0
90 -6.6 0.0
91 -6.6 0.0
92 -6.6 0.0
93 -6.6 0.0
94 -6.6 0.0
95 -6.6 0.0
96 -6.6 0.0
97 -6.6 0.0
98 -6.6 0.0
99 -6.6 0.0
100 -6.6 0.0
101 -6.6 0.0
102 -6.6 0.0
103 -6.6 0.0
104 -6.6 0.0
105 -6.6 0.0
106 -6.6 0.0
107 -6.6 0.0
108 -6.6 0.0
109 -6.6 0.0
110 -6.6 0.0
111 -6.6 0.0
112 -6.6 0.0
113 -6.6 0.0
114 -6.6 0.0
115 -6.6 0.0
116 -6.6 0.0
117 -6.6 0.0
118 -6.6 0.0
119 -6.6 0.0
120 -6.6 0.0
0 -6.7 0.0
2 -6.7 0.0
4 -6.7 0.0
6 -6.7 0.0
8 -6.7 0.0
10 -6.7 0.0
12 -6.7 0.0
14 -6.7 0.0
16 -6.7 0.0
18 -6.7 0.0
20 -6.7 0.0
22 -6.7 0.0
24 -6.7 0.0
26 -6.7 0.0
28 -6.7 0.0
30 -6.7 0.0
32 -6.7 0.0
34 -6.7 0.0
36 -6.7 0.0
38 -6.7 0.0
40 -6.7 0.0
42 -6.7 0.0
44 -6.7 0.0
46 -6.7 0.0
48 -6.7 0.0
50 -6.7 0.0
52 -6.7 0.0
54 -6.7 0.0
56 -6.7 0.0
58 -6.7 0.0
60 -6.7 0.0
62 -6.7 0.0
64 -6.7 0.0
66 -6.7 0.0
68 -6.7 0.0
70 -6.7 0.0
72 -6.7 0.0
74 -6.7 0.0
76 -6.7 0.0
78 -6.7 0.0
80 -6.7 0.0
82 -6.7 0.0
84 -6.7 0.0
86 -6.7 0.0
88 -6.7 0.0
90 -6.7 0.0
92 -6.7 0.0
94 -6.7 0.0
96 -6.7 0.0
98 -6.7 0.0
100 -6.7 0.0
102 -6.7 0.0
104 -6.7 0.0
106 -6.7 0.0
108 -6.7 0.0
110 -6.7 0.0
112 -6.7 0.0
114 -6.7 0.0
116 -6.7 0.0
118 -6.7 0.0
120 -6.7 0.0
0 -6.8 0.0
1 -6.8 0.0
2 -6.8 0.0
3 -6.8 0.0
4 -6.8 0.0
5 -6.8 0.0
6 -6.8 0.0
7 -6.8 0.0
8 -6.8 0.0
9 -6.8 0.0
10 -6.8 0.0
11 -6.8 0.0
12 -6.8 0.0
13 -6.8 0.0
14 -6.8 0.0
15 -6.8 0.0
16 -6.8 0.0
17 -6.8 0.0
18 -6.8 0.0
19 -6.8 0.0
20 -6.8 0.0
21 -6.8 0.0
22 -6.8 0.0
23 -6.8 0.0
24 -6.8 0.0
25 -6.8 0.0
26 -6.8 0.0
27 -6.8 0.0
28 -6.8 0.0
29 -6.8 0.0
30 -6.8 0.0
31 -6.8 0.0
32 -6.8 0.0
33 -6.8 0.0
34 -6.8 0.0
35 -6.8 0.0
36 -6.8 0.0
37 -6.8 0.0
38 -6.8 0.0
39 -6.8 0.0
40 -6.8 0.0
41 -6.8 0.0
42 -6.8 0.0
43 -6.8 0.0
44 -6.8 0.0
45 -6.8 0.0
46 -6.8 0.0
47 -6.8 0.0
48 -6.8 0.0
49 -6.8 0.0
50 -6.8 0.0
51 -6.8 0.0
52 -6.8 0.0
53 -6.8 0.0
54 -6.8 0.0
55 -6.8 0.0
56 -6.8 0.0
57 -6.8 0.0
58 -6.8 0.0
59 -6.8 0.0
60 -6.8 0.0
61 -6.8 0.0
62 -6.8 0.0
63 -6.8 0.0
64 -6.8 0.0
65 -6.8 0.0
66 -6.8 0.0
67 -6.8 0.0
68 -6.8 0.0
69 -6.8 0.0
70 -6.8 0.0
71 -6.8 0.0
72 -6.8 0.0
73 -6.8 0.0
74 -6.8 0.0
75 -6.8 0.0
76 -6.8 0.0
77 -6.8 0.0
78 -6.8 0.0
79 -6.8 0.0
80 -6.8 0.0
81 -6.8 0.0
82 -6.8 0.0
83 -6.8 0.0
84 -6.8 0.0
85 -6.8 0.0
86 -6.8 0.0
87 -6.8 0.0
88 -6.8 0.0
89 -6.8 0.0
90 -6.8 0.0
91 -6.8 0.0
92 -6.8 0.0
93 -6.8 0.0
94 -6.8 0.0
95 -6.8 0.0
96 -6.8 0.0
97 -6.8 0.0
98 -6.8 0.0
99 -6.8 0.0
100 -6.8 0.0
101 -6.8 0.0
102 -6.8 0.0
103 -6.8 0.0
104 -6.8 0.0
105 -6.8 0.0
106 -6.8 0.0
107 -6.8 0.0
108 -6.8 0.0
109 -6.8 0.0
110 -6.8 0.0
111 -6.8 0.0
112 -6.8 0.0
113 -6.8 0.0
114 -6.8 0.0
115 -6.8 0.0
116 -6.8 0.0
117 -6.8 0.0
118 -6.8 0.0
119 -6.8 0.0
120 -6.8 0.0
0 -6.9 0.0
2 -6.9 0.0
4 -6.9 0.0
6 -6.9 0.0
8 -6.9 0.0
10 -6.9 0.0
12 -6.9 0.0
14 -6.9 0.0
16 -6.9 0.0
18 -6.9 0.0
20 -6.9 0.0
22 -6.9 0.0
24 -6.9 0.0
26 -6.9 0.0
28 -6.9 0.0
30 -6.9 0.0
32 -6.9 0.0
34 -6.9 0.0
36 -6.9 0.0
38 -6.9 0.0
40 -6.9 0.0
42 -6.9 0.0
44 -6.9 0.0
46 -6.9 0.0
48 -6.9 0.0
50 -6.9 0.0
52 -6.9 0.0
54 -6.9 0.0
56 -6.9 0.0
58 -6.9 0.0
60 -6.9 0.0
62 -6.9 0.0
64 -6.9 0.0
66 -6.9 0.0
68 -6.9 0.0
70 -6.9 0.0
72 -6.9 0.0
74 -6.9 0.0
76 -6.9 0.0
78 -6.9 0.0
80 -6.9 0.0
82 -6.9 0.0
84 -6.9 0.0
86 -6.9 0.0
88 -6.9 0.0
90 -6.9 0.0
92 -6.9 0.0
94 -6.9 0.0
96 -6.9 0.0
98 -6.9 0.0
100 -6.9 0.0
102 -6.9 0.0
104 -6.9 0.0
106 -6.9 0.0
108 -6.9 0.0
110 -6.9 0.0
112 -6.9 0.0
114 -6.9 0.0
116 -6.9 0.0
118 -6.9 0.0
120 -6.9 0.0
0 -7 0.0
1 -7 0.0
2 -7 0.0
3 -7 0.0
4 -7 0.0
5 -7 0.0
6 -7 0.0
7 -7 0.0
8 -7 0.0
9 -7 0.0
10 -7 0.0
11 -7 0.0
12 -7 0.0
13 -7 0.0
14 -7 0.0
15 -7 0.0
16 -7 0.0
17 -7 0.0
18 -7 0.0
19 -7 0.0
20 -7 0.0
21 -7 0.0
22 -7 0.0
23 -7 0.0
24 -7 0.0
25 -7 0.0
26 -7 0.0
27 -7 0.0
28 -7 0.0
29 -7 0.0
30 -7 0.0
31 -7 0.0
32 -7 0.0
33 -7 0.0
34 -7 0.0
35 -7 0.0
36 -7 0.0
37 -7 0.0
38 -7 0.0
39 -7 0.0
40 -7 0.0
41 -7 0.0
42 -7 0.0
43 -7 0.0
44 -7 0.0
45 -7 0.0
46 -7 0.0
47 -7 0.0
48 -7 0.0
49 -7 0.0
50 -7 0.0
51 -7 0.0
52 -7 0.0
53 -7 0.0
54 -7 0.0
55 -7 0.0
56 -7 0.0
57 -7 0.0
58 -7 0.0
59 -7 0.0
60 -7 0.0
61 -7 0.0
62 -7 0.0
63 -7 0.0
64 -7 0.0
65 -7 0.0
66 -7 0.0
67 -7 0.0
68 -7 0.0
69 -7 0.0
70 -7 0.0
71 -7 0.0
72 -7 0.0
73 -7 0.0
74 -7 0.0
75 -7 0.0
76 -7 0.0
77 -7 0.0
78 -7 0.0
79 -7 0.0
80 -7 0.0
81 -7 0.0
82 -7 0.0
83 -7 0.0
84 -7 0.0
85 -7 0.0
86 -7 0.0
87 -7 0.0
88 -7 0.0
89 -7 0.0
90 -7 0.0
91 -7 0.0
92 -7 0.0
93 -7 0.0
94 -7 0.0
95 -7 0.0
96 -7 0.0
97 -7 0.0
98 -7 0.0
99 -7 0.0
100 -7 0.0
101 -7 0.0
102 -7 0.0
103 -7 0.0
104 -7 0.0
105 -7 0.0
106 -7 0.0
107 -7 0.0
108 -7 0.0
109 -7 0.0
110 -7 0.0
111 -7 0.0
112 -7 0.0
113 -7 0.0
114 -7 0.0
115 -7 0.0
116 -7 0.0
117 -7 0.0
118 -7 0.0
119 -7 0.0
120 -7 0.0
0 -7.1 0.0
2 -7.1 0.0
4 -7.1 0.0
6 -7.1 0.0
8 -7.1 0.0
10 -7.1 0.0
12 -7.1 0.0
14 -7.1 0.0
16 -7.1 0.0
18 -7.1 0.0
20 -7.1 0.0
22 -7.1 0.0
24 -7.1 0.0
26 -7.1 0.0
28 -7.1 0.0
30 -7.1 0.0
32 -7.1 0.0
34 -7.1 0.0
36 -7.1 0.0
38 -7.1 0.0
40 -7.1 0.0
42 -7.1 0.0
44 -7.1 0.0
46 -7.1 0.0
48 -7.1 0.0
50 -7.1 0.0
52 -7.1 0.0
54 -7.1 0.0
56 -7.1 0.0
58 -7.1 0.0
60 -7.1 0.0
62 -7.1 0.0
64 -7.1 0.0
66 -7.1 0.0
68 -7.1 0.0
70 -7.1 0.0
72 -7.1 0.0
74 -7.1 0.0
76 -7.1 0.0
78 -7.1 0.0
80 -7.1 0.0
82 -7.1 0.0
84 -7.1 0.0
86 -7.1 0.0
88 -7.1 0.0
90 -7.1 0.0
92 -7.1 0.0
94 -7.1 0.0
96 -7.1 0.0
98 -7.1 0.0
100 -7.1 0.0
102 -7.1 0.0
104 -7.1 0.0
106 -7.1 0.0
108 -7.1 0.0
110 -7.1 0.0
112 -7.1 0.0
114 -7.1 0.0
116 -7.1 0.0
118 -7.1 0.0
120 -7.1 0.0
0 -7.2 0.0
1 -7.2 0.0
2 -7.2 0.0
3 -7.2 0.0
4 -7.2 0.0
5 -7.2 0.0
6 -7.2 0.0
7 -7.2 0.0
8 -7.2 0.0
9 -7.2 0.0
10 -7.2 0.0
11 -7.2 0.0
12 -7.2 0.0
13 -7.2 0.0
14 -7.2 0.0
15 -7.2 0.0
16 -7.2 0.0
17 -7.2 0.0
18 -7.2 0.0
19 -7.2 0.0
20 -7.2 0.0
21 -7.2 0.0
22 -7.2 0.0
23 -7.2 0.0
24 -7.2 0.0
25 -7.2 0.0
26 -7.2 0.0
27 -7.2 0.0
28 -7.2 0.0
29 -7.2 0.0
30 -7.2 0.0
31 -7.2 0.0
32 -7.2 0.0
33 -7.2 0.0
34 -7.2 0.0
35 -7.2 0.0
36 -7.2 0.0
37 -7.2 0.0
38 -7.2 0.0
39 -7.2 0.0
40 -7.2 0.0
41 -7.2 0.0
42 -7.2 0.0
43 -7.2 0.0
44 -7.2 0.0
45 -7.2 0.0
46 -7.2 0.0
47 -7.2 0.0
48 -7.2 0.0
49 -7.2 0.0
50 -7.2 0.0
51 -7.2 0.0
52 -7.2 0.0
53 -7.2 0.0
54 -7.2 0.0
55 -7.2 0.0
56 -7.2 0.0
57 -7.2 0.0
58 -7.2 0.0
59 -7.2 0.0
60 -7.2 0.0
61 -7.2 0.0
62 -7.2 0.0
63 -7.2 0.0
64 -7.2 0.0
65 -7.2 0.0
66 -7.2 0.0
67 -7.2 0.0
68 -7.2 0.0
69 -7.2 0.0
70 -7.2 0.0
71 -7.2 0.0
72 -7.2 0.0
73 -7.2 0.0
74 -7.2 0.0
75 -7.2 0.0
76 -7.2 0.0
77 -7.2 0.0
78 -7.2 0.0
79 -7.2 0.0
80 -7.2 0.0
81 -7.2 0.0
82 -7.2 0.0
83 -7.2 0.0
84 -7.2 0.0
85 -7.2 0.0
86 -7.2 0.0
87 -7.2 0.0
88 -7.2 0.0
89 -7.2 0.0
90 -7.2 0.0
91 -7.2 0.0
92 -7.2 0.0
93 -7.2 0.0
94 -7.2 0.0
95 -7.2 0.0
96 -7.2 0.0
97 -7.2 0.0
98 -7.2 0.0
99 -7.2 0.0
100 -7.2 0.0
101 -7.2 0.0
102 -7.2 0.0
103 -7.2 0.0
104 -7.2 0.0
105 -7.2 0.0
106 -7.2 0.0
107 -7.2 0.0
108 -7.2 0.0
109 -7.2 0.0
110 -7.2 0.0
111 -7.2 0.0
112 -7.2 0.0
113 -7.2 0.0
114 -7.2 0.0
115 -7.2 0.0
116 -7.2 0.0
117 -7.2 0.0
118 -7.2 0.0
119 -7.2 0.0
120 -7.2 0.0
0 -7.3 0.0
2 -7.3 0.0
4 -7.3 0.0
6 -7.3 0.0
8 -7.3 0.0
10 -7.3 0.0
12 -7.3 0.0
14 -7.3 0.0
16 -7.3 0.0
18 -7.3 0.0
20 -7.3 0.0
22 -7.3 0.0
24 -7.3 0.0
26 -7.3 0.0
28 -7.3 0.0
30 -7.3 0.0
32 -7.3 0.0
34 -7.3 0.0
36 -7.3 0.0
38 -7.3 0.0
40 -7.3 0.0
42 -7.3 0.0
44 -7.3 0.0
46 -7.3 0.0
48 -7.3 0.0
50 -7.3 0.0
52 -7.3 0.0
54 -7.3 0.0
56 -7.3 0.0
58 -7.3 0.0
60 -7.3 0.0
62 -7.3 0.0
64 -7.3 0.0
66 -7.3 0.0
68 -7.3 0.0
70 -7.3 0.0
72 -7.3 0.0
74 -7.3 0.0
76 -7.3 0.0
78 -7.3 0.0
80 -7.3 0.0
82 -7.3 0.0
84 -7.3 0.0
86 -7.3 0.0
88 -7.3 0.0
90 -7.3 0.0
92 -7.3 0.0
94 -7.3 0.0
96 -7.3 0.0
98 -7.3 0.0
100 -7.3 0.0
102 -7.3 0.0
104 -7.3 0.0
106 -7.3 0.0
108 -7.3 0.0
110 -7.3 0.0
112 -7.3 0.0
114 -7.3 0.0
116 -7.3 0.0
118 -7.3 0.0
120 -7.3 0.0
0 -7.4 0.0
1 -7.4 0.0
2 -7.4 0.0
3 -7.4 0.0
4 -7.4 0.0
5 -7.4 0.0
6 -7.4 0.0
7 -7.4 0.0
8 -7.4 0.0
9 -7.4 0.0
10 -7.4 0.0
11 -7.4 0.0
12 -7.4 0.0
13 -7.4 0.0
14 -7.4 0.0
15 -7.4 0.0
16 -7.4 0.0
17 -7.4 0.0
18 -7.4 0.0
19 -7.4 0.0
20 -7.4 0.0
21 -7.4 0.0
22 -7.4 0.0
23 -7.4 0.0
24 -7.4 0.0
25 -7.4 0.0
26 -7.4 0.0
27 -7.4 0.0
28 -7.4 0.0
29 -7.4 0.0
30 -7.4 0.0
31 -7.4 0.0
32 -7.4 0.0
33 -7.4 0.0
34 -7.4 0.0
35 -7.4 0.0
36 -7.4 0.0
37 -7.4 0.0
38 -7.4 0.0
39 -7.4 0.0
40 -7.4 0.0
41 -7.4 0.0
42 -7.4 0.0
43 -7.4 0.0
44 -7.4 0.0
45 -7.4 0.0
46 -7.4 0.0
47 -7.4 0.0
48 -7.4 0.0
49 -7.4 0.0
50 -7.4 0.0
51 -7.4 0.0
52 -7.4 0.0
53 -7.4 0.0
54 -7.4 0.0
55 -7.4 0.0
56 -7.4 0.0
57 -7.4 0.0
58 -7.4 0.0
59 -7.4 0.0
60 -7.4 0.0
61 -7.4 0.0
62 -7.4 0.0
63 -7.4 0.0
64 -7.4 0.0
65 -7.4 0.0
66 -7.4 0.0
67 -7.4 0.0
68 -7.4 0.0
69 -7.4 0.0
70 -7.4 0.0
71 -7.4 0.0
72 -7.4 0.0
73 -7.4 0.0
74 -7.4 0.0
75 -7.4 0.0
76 -7.4 0.0
77 -7.4 0.0
78 -7.4 0.0
79 -7.4 0.0
80 -7.4 0.0
81 -7.4 0.0
82 -7.4 0.0
83 -7.4 0.0
84 -7.4 0.0
85 -7.4 0.0
86 -7.4 0.0
87 -7.4 0.0
88 -7.4 0.0
89 -7.4 0.0
90 -7.4 0.0
91 -7.4 0.0
92 -7.4 0.0
93 -7.4 0.0
94 -7.4 0.0
95 -7.4 0.0
96 -7.4 0.0
97 -7.4 0.0
98 -7.4 0.0
99 -7.4 0.0
100 -7.4 0.0
101 -7.4 0.0
102 -7.4 0.0
103 -7.4 0.0
104 -7.4 0.0
105 -7.4 0.0
106 -7.4 0.0
107 -7.4 0.0
108 -7.4 0.0
109 -7.4 0.0
110 -7.4 0.0
111 -7.4 0.0
112 -7.4 0.0
113 -7.4 0.0
114 -7.4 0.0
115 -7.4 0.0
116 -7.4 0.0
117 -7.4 0.0
118 -7.4 0.0
119 -7.4 0.0
120 -7.4 0.0
0 -7.5 0.0
2 -7.5 0.0
4 -7.5 0.0
6 -7.5 0.0
8 -7.5 0.0
10 -7.5 0.0
12 -7.5 0.0
14 -7.5 0.0
16 -7.5 0.0
18 -7.5 0.0
20 -7.5 0.0
22 -7.5 0.0
24 -7.5 0.0
26 -7.5 0.0
28 -7.5 0.0
30 -7.5 0.0
32 -7.5 0.0
34 -7.5 0.0
36 -7.5 0.0
38 -7.5 0.0
40 -7.5 0.0
42 -7.5 0.0
44 -7.5 0.0
46 -7.5 0.0
48 -7.5 0.0
50 -7.5 0.0
52 -7.5 0.0
54 -7.5 0.0
56 -7.5 0.0
58 -7.5 0.0
60 -7.5 0.0
62 -7.5 0.0
64 -7.5 0.0
66 -7.5 0.0
68 -7.5 0.0
70 -7.5 0.0
72 -7.5 0.0
74 -7.5 0.0
76 -7.5 0.0
78 -7.5 0.0
80 -7.5 0.0
82 -7.5 0.0
84 -7.5 0.0
86 -7.5 0.0
88 -7.5 0.0
90 -7.5 0.0
92 -7.5 0.0
94 -7.5 0.0
96 -7.5 0.0
98 -7.5 0.0
100 -7.5 0.0
102 -7.5 0.0
104 -7.5 0.0
106 -7.5 0.0
108 -7.5 0.0
110 -7.5 0.0
112 -7.5 0.0
114 -7.5 0.0
116 -7.5 0.0
118 -7.5 0.0
120 -7.5 0.0
0 -7.6 0.0
1 -7.6 0.0
2 -7.6 0.0
3 -7.6 0.0
4 -7.6 0.0
5 -7.6 0.0
6 -7.6 0.0
7 -7.6 0.0
8 -7.6 0.0
9 -7.6 0.0
10 -7.6 0.0
11 -7.6 0.0
12 -7.6 0.0
13 -7.6 0.0
14 -7.6 0.0
15 -7.6 0.0
16 -7.6 0.0
17 -7.6 0.0
18 -7.6 0.0
19 -7.6 0.0
20 -7.6 0.0
21 -7.6 0.0
22 -7.6 0.0
23 -7.6 0.0
24 -7.6 0.0
25 -7.6 0.0
26 -7.6 0.0
27 -7.6 0.0
28 -7.6 0.0
29 -7.6 0.0
30 -7.6 0.0
31 -7.6 0.0
32 -7.6 0.0
33 -7.6 0.0
34 -7.6 0.0
35 -7.6 0.0
36 -7.6 0.0
37 -7.6 0.0
38 -7.6 0.0
39 -7.6 0.0
40 -7.6 0.0
41 -7.6 0.0
42 -7.6 0.0
43 -7.6 0.0
44 -7.6 0.0
45 -7.6 0.0
46 -7.6 0.0
47 -7.6 0.0
48 -7.6 0.0
49 -7.6 0.0
50 -7.6 0.0
51 -7.6 0.0
52 -7.6 0.0
53 -7.6 0.0
54 -7.6 0.0
55 -7.6 0.0
56 -7.6 0.0
57 -7.6 0.0
58 -7.6 0.0
59 -7.6 0.0
60 -7.6 0.0
61 -7.6 0.0
62 -7.6 0.0
63 -7.6 0.0
64 -7.6 0.0
65 -7.6 0.0
66 -7.6 0.0
67 -7.6 0.0
68 -7.6 0.0
69 -7.6 0.0
70 -7.6 0.0
71 -7.6 0.0
72 -7.6 0.0
73 -7.6 0.0
74 -7.6 0.0
75 -7.6 0.0
76 -7.6 0.0
77 -7.6 0.0
78 -7.6 0.0
79 -7.6 0.0
80 -7.6 0.0
81 -7.6 0.0
82 -7.6 0.0
83 -7.6 0.0
84 -7.6 0.0
85 -7.6 0.0
86 -7.6 0.0
87 -7.6 0.0
88 -7.6 0.0
89 -7.6 0.0
90 -7.6 0.0
91 -7.6 0.0
92 -7.6 0.0
93 -7.6 0.0
94 -7.6 0.0
95 -7.6 0.0
96 -7.6 0.0
97 -7.6 0.0
98 -7.6 0.0
99 -7.6 0.0
100 -7.6 0.0
101 -7.6 0.0
102 -7.6 0.0
103 -7.6 0.0
104 -7.6 0.0
105 -7.6 0.0
106 -7.6 0.0
107 -7.6 0.0
108 -7.6 0.0
109 -7.6 0.0
110 -7.6 0.0
111 -7.6 0.0
112 -7.6 0.0
113 -7.6 0.0
114 -7.6 0.0
115 -7.6 0.0
116 -7.6 0.0
117 -7.6 0.0
118 -7.6 0.0
119 -7.6 0.0
120 -7.6 0.0
0 -7.7 0.0
2 -7.7 0.0
4 -7.7 0.0
6 -7.7 0.0
8 -7.7 0.0
10 -7.7 0.0
12 -7.7 0.0
14 -7.7 0.0
16 -7.7 0.0
18 -7.7 0.0
20 -7.7 0.0
22 -7.7 0.0
24 -7.7 0.0
26 -7.7 0.0
28 -7.7 0.0
30 -7.7 0.0
32 -7.7 0.0
34 -7.7 0.0
36 -7.7 0.0
38 -7.7 0.0
40 -7.7 0.0
42 -7.7 0.0
44 -7.7 0.0
46 -7.7 0.0
48 -7.7 0.0
50 -7.7 0.0
52 -7.7 0.0
54 -7.7 0.0
56 -7.7 0.0
58 -7.7 0.0
60 -7.7 0.0
62 -7.7 0.0
64 -7.7 0.0
66 -7.7 0.0
68 -7.7 0.0
70 -7.7 0.0
72 -7.7 0.0
74 -7.7 0.0
76 -7.7 0.0
78 -7.7 0.0
80 -7.7 0.0
82 -7.7 0.0
84 -7.7 0.0
86 -7.7 0.0
88 -7.7 0.0
90 -7.7 0.0
92 -7.7 0.0
94 -7.7 0.0
96 -7.7 0.0
98 -7.7 0.0
100 -7.7 0.0
102 -7.7 0.0
104 -7.7 0.0
106 -7.7 0.0
108 -7.7 0.0
110 -7.7 0.0
112 -7.7 0.0
114 -7.7 0.0
116 -7.7 0.0
118 -7.7 0.0
120 -7.7 0.0
0 -7.8 0.0
1 -7.8 0.0
2 -7.8 0.0
3 -7.8 0.0
4 -7.8 0.0
5 -7.8 0.0
6 -7.8 0.0
7 -7.8 0.0
8 -7.8 0.0
9 -7.8 0.0
10 -7.8 0.0
11 -7.8 0.0
12 -7.8 0.0
13 -7.8 0.0
14 -7.8 0.0
15 -7.8 0.0
16 -7.8 0.0
17 -7.8 0.0
18 -7.8 0.0
19 -7.8 0.0
20 -7.8 0.0
21 -7.8 0.0
22 -7.8 0.0
23 -7.8 0.0
24 -7.8 0.0
25 -7.8 0.0
26 -7.8 0.0
27 -7.8 0.0
28 -7.8 0.0
29 -7.8 0.0
30 -7.8 0.0
31 -7.8 0.0
32 -7.8 0.0
33 -7.8 0.0
34 -7.8 0.0
35 -7.8 0.0
36 -7.8 0.0
37 -7.8 0.0
38 -7.8 0.0
39 -7.8 0.0
40 -7.8 0.0
41 -7.8 0.0
42 -7.8 0.0
43 -7.8 0.0
44 -7.8 0.0
45 -7.8 0.0
46 -7.8 0.0
47 -7.8 0.0
48 -7.8 0.0
49 -7.8 0.0
50 -7.8 0.0
51 -7.8 0.0
52 -7.8 0.0
53 -7.8 0.0
54 -7.8 0.0
55 -7.8 0.0
56 -7.8 0.0
57 -7.8 0.0
58 -7.8 0.0
59 -7.8 0.0
60 -7.8 0.0
61 -7.8 0.0
62 -7.8 0.0
63 -7.8 0.0
64 -7.8 0.0
65 -7.8 0.0
66 -7.8 0.0
67 -7.8 0.0
68 -7.8 0.0
69 -7.8 0.0
70 -7.8 0.0
71 -7.8 0.0
72 -7.8 0.0
73 -7.8 0.0
74 -7.8 0.0
75 -7.8 0.0
76 -7.8 0.0
77 -7.8 0.0
78 -7.8 0.0
79 -7.8 0.0
80 -7.8 0.0
81 -7.8 0.0
82 -7.8 0.0
83 -7.8 0.0
84 -7.8 0.0
85 -7.8 0.0
86 -7.8 0.0
87 -7.8 0.0
88 -7.8 0.0
89 -7.8 0.0
90 -7.8 0.0
91 -7.8 0.0
92 -7.8 0.0
93 -7.8 0.0
94 -7.8 0.0
95 -7.8 0.0
96 -7.8 0.0
97 -7.8 0.0
98 -7.8 0.0
99 -7.8 0.0
100 -7.8 0.0
101 -7.8 0.0
102 -7.8 0.0
103 -7.8 0.0
104 -7.8 0.0
105 -7.8 0.0
106 -7.8 0.0
107 -7.8 0.0
108 -7.8 0.0
109 -7.8 0.0
110 -7.8 0.0
111 -7.8 0.0
112 -7.8 0.0
113 -7.8 0.0
114 -7.8 0.0
115 -7.8 0.0
116 -7.8 0.0
117 -7.8 0.0
118 -7.8 0.0
119 -7.8 0.0
120 -7.8 0.0
0 -7.9 0.0
2 -7.9 0.0
4 -7.9 0.0
6 -7.9 0.0
8 -7.9 0.0
10 -7.9 0.0
12 -7.9 0.0
14 -7.9 0.0
16 -7.9 0.0
18 -7.9 0.0
20 -7.9 0.0
22 -7.9 0.0
24 -7.9 0.0
26 -7.9 0.0
28 -7.9 0.0
30 -7.9 0.0
32 -7.9 0.0
34 -7.9 0.0
36 -7.9 0.0
38 -7.9 0.0
40 -7.9 0.0
42 -7.9 0.0
44 -7.9 0.0
46 -7.9 0.0
48 -7.9 0.0
50 -7.9 0.0
52 -7.9 0.0
54 -7.9 0.0
56 -7.9 0.0
58 -7.9 0.0
60 -7.9 0.0
62 -7.9 0.0
64 -7.9 0.0
66 -7.9 0.0
68 -7.9 0.0
70 -7.9 0.0
72 -7.9 0.0
74 -7.9 0.0
76 -7.9 0.0
78 -7.9 0.0
80 -7.9 0.0
82 -7.9 0.0
84 -7.9 0.0
86 -7.9 0.0
88 -7.9 0.0
90 -7.9 0.0
92 -7.9 0.0
94 -7.9 0.0
96 -7.9 0.0
98 -7.9 0.0
100 -7.9 0.0
102 -7.9 0.0
104 -7.9 0.0
106 -7.9 0.0
108 -7.9 0.0
110 -7.9 0.0
112 -7.9 0.0
114 -7.9 0.0
116 -7.9 0.0
118 -7.9 0.0
120 -7.9 0.0
0 -8 0.0
1 -8 0.0
2 -8 0.0
3 -8 0.0
4 -8 0.0
5 -8 0.0
6 -8 0.0
7 -8 0.0
8 -8 0.0
9 -8 0.0
10 -8 0.0
11 -8 0.0
12 -8 0.0
13 -8 0.0
14 -8 0.0
15 -8 0.0
16 -8 0.0
17 -8 0.0
18 -8 0.0
19 -8 0.0
20 -8 0.0
21 -8 0.0
22 -8 0.0
23 -8 0.0
24 -8 0.0
25 -8 0.0
26 -8 0.0
27 -8 0.0
28 -8 0.0
29 -8 0.0
30 -8 0.0
31 -8 0.0
32 -8 0.0
33 -8 0.0
34 -8 0.0
35 -8 0.0
36 -8 0.0
37 -8 0.0
38 -8 0.0
39 -8 0.0
40 -8 0.0
41 -8 0.0
42 -8 0.0
43 -8 0.0
44 -8 0.0
45 -8 0.0
46 -8 0.0
47 -8 0.0
48 -8 0.0
49 -8 0.0
50 -8 0.0
51 -8 0.0
52 -8 0.0
53 -8 0.0
54 -8 0.0
55 -8 0.0
56 -8 0.0
57 -8 0.0
58 -8 0.0
59 -8 0.0
60 -8 0.0
61 -8 0.0
62 -8 0.0
63 -8 0.0
64 -8 0.0
65 -8 0.0
66 -8 0.0
67 -8 0.0
68 -8 0.0
69 -8 0.0
70 -8 0.0
71 -8 0.0
72 -8 0.0
73 -8 0.0
74 -8 0.0
75 -8 0.0
76 -8 0.0
77 -8 0.0
78 -8 0.0
79 -8 0.0
80 -8 0.0
81 -8 0.0
82 -8 0.0
83 -8 0.0
84 -8 0.0
85 -8 0.0
86 -8 0.0
87 -8 0.0
88 -8 0.0
89 -8 0.0
90 -8 0.0
91 -8 0.0
92 -8 0.0
93 -8 0.0
94 -8 0.0
95 -8 0.0
96 -8 0.0
97 -8 0.0
98 -8 0.0
99 -8 0.0
100 -8 0.0
101 -8 0.0
102 -8 0.0
103 -8 0.0
104 -8 0.0
105 -8 0.0
106 -8 0.0
107 -8 0.0
108 -8 0.0
109 -8 0.0
110 -8 0.0
111 -8 0.0
112 -8 0.0
113 -8 0.0
114 -8 0.0
115 -8 0.0
116 -8 0.0
117 -8 0.0
118 -8 0.0
119 -8 0.0
120 -8 0.0
0 -8.1579 0.0
2 -8.1579 0.0
4 -8.1579 0.0
6 -8.1579 0.0
8 -8.1579 0.0
10 -8.1579 0.0
12 -8.1579 0.0
14 -8.1579 0.0
16 -8.1579 0.0
18 -8.1579 0.0
20 -8.1579 0.0
22 -8.1579 0.0
24 -8.1579 0.0
26 -8.1579 0.0
28 -8.1579 0.0
30 -8.1579 0.0
32 -8.1579 0.0
34 -8.1579 0.0
36 -8.1579 0.0
38 -8.1579 0.0
40 -8.1579 0.0
42 -8.1579 0.0
44 -8.1579 0.0
46 -8.1579 0.0
48 -8.1579 0.0
50 -8.1579 0.0
52 -8.1579 0.0
54 -8.1579 0.0
56 -8.1579 0.0
58 -8.1579 0.0
60 -8.1579 0.0
62 -8.1579 0.0
64 -8.1579 0.0
66 -8.1579 0.0
68 -8.1579 0.0
70 -8.1579 0.0
72 -8.1579 0.0
74 -8.1579 0.0
76 -8.1579 0.0
78 -8.1579 0.0
80 -8.1579 0.0
82 -8.1579 0.0
84 -8.1579 0.0
86 -8.1579 0.0
88 -8.1579 0.0
90 -8.1579 0.0
92 -8.1579 0.0
94 -8.1579 0.0
96 -8.1579 0.0
98 -8.1579 0.0
100 -8.1579 0.0
102 -8.1579 0.0
104 -8.1579 0.0
106 -8.1579 0.0
108 -8.1579 0.0
110 -8.1579 0.0
112 -8.1579 0.0
114 -8.1579 0.0
116 -8.1579 0.0
118 -8.1579 0.0
120 -8.1579 0.0
0 -8.3158 0.0
1 -8.3158 0.0
2 -8.3158 0.0
3 -8.3158 0.0
4 -8.3158 0.0
5 -8.3158 0.0
6 -8.3158 0.0
7 -8.3158 0.0
8 -8.3158 0.0
9 -8.3158 0.0
10 -8.3158 0.0
11 -8.3158 0.0
12 -8.3158 0.0
13 -8.3158 0.0
14 -8.3158 0.0
15 -8.3158 0.0
16 -8.3158 0.0
17 -8.3158 0.0
18 -8.3158 0.0
19 -8.3158 0.0
20 -8.3158 0.0
21 -8.3158 0.0
22 -8.3158 0.0
23 -8.3158 0.0
24 -8.3158 0.0
25 -8.3158 0.0
26 -8.3158 0.0
27 -8.3158 0.0
28 -8.3158 0.0
29 -8.3158 0.0
30 -8.3158 0.0
31 -8.3158 0.0
32 -8.3158 0.0
33 -8.3158 0.0
34 -8.3158 0.0
35 -8.3158 0.0
36 -8.3158 0.0
37 -8.3158 0.0
38 -8.3158 0.0
39 -8.3158 0.0
40 -8.3158 0.0
41 -8.3158 0.0
42 -8.3158 0.0
43 -8.3158 0.0
44 -8.3158 0.0
45 -8.3158 0.0
46 -8.3158 0.0
47 -8.3158 0.0
48 -8.3158 0.0
49 -8.3158 0.0
50 -8.3158 0.0
51 -8.3158 0.0
52 -8.3158 0.0
53 -8.3158 0.0
54 -8.3158 0.0
55 -8.3158 0.0
56 -8.3158 0.0
57 -8.3158 0.0
58 -8.3158 0.0
59 -8.3158 0.0
60 -8.3158 0.0
61 -8.3158 0.0
62 -8.3158 0.0
63 -8.3158 0.0
64 -8.3158 0.0
65 -8.3158 0.0
66 -8.3158 0.0
67 -8.3158 0.0
68 -8.3158 0.0
69 -8.3158 0.0
70 -8.3158 0.0
71 -8.3158 0.0
72 -8.3158 0.0
73 -8.3158 0.0
74 -8.3158 0.0
75 -8.3158 0.0
76 -8.3158 0.0
77 -8.3158 0.0
78 -8.3158 0.0
79 -8.3158 0.0
80 -8.3158 0.0
81 -8.3158 0.0
82 -8.3158 0.0
83 -8.3158 0.0
84 -8.3158 0.0
85 -8.3158 0.0
86 -8.3158 0.0
87 -8.3158 0.0
88 -8.3158 0.0
89 -8.3158 0.0
90 -8.3158 0.0
91 -8.3158 0.0
92 -8.3158 0.0
93 -8.3158 0.0
94 -8.3158 0.0
95 -8.3158 0.0
96 -8.3158 0.0
97 -8.3158 0.0
98 -8.3158 0.0
99 -8.3158 0.0
100 -8.3158 0.0
101 -8.3158 0.0
102 -8.3158 0.0
103 -8.3158 0.0
104 -8.3158 0.0
105 -8.3158 0.0
106 -8.3158 0.0
107 -8.3158 0.0
108 -8.3158 0.0
109 -8.3158 0.0
110 -8.3158 0.0
111 -8.3158 0.0
112 -8.3158 0.0
113 -8.3158 0.0
114 -8.3158 0.0
115 -8.3158 0.0
116 -8.3158 0.0
117 -8.3158 0.0
118 -8.3158 0.0
119 -8.3158 0.0
120 -8.3158 0.0
0 -8.4737 0.0
2 -8.4737 0.0
4 -8.4737 0.0
6 -8.4737 0.0
8 -8.4737 0.0
10 -8.4737 0.0
12 -8.4737 0.0
14 -8.4737 0.0
16 -8.4737 0.0
18 -8.4737 0.0
20 -8.4737 0.0
22 -8.4737 0.0
24 -8.4737 0.0
26 -8.4737 0.0
28 -8.4737 0.0
30 -8.4737 0.0
32 -8.4737 0.0
34 -8.4737 0.0
36 -8.4737 0.0
38 -8.4737 0.0
40 -8.4737 0.0
42 -8.4737 0.0
44 -8.4737 0.0
46 -8.4737 0.0
48 -8.4737 0.0
50 -8.4737 0.0
52 -8.4737 0.0
54 -8.4737 0.0
56 -8.4737 0.0
58 -8.4737 0.0
60 -8.4737 0.0
62 -8.4737 0.0
64 -8.4737 0.0
66 -8.4737 0.0
68 -8.4737 0.0
70 -8.4737 0.0
72 -8.4737 0.0
74 -8.4737 0.0
76 -8.4737 0.0
78 -8.4737 0.0
80 -8.4737 0.0
82 -8.4737 0.0
84 -8.4737 0.0
86 -8.4737 0.0
88 -8.4737 0.0
90 -8.4737 0.0
92 -8.4737 0.0
94 -8.4737 0.0
96 -8.4737 0.0
98 -8.4737 0.0
100 -8.4737 0.0
102 -8.4737 0.0
104 -8.4737 0.0
106 -8.4737 0.0
108 -8.4737 0.0
110 -8.4737 0.0
112 -8.4737 0.0
114 -8.4737 0.0
116 -8.4737 0.0
118 -8.4737 0.0
120 -8.4737 0.0
0 -8.6316 0.0
1 -8.6316 0.0
2 -8.6316 0.0
3 -8.6316 0.0
4 -8.6316 0.0
5 -8.6316 0.0
6 -8.6316 0.0
7 -8.6316 0.0
8 -8.6316 0.0
9 -8.6316 0.0
10 -8.6316 0.0
11 -8.6316 0.0
12 -8.6316 0.0
13 -8.6316 0.0
14 -8.6316 0.0
15 -8.6316 0.0
16 -8.6316 0.0
17 -8.6316 0.0
18 -8.6316 0.0
19 -8.6316 0.0
20 -8.6316 0.0
21 -8.6316 0.0
22 -8.6316 0.0
23 -8.6316 0.0
24 -8.6316 0.0
25 -8.6316 0.0
26 -8.6316 0.0
27 -8.6316 0.0
28 -8.6316 0.0
29 -8.6316 0.0
30 -8.6316 0.0
31 -8.6316 0.0
32 -8.6316 0.0
33 -8.6316 0.0
34 -8.6316 0.0
35 -8.6316 0.0
36 -8.6316 0.0
37 -8.6316 0.0
38 -8.6316 0.0
39 -8.6316 0.0
40 -8.6316 0.0
41 -8.6316 0.0
42 -8.6316 0.0
43 -8.6316 0.0
44 -8.6316 0.0
45 -8.6316 0.0
46 -8.6316 0.0
47 -8.6316 0.0
48 -8.6316 0.0
49 -8.6316 0.0
50 -8.6316 0.0
51 -8.6316 0.0
52 -8.6316 0.0
53 -8.6316 0.0
54 -8.6316 0.0
55 -8.6316 0.0
56 -8.6316 0.0
57 -8.6316 0.0
58 -8.6316 0.0
59 -8.6316 0.0
60 -8.6316 0.0
61 -8.6316 0.0
62 -8.6316 0.0
63 -8.6316 0.0
64 -8.6316 0.0
65 -8.6316 0.0
66 -8.6316 0.0
67 -8.6316 0.0
68 -8.6316 0.0
69 -8.6316 0.0
70 -8.6316 0.0
71 -8.6316 0.0
72 -8.6316 0.0
73 -8.6316 0.0
74 -8.6316 0.0
75 -8.6316 0.0
76 -8.6316 0.0
77 -8.6316 0.0
78 -8.6316 0.0
79 -8.6316 0.0
80 -8.6316 0.0
81 -8.6316 0.0
82 -8.6316 0.0
83 -8.6316 0.0
84 -8.6316 0.0
85 -8.6316 0.0
86 -8.6316 0.0
87 -8.6316 0.0
88 -8.6316 0.0
89 -8.6316 0.0
90 -8.6316 0.0
91 -8.6316 0.0
92 -8.6316 0.0
93 -8.6316 0.0
94 -8.6316 0.0
95 -8.6316 0.0
96 -8.6316 0.0
97 -8.6316 0.0
98 -8.6316 0.0
99 -8.6316 0.0
100 -8.6316 0.0
101 -8.6316 0.0
102 -8.6316 0.0
103 -8.6316 0.0
104 -8.6316 0.0
105 -8.6316 0.0
106 -8.6316 0.0
107 -8.6316 0.0
108 -8.6316 0.0
109 -8.6316 0.0
110 -8.6316 0.0
111 -8.6316 0.0
112 -8.6316 0.0
113 -8.6316 0.0
114 -8.6316 0.0
115 -8.6316 0.0
116 -8.6316 0.0
117 -8.6316 0.0
118 -8.6316 0.0
119 -8.6316 0.0
120 -8.6316 0.0
0 -8.7895 0.0
2 -8.7895 0.0
4 -8.7895 0.0
6 -8.7895 0.0
8 -8.7895 0.0
10 -8.7895 0.0
12 -8.7895 0.0
14 -8.7895 0.0
16 -8.7895 0.0
18 -8.7895 0.0
20 -8.7895 0.0
22 -8.7895 0.0
24 -8.7895 0.0
26 -8.7895 0.0
28 -8.7895 0.0
30 -8.7895 0.0
32 -8.7895 0.0
34 -8.7895 0.0
36 -8.7895 0.0
38 -8.7895 0.0
40 -8.7895 0.0
42 -8.7895 0.0
44 -8.7895 0.0
46 -8.7895 0.0
48 -8.7895 0.0
50 -8.7895 0.0
52 -8.7895 0.0
54 -8.7895 0.0
56 -8.7895 0.0
58 -8.7895 0.0
60 -8.7895 0.0
62 -8.7895 0.0
64 -8.7895 0.0
66 -8.7895 0.0
68 -8.7895 0.0
70 -8.7895 0.0
72 -8.7895 0.0
74 -8.7895 0.0
76 -8.7895 0.0
78 -8.7895 0.0
80 -8.7895 0.0
82 -8.7895 0.0
84 -8.7895 0.0
86 -8.7895 0.0
88 -8.7895 0.0
90 -8.7895 0.0
92 -8.7895 0.0
94 -8.7895 0.0
96 -8.7895 0.0
98 -8.7895 0.0
100 -8.7895 0.0
102 -8.7895 0.0
104 -8.7895 0.0
106 -8.7895 0.0
108 -8.7895 0.0
110 -8.7895 0.0
112 -8.7895 0.0
114 -8.7895 0.0
116 -8.7895 0.0
118 -8.7895 0.0
120 -8.7895 0.0
0 -8.9474 0.0
1 -8.9474 0.0
2 -8.9474 0.0
3 -8.9474 0.0
4 -8.9474 0.0
5 -8.9474 0.0
6 -8.9474 0.0
7 -8.9474 0.0
8 -8.9474 0.0
9 -8.9474 0.0
10 -8.9474 0.0
11 -8.9474 0.0
12 -8.9474 0.0
13 -8.9474 0.0
14 -8.9474 0.0
15 -8.9474 0.0
16 -8.9474 0.0
17 -8.9474 0.0
18 -8.9474 0.0
19 -8.9474 0.0
20 -8.9474 0.0
21 -8.9474 0.0
22 -8.9474 0.0
23 -8.9474 0.0
24 -8.9474 0.0
25 -8.9474 0.0
26 -8.9474 0.0
27 -8.9474 0.0
28 -8.9474 0.0
29 -8.9474 0.0
30 -8.9474 0.0
31 -8.9474 0.0
32 -8.9474 0.0
33 -8.9474 0.0
34 -8.9474 0.0
35 -8.9474 0.0
36 -8.9474 0.0
37 -8.9474 0.0
38 -8.9474 0.0
39 -8.9474 0.0
40 -8.9474 0.0
41 -8.9474 0.0
42 -8.9474 0.0
43 -8.9474 0.0
44 -8.9474 0.0
45 -8.9474 0.0
46 -8.9474 0.0
47 -8.9474 0.0
48 -8.9474 0.0
49 -8.9474 0.0
50 -8.9474 0.0
51 -8.9474 0.0
52 -8.9474 0.0
53 -8.9474 0.0
54 -8.9474 0.0
55 -8.9474 0.0
56 -8.9474 0.0
57 -8.9474 0.0
58 -8.9474 0.0
59 -8.9474 0.0
60 -8.9474 0.0
61 -8.9474 0.0
62 -8.9474 0.0
63 -8.9474 0.0
64 -8.9474 0.0
65 -8.9474 0.0
66 -8.9474 0.0
67 -8.9474 0.0
68 -8.9474 0.0
69 -8.9474 0.0
70 -8.9474 0.0
71 -8.9474 0.0
72 -8.9474 0.0
73 -8.9474 0.0
74 -8.9474 0.0
75 -8.9474 0.0
76 -8.9474 0.0
77 -8.9474 0.0
78 -8.9474 0.0
79 -8.9474 0.0
80 -8.9474 0.0
81 -8.9474 0.0
82 -8.9474 0.0
83 -8.9474 0.0
84 -8.9474 0.0
85 -8.9474 0.0
86 -8.9474 0.0
87 -8.9474 0.0
88 -8.9474 0.0
89 -8.9474 0.0
90 -8.9474 0.0
91 -8.9474 0.0
92 -8.9474 0.0
93 -8.9474 0.0
94 -8.9474 0.0
95 -8.9474 0.0
96 -8.9474 0.0
97 -8.9474 0.0
98 -8.9474 0.0
99 -8.9474 0.0
100 -8.9474 0.0
101 -8.9474 0.0
102 -8.9474 0.0
103 -8.9474 0.0
104 -8.9474 0.0
105 -8.9474 0.0
106 -8.9474 0.0
107 -8.9474 0.0
108 -8.9474 0.0
109 -8.9474 0.0
110 -8.9474 0.0
111 -8.9474 0.0
112 -8.9474 0.0
113 -8.9474 0.0
114 -8.9474 0.0
115 -8.9474 0.0
116 -8.9474 0.0
117 -8.9474 0.0
118 -8.9474 0.0
119 -8.9474 0.0
120 -8.9474 0.0
0 -9.1053 0.0
2 -9.1053 0.0
4 -9.1053 0.0
6 -9.1053 0.0
8 -9.1053 0.0
10 -9.1053 0.0
12 -9.1053 0.0
14 -9.1053 0.0
16 -9.1053 0.0
18 -9.1053 0.0
20 -9.1053 0.0
22 -9.1053 0.0
24 -9.1053 0.0
26 -9.1053 0.0
28 -9.1053 0.0
30 -9.1053 0.0
32 -9.1053 0.0
34 -9.1053 0.0
36 -9.1053 0.0
38 -9.1053 0.0
40 -9.1053 0.0
42 -9.1053 0.0
44 -9.1053 0.0
46 -9.1053 0.0
48 -9.1053 0.0
50 -9.1053 0.0
52 -9.1053 0.0
54 -9.1053 0.0
56 -9.1053 0.0
58 -9.1053 0.0
60 -9.1053 0.0
62 -9.1053 0.0
64 -9.1053 0.0
66 -9.1053 0.0
68 -9.1053 0.0
70 -9.1053 0.0
72 -9.1053 0.0
74 -9.1053 0.0
76 -9.1053 0.0
78 -9.1053 0.0
80 -9.1053 0.0
82 -9.1053 0.0
84 -9.1053 0.0
86 -9.1053 0.0
88 -9.1053 0.0
90 -9.1053 0.0
92 -9.1053 0.0
94 -9.1053 0.0
96 -9.1053 0.0
98 -9.1053 0.0
100 -9.1053 0.0
102 -9.1053 0.0
104 -9.1053 0.0
106 -9.1053 0.0
108 -9.1053 0.0
110 -9.1053 0.0
112 -9.1053 0.0
114 -9.1053 0.0
116 -9.1053 0.0
118 -9.1053 0.0
120 -9.1053 0.0
0 -9.2632 0.0
1 -9.2632 0.0
2 -9.2632 0.0
3 -9.2632 0.0
4 -9.2632 0.0
5 -9.2632 0.0
6 -9.2632 0.0
7 -9.2632 0.0
8 -9.2632 0.0
9 -9.2632 0.0
10 -9.2632 0.0
11 -9.2632 0.0
12 -9.2632 0.0
13 -9.2632 0.0
14 -9.2632 0.0
15 -9.2632 0.0
16 -9.2632 0.0
17 -9.2632 0.0
18 -9.2632 0.0
19 -9.2632 0.0
20 -9.2632 0.0
21 -9.2632 0.0
22 -9.2632 0.0
23 -9.2632 0.0
24 -9.2632 0.0
25 -9.2632 0.0
26 -9.2632 0.0
27 -9.2632 0.0
28 -9.2632 0.0
29 -9.2632 0.0
30 -9.2632 0.0
31 -9.2632 0.0
32 -9.2632 0.0
33 -9.2632 0.0
34 -9.2632 0.0
35 -9.2632 0.0
36 -9.2632 0.0
37 -9.2632 0.0
38 -9.2632 0.0
39 -9.2632 0.0
40 -9.2632 0.0
41 -9.2632 0.0
42 -9.2632 0.0
43 -9.2632 0.0
44 -9.2632 0.0
45 -9.2632 0.0
46 -9.2632 0.0
47 -9.2632 0.0
48 -9.2632 0.0
49 -9.2632 0.0
50 -9.2632 0.0
51 -9.2632 0.0
52 -9.2632 0.0
53 -9.2632 0.0
54 -9.2632 0.0
55 -9.2632 0.0
56 -9.2632 0.0
57 -9.2632 0.0
58 -9.2632 0.0
59 -9.2632 0.0
60 -9.2632 0.0
61 -9.2632 0.0
62 -9.2632 0.0
63 -9.2632 0.0
64 -9.2632 0.0
65 -9.2632 0.0
66 -9.2632 0.0
67 -9.2632 0.0
68 -9.2632 0.0
69 -9.2632 0.0
70 -9.2632 0.0
71 -9.2632 0.0
72 -9.2632 0.0
73 -9.2632 0.0
74 -9.2632 0.0
75 -9.2632 0.0
76 -9.2632 0.0
77 -9.2632 0.0
78 -9.2632 0.0
79 -9.2632 0.0
80 -9.2632 0.0
81 -9.2632 0.0
82 -9.2632 0.0
83 -9.2632 0.0
84 -9.2632 0.0
85 -9.2632 0.0
86 -9.2632 0.0
87 -9.2632 0.0
88 -9.2632 0.0
89 -9.2632 0.0
90 -9.2632 0.0
91 -9.2632 0.0
92 -9.2632 0.0
93 -9.2632 0.0
94 -9.2632 0.0
95 -9.2632 0.0
96 -9.2632 0.0
97 -9.2632 0.0
98 -9.2632 0.0
99 -9.2632 0.0
100 -9.2632 0.0
101 -9.2632 0.0
102 -9.2632 0.0
103 -9.2632 0.0
104 -9.2632 0.0
105 -9.2632 0.0
106 -9.2632 0.0
107 -9.2632 0.0
108 -9.2632 0.0
109 -9.2632 0.0
110 -9.2632 0.0
111 -9.2632 0.0
112 -9.2632 0.0
113 -9.2632 0.0
114 -9.2632 0.0
115 -9.2632 0.0
116 -9.2632 0.0
117 -9.2632 0.0
118 -9.2632 0.0
119 -9.2632 0.0
120 -9.2632 0.0
0 -9.4211 0.0
2 -9.4211 0.0
4 -9.4211 0.0
6 -9.4211 0.0
8 -9.4211 0.0
10 -9.4211 0.0
12 -9.4211 0.0
14 -9.4211 0.0
16 -9.4211 0.0
18 -9.4211 0.0
20 -9.4211 0.0
22 -9.4211 0.0
24 -9.4211 0.0
26 -9.4211 0.0
28 -9.4211 0.0
30 -9.4211 0.0
32 -9.4211 0.0
34 -9.4211 0.0
36 -9.4211 0.0
38 -9.4211 0.0
40 -9.4211 0.0
42 -9.4211 0.0
44 -9.4211 0.0
46 -9.4211 0.0
48 -9.4211 0.0
50 -9.4211 0.0
52 -9.4211 0.0
54 -9.4211 0.0
56 -9.4211 0.0
58 -9.4211 0.0
60 -9.4211 0.0
62 -9.4211 0.0
64 -9.4211 0.0
66 -9.4211 0.0
68 -9.4211 0.0
70 -9.4211 0.0
72 -9.4211 0.0
74 -9.4211 0.0
76 -9.4211 0.0
78 -9.4211 0.0
80 -9.4211 0.0
82 -9.4211 0.0
84 -9.4211 0.0
86 -9.4211 0.0
88 -9.4211 0.0
90 -9.4211 0.0
92 -9.4211 0.0
94 -9.4211 0.0
96 -9.4211 0.0
98 -9.4211 0.0
100 -9.4211 0.0
102 -9.4211 0.0
104 -9.4211 0.0
106 -9.4211 0.0
108 -9.4211 0.0
110 -9.4211 0.0
112 -9.4211 0.0
114 -9.4211 0.0
116 -9.4211 0.0
118 -9.4211 0.0
120 -9.4211 0.0
0 -9.5789 0.0
1 -9.5789 0.0
2 -9.5789 0.0
3 -9.5789 0.0
4 -9.5789 0.0
5 -9.5789 0.0
6 -9.5789 0.0
7 -9.5789 0.0
8 -9.5789 0.0
9 -9.5789 0.0
10 -9.5789 0.0
11 -9.5789 0.0
12 -9.5789 0.0
13 -9.5789 0.0
14 -9.5789 0.0
15 -9.5789 0.0
16 -9.5789 0.0
17 -9.5789 0.0
18 -9.5789 0.0
19 -9.5789 0.0
20 -9.5789 0.0
21 -9.5789 0.0
22 -9.5789 0.0
23 -9.5789 0.0
24 -9.5789 0.0
25 -9.5789 0.0
26 -9.5789 0.0
27 -9.5789 0.0
28 -9.5789 0.0
29 -9.5789 0.0
30 -9.5789 0.0
31 -9.5789 0.0
32 -9.5789 0.0
33 -9.5789 0.0
34 -9.5789 0.0
35 -9.5789 0.0
36 -9.5789 0.0
37 -9.5789 0.0
38 -9.5789 0.0
39 -9.5789 0.0
40 -9.5789 0.0
41 -9.5789 0.0
42 -9.5789 0.0
43 -9.5789 0.0
44 -9.5789 0.0
45 -9.5789 0.0
46 -9.5789 0.0
47 -9.5789 0.0
48 -9.5789 0.0
49 -9.5789 0.0
50 -9.5789 0.0
51 -9.5789 0.0
52 -9.5789 0.0
53 -9.5789 0.0
54 -9.5789 0.0
55 -9.5789 0.0
56 -9.5789 0.0
57 -9.5789 0.0
58 -9.5789 0.0
59 -9.5789 0.0
60 -9.5789 0.0
61 -9.5789 0.0
62 -9.5789 0.0
63 -9.5789 0.0
64 -9.5789 0.0
65 -9.5789 0.0
66 -9.5789 0.0
67 -9.5789 0.0
68 -9.5789 0.0
69 -9.5789 0.0
70 -9.5789 0.0
71 -9.5789 0.0
72 -9.5789 0.0
73 -9.5789 0.0
74 -9.5789 0.0
75 -9.5789 0.0
76 -9.5789 0.0
77 -9.5789 0.0
78 -9.5789 0.0
79 -9.5789 0.0
80 -9.5789 0.0
81 -9.5789 0.0
82 -9.5789 0.0
83 -9.5789 0.0
84 -9.5789 0.0
85 -9.5789 0.0
86 -9.5789 0.0
87 -9.5789 0.0
88 -9.5789 0.0
89 -9.5789 0.0
90 -9.5789 0.0
91 -9.5789 0.0
92 -9.5789 0.0
93 -9.5789 0.0
94 -9.5789 0.0
95 -9.5789 0.0
96 -9.5789 0.0
97 -9.5789 0.0
98 -9.5789 0.0
99 -9.5789 0.0
100 -9.5789 0.0
101 -9.5789 0.0
102 -9.5789 0.0
103 -9.5789 0.0
104 -9.5789 0.0
105 -9.5789 0.0
106 -9.5789 0.0
107 -9.5789 0.0
108 -9.5789 0.0
109 -9.5789 0.0
110 -9.5789 0.0
111 -9.5789 0.0
112 -9.5789 0.0
113 -9.5789 0.0
114 -9.5789 0.0
115 -9.5789 0.0
116 -9.5789 0.0
117 -9.5789 0.0
118 -9.5789 0.0
119 -9.5789 0.0
120 -9.5789 0.0
0 -9.7368 0.0
2 -9.7368 0.0
4 -9.7368 0.0
6 -9.7368 0.0
8 -9.7368 0.0
10 -9.7368 0.0
12 -9.7368 0.0
14 -9.7368 0.0
16 -9.7368 0.0
18 -9.7368 0.0
20 -9.7368 0.0
22 -9.7368 0.0
24 -9.7368 0.0
26 -9.7368 0.0
28 -9.7368 0.0
30 -9.7368 0.0
32 -9.7368 0.0
34 -9.7368 0.0
36 -9.7368 0.0
38 -9.7368 0.0
40 -9.7368 0.0
42 -9.7368 0.0
44 -9.7368 0.0
46 -9.7368 0.0
48 -9.7368 0.0
50 -9.7368 0.0
52 -9.7368 0.0
54 -9.7368 0.0
56 -9.7368 0.0
58 -9.7368 0.0
60 -9.7368 0.0
62 -9.7368 0.0
64 -9.7368 0.0
66 -9.7368 0.0
68 -9.7368 0.0
70 -9.7368 0.0
72 -9.7368 0.0
74 -9.7368 0.0
76 -9.7368 0.0
78 -9.7368 0.0
80 -9.7368 0.0
82 -9.7368 0.0
84 -9.7368 0.0
86 -9.7368 0.0
88 -9.7368 0.0
90 -9.7368 0.0
92 -9.7368 0.0
94 -9.7368 0.0
96 -9.7368 0.0
98 -9.7368 0.0
100 -9.7368 0.0
102 -9.7368 0.0
104 -9.7368 0.0
106 -9.7368 0.0
108 -9.7368 0.0
110 -9.7368 0.0
112 -9.7368 0.0
114 -9.7368 0.0
116 -9.7368 0.0
118 -9.7368 0.0
120 -9.7368 0.0
0 -9.8947 0.0
1 -9.8947 0.0
2 -9.8947 0.0
3 -9.8947 0.0
4 -9.8947 0.0
5 -9.8947 0.0
6 -9.8947 0.0
7 -9.8947 0.0
8 -9.8947 0.0
9 -9.8947 0.0
10 -9.8947 0.0
11 -9.8947 0.0
12 -9.8947 0.0
13 -9.8947 0.0
14 -9.8947 0.0
15 -9.8947 0.0
16 -9.8947 0.0
17 -9.8947 0.0
18 -9.8947 0.0
19 -9.8947 0.0
20 -9.8947 0.0
21 -9.8947 0.0
22 -9.8947 0.0
23 -9.8947 0.0
24 -9.8947 0.0
25 -9.8947 0.0
26 -9.8947 0.0
27 -9.8947 0.0
28 -9.8947 0.0
29 -9.8947 0.0
30 -9.8947 0.0
31 -9.8947 0.0
32 -9.8947 0.0
33 -9.8947 0.0
34 -9.8947 0.0
35 -9.8947 0.0
36 -9.8947 0.0
37 -9.8947 0.0
38 -9.8947 0.0
39 -9.8947 0.0
40 -9.8947 0.0
41 -9.8947 0.0
42 -9.8947 0.0
43 -9.8947 0.0
44 -9.8947 0.0
45 -9.8947 0.0
46 -9.8947 0.0
47 -9.8947 0.0
48 -9.8947 0.0
49 -9.8947 0.0
50 -9.8947 0.0
51 -9.8947 0.0
52 -9.8947 0.0
53 -9.8947 0.0
54 -9.8947 0.0
55 -9.8947 0.0
56 -9.8947 0.0
57 -9.8947 0.0
58 -9.8947 0.0
59 -9.8947 0.0
60 -9.8947 0.0
61 -9.8947 0.0
62 -9.8947 0.0
63 -9.8947 0.0
64 -9.8947 0.0
65 -9.8947 0.0
66 -9.8947 0.0
67 -9.8947 0.0
68 -9.8947 0.0
69 -9.8947 0.0
70 -9.8947 0.0
71 -9.8947 0.0
72 -9.8947 0.0
73 -9.8947 0.0
74 -9.8947 0.0
75 -9.8947 0.0
76 -9.8947 0.0
77 -9.8947 0.0
78 -9.8947 0.0
79 -9.8947 0.0
80 -9.8947 0.0
81 -9.8947 0.0
82 -9.8947 0.0
83 -9.8947 0.0
84 -9.8947 0.0
85 -9.8947 0.0
86 -9.8947 0.0
87 -9.8947 0.0
88 -9.8947 0.0
89 -9.8947 0.0
90 -9.8947 0.0
91 -9.8947 0.0
92 -9.8947 0.0
93 -9.8947 0.0
94 -9.8947 0.0
95 -9.8947 0.0
96 -9.8947 0.0
97 -9.8947 0.0
98 -9.8947 0.0
99 -9.8947 0.0
100 -9.8947 0.0
101 -9.8947 0.0
102 -9.8947 0.0
103 -9.8947 0.0
104 -9.8947 0.0
105 -9.8947 0.0
106 -9.8947 0.0
107 -9.8947 0.0
108 -9.8947 0.0
109 -9.8947 0.0
110 -9.8947 0.0
111 -9.8947 0.0
112 -9.8947 0.0
113 -9.8947 0.0
114 -9.8947 0.0
115 -9.8947 0.0
116 -9.8947 0.0
117 -9.8947 0.0
118 -9.8947 0.0
119 -9.8947 0.0
120 -9.8947 0.0
0 -10.0526 0.0
2 -10.0526 0.0
4 -10.0526 0.0
6 -10.0526 0.0
8 -10.0526 0.0
10 -10.0526 0.0
12 -10.0526 0.0
14 -10.0526 0.0
16 -10.0526 0.0
18 -10.0526 0.0
20 -10.0526 0.0
22 -10.0526 0.0
24 -10.0526 0.0
26 -10.0526 0.0
28 -10.0526 0.0
30 -10.0526 0.0
32 -10.0526 0.0
34 -10.0526 0.0
36 -10.0526 0.0
38 -10.0526 0.0
40 -10.0526 0.0
42 -10.0526 0.0
44 -10.0526 0.0
46 -10.0526 0.0
48 -10.0526 0.0
50 -10.0526 0.0
52 -10.0526 0.0
54 -10.0526 0.0
56 -10.0526 0.0
58 -10.0526 0.0
60 -10.0526 0.0
62 -10.0526 0.0
64 -10.0526 0.0
66 -10.0526 0.0
68 -10.0526 0.0
70 -10.0526 0.0
72 -10.0526 0.0
74 -10.0526 0.0
76 -10.0526 0.0
78 -10.0526 0.0
80 -10.0526 0.0
82 -10.0526 0.0
84 -10.0526 0.0
86 -10.0526 0.0
88 -10.0526 0.0
90 -10.0526 0.0
92 -10.0526 0.0
94 -10.0526 0.0
96 -10.0526 0.0
98 -10.0526 0.0
100 -10.0526 0.0
102 -10.0526 0.0
104 -10.0526 0.0
106 -10.0526 0.0
108 -10.0526 0.0
110 -10.0526 0.0
112 -10.0526 0.0
114 -10.0526 0.0
116 -10.0526 0.0
118 -10.0526 0.0
120 -10.0526 0.0
0 -10.2105 0.0
1 -10.2105 0.0
2 -10.2105 0.0
3 -10.2105 0.0
4 -10.2105 0.0
5 -10.2105 0.0
6 -10.2105 0.0
7 -10.2105 0.0
8 -10.2105 0.0
9 -10.2105 0.0
10 -10.2105 0.0
11 -10.2105 0.0
12 -10.2105 0.0
13 -10.2105 0.0
14 -10.2105 0.0
15 -10.2105 0.0
16 -10.2105 0.0
17 -10.2105 0.0
18 -10.2105 0.0
19 -10.2105 0.0
20 -10.2105 0.0
21 -10.2105 0.0
22 -10.2105 0.0
23 -10.2105 0.0
24 -10.2105 0.0
25 -10.2105 0.0
26 -10.2105 0.0
27 -10.2105 0.0
28 -10.2105 0.0
29 -10.2105 0.0
30 -10.2105 0.0
31 -10.2105 0.0
32 -10.2105 0.0
33 -10.2105 0.0
34 -10.2105 0.0
35 -10.2105 0.0
36 -10.2105 0.0
37 -10.2105 0.0
38 -10.2105 0.0
39 -10.2105 0.0
40 -10.2105 0.0
41 -10.2105 0.0
42 -10.2105 0.0
43 -10.2105 0.0
44 -10.2105 0.0
45 -10.2105 0.0
46 -10.2105 0.0
47 -10.2105 0.0
48 -10.2105 0.0
49 -10.2105 0.0
50 -10.2105 0.0
51 -10.2105 0.0
52 -10.2105 0.0
53 -10.2105 0.0
54 -10.2105 0.0
55 -10.2105 0.0
56 -10.2105 0.0
57 -10.2105 0.0
58 -10.2105 0.0
59 -10.2105 0.0
60 -10.2105 0.0
61 -10.2105 0.0
62 -10.2105 0.0
63 -10.2105 0.0
64 -10.2105 0.0
65 -10.2105 0.0
66 -10.2105 0.0
67 -10.2105 0.0
68 -10.2105 0.0
69 -10.2105 0.0
70 -10.2105 0.0
71 -10.2105 0.0
72 -10.2105 0.0
73 -10.2105 0.0
74 -10.2105 0.0
75 -10.2105 0.0
76 -10.2105 0.0
77 -10.2105 0.0
78 -10.2105 0.0
79 -10.2105 0.0
80 -10.2105 0.0
81 -10.2105 0.0
82 -10.2105 0.0
83 -10.2105 0.0
84 -10.2105 0.0
85 -10.2105 0.0
86 -10.2105 0.0
87 -10.2105 0.0
88 -10.2105 0.0
89 -10.2105 0.0
90 -10.2105 0.0
91 -10.2105 0.0
92 -10.2105 0.0
93 -10.2105 0.0
94 -10.2105 0.0
95 -10.2105 0.0
96 -10.2105 0.0
97 -10.2105 0.0
98 -10.2105 0.0
99 -10.2105 0.0
100 -10.2105 0.0
101 -10.2105 0.0
102 -10.2105 0.0
103 -10.2105 0.0
104 -10.2105 0.0
105 -10.2105 0.0
106 -10.2105 0.0
107 -10.2105 0.0
108 -10.2105 0.0
109 -10.2105 0.0
110 -10.2105 0.0
111 -10.2105 0.0
112 -10.2105 0.0
113 -10.2105 0.0
114 -10.2105 0.0
115 -10.2105 0.0
116 -10.2105 0.0
117 -10.2105 0.0
118 -10.2105 0.0
119 -10.2105 0.0
120 -10.2105 0.0
0 -10.3684 0.0
2 -10.3684 0.0
4 -10.3684 0.0
6 -10.3684 0.0
8 -10.3684 0.0
10 -10.3684 0.0
12 -10.3684 0.0
14 -10.3684 0.0
16 -10.3684 0.0
18 -10.3684 0.0
20 -10.3684 0.0
22 -10.3684 0.0
24 -10.3684 0.0
26 -10.3684 0.0
28 -10.3684 0.0
30 -10.3684 0.0
32 -10.3684 0.0
34 -10.3684 0.0
36 -10.3684 0.0
38 -10.3684 0.0
40 -10.3684 0.0
42 -10.3684 0.0
44 -10.3684 0.0
46 -10.3684 0.0
48 -10.3684 0.0
50 -10.3684 0.0
52 -10.3684 0.0
54 -10.3684 0.0
56 -10.3684 0.0
58 -10.3684 0.0
60 -10.3684 0.0
62 -10.3684 0.0
64 -10.3684 0.0
66 -10.3684 0.0
68 -10.3684 0.0
70 -10.3684 0.0
72 -10.3684 0.0
74 -10.3684 0.0
76 -10.3684 0.0
78 -10.3684 0.0
80 -10.3684 0.0
82 -10.3684 0.0
84 -10.3684 0.0
86 -10.3684 0.0
88 -10.3684 0.0
90 -10.3684 0.0
92 -10.3684 0.0
94 -10.3684 0.0
96 -10.3684 0.0
98 -10.3684 0.0
100 -10.3684 0.0
102 -10.3684 0.0
104 -10.3684 0.0
106 -10.3684 0.0
108 -10.3684 0.0
110 -10.3684 0.0
112 -10.3684 0.0
114 -10.3684 0.0
116 -10.3684 0.0
118 -10.3684 0.0
120 -10.3684 0.0
0 -10.5263 0.0
1 -10.5263 0.0
2 -10.5263 0.0
3 -10.5263 0.0
4 -10.5263 0.0
5 -10.5263 0.0
6 -10.5263 0.0
7 -10.5263 0.0
8 -10.5263 0.0
9 -10.5263 0.0
10 -10.5263 0.0
11 -10.5263 0.0
12 -10.5263 0.0
13 -10.5263 0.0
14 -10.5263 0.0
15 -10.5263 0.0
16 -10.5263 0.0
17 -10.5263 0.0
18 -10.5263 0.0
19 -10.5263 0.0
20 -10.5263 0.0
21 -10.5263 0.0
22 -10.5263 0.0
23 -10.5263 0.0
24 -10.5263 0.0
25 -10.5263 0.0
26 -10.5263 0.0
27 -10.5263 0.0
28 -10.5263 0.0
29 -10.5263 0.0
30 -10.5263 0.0
31 -10.5263 0.0
32 -10.5263 0.0
33 -10.5263 0.0
34 -10.5263 0.0
35 -10.5263 0.0
36 -10.5263 0.0
37 -10.5263 0.0
38 -10.5263 0.0
39 -10.5263 0.0
40 -10.5263 0.0
41 -10.5263 0.0
42 -10.5263 0.0
43 -10.5263 0.0
44 -10.5263 0.0
45 -10.5263 0.0
46 -10.5263 0.0
47 -10.5263 0.0
48 -10.5263 0.0
49 -10.5263 0.0
50 -10.5263 0.0
51 -10.5263 0.0
52 -10.5263 0.0
53 -10.5263 0.0
54 -10.5263 0.0
55 -10.5263 0.0
56 -10.5263 0.0
57 -10.5263 0.0
58 -10.5263 0.0
59 -10.5263 0.0
60 -10.5263 0.0
61 -10.5263 0.0
62 -10.5263 0.0
63 -10.5263 0.0
64 -10.5263 0.0
65 -10.5263 0.0
66 -10.5263 0.0
67 -10.5263 0.0
68 -10.5263 0.0
69 -10.5263 0.0
70 -10.5263 0.0
71 -10.5263 0.0
72 -10.5263 0.0
73 -10.5263 0.0
74 -10.5263 0.0
75 -10.5263 0.0
76 -10.5263 0.0
77 -10.5263 0.0
78 -10.5263 0.0
79 -10.5263 0.0
80 -10.5263 0.0
81 -10.5263 0.0
82 -10.5263 0.0
83 -10.5263 0.0
84 -10.5263 0.0
85 -10.5263 0.0
86 -10.5263 0.0
87 -10.5263 0.0
88 -10.5263 0.0
89 -10.5263 0.0
90 -10.5263 0.0
91 -10.5263 0.0
92 -10.5263 0.0
93 -10.5263 0.0
94 -10.5263 0.0
95 -10.5263 0.0
96 -10.5263 0.0
97 -10.5263 0.0
98 -10.5263 0.0
99 -10.5263 0.0
100 -10.5263 0.0
101 -10.5263 0.0
102 -10.5263 0.0
103 -10.5263 0.0
104 -10.5263 0.0
105 -10.5263 0.0
106 -10.5263 0.0
107 -10.5263 0.0
108 -10.5263 0.0
109 -10.5263 0.0
110 -10.5263 0.0
111 -10.5263 0.0
112 -10.5263 0.0
113 -10.5263 0.0
114 -10.5263 0.0
115 -10.5263 0.0
116 -10.5263 0.0
117 -10.5263 0.0
118 -10.5263 0.0
119 -10.5263 0.0
120 -10.5263 0.0
0 -10.6842 0.0
2 -10.6842 0.0
4 -10.6842 0.0
6 -10.6842 0.0
8 -10.6842 0.0
10 -10.6842 0.0
12 -10.6842 0.0
14 -10.6842 0.0
16 -10.6842 0.0
18 -10.6842 0.0
20 -10.6842 0.0
22 -10.6842 0.0
24 -10.6842 0.0
26 -10.6842 0.0
28 -10.6842 0.0
30 -10.6842 0.0
32 -10.6842 0.0
34 -10.6842 0.0
36 -10.6842 0.0
38 -10.6842 0.0
40 -10.6842 0.0
42 -10.6842 0.0
44 -10.6842 0.0
46 -10.6842 0.0
48 -10.6842 0.0
50 -10.6842 0.0
52 -10.6842 0.0
54 -10.6842 0.0
56 -10.6842 0.0
58 -10.6842 0.0
60 -10.6842 0.0
62 -10.6842 0.0
64 -10.6842 0.0
66 -10.6842 0.0
68 -10.6842 0.0
70 -10.6842 0.0
72 -10.6842 0.0
74 -10.6842 0.0
76 -10.6842 0.0
78 -10.6842 0.0
80 -10.6842 0.0
82 -10.6842 0.0
84 -10.6842 0.0
86 -10.6842 0.0
88 -10.6842 0.0
90 -10.6842 0.0
92 -10.6842 0.0
94 -10.6842 0.0
96 -10.6842 0.0
98 -10.6842 0.0
100 -10.6842 0.0
102 -10.6842 0.0
104 -10.6842 0.0
106 -10.6842 0.0
108 -10.6842 0.0
110 -10.6842 0.0
112 -10.6842 0.0
114 -10.6842 0.0
116 -10.6842 0.0
118 -10.6842 0.0
120 -10.6842 0.0
0 -10.8421 0.0
1 -10.8421 0.0
2 -10.8421 0.0
3 -10.8421 0.0
4 -10.8421 0.0
5 -10.8421 0.0
6 -10.8421 0.0
7 -10.8421 0.0
8 -10.8421 0.0
9 -10.8421 0.0
10 -10.8421 0.0
11 -10.8421 0.0
12 -10.8421 0.0
13 -10.8421 0.0
14 -10.8421 0.0
15 -10.8421 0.0
16 -10.8421 0.0
17 -10.8421 0.0
18 -10.8421 0.0
19 -10.8421 0.0
20 -10.8421 0.0
21 -10.8421 0.0
22 -10.8421 0.0
23 -10.8421 0.0
24 -10.8421 0.0
25 -10.8421 0.0
26 -10.8421 0.0
27 -10.8421 0.0
28 -10.8421 0.0
29 -10.8421 0.0
30 -10.8421 0.0
31 -10.8421 0.0
32 -10.8421 0.0
33 -10.8421 0.0
34 -10.8421 0.0
35 -10.8421 0.0
36 -10.8421 0.0
37 -10.8421 0.0
38 -10.8421 0.0
39 -10.8421 0.0
40 -10.8421 0.0
41 -10.8421 0.0
42 -10.8421 0.0
43 -10.8421 0.0
44 -10.8421 0.0
45 -10.8421 0.0
46 -10.8421 0.0
47 -10.8421 0.0
48 -10.8421 0.0
49 -10.8421 0.0
50 -10.8421 0.0
51 -10.8421 0.0
52 -10.8421 0.0
53 -10.8421 0.0
54 -10.8421 0.0
55 -10.8421 0.0
56 -10.8421 0.0
57 -10.8421 0.0
58 -10.8421 0.0
59 -10.8421 0.0
60 -10.8421 0.0
61 -10.8421 0.0
62 -10.8421 0.0
63 -10.8421 0.0
64 -10.8421 0.0
65 -10.8421 0.0
66 -10.8421 0.0
67 -10.8421 0.0
68 -10.8421 0.0
69 -10.8421 0.0
70 -10.8421 0.0
71 -10.8421 0.0
72 -10.8421 0.0
73 -10.8421 0.0
74 -10.8421 0.0
75 -10.8421 0.0
76 -10.8421 0.0
77 -10.8421 0.0
78 -10.8421 0.0
79 -10.8421 0.0
80 -10.8421 0.0
81 -10.8421 0.0
82 -10.8421 0.0
83 -10.8421 0.0
84 -10.8421 0.0
85 -10.8421 0.0
86 -10.8421 0.0
87 -10.8421 0.0
88 -10.8421 0.0
89 -10.8421 0.0
90 -10.8421 0.0
91 -10.8421 0.0
92 -10.8421 0.0
93 -10.8421 0.0
94 -10.8421 0.0
95 -10.8421 0.0
96 -10.8421 0.0
97 -10.8421 0.0
98 -10.8421 0.0
99 -10.8421 0.0
100 -10.8421 0.0
101 -10.8421 0.0
102 -10.8421 0.0
103 -10.8421 0.0
104 -10.8421 0.0
105 -10.8421 0.0
106 -10.8421 0.0
107 -10.8421 0.0
108 -10.8421 0.0
109 -10.8421 0.0
110 -10.8421 0.0
111 -10.8421 0.0
112 -10.8421 0.0
113 -10.8421 0.0
114 -10.8421 0.0
115 -10.8421 0.0
116 -10.8421 0.0
117 -10.8421 0.0
118 -10.8421 0.0
119 -10.8421 0.0
120 -10.8421 0.0
0 -11 0.0
2 -11 0.0
4 -11 0.0
6 -11 0.0
8 -11 0.0
10 -11 0.0
12 -11 0.0
14 -11 0.0
16 -11 0.0
18 -11 0.0
20 -11 0.0
22 -11 0.0
24 -11 0.0
26 -11 0.0
28 -11 0.0
30 -11 0.0
32 -11 0.0
34 -11 0.0
36 -11 0.0
38 -11 0.0
40 -11 0.0
42 -11 0.0
44 -11 0.0
46 -11 0.0
48 -11 0.0
50 -11 0.0
52 -11 0.0
54 -11 0.0
56 -11 0.0
58 -11 0.0
60 -11 0.0
62 -11 0.0
64 -11 0.0
66 -11 0.0
68 -11 0.0
70 -11 0.0
72 -11 0.0
74 -11 0.0
76 -11 0.0
78 -11 0.0
80 -11 0.0
82 -11 0.0
84 -11 0.0
86 -11 0.0
88 -11 0.0
90 -11 0.0
92 -11 0.0
94 -11 0.0
96 -11 0.0
98 -11 0.0
100 -11 0.0
102 -11 0.0
104 -11 0.0
106 -11 0.0
108 -11 0.0
110 -11 0.0
112 -11 0.0
114 -11 0.0
116 -11 0.0
118 -11 0.0
120 -11 0.0
0 -11.1579 0.0
1 -11.1579 0.0
2 -11.1579 0.0
3 -11.1579 0.0
4 -11.1579 0.0
5 -11.1579 0.0
6 -11.1579 0.0
7 -11.1579 0.0
8 -11.1579 0.0
9 -11.1579 0.0
10 -11.1579 0.0
11 -11.1579 0.0
12 -11.1579 0.0
13 -11.1579 0.0
14 -11.1579 0.0
15 -11.1579 0.0
16 -11.1579 0.0
17 -11.1579 0.0
18 -11.1579 0.0
19 -11.1579 0.0
20 -11.1579 0.0
21 -11.1579 0.0
22 -11.1579 0.0
23 -11.1579 0.0
24 -11.1579 0.0
25 -11.1579 0.0
26 -11.1579 0.0
27 -11.1579 0.0
28 -11.1579 0.0
29 -11.1579 0.0
30 -11.1579 0.0
31 -11.1579 0.0
32 -11.1579 0.0
33 -11.1579 0.0
34 -11.1579 0.0
35 -11.1579 0.0
36 -11.1579 0.0
37 -11.1579 0.0
38 -11.1579 0.0
39 -11.1579 0.0
40 -11.1579 0.0
41 -11.1579 0.0
42 -11.1579 0.0
43 -11.1579 0.0
44 -11.1579 0.0
45 -11.1579 0.0
46 -11.1579 0.0
47 -11.1579 0.0
48 -11.1579 0.0
49 -11.1579 0.0
50 -11.1579 0.0
51 -11.1579 0.0
52 -11.1579 0.0
53 -11.1579 0.0
54 -11.1579 0.0
55 -11.1579 0.0
56 -11.1579 0.0
57 -11.1579 0.0
58 -11.1579 0.0
59 -11.1579 0.0
60 -11.1579 0.0
61 -11.1579 0.0
62 -11.1579 0.0
63 -11.1579 0.0
64 -11.1579 0.0
65 -11.1579 0.0
66 -11.1579 0.0
67 -11.1579 0.0
68 -11.1579 0.0
69 -11.1579 0.0
70 -11.1579 0.0
71 -11.1579 0.0
72 -11.1579 0.0
73 -11.1579 0.0
74 -11.1579 0.0
75 -11.1579 0.0
76 -11.1579 0.0
77 -11.1579 0.0
78 -11.1579 0.0
79 -11.1579 0.0
80 -11.1579 0.0
81 -11.1579 0.0
82 -11.1579 0.0
83 -11.1579 0.0
84 -11.1579 0.0
85 -11.1579 0.0
86 -11.1579 0.0
87 -11.1579 0.0
88 -11.1579 0.0
89 -11.1579 0.0
90 -11.1579 0.0
91 -11.1579 0.0
92 -11.1579 0.0
93 -11.1579 0.0
94 -11.1579 0.0
95 -11.1579 0.0
96 -11.1579 0.0
97 -11.1579 0.0
98 -11.1579 0.0
99 -11.1579 0.0
100 -11.1579 0.0
101 -11.1579 0.0
102 -11.1579 0.0
103 -11.1579 0.0
104 -11.1579 0.0
105 -11.1579 0.0
106 -11.1579 0.0
107 -11.1579 0.0
108 -11.1579 0.0
109 -11.1579 0.0
110 -11.1579 0.0
111 -11.1579 0.0
112 -11.1579 0.0
113 -11.1579 0.0
114 -11.1579 0.0
115 -11.1579 0.0
116 -11.1579 0.0
117 -11.1579 0.0
118 -11.1579 0.0
119 -11.1579 0.0
120 -11.1579 0.0
0 -11.3158 0.0
2 -11.3158 0.0
4 -11.3158 0.0
6 -11.3158 0.0
8 -11.3158 0.0
10 -11.3158 0.0
12 -11.3158 0.0
14 -11.3158 0.0
16 -11.3158 0.0
18 -11.3158 0.0
20 -11.3158 0.0
22 -11.3158 0.0
24 -11.3158 0.0
26 -11.3158 0.0
28 -11.3158 0.0
30 -11.3158 0.0
32 -11.3158 0.0
34 -11.3158 0.0
36 -11.3158 0.0
38 -11.3158 0.0
40 -11.3158 0.0
42 -11.3158 0.0
44 -11.3158 0.0
46 -11.3158 0.0
48 -11.3158 0.0
50 -11.3158 0.0
52 -11.3158 0.0
54 -11.3158 0.0
56 -11.3158 0.0
58 -11.3158 0.0
60 -11.3158 0.0
62 -11.3158 0.0
64 -11.3158 0.0
66 -11.3158 0.0
68 -11.3158 0.0
70 -11.3158 0.0
72 -11.3158 0.0
74 -11.3158 0.0
76 -11.3158 0.0
78 -11.3158 0.0
80 -11.3158 0.0
82 -11.3158 0.0
84 -11.3158 0.0
86 -11.3158 0.0
88 -11.3158 0.0
90 -11.3158 0.0
92 -11.3158 0.0
94 -11.3158 0.0
96 -11.3158 0.0
98 -11.3158 0.0
100 -11.3158 0.0
102 -11.3158 0.0
104 -11.3158 0.0
106 -11.3158 0.0
108 -11.3158 0.0
110 -11.3158 0.0
112 -11.3158 0.0
114 -11.3158 0.0
116 -11.3158 0.0
118 -11.3158 0.0
120 -11.3158 0.0
0 -11.4737 0.0
1 -11.4737 0.0
2 -11.4737 0.0
3 -11.4737 0.0
4 -11.4737 0.0
5 -11.4737 0.0
6 -11.4737 0.0
7 -11.4737 0.0
8 -11.4737 0.0
9 -11.4737 0.0
10 -11.4737 0.0
11 -11.4737 0.0
12 -11.4737 0.0
13 -11.4737 0.0
14 -11.4737 0.0
15 -11.4737 0.0
16 -11.4737 0.0
17 -11.4737 0.0
18 -11.4737 0.0
19 -11.4737 0.0
20 -11.4737 0.0
21 -11.4737 0.0
22 -11.4737 0.0
23 -11.4737 0.0
24 -11.4737 0.0
25 -11.4737 0.0
26 -11.4737 0.0
27 -11.4737 0.0
28 -11.4737 0.0
29 -11.4737 0.0
30 -11.4737 0.0
31 -11.4737 0.0
32 -11.4737 0.0
33 -11.4737 0.0
34 -11.4737 0.0
35 -11.4737 0.0
36 -11.4737 0.0
37 -11.4737 0.0
38 -11.4737 0.0
39 -11.4737 0.0
40 -11.4737 0.0
41 -11.4737 0.0
42 -11.4737 0.0
43 -11.4737 0.0
44 -11.4737 0.0
45 -11.4737 0.0
46 -11.4737 0.0
47 -11.4737 0.0
48 -11.4737 0.0
49 -11.4737 0.0
50 -11.4737 0.0
51 -11.4737 0.0
52 -11.4737 0.0
53 -11.4737 0.0
54 -11.4737 0.0
55 -11.4737 0.0
56 -11.4737 0.0
57 -11.4737 0.0
58 -11.4737 0.0
59 -11.4737 0.0
60 -11.4737 0.0
61 -11.4737 0.0
62 -11.4737 0.0
63 -11.4737 0.0
64 -11.4737 0.0
65 -11.4737 0.0
66 -11.4737 0.0
67 -11.4737 0.0
68 -11.4737 0.0
69 -11.4737 0.0
70 -11.4737 0.0
71 -11.4737 0.0
72 -11.4737 0.0
73 -11.4737 0.0
74 -11.4737 0.0
75 -11.4737 0.0
76 -11.4737 0.0
77 -11.4737 0.0
78 -11.4737 0.0
79 -11.4737 0.0
80 -11.4737 0.0
81 -11.4737 0.0
82 -11.4737 0.0
83 -11.4737 0.0
84 -11.4737 0.0
85 -11.4737 0.0
86 -11.4737 0.0
87 -11.4737 0.0
88 -11.4737 0.0
89 -11.4737 0.0
90 -11.4737 0.0
91 -11.4737 0.0
92 -11.4737 0.0
93 -11.4737 0.0
94 -11.4737 0.0
95 -11.4737 0.0
96 -11.4737 0.0
97 -11.4737 0.0
98 -11.4737 0.0
99 -11.4737 0.0
100 -11.4737 0.0
101 -11.4737 0.0
102 -11.4737 0.0
103 -11.4737 0.0
104 -11.4737 0.0
105 -11.4737 0.0
106 -11.4737 0.0
107 -11.4737 0.0
108 -11.4737 0.0
109 -11.4737 0.0
110 -11.4737 0.0
111 -11.4737 0.0
112 -11.4737 0.0
113 -11.4737 0.0
114 -11.4737 0.0
115 -11.4737 0.0
116 -11.4737 0.0
117 -11.4737 0.0
118 -11.4737 0.0
119 -11.4737 0.0
120 -11.4737 0.0
0 -11.6316 0.0
2 -11.6316 0.0
4 -11.6316 0.0
6 -11.6316 0.0
8 -11.6316 0.0
10 -11.6316 0.0
12 -11.6316 0.0
14 -11.6316 0.0
16 -11.6316 0.0
18 -11.6316 0.0
20 -11.6316 0.0
22 -11.6316 0.0
24 -11.6316 0.0
26 -11.6316 0.0
28 -11.6316 0.0
30 -11.6316 0.0
32 -11.6316 0.0
34 -11.6316 0.0
36 -11.6316 0.0
38 -11.6316 0.0
40 -11.6316 0.0
42 -11.6316 0.0
44 -11.6316 0.0
46 -11.6316 0.0
48 -11.6316 0.0
50 -11.6316 0.0
52 -11.6316 0.0
54 -11.6316 0.0
56 -11.6316 0.0
58 -11.6316 0.0
60 -11.6316 0.0
62 -11.6316 0.0
64 -11.6316 0.0
66 -11.6316 0.0
68 -11.6316 0.0
70 -11.6316 0.0
72 -11.6316 0.0
74 -11.6316 0.0
76 -11.6316 0.0
78 -11.6316 0.0
80 -11.6316 0.0
82 -11.6316 0.0
84 -11.6316 0.0
86 -11.6316 0.0
88 -11.6316 0.0
90 -11.6316 0.0
92 -11.6316 0.0
94 -11.6316 0.0
96 -11.6316 0.0
98 -11.6316 0.0
100 -11.6316 0.0
102 -11.6316 0.0
104 -11.6316 0.0
106 -11.6316 0.0
108 -11.6316 0.0
110 -11.6316 0.0
112 -11.6316 0.0
114 -11.6316 0.0
116 -11.6316 0.0
118 -11.6316 0.0
120 -11.6316 0.0
0 -11.7895 0.0
1 -11.7895 0.0
2 -11.7895 0.0
3 -11.7895 0.0
4 -11.7895 0.0
5 -11.7895 0.0
6 -11.7895 0.0
7 -11.7895 0.0
8 -11.7895 0.0
9 -11.7895 0.0
10 -11.7895 0.0
11 -11.7895 0.0
12 -11.7895 0.0
13 -11.7895 0.0
14 -11.7895 0.0
15 -11.7895 0.0
16 -11.7895 0.0
17 -11.7895 0.0
18 -11.7895 0.0
19 -11.7895 0.0
20 -11.7895 0.0
21 -11.7895 0.0
22 -11.7895 0.0
23 -11.7895 0.0
24 -11.7895 0.0
25 -11.7895 0.0
26 -11.7895 0.0
27 -11.7895 0.0
28 -11.7895 0.0
29 -11.7895 0.0
30 -11.7895 0.0
31 -11.7895 0.0
32 -11.7895 0.0
33 -11.7895 0.0
34 -11.7895 0.0
35 -11.7895 0.0
36 -11.7895 0.0
37 -11.7895 0.0
38 -11.7895 0.0
39 -11.7895 0.0
40 -11.7895 0.0
41 -11.7895 0.0
42 -11.7895 0.0
43 -11.7895 0.0
44 -11.7895 0.0
45 -11.7895 0.0
46 -11.7895 0.0
47 -11.7895 0.0
48 -11.7895 0.0
49 -11.7895 0.0
50 -11.7895 0.0
51 -11.7895 0.0
52 -11.7895 0.0
53 -11.7895 0.0
54 -11.7895 0.0
55 -11.7895 0.0
56 -11.7895 0.0
57 -11.7895 0.0
58 -11.7895 0.0
59 -11.7895 0.0
60 -11.7895 0.0
61 -11.7895 0.0
62 -11.7895 0.0
63 -11.7895 0.0
64 -11.7895 0.0
65 -11.7895 0.0
66 -11.7895 0.0
67 -11.7895 0.0
68 -11.7895 0.0
69 -11.7895 0.0
70 -11.7895 0.0
71 -11.7895 0.0
72 -11.7895 0.0
73 -11.7895 0.0
74 -11.7895 0.0
75 -11.7895 0.0
76 -11.7895 0.0
77 -11.7895 0.0
78 -11.7895 0.0
79 -11.7895 0.0
80 -11.7895 0.0
81 -11.7895 0.0
82 -11.7895 0.0
83 -11.7895 0.0
84 -11.7895 0.0
85 -11.7895 0.0
86 -11.7895 0.0
87 -11.7895 0.0
88 -11.7895 0.0
89 -11.7895 0.0
90 -11.7895 0.0
91 -11.7895 0.0
92 -11.7895 0.0
93 -11.7895 0.0
94 -11.7895 0.0
95 -11.7895 0.0
96 -11.7895 0.0
97 -11.7895 0.0
98 -11.7895 0.0
99 -11.7895 0.0
100 -11.7895 0.0
101 -11.7895 0.0
102 -11.7895 0.0
103 -11.7895 0.0
104 -11.7895 0.0
105 -11.7895 0.0
106 -11.7895 0.0
107 -11.7895 0.0
108 -11.7895 0.0
109 -11.7895 0.0
110 -11.7895 0.0
111 -11.7895 0.0
112 -11.7895 0.0
113 -11.7895 0.0
114 -11.7895 0.0
115 -11.7895 0.0
116 -11.7895 0.0
117 -11.7895 0.0
118 -11.7895 0.0
119 -11.7895 0.0
120 -11.7895 0.0
0 -11.9474 0.0
2 -11.9474 0.0
4 -11.9474 0.0
6 -11.9474 0.0
8 -11.9474 0.0
10 -11.9474 0.0
12 -11.9474 0.0
14 -11.9474 0.0
16 -11.9474 0.0
18 -11.9474 0.0
20 -11.9474 0.0
22 -11.9474 0.0
24 -11.9474 0.0
26 -11.9474 0.0
28 -11.9474 0.0
30 -11.9474 0.0
32 -11.9474 0.0
34 -11.9474 0.0
36 -11.9474 0.0
38 -11.9474 0.0
40 -11.9474 0.0
42 -11.9474 0.0
44 -11.9474 0.0
46 -11.9474 0.0
48 -11.9474 0.0
50 -11.9474 0.0
52 -11.9474 0.0
54 -11.9474 0.0
56 -11.9474 0.0
58 -11.9474 0.0
60 -11.9474 0.0
62 -11.9474 0.0
64 -11.9474 0.0
66 -11.9474 0.0
68 -11.9474 0.0
70 -11.9474 0.0
72 -11.9474 0.0
74 -11.9474 0.0
76 -11.9474 0.0
78 -11.9474 0.0
80 -11.9474 0.0
82 -11.9474 0.0
84 -11.9474 0.0
86 -11.9474 0.0
88 -11.9474 0.0
90 -11.9474 0.0
92 -11.9474 0.0
94 -11.9474 0.0
96 -11.9474 0.0
98 -11.9474 0.0
100 -11.9474 0.0
102 -11.9474 0.0
104 -11.9474 0.0
106 -11.9474 0.0
108 -11.9474 0.0
110 -11.9474 0.0
112 -11.9474 0.0
114 -11.9474 0.0
116 -11.9474 0.0
118 -11.9474 0.0
120 -11.9474 0.0
0 -12.1053 0.0
1 -12.1053 0.0
2 -12.1053 0.0
3 -12.1053 0.0
4 -12.1053 0.0
5 -12.1053 0.0
6 -12.1053 0.0
7 -12.1053 0.0
8 -12.1053 0.0
9 -12.1053 0.0
10 -12.1053 0.0
11 -12.1053 0.0
12 -12.1053 0.0
13 -12.1053 0.0
14 -12.1053 0.0
15 -12.1053 0.0
16 -12.1053 0.0
17 -12.1053 0.0
18 -12.1053 0.0
19 -12.1053 0.0
20 -12.1053 0.0
21 -12.1053 0.0
22 -12.1053 0.0
23 -12.1053 0.0
24 -12.1053 0.0
25 -12.1053 0.0
26 -12.1053 0.0
27 -12.1053 0.0
28 -12.1053 0.0
29 -12.1053 0.0
30 -12.1053 0.0
31 -12.1053 0.0
32 -12.1053 0.0
33 -12.1053 0.0
34 -12.1053 0.0
35 -12.1053 0.0
36 -12.1053 0.0
37 -12.1053 0.0
38 -12.1053 0.0
39 -12.1053 0.0
40 -12.1053 0.0
41 -12.1053 0.0
42 -12.1053 0.0
43 -12.1053 0.0
44 -12.1053 0.0
45 -12.1053 0.0
46 -12.1053 0.0
47 -12.1053 0.0
48 -12.1053 0.0
49 -12.1053 0.0
50 -12.1053 0.0
51 -12.1053 0.0
52 -12.1053 0.0
53 -12.1053 0.0
54 -12.1053 0.0
55 -12.1053 0.0
56 -12.1053 0.0
57 -12.1053 0.0
58 -12.1053 0.0
59 -12.1053 0.0
60 -12.1053 0.0
61 -12.1053 0.0
62 -12.1053 0.0
63 -12.1053 0.0
64 -12.1053 0.0
65 -12.1053 0.0
66 -12.1053 0.0
67 -12.1053 0.0
68 -12.1053 0.0
69 -12.1053 0.0
70 -12.1053 0.0
71 -12.1053 0.0
72 -12.1053 0.0
73 -12.1053 0.0
74 -12.1053 0.0
75 -12.1053 0.0
76 -12.1053 0.0
77 -12.1053 0.0
78 -12.1053 0.0
79 -12.1053 0.0
80 -12.1053 0.0
81 -12.1053 0.0
82 -12.1053 0.0
83 -12.1053 0.0
84 -12.1053 0.0
85 -12.1053 0.0
86 -12.1053 0.0
87 -12.1053 0.0
88 -12.1053 0.0
89 -12.1053 0.0
90 -12.1053 0.0
91 -12.1053 0.0
92 -12.1053 0.0
93 -12.1053 0.0
94 -12.1053 0.0
95 -12.1053 0.0
96 -12.1053 0.0
97 -12.1053 0.0
98 -12.1053 0.0
99 -12.1053 0.0
100 -12.1053 0.0
101 -12.1053 0.0
102 -12.1053 0.0
103 -12.1053 0.0
104 -12.1053 0.0
105 -12.1053 0.0
106 -12.1053 0.0
107 -12.1053 0.0
108 -12.1053 0.0
109 -12.1053 0.0
110 -12.1053 0.0
111 -12.1053 0.0
112 -12.1053 0.0
113 -12.1053 0.0
114 -12.1053 0.0
115 -12.1053 0.0
116 -12.1053 0.0
117 -12.1053 0.0
118 -12.1053 0.0
119 -12.1053 0.0
120 -12.1053 0.0
0 -12.2632 0.0
2 -12.2632 0.0
4 -12.2632 0.0
6 -12.2632 0.0
8 -12.2632 0.0
10 -12.2632 0.0
12 -12.2632 0.0
14 -12.2632 0.0
16 -12.2632 0.0
18 -12.2632 0.0
20 -12.2632 0.0
22 -12.2632 0.0
24 -12.2632 0.0
26 -12.2632 0.0
28 -12.2632 0.0
30 -12.2632 0.0
32 -12.2632 0.0
34 -12.2632 0.0
36 -12.2632 0.0
38 -12.2632 0.0
40 -12.2632 0.0
42 -12.2632 0.0
44 -12.2632 0.0
46 -12.2632 0.0
48 -12.2632 0.0
50 -12.2632 0.0
52 -12.2632 0.0
54 -12.2632 0.0
56 -12.2632 0.0
58 -12.2632 0.0
60 -12.2632 0.0
62 -12.2632 0.0
64 -12.2632 0.0
66 -12.2632 0.0
68 -12.2632 0.0
70 -12.2632 0.0
72 -12.2632 0.0
74 -12.2632 0.0
76 -12.2632 0.0
78 -12.2632 0.0
80 -12.2632 0.0
82 -12.2632 0.0
84 -12.2632 0.0
86 -12.2632 0.0
88 -12.2632 0.0
90 -12.2632 0.0
92 -12.2632 0.0
94 -12.2632 0.0
96 -12.2632 0.0
98 -12.2632 0.0
100 -12.2632 0.0
102 -12.2632 0.0
104 -12.2632 0.0
106 -12.2632 0.0
108 -12.2632 0.0
110 -12.2632 0.0
112 -12.2632 0.0
114 -12.2632 0.0
116 -12.2632 0.0
118 -12.2632 0.0
120 -12.2632 0.0
0 -12.4211 0.0
1 -12.4211 0.0
2 -12.4211 0.0
3 -12.4211 0.0
4 -12.4211 0.0
5 -12.4211 0.0
6 -12.4211 0.0
7 -12.4211 0.0
8 -12.4211 0.0
9 -12.4211 0.0
10 -12.4211 0.0
11 -12.4211 0.0
12 -12.4211 0.0
13 -12.4211 0.0
14 -12.4211 0.0
15 -12.4211 0.0
16 -12.4211 0.0
17 -12.4211 0.0
18 -12.4211 0.0
19 -12.4211 0.0
20 -12.4211 0.0
21 -12.4211 0.0
22 -12.4211 0.0
23 -12.4211 0.0
24 -12.4211 0.0
25 -12.4211 0.0
26 -12.4211 0.0
27 -12.4211 0.0
28 -12.4211 0.0
29 -12.4211 0.0
30 -12.4211 0.0
31 -12.4211 0.0
32 -12.4211 0.0
33 -12.4211 0.0
34 -12.4211 0.0
35 -12.4211 0.0
36 -12.4211 0.0
37 -12.4211 0.0
38 -12.4211 0.0
39 -12.4211 0.0
40 -12.4211 0.0
41 -12.4211 0.0
42 -12.4211 0.0
43 -12.4211 0.0
44 -12.4211 0.0
45 -12.4211 0.0
46 -12.4211 0.0
47 -12.4211 0.0
48 -12.4211 0.0
49 -12.4211 0.0
50 -12.4211 0.0
51 -12.4211 0.0
52 -12.4211 0.0
53 -12.4211 0.0
54 -12.4211 0.0
55 -12.4211 0.0
56 -12.4211 0.0
57 -12.4211 0.0
58 -12.4211 0.0
59 -12.4211 0.0
60 -12.4211 0.0
61 -12.4211 0.0
62 -12.4211 0.0
63 -12.4211 0.0
64 -12.4211 0.0
65 -12.4211 0.0
66 -12.4211 0.0
67 -12.4211 0.0
68 -12.4211 0.0
69 -12.4211 0.0
70 -12.4211 0.0
71 -12.4211 0.0
72 -12.4211 0.0
73 -12.4211 0.0
74 -12.4211 0.0
75 -12.4211 0.0
76 -12.4211 0.0
77 -12.4211 0.0
78 -12.4211 0.0
79 -12.4211 0.0
80 -12.4211 0.0
81 -12.4211 0.0
82 -12.4211 0.0
83 -12.4211 0.0
84 -12.4211 0.0
85 -12.4211 0.0
86 -12.4211 0.0
87 -12.4211 0.0
88 -12.4211 0.0
89 -12.4211 0.0
90 -12.4211 0.0
91 -12.4211 0.0
92 -12.4211 0.0
93 -12.4211 0.0
94 -12.4211 0.0
95 -12.4211 0.0
96 -12.4211 0.0
97 -12.4211 0.0
98 -12.4211 0.0
99 -12.4211 0.0
100 -12.4211 0.0
101 -12.4211 0.0
102 -12.4211 0.0
103 -12.4211 0.0
104 -12.4211 0.0
105 -12.4211 0.0
106 -12.4211 0.0
107 -12.4211 0.0
108 -12.4211 0.0
109 -12.4211 0.0
110 -12.4211 0.0
111 -12.4211 0.0
112 -12.4211 0.0
113 -12.4211 0.0
114 -12.4211 0.0
115 -12.4211 0.0
116 -12.4211 0.0
117 -12.4211 0.0
118 -12.4211 0.0
119 -12.4211 0.0
120 -12.4211 0.0
0 -12.5789 0.0
2 -12.5789 0.0
4 -12.5789 0.0
6 -12.5789 0.0
8 -12.5789 0.0
10 -12.5789 0.0
12 -12.5789 0.0
14 -12.5789 0.0
16 -12.5789 0.0
18 -12.5789 0.0
20 -12.5789 0.0
22 -12.5789 0.0
24 -12.5789 0.0
26 -12.5789 0.0
28 -12.5789 0.0
30 -12.5789 0.0
32 -12.5789 0.0
34 -12.5789 0.0
36 -12.5789 0.0
38 -12.5789 0.0
40 -12.5789 0.0
42 -12.5789 0.0
44 -12.5789 0.0
46 -12.5789 0.0
48 -12.5789 0.0
50 -12.5789 0.0
52 -12.5789 0.0
54 -12.5789 0.0
56 -12.5789 0.0
58 -12.5789 0.0
60 -12.5789 0.0
62 -12.5789 0.0
64 -12.5789 0.0
66 -12.5789 0.0
68 -12.5789 0.0
70 -12.5789 0.0
72 -12.5789 0.0
74 -12.5789 0.0
76 -12.5789 0.0
78 -12.5789 0.0
80 -12.5789 0.0
82 -12.5789 0.0
84 -12.5789 0.0
86 -12.5789 0.0
88 -12.5789 0.0
90 -12.5789 0.0
92 -12.5789 0.0
94 -12.5789 0.0
96 -12.5789 0.0
98 -12.5789 0.0
100 -12.5789 0.0
102 -12.5789 0.0
104 -12.5789 0.0
106 -12.5789 0.0
108 -12.5789 0.0
110 -12.5789 0.0
112 -12.5789 0.0
114 -12.5789 0.0
116 -12.5789 0.0
118 -12.5789 0.0
120 -12.5789 0.0
0 -12.7368 0.0
1 -12.7368 0.0
2 -12.7368 0.0
3 -12.7368 0.0
4 -12.7368 0.0
5 -12.7368 0.0
6 -12.7368 0.0
7 -12.7368 0.0
8 -12.7368 0.0
9 -12.7368 0.0
10 -12.7368 0.0
11 -12.7368 0.0
12 -12.7368 0.0
13 -12.7368 0.0
14 -12.7368 0.0
15 -12.7368 0.0
16 -12.7368 0.0
17 -12.7368 0.0
18 -12.7368 0.0
19 -12.7368 0.0
20 -12.7368 0.0
21 -12.7368 0.0
22 -12.7368 0.0
23 -12.7368 0.0
24 -12.7368 0.0
25 -12.7368 0.0
26 -12.7368 0.0
27 -12.7368 0.0
28 -12.7368 0.0
29 -12.7368 0.0
30 -12.7368 0.0
31 -12.7368 0.0
32 -12.7368 0.0
33 -12.7368 0.0
34 -12.7368 0.0
35 -12.7368 0.0
36 -12.7368 0.0
37 -12.7368 0.0
38 -12.7368 0.0
39 -12.7368 0.0
40 -12.7368 0.0
41 -12.7368 0.0
42 -12.7368 0.0
43 -12.7368 0.0
44 -12.7368 0.0
45 -12.7368 0.0
46 -12.7368 0.0
47 -12.7368 0.0
48 -12.7368 0.0
49 -12.7368 0.0
50 -12.7368 0.0
51 -12.7368 0.0
52 -12.7368 0.0
53 -12.7368 0.0
54 -12.7368 0.0
55 -12.7368 0.0
56 -12.7368 0.0
57 -12.7368 0.0
58 -12.7368 0.0
59 -12.7368 0.0
60 -12.7368 0.0
61 -12.7368 0.0
62 -12.7368 0.0
63 -12.7368 0.0
64 -12.7368 0.0
65 -12.7368 0.0
66 -12.7368 0.0
67 -12.7368 0.0
68 -12.7368 0.0
69 -12.7368 0.0
70 -12.7368 0.0
71 -12.7368 0.0
72 -12.7368 0.0
73 -12.7368 0.0
74 -12.7368 0.0
75 -12.7368 0.0
76 -12.7368 0.0
77 -12.7368 0.0
78 -12.7368 0.0
79 -12.7368 0.0
80 -12.7368 0.0
81 -12.7368 0.0
82 -12.7368 0.0
83 -12.7368 0.0
84 -12.7368 0.0
85 -12.7368 0.0
86 -12.7368 0.0
87 -12.7368 0.0
88 -12.7368 0.0
89 -12.7368 0.0
90 -12.7368 0.0
91 -12.7368 0.0
92 -12.7368 0.0
93 -12.7368 0.0
94 -12.7368 0.0
95 -12.7368 0.0
96 -12.7368 0.0
97 -12.7368 0.0
98 -12.7368 0.0
99 -12.7368 0.0
100 -12.7368 0.0
101 -12.7368 0.0
102 -12.7368 0.0
103 -12.7368 0.0
104 -12.7368 0.0
105 -12.7368 0.0
106 -12.7368 0.0
107 -12.7368 0.0
108 -12.7368 0.0
109 -12.7368 0.0
110 -12.7368 0.0
111 -12.7368 0.0
112 -12.7368 0.0
113 -12.7368 0.0
114 -12.7368 0.0
115 -12.7368 0.0
116 -12.7368 0.0
117 -12.7368 0.0
118 -12.7368 0.0
119 -12.7368 0.0
120 -12.7368 0.0
0 -12.8947 0.0
2 -12.8947 0.0
4 -12.8947 0.0
6 -12.8947 0.0
8 -12.8947 0.0
10 -12.8947 0.0
12 -12.8947 0.0
14 -12.8947 0.0
16 -12.8947 0.0
18 -12.8947 0.0
20 -12.8947 0.0
22 -12.8947 0.0
24 -12.8947 0.0
26 -12.8947 0.0
28 -12.8947 0.0
30 -12.8947 0.0
32 -12.8947 0.0
34 -12.8947 0.0
36 -12.8947 0.0
38 -12.8947 0.0
40 -12.8947 0.0
42 -12.8947 0.0
44 -12.8947 0.0
46 -12.8947 0.0
48 -12.8947 0.0
50 -12.8947 0.0
52 -12.8947 0.0
54 -12.8947 0.0
56 -12.8947 0.0
58 -12.8947 0.0
60 -12.8947 0.0
62 -12.8947 0.0
64 -12.8947 0.0
66 -12.8947 0.0
68 -12.8947 0.0
70 -12.8947 0.0
72 -12.8947 0.0
74 -12.8947 0.0
76 -12.8947 0.0
78 -12.8947 0.0
80 -12.8947 0.0
82 -12.8947 0.0
84 -12.8947 0.0
86 -12.8947 0.0
88 -12.8947 0.0
90 -12.8947 0.0
92 -12.8947 0.0
94 -12.8947 0.0
96 -12.8947 0.0
98 -12.8947 0.0
100 -12.8947 0.0
102 -12.8947 0.0
104 -12.8947 0.0
106 -12.8947 0.0
108 -12.8947 0.0
110 -12.8947 0.0
112 -12.8947 0.0
114 -12.8947 0.0
116 -12.8947 0.0
118 -12.8947 0.0
120 -12.8947 0.0
0 -13.0526 0.0
1 -13.0526 0.0
2 -13.0526 0.0
3 -13.0526 0.0
4 -13.0526 0.0
5 -13.0526 0.0
6 -13.0526 0.0
7 -13.0526 0.0
8 -13.0526 0.0
9 -13.0526 0.0
10 -13.0526 0.0
11 -13.0526 0.0
12 -13.0526 0.0
13 -13.0526 0.0
14 -13.0526 0.0
15 -13.0526 0.0
16 -13.0526 0.0
17 -13.0526 0.0
18 -13.0526 0.0
19 -13.0526 0.0
20 -13.0526 0.0
21 -13.0526 0.0
22 -13.0526 0.0
23 -13.0526 0.0
24 -13.0526 0.0
25 -13.0526 0.0
26 -13.0526 0.0
27 -13.0526 0.0
28 -13.0526 0.0
29 -13.0526 0.0
30 -13.0526 0.0
31 -13.0526 0.0
32 -13.0526 0.0
33 -13.0526 0.0
34 -13.0526 0.0
35 -13.0526 0.0
36 -13.0526 0.0
37 -13.0526 0.0
38 -13.0526 0.0
39 -13.0526 0.0
40 -13.0526 0.0
41 -13.0526 0.0
42 -13.0526 0.0
43 -13.0526 0.0
44 -13.0526 0.0
45 -13.0526 0.0
46 -13.0526 0.0
47 -13.0526 0.0
48 -13.0526 0.0
49 -13.0526 0.0
50 -13.0526 0.0
51 -13.0526 0.0
52 -13.0526 0.0
53 -13.0526 0.0
54 -13.0526 0.0
55 -13.0526 0.0
56 -13.0526 0.0
57 -13.0526 0.0
58 -13.0526 0.0
59 -13.0526 0.0
60 -13.0526 0.0
61 -13.0526 0.0
62 -13.0526 0.0
63 -13.0526 0.0
64 -13.0526 0.0
65 -13.0526 0.0
66 -13.0526 0.0
67 -13.0526 0.0
68 -13.0526 0.0
69 -13.0526 0.0
70 -13.0526 0.0
71 -13.0526 0.0
72 -13.0526 0.0
73 -13.0526 0.0
74 -13.0526 0.0
75 -13.0526 0.0
76 -13.0526 0.0
77 -13.0526 0.0
78 -13.0526 0.0
79 -13.0526 0.0
80 -13.0526 0.0
81 -13.0526 0.0
82 -13.0526 0.0
83 -13.0526 0.0
84 -13.0526 0.0
85 -13.0526 0.0
86 -13.0526 0.0
87 -13.0526 0.0
88 -13.0526 0.0
89 -13.0526 0.0
90 -13.0526 0.0
91 -13.0526 0.0
92 -13.0526 0.0
93 -13.0526 0.0
94 -13.0526 0.0
95 -13.0526 0.0
96 -13.0526 0.0
97 -13.0526 0.0
98 -13.0526 0.0
99 -13.0526 0.0
100 -13.0526 0.0
101 -13.0526 0.0
102 -13.0526 0.0
103 -13.0526 0.0
104 -13.0526 0.0
105 -13.0526 0.0
106 -13.0526 0.0
107 -13.0526 0.0
108 -13.0526 0.0
109 -13.0526 0.0
110 -13.0526 0.0
111 -13.0526 0.0
112 -13.0526 0.0
113 -13.0526 0.0
114 -13.0526 0.0
115 -13.0526 0.0
116 -13.0526 0.0
117 -13.0526 0.0
118 -13.0526 0.0
119 -13.0526 0.0
120 -13.0526 0.0
0 -13.2105 0.0
2 -13.2105 0.0
4 -13.2105 0.0
6 -13.2105 0.0
8 -13.2105 0.0
10 -13.2105 0.0
12 -13.2105 0.0
14 -13.2105 0.0
16 -13.2105 0.0
18 -13.2105 0.0
20 -13.2105 0.0
22 -13.2105 0.0
24 -13.2105 0.0
26 -13.2105 0.0
28 -13.2105 0.0
30 -13.2105 0.0
32 -13.2105 0.0
34 -13.2105 0.0
36 -13.2105 0.0
38 -13.2105 0.0
40 -13.2105 0.0
42 -13.2105 0.0
44 -13.2105 0.0
46 -13.2105 0.0
48 -13.2105 0.0
50 -13.2105 0.0
52 -13.2105 0.0
54 -13.2105 0.0
56 -13.2105 0.0
58 -13.2105 0.0
60 -13.2105 0.0
62 -13.2105 0.0
64 -13.2105 0.0
66 -13.2105 0.0
68 -13.2105 0.0
70 -13.2105 0.0
72 -13.2105 0.0
74 -13.2105 0.0
76 -13.2105 0.0
78 -13.2105 0.0
80 -13.2105 0.0
82 -13.2105 0.0
84 -13.2105 0.0
86 -13.2105 0.0
88 -13.2105 0.0
90 -13.2105 0.0
92 -13.2105 0.0
94 -13.2105 0.0
96 -13.2105 0.0
98 -13.2105 0.0
100 -13.2105 0.0
102 -13.2105 0.0
104 -13.2105 0.0
106 -13.2105 0.0
108 -13.2105 0.0
110 -13.2105 0.0
112 -13.2105 0.0
114 -13.2105 0.0
116 -13.2105 0.0
118 -13.2105 0.0
120 -13.2105 0.0
0 -13.3684 0.0
1 -13.3684 0.0
2 -13.3684 0.0
3 -13.3684 0.0
4 -13.3684 0.0
5 -13.3684 0.0
6 -13.3684 0.0
7 -13.3684 0.0
8 -13.3684 0.0
9 -13.3684 0.0
10 -13.3684 0.0
11 -13.3684 0.0
12 -13.3684 0.0
13 -13.3684 0.0
14 -13.3684 0.0
15 -13.3684 0.0
16 -13.3684 0.0
17 -13.3684 0.0
18 -13.3684 0.0
19 -13.3684 0.0
20 -13.3684 0.0
21 -13.3684 0.0
22 -13.3684 0.0
23 -13.3684 0.0
24 -13.3684 0.0
25 -13.3684 0.0
26 -13.3684 0.0
27 -13.3684 0.0
28 -13.3684 0.0
29 -13.3684 0.0
30 -13.3684 0.0
31 -13.3684 0.0
32 -13.3684 0.0
33 -13.3684 0.0
34 -13.3684 0.0
35 -13.3684 0.0
36 -13.3684 0.0
37 -13.3684 0.0
38 -13.3684 0.0
39 -13.3684 0.0
40 -13.3684 0.0
41 -13.3684 0.0
42 -13.3684 0.0
43 -13.3684 0.0
44 -13.3684 0.0
45 -13.3684 0.0
46 -13.3684 0.0
47 -13.3684 0.0
48 -13.3684 0.0
49 -13.3684 0.0
50 -13.3684 0.0
51 -13.3684 0.0
52 -13.3684 0.0
53 -13.3684 0.0
54 -13.3684 0.0
55 -13.3684 0.0
56 -13.3684 0.0
57 -13.3684 0.0
58 -13.3684 0.0
59 -13.3684 0.0
60 -13.3684 0.0
61 -13.3684 0.0
62 -13.3684 0.0
63 -13.3684 0.0
64 -13.3684 0.0
65 -13.3684 0.0
66 -13.3684 0.0
67 -13.3684 0.0
68 -13.3684 0.0
69 -13.3684 0.0
70 -13.3684 0.0
71 -13.3684 0.0
72 -13.3684 0.0
73 -13.3684 0.0
74 -13.3684 0.0
75 -13.3684 0.0
76 -13.3684 0.0
77 -13.3684 0.0
78 -13.3684 0.0
79 -13.3684 0.0
80 -13.3684 0.0
81 -13.3684 0.0
82 -13.3684 0.0
83 -13.3684 0.0
84 -13.3684 0.0
85 -13.3684 0.0
86 -13.3684 0.0
87 -13.3684 0.0
88 -13.3684 0.0
89 -13.3684 0.0
90 -13.3684 0.0
91 -13.3684 0.0
92 -13.3684 0.0
93 -13.3684 0.0
94 -13.3684 0.0
95 -13.3684 0.0
96 -13.3684 0.0
97 -13.3684 0.0
98 -13.3684 0.0
99 -13.3684 0.0
100 -13.3684 0.0
101 -13.3684 0.0
102 -13.3684 0.0
103 -13.3684 0.0
104 -13.3684 0.0
105 -13.3684 0.0
106 -13.3684 0.0
107 -13.3684 0.0
108 -13.3684 0.0
109 -13.3684 0.0
110 -13.3684 0.0
111 -13.3684 0.0
112 -13.3684 0.0
113 -13.3684 0.0
114 -13.3684 0.0
115 -13.3684 0.0
116 -13.3684 0.0
117 -13.3684 0.0
118 -13.3684 0.0
119 -13.3684 0.0
120 -13.3684 0.0
0 -13.5263 0.0
2 -13.5263 0.0
4 -13.5263 0.0
6 -13.5263 0.0
8 -13.5263 0.0
10 -13.5263 0.0
12 -13.5263 0.0
14 -13.5263 0.0
16 -13.5263 0.0
18 -13.5263 0.0
20 -13.5263 0.0
22 -13.5263 0.0
24 -13.5263 0.0
26 -13.5263 0.0
28 -13.5263 0.0
30 -13.5263 0.0
32 -13.5263 0.0
34 -13.5263 0.0
36 -13.5263 0.0
38 -13.5263 0.0
40 -13.5263 0.0
42 -13.5263 0.0
44 -13.5263 0.0
46 -13.5263 0.0
48 -13.5263 0.0
50 -13.5263 0.0
52 -13.5263 0.0
54 -13.5263 0.0
56 -13.5263 0.0
58 -13.5263 0.0
60 -13.5263 0.0
62 -13.5263 0.0
64 -13.5263 0.0
66 -13.5263 0.0
68 -13.5263 0.0
70 -13.5263 0.0
72 -13.5263 0.0
74 -13.5263 0.0
76 -13.5263 0.0
78 -13.5263 0.0
80 -13.5263 0.0
82 -13.5263 0.0
84 -13.5263 0.0
86 -13.5263 0.0
88 -13.5263 0.0
90 -13.5263 0.0
92 -13.5263 0.0
94 -13.5263 0.0
96 -13.5263 0.0
98 -13.5263 0.0
100 -13.5263 0.0
102 -13.5263 0.0
104 -13.5263 0.0
106 -13.5263 0.0
108 -13.5263 0.0
110 -13.5263 0.0
112 -13.5263 0.0
114 -13.5263 0.0
116 -13.5263 0.0
118 -13.5263 0.0
120 -13.5263 0.0
0 -13.6842 0.0
1 -13.6842 0.0
2 -13.6842 0.0
3 -13.6842 0.0
4 -13.6842 0.0
5 -13.6842 0.0
6 -13.6842 0.0
7 -13.6842 0.0
8 -13.6842 0.0
9 -13.6842 0.0
10 -13.6842 0.0
11 -13.6842 0.0
12 -13.6842 0.0
13 -13.6842 0.0
14 -13.6842 0.0
15 -13.6842 0.0
16 -13.6842 0.0
17 -13.6842 0.0
18 -13.6842 0.0
19 -13.6842 0.0
20 -13.6842 0.0
21 -13.6842 0.0
22 -13.6842 0.0
23 -13.6842 0.0
24 -13.6842 0.0
25 -13.6842 0.0
26 -13.6842 0.0
27 -13.6842 0.0
28 -13.6842 0.0
29 -13.6842 0.0
30 -13.6842 0.0
31 -13.6842 0.0
32 -13.6842 0.0
33 -13.6842 0.0
34 -13.6842 0.0
35 -13.6842 0.0
36 -13.6842 0.0
37 -13.6842 0.0
38 -13.6842 0.0
39 -13.6842 0.0
40 -13.6842 0.0
41 -13.6842 0.0
42 -13.6842 0.0
43 -13.6842 0.0
44 -13.6842 0.0
45 -13.6842 0.0
46 -13.6842 0.0
47 -13.6842 0.0
48 -13.6842 0.0
49 -13.6842 0.0
50 -13.6842 0.0
51 -13.6842 0.0
52 -13.6842 0.0
53 -13.6842 0.0
54 -13.6842 0.0
55 -13.6842 0.0
56 -13.6842 0.0
57 -13.6842 0.0
58 -13.6842 0.0
59 -13.6842 0.0
60 -13.6842 0.0
61 -13.6842 0.0
62 -13.6842 0.0
63 -13.6842 0.0
64 -13.6842 0.0
65 -13.6842 0.0
66 -13.6842 0.0
67 -13.6842 0.0
68 -13.6842 0.0
69 -13.6842 0.0
70 -13.6842 0.0
71 -13.6842 0.0
72 -13.6842 0.0
73 -13.6842 0.0
74 -13.6842 0.0
75 -13.6842 0.0
76 -13.6842 0.0
77 -13.6842 0.0
78 -13.6842 0.0
79 -13.6842 0.0
80 -13.6842 0.0
81 -13.6842 0.0
82 -13.6842 0.0
83 -13.6842 0.0
84 -13.6842 0.0
85 -13.6842 0.0
86 -13.6842 0.0
87 -13.6842 0.0
88 -13.6842 0.0
89 -13.6842 0.0
90 -13.6842 0.0
91 -13.6842 0.0
92 -13.6842 0.0
93 -13.6842 0.0
94 -13.6842 0.0
95 -13.6842 0.0
96 -13.6842 0.0
97 -13.6842 0.0
98 -13.6842 0.0
99 -13.6842 0.0
100 -13.6842 0.0
101 -13.6842 0.0
102 -13.6842 0.0
103 -13.6842 0.0
104 -13.6842 0.0
105 -13.6842 0.0
106 -13.6842 0.0
107 -13.6842 0.0
108 -13.6842 0.0
109 -13.6842 0.0
110 -13.6842 0.0
111 -13.6842 0.0
112 -13.6842 0.0
113 -13.6842 0.0
114 -13.6842 0.0
115 -13.6842 0.0
116 -13.6842 0.0
117 -13.6842 0.0
118 -13.6842 0.0
119 -13.6842 0.0
120 -13.6842 0.0
0 -13.8421 0.0
2 -13.8421 0.0
4 -13.8421 0.0
6 -13.8421 0.0
8 -13.8421 0.0
10 -13.8421 0.0
12 -13.8421 0.0
14 -13.8421 0.0
16 -13.8421 0.0
18 -13.8421 0.0
20 -13.8421 0.0
22 -13.8421 0.0
24 -13.8421 0.0
26 -13.8421 0.0
28 -13.8421 0.0
30 -13.8421 0.0
32 -13.8421 0.0
34 -13.8421 0.0
36 -13.8421 0.0
38 -13.8421 0.0
40 -13.8421 0.0
42 -13.8421 0.0
44 -13.8421 0.0
46 -13.8421 0.0
48 -13.8421 0.0
50 -13.8421 0.0
52 -13.8421 0.0
54 -13.8421 0.0
56 -13.8421 0.0
58 -13.8421 0.0
60 -13.8421 0.0
62 -13.8421 0.0
64 -13.8421 0.0
66 -13.8421 0.0
68 -13.8421 0.0
70 -13.8421 0.0
72 -13.8421 0.0
74 -13.8421 0.0
76 -13.8421 0.0
78 -13.8421 0.0
80 -13.8421 0.0
82 -13.8421 0.0
84 -13.8421 0.0
86 -13.8421 0.0
88 -13.8421 0.0
90 -13.8421 0.0
92 -13.8421 0.0
94 -13.8421 0.0
96 -13.8421 0.0
98 -13.8421 0.0
100 -13.8421 0.0
102 -13.8421 0.0
104 -13.8421 0.0
106 -13.8421 0.0
108 -13.8421 0.0
110 -13.8421 0.0
112 -13.8421 0.0
114 -13.8421 0.0
116 -13.8421 0.0
118 -13.8421 0.0
120 -13.8421 0.0
0 -14 0.0
1 -14 0.0
2 -14 0.0
3 -14 0.0
4 -14 0.0
5 -14 0.0
6 -14 0.0
7 -14 0.0
8 -14 0.0
9 -14 0.0
10 -14 0.0
11 -14 0.0
12 -14 0.0
13 -14 0.0
14 -14 0.0
15 -14 0.0
16 -14 0.0
17 -14 0.0
18 -14 0.0
19 -14 0.0
20 -14 0.0
21 -14 0.0
22 -14 0.0
23 -14 0.0
24 -14 0.0
25 -14 0.0
26 -14 0.0
27 -14 0.0
28 -14 0.0
29 -14 0.0
30 -14 0.0
31 -14 0.0
32 -14 0.0
33 -14 0.0
34 -14 0.0
35 -14 0.0
36 -14 0.0
37 -14 0.0
38 -14 0.0
39 -14 0.0
40 -14 0.0
41 -14 0.0
42 -14 0.0
43 -14 0.0
44 -14 0.0
45 -14 0.0
46 -14 0.0
47 -14 0.0
48 -14 0.0
49 -14 0.0
50 -14 0.0
51 -14 0.0
52 -14 0.0
53 -14 0.0
54 -14 0.0
55 -14 0.0
56 -14 0.0
57 -14 0.0
58 -14 0.0
59 -14 0.0
60 -14 0.0
61 -14 0.0
62 -14 0.0
63 -14 0.0
64 -14 0.0
65 -14 0.0
66 -14 0.0
67 -14 0.0
68 -14 0.0
69 -14 0.0
70 -14 0.0
71 -14 0.0
72 -14 0.0
73 -14 0.0
74 -14 0.0
75 -14 0.0
76 -14 0.0
77 -14 0.0
78 -14 0.0
79 -14 0.0
80 -14 0.0
81 -14 0.0
82 -14 0.0
83 -14 0.0
84 -14 0.0
85 -14 0.0
86 -14 0.0
87 -14 0.0
88 -14 0.0
89 -14 0.0
90 -14 0.0
91 -14 0.0
92 -14 0.0
93 -14 0.0
94 -14 0.0
95 -14 0.0
96 -14 0.0
97 -14 0.0
98 -14 0.0
99 -14 0.0
100 -14 0.0
101 -14 0.0
102 -14 0.0
103 -14 0.0
104 -14 0.0
105 -14 0.0
106 -14 0.0
107 -14 0.0
108 -14 0.0
109 -14 0.0
110 -14 0.0
111 -14 0.0
112 -14 0.0
113 -14 0.0
114 -14 0.0
115 -14 0.0
116 -14 0.0
117 -14 0.0
118 -14 0.0
119 -14 0.0
120 -14 0.0
0 -14.1176 0.0
2 -14.1176 0.0
4 -14.1176 0.0
6 -14.1176 0.0
8 -14.1176 0.0
10 -14.1176 0.0
12 -14.1176 0.0
14 -14.1176 0.0
16 -14.1176 0.0
18 -14.1176 0.0
20 -14.1176 0.0
22 -14.1176 0.0
24 -14.1176 0.0
26 -14.1176 0.0
28 -14.1176 0.0
30 -14.1176 0.0
32 -14.1176 0.0
34 -14.1176 0.0
36 -14.1176 0.0
38 -14.1176 0.0
40 -14.1176 0.0
42 -14.1176 0.0
44 -14.1176 0.0
46 -14.1176 0.0
48 -14.1176 0.0
50 -14.1176 0.0
52 -14.1176 0.0
54 -14.1176 0.0
56 -14.1176 0.0
58 -14.1176 0.0
60 -14.1176 0.0
62 -14.1176 0.0
64 -14.1176 0.0
66 -14.1176 0.0
68 -14.1176 0.0
70 -14.1176 0.0
72 -14.1176 0.0
74 -14.1176 0.0
76 -14.1176 0.0
78 -14.1176 0.0
80 -14.1176 0.0
82 -14.1176 0.0
84 -14.1176 0.0
86 -14.1176 0.0
88 -14.1176 0.0
90 -14.1176 0.0
92 -14.1176 0.0
94 -14.1176 0.0
96 -14.1176 0.0
98 -14.1176 0.0
100 -14.1176 0.0
102 -14.1176 0.0
104 -14.1176 0.0
106 -14.1176 0.0
108 -14.1176 0.0
110 -14.1176 0.0
112 -14.1176 0.0
114 -14.1176 0.0
116 -14.1176 0.0
118 -14.1176 0.0
120 -14.1176 0.0
0 -14.2353 0.0
1 -14.2353 0.0
2 -14.2353 0.0
3 -14.2353 0.0
4 -14.2353 0.0
5 -14.2353 0.0
6 -14.2353 0.0
7 -14.2353 0.0
8 -14.2353 0.0
9 -14.2353 0.0
10 -14.2353 0.0
11 -14.2353 0.0
12 -14.2353 0.0
13 -14.2353 0.0
14 -14.2353 0.0
15 -14.2353 0.0
16 -14.2353 0.0
17 -14.2353 0.0
18 -14.2353 0.0
19 -14.2353 0.0
20 -14.2353 0.0
21 -14.2353 0.0
22 -14.2353 0.0
23 -14.2353 0.0
24 -14.2353 0.0
25 -14.2353 0.0
26 -14.2353 0.0
27 -14.2353 0.0
28 -14.2353 0.0
29 -14.2353 0.0
30 -14.2353 0.0
31 -14.2353 0.0
32 -14.2353 0.0
33 -14.2353 0.0
34 -14.2353 0.0
35 -14.2353 0.0
36 -14.2353 0.0
37 -14.2353 0.0
38 -14.2353 0.0
39 -14.2353 0.0
40 -14.2353 0.0
41 -14.2353 0.0
42 -14.2353 0.0
43 -14.2353 0.0
44 -14.2353 0.0
45 -14.2353 0.0
46 -14.2353 0.0
47 -14.2353 0.0
48 -14.2353 0.0
49 -14.2353 0.0
50 -14.2353 0.0
51 -14.2353 0.0
52 -14.2353 0.0
53 -14.2353 0.0
54 -14.2353 0.0
55 -14.2353 0.0
56 -14.2353 0.0
57 -14.2353 0.0
58 -14.2353 0.0
59 -14.2353 0.0
60 -14.2353 0.0
61 -14.2353 0.0
62 -14.2353 0.0
63 -14.2353 0.0
64 -14.2353 0.0
65 -14.2353 0.0
66 -14.2353 0.0
67 -14.2353 0.0
68 -14.2353 0.0
69 -14.2353 0.0
70 -14.2353 0.0
71 -14.2353 0.0
72 -14.2353 0.0
73 -14.2353 0.0
74 -14.2353 0.0
75 -14.2353 0.0
76 -14.2353 0.0
77 -14.2353 0.0
78 -14.2353 0.0
79 -14.2353 0.0
80 -14.2353 0.0
81 -14.2353 0.0
82 -14.2353 0.0
83 -14.2353 0.0
84 -14.2353 0.0
85 -14.2353 0.0
86 -14.2353 0.0
87 -14.2353 0.0
88 -14.2353 0.0
89 -14.2353 0.0
90 -14.2353 0.0
91 -14.2353 0.0
92 -14.2353 0.0
93 -14.2353 0.0
94 -14.2353 0.0
95 -14.2353 0.0
96 -14.2353 0.0
97 -14.2353 0.0
98 -14.2353 0.0
99 -14.2353 0.0
100 -14.2353 0.0
101 -14.2353 0.0
102 -14.2353 0.0
103 -14.2353 0.0
104 -14.2353 0.0
105 -14.2353 0.0
106 -14.2353 0.0
107 -14.2353 0.0
108 -14.2353 0.0
109 -14.2353 0.0
110 -14.2353 0.0
111 -14.2353 0.0
112 -14.2353 0.0
113 -14.2353 0.0
114 -14.2353 0.0
115 -14.2353 0.0
116 -14.2353 0.0
117 -14.2353 0.0
118 -14.2353 0.0
119 -14.2353 0.0
120 -14.2353 0.0
0 -14.3529 0.0
2 -14.3529 0.0
4 -14.3529 0.0
6 -14.3529 0.0
8 -14.3529 0.0
10 -14.3529 0.0
12 -14.3529 0.0
14 -14.3529 0.0
16 -14.3529 0.0
18 -14.3529 0.0
20 -14.3529 0.0
22 -14.3529 0.0
24 -14.3529 0.0
26 -14.3529 0.0
28 -14.3529 0.0
30 -14.3529 0.0
32 -14.3529 0.0
34 -14.3529 0.0
36 -14.3529 0.0
38 -14.3529 0.0
40 -14.3529 0.0
42 -14.3529 0.0
44 -14.3529 0.0
46 -14.3529 0.0
48 -14.3529 0.0
50 -14.3529 0.0
52 -14.3529 0.0
54 -14.3529 0.0
56 -14.3529 0.0
58 -14.3529 0.0
60 -14.3529 0.0
62 -14.3529 0.0
64 -14.3529 0.0
66 -14.3529 0.0
68 -14.3529 0.0
70 -14.3529 0.0
72 -14.3529 0.0
74 -14.3529 0.0
76 -14.3529 0.0
78 -14.3529 0.0
80 -14.3529 0.0
82 -14.3529 0.0
84 -14.3529 0.0
86 -14.3529 0.0
88 -14.3529 0.0
90 -14.3529 0.0
92 -14.3529 0.0
94 -14.3529 0.0
96 -14.3529 0.0
98 -14.3529 0.0
100 -14.3529 0.0
102 -14.3529 0.0
104 -14.3529 0.0
106 -14.3529 0.0
108 -14.3529 0.0
110 -14.3529 0.0
112 -14.3529 0.0
114 -14.3529 0.0
116 -14.3529 0.0
118 -14.3529 0.0
120 -14.3529 0.0
0 -14.4706 0.0
1 -14.4706 0.0
2 -14.4706 0.0
3 -14.4706 0.0
4 -14.4706 0.0
5 -14.4706 0.0
6 -14.4706 0.0
7 -14.4706 0.0
8 -14.4706 0.0
9 -14.4706 0.0
10 -14.4706 0.0
11 -14.4706 0.0
12 -14.4706 0.0
13 -14.4706 0.0
14 -14.4706 0.0
15 -14.4706 0.0
16 -14.4706 0.0
17 -14.4706 0.0
18 -14.4706 0.0
19 -14.4706 0.0
20 -14.4706 0.0
21 -14.4706 0.0
22 -14.4706 0.0
23 -14.4706 0.0
24 -14.4706 0.0
25 -14.4706 0.0
26 -14.4706 0.0
27 -14.4706 0.0
28 -14.4706 0.0
29 -14.4706 0.0
30 -14.4706 0.0
31 -14.4706 0.0
32 -14.4706 0.0
33 -14.4706 0.0
34 -14.4706 0.0
35 -14.4706 0.0
36 -14.4706 0.0
37 -14.4706 0.0
38 -14.4706 0.0
39 -14.4706 0.0
40 -14.4706 0.0
41 -14.4706 0.0
42 -14.4706 0.0
43 -14.4706 0.0
44 -14.4706 0.0
45 -14.4706 0.0
46 -14.4706 0.0
47 -14.4706 0.0
48 -14.4706 0.0
49 -14.4706 0.0
50 -14.4706 0.0
51 -14.4706 0.0
52 -14.4706 0.0
53 -14.4706 0.0
54 -14.4706 0.0
55 -14.4706 0.0
56 -14.4706 0.0
57 -14.4706 0.0
58 -14.4706 0.0
59 -14.4706 0.0
60 -14.4706 0.0
61 -14.4706 0.0
62 -14.4706 0.0
63 -14.4706 0.0
64 -14.4706 0.0
65 -14.4706 0.0
66 -14.4706 0.0
67 -14.4706 0.0
68 -14.4706 0.0
69 -14.4706 0.0
70 -14.4706 0.0
71 -14.4706 0.0
72 -14.4706 0.0
73 -14.4706 0.0
74 -14.4706 0.0
75 -14.4706 0.0
76 -14.4706 0.0
77 -14.4706 0.0
78 -14.4706 0.0
79 -14.4706 0.0
80 -14.4706 0.0
81 -14.4706 0.0
82 -14.4706 0.0
83 -14.4706 0.0
84 -14.4706 0.0
85 -14.4706 0.0
86 -14.4706 0.0
87 -14.4706 0.0
88 -14.4706 0.0
89 -14.4706 0.0
90 -14.4706 0.0
91 -14.4706 0.0
92 -14.4706 0.0
93 -14.4706 0.0
94 -14.4706 0.0
95 -14.4706 0.0
96 -14.4706 0.0
97 -14.4706 0.0
98 -14.4706 0.0
99 -14.4706 0.0
100 -14.4706 0.0
101 -14.4706 0.0
102 -14.4706 0.0
103 -14.4706 0.0
104 -14.4706 0.0
105 -14.4706 0.0
106 -14.4706 0.0
107 -14.4706 0.0
108 -14.4706 0.0
109 -14.4706 0.0
110 -14.4706 0.0
111 -14.4706 0.0
112 -14.4706 0.0
113 -14.4706 0.0
114 -14.4706 0.0
115 -14.4706 0.0
116 -14.4706 0.0
117 -14.4706 0.0
118 -14.4706 0.0
119 -14.4706 0.0
120 -14.4706 0.0
0 -14.5882 0.0
2 -14.5882 0.0
4 -14.5882 0.0
6 -14.5882 0.0
8 -14.5882 0.0
10 -14.5882 0.0
12 -14.5882 0.0
14 -14.5882 0.0
16 -14.5882 0.0
18 -14.5882 0.0
20 -14.5882 0.0
22 -14.5882 0.0
24 -14.5882 0.0
26 -14.5882 0.0
28 -14.5882 0.0
30 -14.5882 0.0
32 -14.5882 0.0
34 -14.5882 0.0
36 -14.5882 0.0
38 -14.5882 0.0
40 -14.5882 0.0
42 -14.5882 0.0
44 -14.5882 0.0
46 -14.5882 0.0
48 -14.5882 0.0
50 -14.5882 0.0
52 -14.5882 0.0
54 -14.5882 0.0
56 -14.5882 0.0
58 -14.5882 0.0
60 -14.5882 0.0
62 -14.5882 0.0
64 -14.5882 0.0
66 -14.5882 0.0
68 -14.5882 0.0
70 -14.5882 0.0
72 -14.5882 0.0
74 -14.5882 0.0
76 -14.5882 0.0
78 -14.5882 0.0
80 -14.5882 0.0
82 -14.5882 0.0
84 -14.5882 0.0
86 -14.5882 0.0
88 -14.5882 0.0
90 -14.5882 0.0
92 -14.5882 0.0
94 -14.5882 0.0
96 -14.5882 0.0
98 -14.5882 0.0
100 -14.5882 0.0
102 -14.5882 0.0
104 -14.5882 0.0
106 -14.5882 0.0
108 -14.5882 0.0
110 -14.5882 0.0
112 -14.5882 0.0
114 -14.5882 0.0
116 -14.5882 0.0
118 -14.5882 0.0
120 -14.5882 0.0
0 -14.7059 0.0
1 -14.7059 0.0
2 -14.7059 0.0
3 -14.7059 0.0
4 -14.7059 0.0
5 -14.7059 0.0
6 -14.7059 0.0
7 -14.7059 0.0
8 -14.7059 0.0
9 -14.7059 0.0
10 -14.7059 0.0
11 -14.7059 0.0
12 -14.7059 0.0
13 -14.7059 0.0
14 -14.7059 0.0
15 -14.7059 0.0
16 -14.7059 0.0
17 -14.7059 0.0
18 -14.7059 0.0
19 -14.7059 0.0
20 -14.7059 0.0
21 -14.7059 0.0
22 -14.7059 0.0
23 -14.7059 0.0
24 -14.7059 0.0
25 -14.7059 0.0
26 -14.7059 0.0
27 -14.7059 0.0
28 -14.7059 0.0
29 -14.7059 0.0
30 -14.7059 0.0
31 -14.7059 0.0
32 -14.7059 0.0
33 -14.7059 0.0
34 -14.7059 0.0
35 -14.7059 0.0
36 -14.7059 0.0
37 -14.7059 0.0
38 -14.7059 0.0
39 -14.7059 0.0
40 -14.7059 0.0
41 -14.7059 0.0
42 -14.7059 0.0
43 -14.7059 0.0
44 -14.7059 0.0
45 -14.7059 0.0
46 -14.7059 0.0
47 -14.7059 0.0
48 -14.7059 0.0
49 -14.7059 0.0
50 -14.7059 0.0
51 -14.7059 0.0
52 -14.7059 0.0
53 -14.7059 0.0
54 -14.7059 0.0
55 -14.7059 0.0
56 -14.7059 0.0
57 -14.7059 0.0
58 -14.7059 0.0
59 -14.7059 0.0
60 -14.7059 0.0
61 -14.7059 0.0
62 -14.7059 0.0
63 -14.7059 0.0
64 -14.7059 0.0
65 -14.7059 0.0
66 -14.7059 0.0
67 -14.7059 0.0
68 -14.7059 0.0
69 -14.7059 0.0
70 -14.7059 0.0
71 -14.7059 0.0
72 -14.7059 0.0
73 -14.7059 0.0
74 -14.7059 0.0
75 -14.7059 0.0
76 -14.7059 0.0
77 -14.7059 0.0
78 -14.7059 0.0
79 -14.7059 0.0
80 -14.7059 0.0
81 -14.7059 0.0
82 -14.7059 0.0
83 -14.7059 0.0
84 -14.7059 0.0
85 -14.7059 0.0
86 -14.7059 0.0
87 -14.7059 0.0
88 -14.7059 0.0
89 -14.7059 0.0
90 -14.7059 0.0
91 -14.7059 0.0
92 -14.7059 0.0
93 -14.7059 0.0
94 -14.7059 0.0
95 -14.7059 0.0
96 -14.7059 0.0
97 -14.7059 0.0
98 -14.7059 0.0
99 -14.7059 0.0
100 -14.7059 0.0
101 -14.7059 0.0
102 -14.7059 0.0
103 -14.7059 0.0
104 -14.7059 0.0
105 -14.7059 0.0
106 -14.7059 0.0
107 -14.7059 0.0
108 -14.7059 0.0
109 -14.7059 0.0
110 -14.7059 0.0
111 -14.7059 0.0
112 -14.7059 0.0
113 -14.7059 0.0
114 -14.7059 0.0
115 -14.7059 0.0
116 -14.7059 0.0
117 -14.7059 0.0
118 -14.7059 0.0
119 -14.7059 0.0
120 -14.7059 0.0
0 -14.8235 0.0
2 -14.8235 0.0
4 -14.8235 0.0
6 -14.8235 0.0
8 -14.8235 0.0
10 -14.8235 0.0
12 -14.8235 0.0
14 -14.8235 0.0
16 -14.8235 0.0
18 -14.8235 0.0
20 -14.8235 0.0
22 -14.8235 0.0
24 -14.8235 0.0
26 -14.8235 0.0
28 -14.8235 0.0
30 -14.8235 0.0
32 -14.8235 0.0
34 -14.8235 0.0
36 -14.8235 0.0
38 -14.8235 0.0
40 -14.8235 0.0
42 -14.8235 0.0
44 -14.8235 0.0
46 -14.8235 0.0
48 -14.8235 0.0
50 -14.8235 0.0
52 -14.8235 0.0
54 -14.8235 0.0
56 -14.8235 0.0
58 -14.8235 0.0
60 -14.8235 0.0
62 -14.8235 0.0
64 -14.8235 0.0
66 -14.8235 0.0
68 -14.8235 0.0
70 -14.8235 0.0
72 -14.8235 0.0
74 -14.8235 0.0
76 -14.8235 0.0
78 -14.8235 0.0
80 -14.8235 0.0
82 -14.8235 0.0
84 -14.8235 0.0
86 -14.8235 0.0
88 -14.8235 0.0
90 -14.8235 0.0
92 -14.8235 0.0
94 -14.8235 0.0
96 -14.8235 0.0
98 -14.8235 0.0
100 -14.8235 0.0
102 -14.8235 0.0
104 -14.8235 0.0
106 -14.8235 0.0
108 -14.8235 0.0
110 -14.8235 0.0
112 -14.8235 0.0
114 -14.8235 0.0
116 -14.8235 0.0
118 -14.8235 0.0
120 -14.8235 0.0
0 -14.9412 0.0
1 -14.9412 0.0
2 -14.9412 0.0
3 -14.9412 0.0
4 -14.9412 0.0
5 -14.9412 0.0
6 -14.9412 0.0
7 -14.9412 0.0
8 -14.9412 0.0
9 -14.9412 0.0
10 -14.9412 0.0
11 -14.9412 0.0
12 -14.9412 0.0
13 -14.9412 0.0
14 -14.9412 0.0
15 -14.9412 0.0
16 -14.9412 0.0
17 -14.9412 0.0
18 -14.9412 0.0
19 -14.9412 0.0
20 -14.9412 0.0
21 -14.9412 0.0
22 -14.9412 0.0
23 -14.9412 0.0
24 -14.9412 0.0
25 -14.9412 0.0
26 -14.9412 0.0
27 -14.9412 0.0
28 -14.9412 0.0
29 -14.9412 0.0
30 -14.9412 0.0
31 -14.9412 0.0
32 -14.9412 0.0
33 -14.9412 0.0
34 -14.9412 0.0
35 -14.9412 0.0
36 -14.9412 0.0
37 -14.9412 0.0
38 -14.9412 0.0
39 -14.9412 0.0
40 -14.9412 0.0
41 -14.9412 0.0
42 -14.9412 0.0
43 -14.9412 0.0
44 -14.9412 0.0
45 -14.9412 0.0
46 -14.9412 0.0
47 -14.9412 0.0
48 -14.9412 0.0
49 -14.9412 0.0
50 -14.9412 0.0
51 -14.9412 0.0
52 -14.9412 0.0
53 -14.9412 0.0
54 -14.9412 0.0
55 -14.9412 0.0
56 -14.9412 0.0
57 -14.9412 0.0
58 -14.9412 0.0
59 -14.9412 0.0
60 -14.9412 0.0
61 -14.9412 0.0
62 -14.9412 0.0
63 -14.9412 0.0
64 -14.9412 0.0
65 -14.9412 0.0
66 -14.9412 0.0
67 -14.9412 0.0
68 -14.9412 0.0
69 -14.9412 0.0
70 -14.9412 0.0
71 -14.9412 0.0
72 -14.9412 0.0
73 -14.9412 0.0
74 -14.9412 0.0
75 -14.9412 0.0
76 -14.9412 0.0
77 -14.9412 0.0
78 -14.9412 0.0
79 -14.9412 0.0
80 -14.9412 0.0
81 -14.9412 0.0
82 -14.9412 0.0
83 -14.9412 0.0
84 -14.9412 0.0
85 -14.9412 0.0
86 -14.9412 0.0
87 -14.9412 0.0
88 -14.9412 0.0
89 -14.9412 0.0
90 -14.9412 0.0
91 -14.9412 0.0
92 -14.9412 0.0
93 -14.9412 0.0
94 -14.9412 0.0
95 -14.9412 0.0
96 -14.9412 0.0
97 -14.9412 0.0
98 -14.9412 0.0
99 -14.9412 0.0
100 -14.9412 0.0
101 -14.9412 0.0
102 -14.9412 0.0
103 -14.9412 0.0
104 -14.9412 0.0
105 -14.9412 0.0
106 -14.9412 0.0
107 -14.9412 0.0
108 -14.9412 0.0
109 -14.9412 0.0
110 -14.9412 0.0
111 -14.9412 0.0
112 -14.9412 0.0
113 -14.9412 0.0
114 -14.9412 0.0
115 -14.9412 0.0
116 -14.9412 0.0
117 -14.9412 0.0
118 -14.9412 0.0
119 -14.9412 0.0
120 -14.9412 0.0
0 -15.0588 0.0
2 -15.0588 0.0
4 -15.0588 0.0
6 -15.0588 0.0
8 -15.0588 0.0
10 -15.0588 0.0
12 -15.0588 0.0
14 -15.0588 0.0
16 -15.0588 0.0
18 -15.0588 0.0
20 -15.0588 0.0
22 -15.0588 0.0
24 -15.0588 0.0
26 -15.0588 0.0
28 -15.0588 0.0
30 -15.0588 0.0
32 -15.0588 0.0
34 -15.0588 0.0
36 -15.0588 0.0
38 -15.0588 0.0
40 -15.0588 0.0
42 -15.0588 0.0
44 -15.0588 0.0
46 -15.0588 0.0
48 -15.0588 0.0
50 -15.0588 0.0
52 -15.0588 0.0
54 -15.0588 0.0
56 -15.0588 0.0
58 -15.0588 0.0
60 -15.0588 0.0
62 -15.0588 0.0
64 -15.0588 0.0
66 -15.0588 0.0
68 -15.0588 0.0
70 -15.0588 0.0
72 -15.0588 0.0
74 -15.0588 0.0
76 -15.0588 0.0
78 -15.0588 0.0
80 -15.0588 0.0
82 -15.0588 0.0
84 -15.0588 0.0
86 -15.0588 0.0
88 -15.0588 0.0
90 -15.0588 0.0
92 -15.0588 0.0
94 -15.0588 0.0
96 -15.0588 0.0
98 -15.0588 0.0
100 -15.0588 0.0
102 -15.0588 0.0
104 -15.0588 0.0
106 -15.0588 0.0
108 -15.0588 0.0
110 -15.0588 0.0
112 -15.0588 0.0
114 -15.0588 0.0
116 -15.0588 0.0
118 -15.0588 0.0
120 -15.0588 0.0
0 -15.1765 0.0
1 -15.1765 0.0
2 -15.1765 0.0
3 -15.1765 0.0
4 -15.1765 0.0
5 -15.1765 0.0
6 -15.1765 0.0
7 -15.1765 0.0
8 -15.1765 0.0
9 -15.1765 0.0
10 -15.1765 0.0
11 -15.1765 0.0
12 -15.1765 0.0
13 -15.1765 0.0
14 -15.1765 0.0
15 -15.1765 0.0
16 -15.1765 0.0
17 -15.1765 0.0
18 -15.1765 0.0
19 -15.1765 0.0
20 -15.1765 0.0
21 -15.1765 0.0
22 -15.1765 0.0
23 -15.1765 0.0
24 -15.1765 0.0
25 -15.1765 0.0
26 -15.1765 0.0
27 -15.1765 0.0
28 -15.1765 0.0
29 -15.1765 0.0
30 -15.1765 0.0
31 -15.1765 0.0
32 -15.1765 0.0
33 -15.1765 0.0
34 -15.1765 0.0
35 -15.1765 0.0
36 -15.1765 0.0
37 -15.1765 0.0
38 -15.1765 0.0
39 -15.1765 0.0
40 -15.1765 0.0
41 -15.1765 0.0
42 -15.1765 0.0
43 -15.1765 0.0
44 -15.1765 0.0
45 -15.1765 0.0
46 -15.1765 0.0
47 -15.1765 0.0
48 -15.1765 0.0
49 -15.1765 0.0
50 -15.1765 0.0
51 -15.1765 0.0
52 -15.1765 0.0
53 -15.1765 0.0
54 -15.1765 0.0
55 -15.1765 0.0
56 -15.1765 0.0
57 -15.1765 0.0
58 -15.1765 0.0
59 -15.1765 0.0
60 -15.1765 0.0
61 -15.1765 0.0
62 -15.1765 0.0
63 -15.1765 0.0
64 -15.1765 0.0
65 -15.1765 0.0
66 -15.1765 0.0
67 -15.1765 0.0
68 -15.1765 0.0
69 -15.1765 0.0
70 -15.1765 0.0
71 -15.1765 0.0
72 -15.1765 0.0
73 -15.1765 0.0
74 -15.1765 0.0
75 -15.1765 0.0
76 -15.1765 0.0
77 -15.1765 0.0
78 -15.1765 0.0
79 -15.1765 0.0
80 -15.1765 0.0
81 -15.1765 0.0
82 -15.1765 0.0
83 -15.1765 0.0
84 -15.1765 0.0
85 -15.1765 0.0
86 -15.1765 0.0
87 -15.1765 0.0
88 -15.1765 0.0
89 -15.1765 0.0
90 -15.1765 0.0
91 -15.1765 0.0
92 -15.1765 0.0
93 -15.1765 0.0
94 -15.1765 0.0
95 -15.1765 0.0
96 -15.1765 0.0
97 -15.1765 0.0
98 -15.1765 0.0
99 -15.1765 0.0
100 -15.1765 0.0
101 -15.1765 0.0
102 -15.1765 0.0
103 -15.1765 0.0
104 -15.1765 0.0
105 -15.1765 0.0
106 -15.1765 0.0
107 -15.1765 0.0
108 -15.1765 0.0
109 -15.1765 0.0
110 -15.1765 0.0
111 -15.1765 0.0
112 -15.1765 0.0
113 -15.1765 0.0
114 -15.1765 0.0
115 -15.1765 0.0
116 -15.1765 0.0
117 -15.1765 0.0
118 -15.1765 0.0
119 -15.1765 0.0
120 -15.1765 0.0
0 -15.2941 0.0
2 -15.2941 0.0
4 -15.2941 0.0
6 -15.2941 0.0
8 -15.2941 0.0
10 -15.2941 0.0
12 -15.2941 0.0
14 -15.2941 0.0
16 -15.2941 0.0
18 -15.2941 0.0
20 -15.2941 0.0
22 -15.2941 0.0
24 -15.2941 0.0
26 -15.2941 0.0
28 -15.2941 0.0
30 -15.2941 0.0
32 -15.2941 0.0
34 -15.2941 0.0
36 -15.2941 0.0
38 -15.2941 0.0
40 -15.2941 0.0
42 -15.2941 0.0
44 -15.2941 0.0
46 -15.2941 0.0
48 -15.2941 0.0
50 -15.2941 0.0
52 -15.2941 0.0
54 -15.2941 0.0
56 -15.2941 0.0
58 -15.2941 0.0
60 -15.2941 0.0
62 -15.2941 0.0
64 -15.2941 0.0
66 -15.2941 0.0
68 -15.2941 0.0
70 -15.2941 0.0
72 -15.2941 0.0
74 -15.2941 0.0
76 -15.2941 0.0
78 -15.2941 0.0
80 -15.2941 0.0
82 -15.2941 0.0
84 -15.2941 0.0
86 -15.2941 0.0
88 -15.2941 0.0
90 -15.2941 0.0
92 -15.2941 0.0
94 -15.2941 0.0
96 -15.2941 0.0
98 -15.2941 0.0
100 -15.2941 0.0
102 -15.2941 0.0
104 -15.2941 0.0
106 -15.2941 0.0
108 -15.2941 0.0
110 -15.2941 0.0
112 -15.2941 0.0
114 -15.2941 0.0
116 -15.2941 0.0
118 -15.2941 0.0
120 -15.2941 0.0
0 -15.4118 0.0
1 -15.4118 0.0
2 -15.4118 0.0
3 -15.4118 0.0
4 -15.4118 0.0
5 -15.4118 0.0
6 -15.4118 0.0
7 -15.4118 0.0
8 -15.4118 0.0
9 -15.4118 0.0
10 -15.4118 0.0
11 -15.4118 0.0
12 -15.4118 0.0
13 -15.4118 0.0
14 -15.4118 0.0
15 -15.4118 0.0
16 -15.4118 0.0
17 -15.4118 0.0
18 -15.4118 0.0
19 -15.4118 0.0
20 -15.4118 0.0
21 -15.4118 0.0
22 -15.4118 0.0
23 -15.4118 0.0
24 -15.4118 0.0
25 -15.4118 0.0
26 -15.4118 0.0
27 -15.4118 0.0
28 -15.4118 0.0
29 -15.4118 0.0
30 -15.4118 0.0
31 -15.4118 0.0
32 -15.4118 0.0
33 -15.4118 0.0
34 -15.4118 0.0
35 -15.4118 0.0
36 -15.4118 0.0
37 -15.4118 0.0
38 -15.4118 0.0
39 -15.4118 0.0
40 -15.4118 0.0
41 -15.4118 0.0
42 -15.4118 0.0
43 -15.4118 0.0
44 -15.4118 0.0
45 -15.4118 0.0
46 -15.4118 0.0
47 -15.4118 0.0
48 -15.4118 0.0
49 -15.4118 0.0
50 -15.4118 0.0
51 -15.4118 0.0
52 -15.4118 0.0
53 -15.4118 0.0
54 -15.4118 0.0
55 -15.4118 0.0
56 -15.4118 0.0
57 -15.4118 0.0
58 -15.4118 0.0
59 -15.4118 0.0
60 -15.4118 0.0
61 -15.4118 0.0
62 -15.4118 0.0
63 -15.4118 0.0
64 -15.4118 0.0
65 -15.4118 0.0
66 -15.4118 0.0
67 -15.4118 0.0
68 -15.4118 0.0
69 -15.4118 0.0
70 -15.4118 0.0
71 -15.4118 0.0
72 -15.4118 0.0
73 -15.4118 0.0
74 -15.4118 0.0
75 -15.4118 0.0
76 -15.4118 0.0
77 -15.4118 0.0
78 -15.4118 0.0
79 -15.4118 0.0
80 -15.4118 0.0
81 -15.4118 0.0
82 -15.4118 0.0
83 -15.4118 0.0
84 -15.4118 0.0
85 -15.4118 0.0
86 -15.4118 0.0
87 -15.4118 0.0
88 -15.4118 0.0
89 -15.4118 0.0
90 -15.4118 0.0
91 -15.4118 0.0
92 -15.4118 0.0
93 -15.4118 0.0
94 -15.4118 0.0
95 -15.4118 0.0
96 -15.4118 0.0
97 -15.4118 0.0
98 -15.4118 0.0
99 -15.4118 0.0
100 -15.4118 0.0
101 -15.4118 0.0
102 -15.4118 0.0
103 -15.4118 0.0
104 -15.4118 0.0
105 -15.4118 0.0
106 -15.4118 0.0
107 -15.4118 0.0
108 -15.4118 0.0
109 -15.4118 0.0
110 -15.4118 0.0
111 -15.4118 0.0
112 -15.4118 0.0
113 -15.4118 0.0
114 -15.4118 0.0
115 -15.4118 0.0
116 -15.4118 0.0
117 -15.4118 0.0
118 -15.4118 0.0
119 -15.4118 0.0
120 -15.4118 0.0
0 -15.5294 0.0
2 -15.5294 0.0
4 -15.5294 0.0
6 -15.5294 0.0
8 -15.5294 0.0
10 -15.5294 0.0
12 -15.5294 0.0
14 -15.5294 0.0
16 -15.5294 0.0
18 -15.5294 0.0
20 -15.5294 0.0
22 -15.5294 0.0
24 -15.5294 0.0
26 -15.5294 0.0
28 -15.5294 0.0
30 -15.5294 0.0
32 -15.5294 0.0
34 -15.5294 0.0
36 -15.5294 0.0
38 -15.5294 0.0
40 -15.5294 0.0
42 -15.5294 0.0
44 -15.5294 0.0
46 -15.5294 0.0
48 -15.5294 0.0
50 -15.5294 0.0
52 -15.5294 0.0
54 -15.5294 0.0
56 -15.5294 0.0
58 -15.5294 0.0
60 -15.5294 0.0
62 -15.5294 0.0
64 -15.5294 0.0
66 -15.5294 0.0
68 -15.5294 0.0
70 -15.5294 0.0
72 -15.5294 0.0
74 -15.5294 0.0
76 -15.5294 0.0
78 -15.5294 0.0
80 -15.5294 0.0
82 -15.5294 0.0
84 -15.5294 0.0
86 -15.5294 0.0
88 -15.5294 0.0
90 -15.5294 0.0
92 -15.5294 0.0
94 -15.5294 0.0
96 -15.5294 0.0
98 -15.5294 0.0
100 -15.5294 0.0
102 -15.5294 0.0
104 -15.5294 0.0
106 -15.5294 0.0
108 -15.5294 0.0
110 -15.5294 0.0
112 -15.5294 0.0
114 -15.5294 0.0
116 -15.5294 0.0
118 -15.5294 0.0
120 -15.5294 0.0
0 -15.6471 0.0
1 -15.6471 0.0
2 -15.6471 0.0
3 -15.6471 0.0
4 -15.6471 0.0
5 -15.6471 0.0
6 -15.6471 0.0
7 -15.6471 0.0
8 -15.6471 0.0
9 -15.6471 0.0
10 -15.6471 0.0
11 -15.6471 0.0
12 -15.6471 0.0
13 -15.6471 0.0
14 -15.6471 0.0
15 -15.6471 0.0
16 -15.6471 0.0
17 -15.6471 0.0
18 -15.6471 0.0
19 -15.6471 0.0
20 -15.6471 0.0
21 -15.6471 0.0
22 -15.6471 0.0
23 -15.6471 0.0
24 -15.6471 0.0
25 -15.6471 0.0
26 -15.6471 0.0
27 -15.6471 0.0
28 -15.6471 0.0
29 -15.6471 0.0
30 -15.6471 0.0
31 -15.6471 0.0
32 -15.6471 0.0
33 -15.6471 0.0
34 -15.6471 0.0
35 -15.6471 0.0
36 -15.6471 0.0
37 -15.6471 0.0
38 -15.6471 0.0
39 -15.6471 0.0
40 -15.6471 0.0
41 -15.6471 0.0
42 -15.6471 0.0
43 -15.6471 0.0
44 -15.6471 0.0
45 -15.6471 0.0
46 -15.6471 0.0
47 -15.6471 0.0
48 -15.6471 0.0
49 -15.6471 0.0
50 -15.6471 0.0
51 -15.6471 0.0
52 -15.6471 0.0
53 -15.6471 0.0
54 -15.6471 0.0
55 -15.6471 0.0
56 -15.6471 0.0
57 -15.6471 0.0
58 -15.6471 0.0
59 -15.6471 0.0
60 -15.6471 0.0
61 -15.6471 0.0
62 -15.6471 0.0
63 -15.6471 0.0
64 -15.6471 0.0
65 -15.6471 0.0
66 -15.6471 0.0
67 -15.6471 0.0
68 -15.6471 0.0
69 -15.6471 0.0
70 -15.6471 0.0
71 -15.6471 0.0
72 -15.6471 0.0
73 -15.6471 0.0
74 -15.6471 0.0
75 -15.6471 0.0
76 -15.6471 0.0
77 -15.6471 0.0
78 -15.6471 0.0
79 -15.6471 0.0
80 -15.6471 0.0
81 -15.6471 0.0
82 -15.6471 0.0
83 -15.6471 0.0
84 -15.6471 0.0
85 -15.6471 0.0
86 -15.6471 0.0
87 -15.6471 0.0
88 -15.6471 0.0
89 -15.6471 0.0
90 -15.6471 0.0
91 -15.6471 0.0
92 -15.6471 0.0
93 -15.6471 0.0
94 -15.6471 0.0
95 -15.6471 0.0
96 -15.6471 0.0
97 -15.6471 0.0
98 -15.6471 0.0
99 -15.6471 0.0
100 -15.6471 0.0
101 -15.6471 0.0
102 -15.6471 0.0
103 -15.6471 0.0
104 -15.6471 0.0
105 -15.6471 0.0
106 -15.6471 0.0
107 -15.6471 0.0
108 -15.6471 0.0
109 -15.6471 0.0
110 -15.6471 0.0
111 -15.6471 0.0
112 -15.6471 0.0
113 -15.6471 0.0
114 -15.6471 0.0
115 -15.6471 0.0
116 -15.6471 0.0
117 -15.6471 0.0
118 -15.6471 0.0
119 -15.6471 0.0
120 -15.6471 0.0
0 -15.7647 0.0
2 -15.7647 0.0
4 -15.7647 0.0
6 -15.7647 0.0
8 -15.7647 0.0
10 -15.7647 0.0
12 -15.7647 0.0
14 -15.7647 0.0
16 -15.7647 0.0
18 -15.7647 0.0
20 -15.7647 0.0
22 -15.7647 0.0
24 -15.7647 0.0
26 -15.7647 0.0
28 -15.7647 0.0
30 -15.7647 0.0
32 -15.7647 0.0
34 -15.7647 0.0
36 -15.7647 0.0
38 -15.7647 0.0
40 -15.7647 0.0
42 -15.7647 0.0
44 -15.7647 0.0
46 -15.7647 0.0
48 -15.7647 0.0
50 -15.7647 0.0
52 -15.7647 0.0
54 -15.7647 0.0
56 -15.7647 0.0
58 -15.7647 0.0
60 -15.7647 0.0
62 -15.7647 0.0
64 -15.7647 0.0
66 -15.7647 0.0
68 -15.7647 0.0
70 -15.7647 0.0
72 -15.7647 0.0
74 -15.7647 0.0
76 -15.7647 0.0
78 -15.7647 0.0
80 -15.7647 0.0
82 -15.7647 0.0
84 -15.7647 0.0
86 -15.7647 0.0
88 -15.7647 0.0
90 -15.7647 0.0
92 -15.7647 0.0
94 -15.7647 0.0
96 -15.7647 0.0
98 -15.7647 0.0
100 -15.7647 0.0
102 -15.7647 0.0
104 -15.7647 0.0
106 -15.7647 0.0
108 -15.7647 0.0
110 -15.7647 0.0
112 -15.7647 0.0
114 -15.7647 0.0
116 -15.7647 0.0
118 -15.7647 0.0
120 -15.7647 0.0
0 -15.8824 0.0
1 -15.8824 0.0
2 -15.8824 0.0
3 -15.8824 0.0
4 -15.8824 0.0
5 -15.8824 0.0
6 -15.8824 0.0
7 -15.8824 0.0
8 -15.8824 0.0
9 -15.8824 0.0
10 -15.8824 0.0
11 -15.8824 0.0
12 -15.8824 0.0
13 -15.8824 0.0
14 -15.8824 0.0
15 -15.8824 0.0
16 -15.8824 0.0
17 -15.8824 0.0
18 -15.8824 0.0
19 -15.8824 0.0
20 -15.8824 0.0
21 -15.8824 0.0
22 -15.8824 0.0
23 -15.8824 0.0
24 -15.8824 0.0
25 -15.8824 0.0
26 -15.8824 0.0
27 -15.8824 0.0
28 -15.8824 0.0
29 -15.8824 0.0
30 -15.8824 0.0
31 -15.8824 0.0
32 -15.8824 0.0
33 -15.8824 0.0
34 -15.8824 0.0
35 -15.8824 0.0
36 -15.8824 0.0
37 -15.8824 0.0
38 -15.8824 0.0
39 -15.8824 0.0
40 -15.8824 0.0
41 -15.8824 0.0
42 -15.8824 0.0
43 -15.8824 0.0
44 -15.8824 0.0
45 -15.8824 0.0
46 -15.8824 0.0
47 -15.8824 0.0
48 -15.8824 0.0
49 -15.8824 0.0
50 -15.8824 0.0
51 -15.8824 0.0
52 -15.8824 0.0
53 -15.8824 0.0
54 -15.8824 0.0
55 -15.8824 0.0
56 -15.8824 0.0
57 -15.8824 0.0
58 -15.8824 0.0
59 -15.8824 0.0
60 -15.8824 0.0
61 -15.8824 0.0
62 -15.8824 0.0
63 -15.8824 0.0
64 -15.8824 0.0
65 -15.8824 0.0
66 -15.8824 0.0
67 -15.8824 0.0
68 -15.8824 0.0
69 -15.8824 0.0
70 -15.8824 0.0
71 -15.8824 0.0
72 -15.8824 0.0
73 -15.8824 0.0
74 -15.8824 0.0
75 -15.8824 0.0
76 -15.8824 0.0
77 -15.8824 0.0
78 -15.8824 0.0
79 -15.8824 0.0
80 -15.8824 0.0
81 -15.8824 0.0
82 -15.8824 0.0
83 -15.8824 0.0
84 -15.8824 0.0
85 -15.8824 0.0
86 -15.8824 0.0
87 -15.8824 0.0
88 -15.8824 0.0
89 -15.8824 0.0
90 -15.8824 0.0
91 -15.8824 0.0
92 -15.8824 0.0
93 -15.8824 0.0
94 -15.8824 0.0
95 -15.8824 0.0
96 -15.8824 0.0
97 -15.8824 0.0
98 -15.8824 0.0
99 -15.8824 0.0
100 -15.8824 0.0
101 -15.8824 0.0
102 -15.8824 0.0
103 -15.8824 0.0
104 -15.8824 0.0
105 -15.8824 0.0
106 -15.8824 0.0
107 -15.8824 0.0
108 -15.8824 0.0
109 -15.8824 0.0
110 -15.8824 0.0
111 -15.8824 0.0
112 -15.8824 0.0
113 -15.8824 0.0
114 -15.8824 0.0
115 -15.8824 0.0
116 -15.8824 0.0
117 -15.8824 0.0
118 -15.8824 0.0
119 -15.8824 0.0
120 -15.8824 0.0
0 -16 0.0
2 -16 0.0
4 -16 0.0
6 -16 0.0
8 -16 0.0
10 -16 0.0
12 -16 0.0
14 -16 0.0
16 -16 0.0
18 -16 0.0
20 -16 0.0
22 -16 0.0
24 -16 0.0
26 -16 0.0
28 -16 0.0
30 -16 0.0
32 -16 0.0
34 -16 0.0
36 -16 0.0
38 -16 0.0
40 -16 0.0
42 -16 0.0
44 -16 0.0
46 -16 0.0
48 -16 0.0
50 -16 0.0
52 -16 0.0
54 -16 0.0
56 -16 0.0
58 -16 0.0
60 -16 0.0
62 -16 0.0
64 -16 0.0
66 -16 0.0
68 -16 0.0
70 -16 0.0
72 -16 0.0
74 -16 0.0
76 -16 0.0
78 -16 0.0
80 -16 0.0
82 -16 0.0
84 -16 0.0
86 -16 0.0
88 -16 0.0
90 -16 0.0
92 -16 0.0
94 -16 0.0
96 -16 0.0
98 -16 0.0
100 -16 0.0
102 -16 0.0
104 -16 0.0
106 -16 0.0
108 -16 0.0
110 -16 0.0
112 -16 0.0
114 -16 0.0
116 -16 0.0
118 -16 0.0
120 -16 0.0
0 -16.1176 0.0
1 -16.1176 0.0
2 -16.1176 0.0
3 -16.1176 0.0
4 -16.1176 0.0
5 -16.1176 0.0
6 -16.1176 0.0
7 -16.1176 0.0
8 -16.1176 0.0
9 -16.1176 0.0
10 -16.1176 0.0
11 -16.1176 0.0
12 -16.1176 0.0
13 -16.1176 0.0
14 -16.1176 0.0
15 -16.1176 0.0
16 -16.1176 0.0
17 -16.1176 0.0
18 -16.1176 0.0
19 -16.1176 0.0
20 -16.1176 0.0
21 -16.1176 0.0
22 -16.1176 0.0
23 -16.1176 0.0
24 -16.1176 0.0
25 -16.1176 0.0
26 -16.1176 0.0
27 -16.1176 0.0
28 -16.1176 0.0
29 -16.1176 0.0
30 -16.1176 0.0
31 -16.1176 0.0
32 -16.1176 0.0
33 -16.1176 0.0
34 -16.1176 0.0
35 -16.1176 0.0
36 -16.1176 0.0
37 -16.1176 0.0
38 -16.1176 0.0
39 -16.1176 0.0
40 -16.1176 0.0
41 -16.1176 0.0
42 -16.1176 0.0
43 -16.1176 0.0
44 -16.1176 0.0
45 -16.1176 0.0
46 -16.1176 0.0
47 -16.1176 0.0
48 -16.1176 0.0
49 -16.1176 0.0
50 -16.1176 0.0
51 -16.1176 0.0
52 -16.1176 0.0
53 -16.1176 0.0
54 -16.1176 0.0
55 -16.1176 0.0
56 -16.1176 0.0
57 -16.1176 0.0
58 -16.1176 0.0
59 -16.1176 0.0
60 -16.1176 0.0
61 -16.1176 0.0
62 -16.1176 0.0
63 -16.1176 0.0
64 -16.1176 0.0
65 -16.1176 0.0
66 -16.1176 0.0
67 -16.1176 0.0
68 -16.1176 0.0
69 -16.1176 0.0
70 -16.1176 0.0
71 -16.1176 0.0
72 -16.1176 0.0
73 -16.1176 0.0
74 -16.1176 0.0
75 -16.1176 0.0
76 -16.1176 0.0
77 -16.1176 0.0
78 -16.1176 0.0
79 -16.1176 0.0
80 -16.1176 0.0
81 -16.1176 0.0
82 -16.1176 0.0
83 -16.1176 0.0
84 -16.1176 0.0
85 -16.1176 0.0
86 -16.1176 0.0
87 -16.1176 0.0
88 -16.1176 0.0
89 -16.1176 0.0
90 -16.1176 0.0
91 -16.1176 0.0
92 -16.1176 0.0
93 -16.1176 0.0
94 -16.1176 0.0
95 -16.1176 0.0
96 -16.1176 0.0
97 -16.1176 0.0
98 -16.1176 0.0
99 -16.1176 0.0
100 -16.1176 0.0
101 -16.1176 0.0
102 -16.1176 0.0
103 -16.1176 0.0
104 -16.1176 0.0
105 -16.1176 0.0
106 -16.1176 0.0
107 -16.1176 0.0
108 -16.1176 0.0
109 -16.1176 0.0
110 -16.1176 0.0
111 -16.1176 0.0
112 -16.1176 0.0
113 -16.1176 0.0
114 -16.1176 0.0
115 -16.1176 0.0
116 -16.1176 0.0
117 -16.1176 0.0
118 -16.1176 0.0
119 -16.1176 0.0
120 -16.1176 0.0
0 -16.2353 0.0
2 -16.2353 0.0
4 -16.2353 0.0
6 -16.2353 0.0
8 -16.2353 0.0
10 -16.2353 0.0
12 -16.2353 0.0
14 -16.2353 0.0
16 -16.2353 0.0
18 -16.2353 0.0
20 -16.2353 0.0
22 -16.2353 0.0
24 -16.2353 0.0
26 -16.2353 0.0
28 -16.2353 0.0
30 -16.2353 0.0
32 -16.2353 0.0
34 -16.2353 0.0
36 -16.2353 0.0
38 -16.2353 0.0
40 -16.2353 0.0
42 -16.2353 0.0
44 -16.2353 0.0
46 -16.2353 0.0
48 -16.2353 0.0
50 -16.2353 0.0
52 -16.2353 0.0
54 -16.2353 0.0
56 -16.2353 0.0
58 -16.2353 0.0
60 -16.2353 0.0
62 -16.2353 0.0
64 -16.2353 0.0
66 -16.2353 0.0
68 -16.2353 0.0
70 -16.2353 0.0
72 -16.2353 0.0
74 -16.2353 0.0
76 -16.2353 0.0
78 -16.2353 0.0
80 -16.2353 0.0
82 -16.2353 0.0
84 -16.2353 0.0
86 -16.2353 0.0
88 -16.2353 0.0
90 -16.2353 0.0
92 -16.2353 0.0
94 -16.2353 0.0
96 -16.2353 0.0
98 -16.2353 0.0
100 -16.2353 0.0
102 -16.2353 0.0
104 -16.2353 0.0
106 -16.2353 0.0
108 -16.2353 0.0
110 -16.2353 0.0
112 -16.2353 0.0
114 -16.2353 0.0
116 -16.2353 0.0
118 -16.2353 0.0
120 -16.2353 0.0
0 -16.3529 0.0
1 -16.3529 0.0
2 -16.3529 0.0
3 -16.3529 0.0
4 -16.3529 0.0
5 -16.3529 0.0
6 -16.3529 0.0
7 -16.3529 0.0
8 -16.3529 0.0
9 -16.3529 0.0
10 -16.3529 0.0
11 -16.3529 0.0
12 -16.3529 0.0
13 -16.3529 0.0
14 -16.3529 0.0
15 -16.3529 0.0
16 -16.3529 0.0
17 -16.3529 0.0
18 -16.3529 0.0
19 -16.3529 0.0
20 -16.3529 0.0
21 -16.3529 0.0
22 -16.3529 0.0
23 -16.3529 0.0
24 -16.3529 0.0
25 -16.3529 0.0
26 -16.3529 0.0
27 -16.3529 0.0
28 -16.3529 0.0
29 -16.3529 0.0
30 -16.3529 0.0
31 -16.3529 0.0
32 -16.3529 0.0
33 -16.3529 0.0
34 -16.3529 0.0
35 -16.3529 0.0
36 -16.3529 0.0
37 -16.3529 0.0
38 -16.3529 0.0
39 -16.3529 0.0
40 -16.3529 0.0
41 -16.3529 0.0
42 -16.3529 0.0
43 -16.3529 0.0
44 -16.3529 0.0
45 -16.3529 0.0
46 -16.3529 0.0
47 -16.3529 0.0
48 -16.3529 0.0
49 -16.3529 0.0
50 -16.3529 0.0
51 -16.3529 0.0
52 -16.3529 0.0
53 -16.3529 0.0
54 -16.3529 0.0
55 -16.3529 0.0
56 -16.3529 0.0
57 -16.3529 0.0
58 -16.3529 0.0
59 -16.3529 0.0
60 -16.3529 0.0
61 -16.3529 0.0
62 -16.3529 0.0
63 -16.3529 0.0
64 -16.3529 0.0
65 -16.3529 0.0
66 -16.3529 0.0
67 -16.3529 0.0
68 -16.3529 0.0
69 -16.3529 0.0
70 -16.3529 0.0
71 -16.3529 0.0
72 -16.3529 0.0
73 -16.3529 0.0
74 -16.3529 0.0
75 -16.3529 0.0
76 -16.3529 0.0
77 -16.3529 0.0
78 -16.3529 0.0
79 -16.3529 0.0
80 -16.3529 0.0
81 -16.3529 0.0
82 -16.3529 0.0
83 -16.3529 0.0
84 -16.3529 0.0
85 -16.3529 0.0
86 -16.3529 0.0
87 -16.3529 0.0
88 -16.3529 0.0
89 -16.3529 0.0
90 -16.3529 0.0
91 -16.3529 0.0
92 -16.3529 0.0
93 -16.3529 0.0
94 -16.3529 0.0
95 -16.3529 0.0
96 -16.3529 0.0
97 -16.3529 0.0
98 -16.3529 0.0
99 -16.3529 0.0
100 -16.3529 0.0
101 -16.3529 0.0
102 -16.3529 0.0
103 -16.3529 0.0
104 -16.3529 0.0
105 -16.3529 0.0
106 -16.3529 0.0
107 -16.3529 0.0
108 -16.3529 0.0
109 -16.3529 0.0
110 -16.3529 0.0
111 -16.3529 0.0
112 -16.3529 0.0
113 -16.3529 0.0
114 -16.3529 0.0
115 -16.3529 0.0
116 -16.3529 0.0
117 -16.3529 0.0
118 -16.3529 0.0
119 -16.3529 0.0
120 -16.3529 0.0
0 -16.4706 0.0
2 -16.4706 0.0
4 -16.4706 0.0
6 -16.4706 0.0
8 -16.4706 0.0
10 -16.4706 0.0
12 -16.4706 0.0
14 -16.4706 0.0
16 -16.4706 0.0
18 -16.4706 0.0
20 -16.4706 0.0
22 -16.4706 0.0
24 -16.4706 0.0
26 -16.4706 0.0
28 -16.4706 0.0
30 -16.4706 0.0
32 -16.4706 0.0
34 -16.4706 0.0
36 -16.4706 0.0
38 -16.4706 0.0
40 -16.4706 0.0
42 -16.4706 0.0
44 -16.4706 0.0
46 -16.4706 0.0
48 -16.4706 0.0
50 -16.4706 0.0
52 -16.4706 0.0
54 -16.4706 0.0
56 -16.4706 0.0
58 -16.4706 0.0
60 -16.4706 0.0
62 -16.4706 0.0
64 -16.4706 0.0
66 -16.4706 0.0
68 -16.4706 0.0
70 -16.4706 0.0
72 -16.4706 0.0
74 -16.4706 0.0
76 -16.4706 0.0
78 -16.4706 0.0
80 -16.4706 0.0
82 -16.4706 0.0
84 -16.4706 0.0
86 -16.4706 0.0
88 -16.4706 0.0
90 -16.4706 0.0
92 -16.4706 0.0
94 -16.4706 0.0
96 -16.4706 0.0
98 -16.4706 0.0
100 -16.4706 0.0
102 -16.4706 0.0
104 -16.4706 0.0
106 -16.4706 0.0
108 -16.4706 0.0
110 -16.4706 0.0
112 -16.4706 0.0
114 -16.4706 0.0
116 -16.4706 0.0
118 -16.4706 0.0
120 -16.4706 0.0
0 -16.5882 0.0
1 -16.5882 0.0
2 -16.5882 0.0
3 -16.5882 0.0
4 -16.5882 0.0
5 -16.5882 0.0
6 -16.5882 0.0
7 -16.5882 0.0
8 -16.5882 0.0
9 -16.5882 0.0
10 -16.5882 0.0
11 -16.5882 0.0
12 -16.5882 0.0
13 -16.5882 0.0
14 -16.5882 0.0
15 -16.5882 0.0
16 -16.5882 0.0
17 -16.5882 0.0
18 -16.5882 0.0
19 -16.5882 0.0
20 -16.5882 0.0
21 -16.5882 0.0
22 -16.5882 0.0
23 -16.5882 0.0
24 -16.5882 0.0
25 -16.5882 0.0
26 -16.5882 0.0
27 -16.5882 0.0
28 -16.5882 0.0
29 -16.5882 0.0
30 -16.5882 0.0
31 -16.5882 0.0
32 -16.5882 0.0
33 -16.5882 0.0
34 -16.5882 0.0
35 -16.5882 0.0
36 -16.5882 0.0
37 -16.5882 0.0
38 -16.5882 0.0
39 -16.5882 0.0
40 -16.5882 0.0
41 -16.5882 0.0
42 -16.5882 0.0
43 -16.5882 0.0
44 -16.5882 0.0
45 -16.5882 0.0
46 -16.5882 0.0
47 -16.5882 0.0
48 -16.5882 0.0
49 -16.5882 0.0
50 -16.5882 0.0
51 -16.5882 0.0
52 -16.5882 0.0
53 -16.5882 0.0
54 -16.5882 0.0
55 -16.5882 0.0
56 -16.5882 0.0
57 -16.5882 0.0
58 -16.5882 0.0
59 -16.5882 0.0
60 -16.5882 0.0
61 -16.5882 0.0
62 -16.5882 0.0
63 -16.5882 0.0
64 -16.5882 0.0
65 -16.5882 0.0
66 -16.5882 0.0
67 -16.5882 0.0
68 -16.5882 0.0
69 -16.5882 0.0
70 -16.5882 0.0
71 -16.5882 0.0
72 -16.5882 0.0
73 -16.5882 0.0
74 -16.5882 0.0
75 -16.5882 0.0
76 -16.5882 0.0
77 -16.5882 0.0
78 -16.5882 0.0
79 -16.5882 0.0
80 -16.5882 0.0
81 -16.5882 0.0
82 -16.5882 0.0
83 -16.5882 0.0
84 -16.5882 0.0
85 -16.5882 0.0
86 -16.5882 0.0
87 -16.5882 0.0
88 -16.5882 0.0
89 -16.5882 0.0
90 -16.5882 0.0
91 -16.5882 0.0
92 -16.5882 0.0
93 -16.5882 0.0
94 -16.5882 0.0
95 -16.5882 0.0
96 -16.5882 0.0
97 -16.5882 0.0
98 -16.5882 0.0
99 -16.5882 0.0
100 -16.5882 0.0
101 -16.5882 0.0
102 -16.5882 0.0
103 -16.5882 0.0
104 -16.5882 0.0
105 -16.5882 0.0
106 -16.5882 0.0
107 -16.5882 0.0
108 -16.5882 0.0
109 -16.5882 0.0
110 -16.5882 0.0
111 -16.5882 0.0
112 -16.5882 0.0
113 -16.5882 0.0
114 -16.5882 0.0
115 -16.5882 0.0
116 -16.5882 0.0
117 -16.5882 0.0
118 -16.5882 0.0
119 -16.5882 0.0
120 -16.5882 0.0
0 -16.7059 0.0
2 -16.7059 0.0
4 -16.7059 0.0
6 -16.7059 0.0
8 -16.7059 0.0
10 -16.7059 0.0
12 -16.7059 0.0
14 -16.7059 0.0
16 -16.7059 0.0
18 -16.7059 0.0
20 -16.7059 0.0
22 -16.7059 0.0
24 -16.7059 0.0
26 -16.7059 0.0
28 -16.7059 0.0
30 -16.7059 0.0
32 -16.7059 0.0
34 -16.7059 0.0
36 -16.7059 0.0
38 -16.7059 0.0
40 -16.7059 0.0
42 -16.7059 0.0
44 -16.7059 0.0
46 -16.7059 0.0
48 -16.7059 0.0
50 -16.7059 0.0
52 -16.7059 0.0
54 -16.7059 0.0
56 -16.7059 0.0
58 -16.7059 0.0
60 -16.7059 0.0
62 -16.7059 0.0
64 -16.7059 0.0
66 -16.7059 0.0
68 -16.7059 0.0
70 -16.7059 0.0
72 -16.7059 0.0
74 -16.7059 0.0
76 -16.7059 0.0
78 -16.7059 0.0
80 -16.7059 0.0
82 -16.7059 0.0
84 -16.7059 0.0
86 -16.7059 0.0
88 -16.7059 0.0
90 -16.7059 0.0
92 -16.7059 0.0
94 -16.7059 0.0
96 -16.7059 0.0
98 -16.7059 0.0
100 -16.7059 0.0
102 -16.7059 0.0
104 -16.7059 0.0
106 -16.7059 0.0
108 -16.7059 0.0
110 -16.7059 0.0
112 -16.7059 0.0
114 -16.7059 0.0
116 -16.7059 0.0
118 -16.7059 0.0
120 -16.7059 0.0
0 -16.8235 0.0
1 -16.8235 0.0
2 -16.8235 0.0
3 -16.8235 0.0
4 -16.8235 0.0
5 -16.8235 0.0
6 -16.8235 0.0
7 -16.8235 0.0
8 -16.8235 0.0
9 -16.8235 0.0
10 -16.8235 0.0
11 -16.8235 0.0
12 -16.8235 0.0
13 -16.8235 0.0
14 -16.8235 0.0
15 -16.8235 0.0
16 -16.8235 0.0
17 -16.8235 0.0
18 -16.8235 0.0
19 -16.8235 0.0
20 -16.8235 0.0
21 -16.8235 0.0
22 -16.8235 0.0
23 -16.8235 0.0
24 -16.8235 0.0
25 -16.8235 0.0
26 -16.8235 0.0
27 -16.8235 0.0
28 -16.8235 0.0
29 -16.8235 0.0
30 -16.8235 0.0
31 -16.8235 0.0
32 -16.8235 0.0
33 -16.8235 0.0
34 -16.8235 0.0
35 -16.8235 0.0
36 -16.8235 0.0
37 -16.8235 0.0
38 -16.8235 0.0
39 -16.8235 0.0
40 -16.8235 0.0
41 -16.8235 0.0
42 -16.8235 0.0
43 -16.8235 0.0
44 -16.8235 0.0
45 -16.8235 0.0
46 -16.8235 0.0
47 -16.8235 0.0
48 -16.8235 0.0
49 -16.8235 0.0
50 -16.8235 0.0
51 -16.8235 0.0
52 -16.8235 0.0
53 -16.8235 0.0
54 -16.8235 0.0
55 -16.8235 0.0
56 -16.8235 0.0
57 -16.8235 0.0
58 -16.8235 0.0
59 -16.8235 0.0
60 -16.8235 0.0
61 -16.8235 0.0
62 -16.8235 0.0
63 -16.8235 0.0
64 -16.8235 0.0
65 -16.8235 0.0
66 -16.8235 0.0
67 -16.8235 0.0
68 -16.8235 0.0
69 -16.8235 0.0
70 -16.8235 0.0
71 -16.8235 0.0
72 -16.8235 0.0
73 -16.8235 0.0
74 -16.8235 0.0
75 -16.8235 0.0
76 -16.8235 0.0
77 -16.8235 0.0
78 -16.8235 0.0
79 -16.8235 0.0
80 -16.8235 0.0
81 -16.8235 0.0
82 -16.8235 0.0
83 -16.8235 0.0
84 -16.8235 0.0
85 -16.8235 0.0
86 -16.8235 0.0
87 -16.8235 0.0
88 -16.8235 0.0
89 -16.8235 0.0
90 -16.8235 0.0
91 -16.8235 0.0
92 -16.8235 0.0
93 -16.8235 0.0
94 -16.8235 0.0
95 -16.8235 0.0
96 -16.8235 0.0
97 -16.8235 0.0
98 -16.8235 0.0
99 -16.8235 0.0
100 -16.8235 0.0
101 -16.8235 0.0
102 -16.8235 0.0
103 -16.8235 0.0
104 -16.8235 0.0
105 -16.8235 0.0
106 -16.8235 0.0
107 -16.8235 0.0
108 -16.8235 0.0
109 -16.8235 0.0
110 -16.8235 0.0
111 -16.8235 0.0
112 -16.8235 0.0
113 -16.8235 0.0
114 -16.8235 0.0
115 -16.8235 0.0
116 -16.8235 0.0
117 -16.8235 0.0
118 -16.8235 0.0
119 -16.8235 0.0
120 -16.8235 0.0
0 -16.9412 0.0
2 -16.9412 0.0
4 -16.9412 0.0
6 -16.9412 0.0
8 -16.9412 0.0
10 -16.9412 0.0
12 -16.9412 0.0
14 -16.9412 0.0
16 -16.9412 0.0
18 -16.9412 0.0
20 -16.9412 0.0
22 -16.9412 0.0
24 -16.9412 0.0
26 -16.9412 0.0
28 -16.9412 0.0
30 -16.9412 0.0
32 -16.9412 0.0
34 -16.9412 0.0
36 -16.9412 0.0
38 -16.9412 0.0
40 -16.9412 0.0
42 -16.9412 0.0
44 -16.9412 0.0
46 -16.9412 0.0
48 -16.9412 0.0
50 -16.9412 0.0
52 -16.9412 0.0
54 -16.9412 0.0
56 -16.9412 0.0
58 -16.9412 0.0
60 -16.9412 0.0
62 -16.9412 0.0
64 -16.9412 0.0
66 -16.9412 0.0
68 -16.9412 0.0
70 -16.9412 0.0
72 -16.9412 0.0
74 -16.9412 0.0
76 -16.9412 0.0
78 -16.9412 0.0
80 -16.9412 0.0
82 -16.9412 0.0
84 -16.9412 0.0
86 -16.9412 0.0
88 -16.9412 0.0
90 -16.9412 0.0
92 -16.9412 0.0
94 -16.9412 0.0
96 -16.9412 0.0
98 -16.9412 0.0
100 -16.9412 0.0
102 -16.9412 0.0
104 -16.9412 0.0
106 -16.9412 0.0
108 -16.9412 0.0
110 -16.9412 0.0
112 -16.9412 0.0
114 -16.9412 0.0
116 -16.9412 0.0
118 -16.9412 0.0
120 -16.9412 0.0
0 -17.0588 0.0
1 -17.0588 0.0
2 -17.0588 0.0
3 -17.0588 0.0
4 -17.0588 0.0
5 -17.0588 0.0
6 -17.0588 0.0
7 -17.0588 0.0
8 -17.0588 0.0
9 -17.0588 0.0
10 -17.0588 0.0
11 -17.0588 0.0
12 -17.0588 0.0
13 -17.0588 0.0
14 -17.0588 0.0
15 -17.0588 0.0
16 -17.0588 0.0
17 -17.0588 0.0
18 -17.0588 0.0
19 -17.0588 0.0
20 -17.0588 0.0
21 -17.0588 0.0
22 -17.0588 0.0
23 -17.0588 0.0
24 -17.0588 0.0
25 -17.0588 0.0
26 -17.0588 0.0
27 -17.0588 0.0
28 -17.0588 0.0
29 -17.0588 0.0
30 -17.0588 0.0
31 -17.0588 0.0
32 -17.0588 0.0
33 -17.0588 0.0
34 -17.0588 0.0
35 -17.0588 0.0
36 -17.0588 0.0
37 -17.0588 0.0
38 -17.0588 0.0
39 -17.0588 0.0
40 -17.0588 0.0
41 -17.0588 0.0
42 -17.0588 0.0
43 -17.0588 0.0
44 -17.0588 0.0
45 -17.0588 0.0
46 -17.0588 0.0
47 -17.0588 0.0
48 -17.0588 0.0
49 -17.0588 0.0
50 -17.0588 0.0
51 -17.0588 0.0
52 -17.0588 0.0
53 -17.0588 0.0
54 -17.0588 0.0
55 -17.0588 0.0
56 -17.0588 0.0
57 -17.0588 0.0
58 -17.0588 0.0
59 -17.0588 0.0
60 -17.0588 0.0
61 -17.0588 0.0
62 -17.0588 0.0
63 -17.0588 0.0
64 -17.0588 0.0
65 -17.0588 0.0
66 -17.0588 0.0
67 -17.0588 0.0
68 -17.0588 0.0
69 -17.0588 0.0
70 -17.0588 0.0
71 -17.0588 0.0
72 -17.0588 0.0
73 -17.0588 0.0
74 -17.0588 0.0
75 -17.0588 0.0
76 -17.0588 0.0
77 -17.0588 0.0
78 -17.0588 0.0
79 -17.0588 0.0
80 -17.0588 0.0
81 -17.0588 0.0
82 -17.0588 0.0
83 -17.0588 0.0
84 -17.0588 0.0
85 -17.0588 0.0
86 -17.0588 0.0
87 -17.0588 0.0
88 -17.0588 0.0
89 -17.0588 0.0
90 -17.0588 0.0
91 -17.0588 0.0
92 -17.0588 0.0
93 -17.0588 0.0
94 -17.0588 0.0
95 -17.0588 0.0
96 -17.0588 0.0
97 -17.0588 0.0
98 -17.0588 0.0
99 -17.0588 0.0
100 -17.0588 0.0
101 -17.0588 0.0
102 -17.0588 0.0
103 -17.0588 0.0
104 -17.0588 0.0
105 -17.0588 0.0
106 -17.0588 0.0
107 -17.0588 0.0
108 -17.0588 0.0
109 -17.0588 0.0
110 -17.0588 0.0
111 -17.0588 0.0
112 -17.0588 0.0
113 -17.0588 0.0
114 -17.0588 0.0
115 -17.0588 0.0
116 -17.0588 0.0
117 -17.0588 0.0
118 -17.0588 0.0
119 -17.0588 0.0
120 -17.0588 0.0
0 -17.1765 0.0
2 -17.1765 0.0
4 -17.1765 0.0
6 -17.1765 0.0
8 -17.1765 0.0
10 -17.1765 0.0
12 -17.1765 0.0
14 -17.1765 0.0
16 -17.1765 0.0
18 -17.1765 0.0
20 -17.1765 0.0
22 -17.1765 0.0
24 -17.1765 0.0
26 -17.1765 0.0
28 -17.1765 0.0
30 -17.1765 0.0
32 -17.1765 0.0
34 -17.1765 0.0
36 -17.1765 0.0
38 -17.1765 0.0
40 -17.1765 0.0
42 -17.1765 0.0
44 -17.1765 0.0
46 -17.1765 0.0
48 -17.1765 0.0
50 -17.1765 0.0
52 -17.1765 0.0
54 -17.1765 0.0
56 -17.1765 0.0
58 -17.1765 0.0
60 -17.1765 0.0
62 -17.1765 0.0
64 -17.1765 0.0
66 -17.1765 0.0
68 -17.1765 0.0
70 -17.1765 0.0
72 -17.1765 0.0
74 -17.1765 0.0
76 -17.1765 0.0
78 -17.1765 0.0
80 -17.1765 0.0
82 -17.1765 0.0
84 -17.1765 0.0
86 -17.1765 0.0
88 -17.1765 0.0
90 -17.1765 0.0
92 -17.1765 0.0
94 -17.1765 0.0
96 -17.1765 0.0
98 -17.1765 0.0
100 -17.1765 0.0
102 -17.1765 0.0
104 -17.1765 0.0
106 -17.1765 0.0
108 -17.1765 0.0
110 -17.1765 0.0
112 -17.1765 0.0
114 -17.1765 0.0
116 -17.1765 0.0
118 -17.1765 0.0
120 -17.1765 0.0
0 -17.2941 0.0
1 -17.2941 0.0
2 -17.2941 0.0
3 -17.2941 0.0
4 -17.2941 0.0
5 -17.2941 0.0
6 -17.2941 0.0
7 -17.2941 0.0
8 -17.2941 0.0
9 -17.2941 0.0
10 -17.2941 0.0
11 -17.2941 0.0
12 -17.2941 0.0
13 -17.2941 0.0
14 -17.2941 0.0
15 -17.2941 0.0
16 -17.2941 0.0
17 -17.2941 0.0
18 -17.2941 0.0
19 -17.2941 0.0
20 -17.2941 0.0
21 -17.2941 0.0
22 -17.2941 0.0
23 -17.2941 0.0
24 -17.2941 0.0
25 -17.2941 0.0
26 -17.2941 0.0
27 -17.2941 0.0
28 -17.2941 0.0
29 -17.2941 0.0
30 -17.2941 0.0
31 -17.2941 0.0
32 -17.2941 0.0
33 -17.2941 0.0
34 -17.2941 0.0
35 -17.2941 0.0
36 -17.2941 0.0
37 -17.2941 0.0
38 -17.2941 0.0
39 -17.2941 0.0
40 -17.2941 0.0
41 -17.2941 0.0
42 -17.2941 0.0
43 -17.2941 0.0
44 -17.2941 0.0
45 -17.2941 0.0
46 -17.2941 0.0
47 -17.2941 0.0
48 -17.2941 0.0
49 -17.2941 0.0
50 -17.2941 0.0
51 -17.2941 0.0
52 -17.2941 0.0
53 -17.2941 0.0
54 -17.2941 0.0
55 -17.2941 0.0
56 -17.2941 0.0
57 -17.2941 0.0
58 -17.2941 0.0
59 -17.2941 0.0
60 -17.2941 0.0
61 -17.2941 0.0
62 -17.2941 0.0
63 -17.2941 0.0
64 -17.2941 0.0
65 -17.2941 0.0
66 -17.2941 0.0
67 -17.2941 0.0
68 -17.2941 0.0
69 -17.2941 0.0
70 -17.2941 0.0
71 -17.2941 0.0
72 -17.2941 0.0
73 -17.2941 0.0
74 -17.2941 0.0
75 -17.2941 0.0
76 -17.2941 0.0
77 -17.2941 0.0
78 -17.2941 0.0
79 -17.2941 0.0
80 -17.2941 0.0
81 -17.2941 0.0
82 -17.2941 0.0
83 -17.2941 0.0
84 -17.2941 0.0
85 -17.2941 0.0
86 -17.2941 0.0
87 -17.2941 0.0
88 -17.2941 0.0
89 -17.2941 0.0
90 -17.2941 0.0
91 -17.2941 0.0
92 -17.2941 0.0
93 -17.2941 0.0
94 -17.2941 0.0
95 -17.2941 0.0
96 -17.2941 0.0
97 -17.2941 0.0
98 -17.2941 0.0
99 -17.2941 0.0
100 -17.2941 0.0
101 -17.2941 0.0
102 -17.2941 0.0
103 -17.2941 0.0
104 -17.2941 0.0
105 -17.2941 0.0
106 -17.2941 0.0
107 -17.2941 0.0
108 -17.2941 0.0
109 -17.2941 0.0
110 -17.2941 0.0
111 -17.2941 0.0
112 -17.2941 0.0
113 -17.2941 0.0
114 -17.2941 0.0
115 -17.2941 0.0
116 -17.2941 0.0
117 -17.2941 0.0
118 -17.2941 0.0
119 -17.2941 0.0
120 -17.2941 0.0
0 -17.4118 0.0
2 -17.4118 0.0
4 -17.4118 0.0
6 -17.4118 0.0
8 -17.4118 0.0
10 -17.4118 0.0
12 -17.4118 0.0
14 -17.4118 0.0
16 -17.4118 0.0
18 -17.4118 0.0
20 -17.4118 0.0
22 -17.4118 0.0
24 -17.4118 0.0
26 -17.4118 0.0
28 -17.4118 0.0
30 -17.4118 0.0
32 -17.4118 0.0
34 -17.4118 0.0
36 -17.4118 0.0
38 -17.4118 0.0
40 -17.4118 0.0
42 -17.4118 0.0
44 -17.4118 0.0
46 -17.4118 0.0
48 -17.4118 0.0
50 -17.4118 0.0
52 -17.4118 0.0
54 -17.4118 0.0
56 -17.4118 0.0
58 -17.4118 0.0
60 -17.4118 0.0
62 -17.4118 0.0
64 -17.4118 0.0
66 -17.4118 0.0
68 -17.4118 0.0
70 -17.4118 0.0
72 -17.4118 0.0
74 -17.4118 0.0
76 -17.4118 0.0
78 -17.4118 0.0
80 -17.4118 0.0
82 -17.4118 0.0
84 -17.4118 0.0
86 -17.4118 0.0
88 -17.4118 0.0
90 -17.4118 0.0
92 -17.4118 0.0
94 -17.4118 0.0
96 -17.4118 0.0
98 -17.4118 0.0
100 -17.4118 0.0
102 -17.4118 0.0
104 -17.4118 0.0
106 -17.4118 0.0
108 -17.4118 0.0
110 -17.4118 0.0
112 -17.4118 0.0
114 -17.4118 0.0
116 -17.4118 0.0
118 -17.4118 0.0
120 -17.4118 0.0
0 -17.5294 0.0
1 -17.5294 0.0
2 -17.5294 0.0
3 -17.5294 0.0
4 -17.5294 0.0
5 -17.5294 0.0
6 -17.5294 0.0
7 -17.5294 0.0
8 -17.5294 0.0
9 -17.5294 0.0
10 -17.5294 0.0
11 -17.5294 0.0
12 -17.5294 0.0
13 -17.5294 0.0
14 -17.5294 0.0
15 -17.5294 0.0
16 -17.5294 0.0
17 -17.5294 0.0
18 -17.5294 0.0
19 -17.5294 0.0
20 -17.5294 0.0
21 -17.5294 0.0
22 -17.5294 0.0
23 -17.5294 0.0
24 -17.5294 0.0
25 -17.5294 0.0
26 -17.5294 0.0
27 -17.5294 0.0
28 -17.5294 0.0
29 -17.5294 0.0
30 -17.5294 0.0
31 -17.5294 0.0
32 -17.5294 0.0
33 -17.5294 0.0
34 -17.5294 0.0
35 -17.5294 0.0
36 -17.5294 0.0
37 -17.5294 0.0
38 -17.5294 0.0
39 -17.5294 0.0
40 -17.5294 0.0
41 -17.5294 0.0
42 -17.5294 0.0
43 -17.5294 0.0
44 -17.5294 0.0
45 -17.5294 0.0
46 -17.5294 0.0
47 -17.5294 0.0
48 -17.5294 0.0
49 -17.5294 0.0
50 -17.5294 0.0
51 -17.5294 0.0
52 -17.5294 0.0
53 -17.5294 0.0
54 -17.5294 0.0
55 -17.5294 0.0
56 -17.5294 0.0
57 -17.5294 0.0
58 -17.5294 0.0
59 -17.5294 0.0
60 -17.5294 0.0
61 -17.5294 0.0
62 -17.5294 0.0
63 -17.5294 0.0
64 -17.5294 0.0
65 -17.5294 0.0
66 -17.5294 0.0
67 -17.5294 0.0
68 -17.5294 0.0
69 -17.5294 0.0
70 -17.5294 0.0
71 -17.5294 0.0
72 -17.5294 0.0
73 -17.5294 0.0
74 -17.5294 0.0
75 -17.5294 0.0
76 -17.5294 0.0
77 -17.5294 0.0
78 -17.5294 0.0
79 -17.5294 0.0
80 -17.5294 0.0
81 -17.5294 0.0
82 -17.5294 0.0
83 -17.5294 0.0
84 -17.5294 0.0
85 -17.5294 0.0
86 -17.5294 0.0
87 -17.5294 0.0
88 -17.5294 0.0
89 -17.5294 0.0
90 -17.5294 0.0
91 -17.5294 0.0
92 -17.5294 0.0
93 -17.5294 0.0
94 -17.5294 0.0
95 -17.5294 0.0
96 -17.5294 0.0
97 -17.5294 0.0
98 -17.5294 0.0
99 -17.5294 0.0
100 -17.5294 0.0
101 -17.5294 0.0
102 -17.5294 0.0
103 -17.5294 0.0
104 -17.5294 0.0
105 -17.5294 0.0
106 -17.5294 0.0
107 -17.5294 0.0
108 -17.5294 0.0
109 -17.5294 0.0
110 -17.5294 0.0
111 -17.5294 0.0
112 -17.5294 0.0
113 -17.5294 0.0
114 -17.5294 0.0
115 -17.5294 0.0
116 -17.5294 0.0
117 -17.5294 0.0
118 -17.5294 0.0
119 -17.5294 0.0
120 -17.5294 0.0
0 -17.6471 0.0
2 -17.6471 0.0
4 -17.6471 0.0
6 -17.6471 0.0
8 -17.6471 0.0
10 -17.6471 0.0
12 -17.6471 0.0
14 -17.6471 0.0
16 -17.6471 0.0
18 -17.6471 0.0
20 -17.6471 0.0
22 -17.6471 0.0
24 -17.6471 0.0
26 -17.6471 0.0
28 -17.6471 0.0
30 -17.6471 0.0
32 -17.6471 0.0
34 -17.6471 0.0
36 -17.6471 0.0
38 -17.6471 0.0
40 -17.6471 0.0
42 -17.6471 0.0
44 -17.6471 0.0
46 -17.6471 0.0
48 -17.6471 0.0
50 -17.6471 0.0
52 -17.6471 0.0
54 -17.6471 0.0
56 -17.6471 0.0
58 -17.6471 0.0
60 -17.6471 0.0
62 -17.6471 0.0
64 -17.6471 0.0
66 -17.6471 0.0
68 -17.6471 0.0
70 -17.6471 0.0
72 -17.6471 0.0
74 -17.6471 0.0
76 -17.6471 0.0
78 -17.6471 0.0
80 -17.6471 0.0
82 -17.6471 0.0
84 -17.6471 0.0
86 -17.6471 0.0
88 -17.6471 0.0
90 -17.6471 0.0
92 -17.6471 0.0
94 -17.6471 0.0
96 -17.6471 0.0
98 -17.6471 0.0
100 -17.6471 0.0
102 -17.6471 0.0
104 -17.6471 0.0
106 -17.6471 0.0
108 -17.6471 0.0
110 -17.6471 0.0
112 -17.6471 0.0
114 -17.6471 0.0
116 -17.6471 0.0
118 -17.6471 0.0
120 -17.6471 0.0
0 -17.7647 0.0
1 -17.7647 0.0
2 -17.7647 0.0
3 -17.7647 0.0
4 -17.7647 0.0
5 -17.7647 0.0
6 -17.7647 0.0
7 -17.7647 0.0
8 -17.7647 0.0
9 -17.7647 0.0
10 -17.7647 0.0
11 -17.7647 0.0
12 -17.7647 0.0
13 -17.7647 0.0
14 -17.7647 0.0
15 -17.7647 0.0
16 -17.7647 0.0
17 -17.7647 0.0
18 -17.7647 0.0
19 -17.7647 0.0
20 -17.7647 0.0
21 -17.7647 0.0
22 -17.7647 0.0
23 -17.7647 0.0
24 -17.7647 0.0
25 -17.7647 0.0
26 -17.7647 0.0
27 -17.7647 0.0
28 -17.7647 0.0
29 -17.7647 0.0
30 -17.7647 0.0
31 -17.7647 0.0
32 -17.7647 0.0
33 -17.7647 0.0
34 -17.7647 0.0
35 -17.7647 0.0
36 -17.7647 0.0
37 -17.7647 0.0
38 -17.7647 0.0
39 -17.7647 0.0
40 -17.7647 0.0
41 -17.7647 0.0
42 -17.7647 0.0
43 -17.7647 0.0
44 -17.7647 0.0
45 -17.7647 0.0
46 -17.7647 0.0
47 -17.7647 0.0
48 -17.7647 0.0
49 -17.7647 0.0
50 -17.7647 0.0
51 -17.7647 0.0
52 -17.7647 0.0
53 -17.7647 0.0
54 -17.7647 0.0
55 -17.7647 0.0
56 -17.7647 0.0
57 -17.7647 0.0
58 -17.7647 0.0
59 -17.7647 0.0
60 -17.7647 0.0
61 -17.7647 0.0
62 -17.7647 0.0
63 -17.7647 0.0
64 -17.7647 0.0
65 -17.7647 0.0
66 -17.7647 0.0
67 -17.7647 0.0
68 -17.7647 0.0
69 -17.7647 0.0
70 -17.7647 0.0
71 -17.7647 0.0
72 -17.7647 0.0
73 -17.7647 0.0
74 -17.7647 0.0
75 -17.7647 0.0
76 -17.7647 0.0
77 -17.7647 0.0
78 -17.7647 0.0
79 -17.7647 0.0
80 -17.7647 0.0
81 -17.7647 0.0
82 -17.7647 0.0
83 -17.7647 0.0
84 -17.7647 0.0
85 -17.7647 0.0
86 -17.7647 0.0
87 -17.7647 0.0
88 -17.7647 0.0
89 -17.7647 0.0
90 -17.7647 0.0
91 -17.7647 0.0
92 -17.7647 0.0
93 -17.7647 0.0
94 -17.7647 0.0
95 -17.7647 0.0
96 -17.7647 0.0
97 -17.7647 0.0
98 -17.7647 0.0
99 -17.7647 0.0
100 -17.7647 0.0
101 -17.7647 0.0
102 -17.7647 0.0
103 -17.7647 0.0
104 -17.7647 0.0
105 -17.7647 0.0
106 -17.7647 0.0
107 -17.7647 0.0
108 -17.7647 0.0
109 -17.7647 0.0
110 -17.7647 0.0
111 -17.7647 0.0
112 -17.7647 0.0
113 -17.7647 0.0
114 -17.7647 0.0
115 -17.7647 0.0
116 -17.7647 0.0
117 -17.7647 0.0
118 -17.7647 0.0
119 -17.7647 0.0
120 -17.7647 0.0
0 -17.8824 0.0
2 -17.8824 0.0
4 -17.8824 0.0
6 -17.8824 0.0
8 -17.8824 0.0
10 -17.8824 0.0
12 -17.8824 0.0
14 -17.8824 0.0
16 -17.8824 0.0
18 -17.8824 0.0
20 -17.8824 0.0
22 -17.8824 0.0
24 -17.8824 0.0
26 -17.8824 0.0
28 -17.8824 0.0
30 -17.8824 0.0
32 -17.8824 0.0
34 -17.8824 0.0
36 -17.8824 0.0
38 -17.8824 0.0
40 -17.8824 0.0
42 -17.8824 0.0
44 -17.8824 0.0
46 -17.8824 0.0
48 -17.8824 0.0
50 -17.8824 0.0
52 -17.8824 0.0
54 -17.8824 0.0
56 -17.8824 0.0
58 -17.8824 0.0
60 -17.8824 0.0
62 -17.8824 0.0
64 -17.8824 0.0
66 -17.8824 0.0
68 -17.8824 0.0
70 -17.8824 0.0
72 -17.8824 0.0
74 -17.8824 0.0
76 -17.8824 0.0
78 -17.8824 0.0
80 -17.8824 0.0
82 -17.8824 0.0
84 -17.8824 0.0
86 -17.8824 0.0
88 -17.8824 0.0
90 -17.8824 0.0
92 -17.8824 0.0
94 -17.8824 0.0
96 -17.8824 0.0
98 -17.8824 0.0
100 -17.8824 0.0
102 -17.8824 0.0
104 -17.8824 0.0
106 -17.8824 0.0
108 -17.8824 0.0
110 -17.8824 0.0
112 -17.8824 0.0
114 -17.8824 0.0
116 -17.8824 0.0
118 -17.8824 0.0
120 -17.8824 0.0
0 -18 0.0
1 -18 0.0
2 -18 0.0
3 -18 0.0
4 -18 0.0
5 -18 0.0
6 -18 0.0
7 -18 0.0
8 -18 0.0
9 -18 0.0
10 -18 0.0
11 -18 0.0
12 -18 0.0
13 -18 0.0
14 -18 0.0
15 -18 0.0
16 -18 0.0
17 -18 0.0
18 -18 0.0
19 -18 0.0
20 -18 0.0
21 -18 0.0
22 -18 0.0
23 -18 0.0
24 -18 0.0
25 -18 0.0
26 -18 0.0
27 -18 0.0
28 -18 0.0
29 -18 0.0
30 -18 0.0
31 -18 0.0
32 -18 0.0
33 -18 0.0
34 -18 0.0
35 -18 0.0
36 -18 0.0
37 -18 0.0
38 -18 0.0
39 -18 0.0
40 -18 0.0
41 -18 0.0
42 -18 0.0
43 -18 0.0
44 -18 0.0
45 -18 0.0
46 -18 0.0
47 -18 0.0
48 -18 0.0
49 -18 0.0
50 -18 0.0
51 -18 0.0
52 -18 0.0
53 -18 0.0
54 -18 0.0
55 -18 0.0
56 -18 0.0
57 -18 0.0
58 -18 0.0
59 -18 0.0
60 -18 0.0
61 -18 0.0
62 -18 0.0
63 -18 0.0
64 -18 0.0
65 -18 0.0
66 -18 0.0
67 -18 0.0
68 -18 0.0
69 -18 0.0
70 -18 0.0
71 -18 0.0
72 -18 0.0
73 -18 0.0
74 -18 0.0
75 -18 0.0
76 -18 0.0
77 -18 0.0
78 -18 0.0
79 -18 0.0
80 -18 0.0
81 -18 0.0
82 -18 0.0
83 -18 0.0
84 -18 0.0
85 -18 0.0
86 -18 0.0
87 -18 0.0
88 -18 0.0
89 -18 0.0
90 -18 0.0
91 -18 0.0
92 -18 0.0
93 -18 0.0
94 -18 0.0
95 -18 0.0
96 -18 0.0
97 -18 0.0
98 -18 0.0
99 -18 0.0
100 -18 0.0
101 -18 0.0
102 -18 0.0
103 -18 0.0
104 -18 0.0
105 -18 0.0
106 -18 0.0
107 -18 0.0
108 -18 0.0
109 -18 0.0
110 -18 0.0
111 -18 0.0
112 -18 0.0
113 -18 0.0
114 -18 0.0
115 -18 0.0
116 -18 0.0
117 -18 0.0
118 -18 0.0
119 -18 0.0
120 -18 0.0
0 -25.4 0.0
2 -25.4 0.0
4 -25.4 0.0
6 -25.4 0.0
8 -25.4 0.0
10 -25.4 0.0
12 -25.4 0.0
14 -25.4 0.0
16 -25.4 0.0
18 -25.4 0.0
20 -25.4 0.0
22 -25.4 0.0
24 -25.4 0.0
26 -25.4 0.0
28 -25.4 0.0
30 -25.4 0.0
32 -25.4 0.0
34 -25.4 0.0
36 -25.4 0.0
38 -25.4 0.0
40 -25.4 0.0
42 -25.4 0.0
44 -25.4 0.0
46 -25.4 0.0
48 -25.4 0.0
50 -25.4 0.0
52 -25.4 0.0
54 -25.4 0.0
56 -25.4 0.0
58 -25.4 0.0
60 -25.4 0.0
62 -25.4 0.0
64 -25.4 0.0
66 -25.4 0.0
68 -25.4 0.0
70 -25.4 0.0
72 -25.4 0.0
74 -25.4 0.0
76 -25.4 0.0
78 -25.4 0.0
80 -25.4 0.0
82 -25.4 0.0
84 -25.4 0.0
86 -25.4 0.0
88 -25.4 0.0
90 -25.4 0.0
92 -25.4 0.0
94 -25.4 0.0
96 -25.4 0.0
98 -25.4 0.0
100 -25.4 0.0
102 -25.4 0.0
104 -25.4 0.0
106 -25.4 0.0
108 -25.4 0.0
110 -25.4 0.0
112 -25.4 0.0
114 -25.4 0.0
116 -25.4 0.0
118 -25.4 0.0
120 -25.4 0.0
0 -32.8 0.0
1 -32.8 0.0
2 -32.8 0.0
3 -32.8 0.0
4 -32.8 0.0
5 -32.8 0.0
6 -32.8 0.0
7 -32.8 0.0
8 -32.8 0.0
9 -32.8 0.0
10 -32.8 0.0
11 -32.8 0.0
12 -32.8 0.0
13 -32.8 0.0
14 -32.8 0.0
15 -32.8 0.0
16 -32.8 0.0
17 -32.8 0.0
18 -32.8 0.0
19 -32.8 0.0
20 -32.8 0.0
21 -32.8 0.0
22 -32.8 0.0
23 -32.8 0.0
24 -32.8 0.0
25 -32.8 0.0
26 -32.8 0.0
27 -32.8 0.0
28 -32.8 0.0
29 -32.8 0.0
30 -32.8 0.0
31 -32.8 0.0
32 -32.8 0.0
33 -32.8 0.0
34 -32.8 0.0
35 -32.8 0.0
36 -32.8 0.0
37 -32.8 0.0
38 -32.8 0.0
39 -32.8 0.0
40 -32.8 0.0
41 -32.8 0.0
42 -32.8 0.0
43 -32.8 0.0
44 -32.8 0.0
45 -32.8 0.0
46 -32.8 0.0
47 -32.8 0.0
48 -32.8 0.0
49 -32.8 0.0
50 -32.8 0.0
51 -32.8 0.0
52 -32.8 0.0
53 -32.8 0.0
54 -32.8 0.0
55 -32.8 0.0
56 -32.8 0.0
57 -32.8 0.0
58 -32.8 0.0
59 -32.8 0.0
60 -32.8 0.0
61 -32.8 0.0
62 -32.8 0.0
63 -32.8 0.0
64 -32.8 0.0
65 -32.8 0.0
66 -32.8 0.0
67 -32.8 0.0
68 -32.8 0.0
69 -32.8 0.0
70 -32.8 0.0
71 -32.8 0.0
72 -32.8 0.0
73 -32.8 0.0
74 -32.8 0.0
75 -32.8 0.0
76 -32.8 0.0
77 -32.8 0.0
78 -32.8 0.0
79 -32.8 0.0
80 -32.8 0.0
81 -32.8 0.0
82 -32.8 0.0
83 -32.8 0.0
84 -32.8 0.0
85 -32.8 0.0
86 -32.8 0.0
87 -32.8 0.0
88 -32.8 0.0
89 -32.8 0.0
90 -32.8 0.0
91 -32.8 0.0
92 -32.8 0.0
93 -32.8 0.0
94 -32.8 0.0
95 -32.8 0.0
96 -32.8 0.0
97 -32.8 0.0
98 -32.8 0.0
99 -32.8 0.0
100 -32.8 0.0
101 -32.8 0.0
102 -32.8 0.0
103 -32.8 0.0
104 -32.8 0.0
105 -32.8 0.0
106 -32.8 0.0
107 -32.8 0.0
108 -32.8 0.0
109 -32.8 0.0
110 -32.8 0.0
111 -32.8 0.0
112 -32.8 0.0
113 -32.8 0.0
114 -32.8 0.0
115 -32.8 0.0
116 -32.8 0.0
117 -32.8 0.0
118 -32.8 0.0
119 -32.8 0.0
120 -32.8 0.0
0 -40.2 0.0
2 -40.2 0.0
4 -40.2 0.0
6 -40.2 0.0
8 -40.2 0.0
10 -40.2 0.0
12 -40.2 0.0
14 -40.2 0.0
16 -40.2 0.0
18 -40.2 0.0
20 -40.2 0.0
22 -40.2 0.0
24 -40.2 0.0
26 -40.2 0.0
28 -40.2 0.0
30 -40.2 0.0
32 -40.2 0.0
34 -40.2 0.0
36 -40.2 0.0
38 -40.2 0.0
40 -40.2 0.0
42 -40.2 0.0
44 -40.2 0.0
46 -40.2 0.0
48 -40.2 0.0
50 -40.2 0.0
52 -40.2 0.0
54 -40.2 0.0
56 -40.2 0.0
58 -40.2 0.0
60 -40.2 0.0
62 -40.2 0.0
64 -40.2 0.0
66 -40.2 0.0
68 -40.2 0.0
70 -40.2 0.0
72 -40.2 0.0
74 -40.2 0.0
76 -40.2 0.0
78 -40.2 0.0
80 -40.2 0.0
82 -40.2 0.0
84 -40.2 0.0
86 -40.2 0.0
88 -40.2 0.0
90 -40.2 0.0
92 -40.2 0.0
94 -40.2 0.0
96 -40.2 0.0
98 -40.2 0.0
100 -40.2 0.0
102 -40.2 0.0
104 -40.2 0.0
106 -40.2 0.0
108 -40.2 0.0
110 -40.2 0.0
112 -40.2 0.0
114 -40.2 0.0
116 -40.2 0.0
118 -40.2 0.0
120 -40.2 0.0
0 -47.6 0.0
1 -47.6 0.0
2 -47.6 0.0
3 -47.6 0.0
4 -47.6 0.0
5 -47.6 0.0
6 -47.6 0.0
7 -47.6 0.0
8 -47.6 0.0
9 -47.6 0.0
10 -47.6 0.0
11 -47.6 0.0
12 -47.6 0.0
13 -47.6 0.0
14 -47.6 0.0
15 -47.6 0.0
16 -47.6 0.0
17 -47.6 0.0
18 -47.6 0.0
19 -47.6 0.0
20 -47.6 0.0
21 -47.6 0.0
22 -47.6 0.0
23 -47.6 0.0
24 -47.6 0.0
25 -47.6 0.0
26 -47.6 0.0
27 -47.6 0.0
28 -47.6 0.0
29 -47.6 0.0
30 -47.6 0.0
31 -47.6 0.0
32 -47.6 0.0
33 -47.6 0.0
34 -47.6 0.0
35 -47.6 0.0
36 -47.6 0.0
37 -47.6 0.0
38 -47.6 0.0
39 -47.6 0.0
40 -47.6 0.0
41 -47.6 0.0
42 -47.6 0.0
43 -47.6 0.0
44 -47.6 0.0
45 -47.6 0.0
46 -47.6 0.0
47 -47.6 0.0
48 -47.6 0.0
49 -47.6 0.0
50 -47.6 0.0
51 -47.6 0.0
52 -47.6 0.0
53 -47.6 0.0
54 -47.6 0.0
55 -47.6 0.0
56 -47.6 0.0
57 -47.6 0.0
58 -47.6 0.0
59 -47.6 0.0
60 -47.6 0.0
61 -47.6 0.0
62 -47.6 0.0
63 -47.6 0.0
64 -47.6 0.0
65 -47.6 0.0
66 -47.6 0.0
67 -47.6 0.0
68 -47.6 0.0
69 -47.6 0.0
70 -47.6 0.0
71 -47.6 0.0
72 -47.6 0.0
73 -47.6 0.0
74 -47.6 0.0
75 -47.6 0.0
76 -47.6 0.0
77 -47.6 0.0
78 -47.6 0.0
79 -47.6 0.0
80 -47.6 0.0
81 -47.6 0.0
82 -47.6 0.0
83 -47.6 0.0
84 -47.6 0.0
85 -47.6 0.0
86 -47.6 0.0
87 -47.6 0.0
88 -47.6 0.0
89 -47.6 0.0
90 -47.6 0.0
91 -47.6 0.0
92 -47.6 0.0
93 -47.6 0.0
94 -47.6 0.0
95 -47.6 0.0
96 -47.6 0.0
97 -47.6 0.0
98 -47.6 0.0
99 -47.6 0.0
100 -47.6 0.0
101 -47.6 0.0
102 -47.6 0.0
103 -47.6 0.0
104 -47.6 0.0
105 -47.6 0.0
106 -47.6 0.0
107 -47.6 0.0
108 -47.6 0.0
109 -47.6 0.0
110 -47.6 0.0
111 -47.6 0.0
112 -47.6 0.0
113 -47.6 0.0
114 -47.6 0.0
115 -47.6 0.0
116 -47.6 0.0
117 -47.6 0.0
118 -47.6 0.0
119 -47.6 0.0
120 -47.6 0.0
0 -55 0.0
2 -55 0.0
4 -55 0.0
6 -55 0.0
8 -55 0.0
10 -55 0.0
12 -55 0.0
14 -55 0.0
16 -55 0.0
18 -55 0.0
20 -55 0.0
22 -55 0.0
24 -55 0.0
26 -55 0.0
28 -55 0.0
30 -55 0.0
32 -55 0.0
34 -55 0.0
36 -55 0.0
38 -55 0.0
40 -55 0.0
42 -55 0.0
44 -55 0.0
46 -55 0.0
48 -55 0.0
50 -55 0.0
52 -55 0.0
54 -55 0.0
56 -55 0.0
58 -55 0.0
60 -55 0.0
62 -55 0.0
64 -55 0.0
66 -55 0.0
68 -55 0.0
70 -55 0.0
72 -55 0.0
74 -55 0.0
76 -55 0.0
78 -55 0.0
80 -55 0.0
82 -55 0.0
84 -55 0.0
86 -55 0.0
88 -55 0.0
90 -55 0.0
92 -55 0.0
94 -55 0.0
96 -55 0.0
98 -55 0.0
100 -55 0.0
102 -55 0.0
104 -55 0.0
106 -55 0.0
108 -55 0.0
110 -55 0.0
112 -55 0.0
114 -55 0.0
116 -55 0.0
118 -55 0.0
120 -55 0.0
0 -62.4 0.0
1 -62.4 0.0
2 -62.4 0.0
3 -62.4 0.0
4 -62.4 0.0
5 -62.4 0.0
6 -62.4 0.0
7 -62.4 0.0
8 -62.4 0.0
9 -62.4 0.0
10 -62.4 0.0
11 -62.4 0.0
12 -62.4 0.0
13 -62.4 0.0
14 -62.4 0.0
15 -62.4 0.0
16 -62.4 0.0
17 -62.4 0.0
18 -62.4 0.0
19 -62.4 0.0
20 -62.4 0.0
21 -62.4 0.0
22 -62.4 0.0
23 -62.4 0.0
24 -62.4 0.0
25 -62.4 0.0
26 -62.4 0.0
27 -62.4 0.0
28 -62.4 0.0
29 -62.4 0.0
30 -62.4 0.0
31 -62.4 0.0
32 -62.4 0.0
33 -62.4 0.0
34 -62.4 0.0
35 -62.4 0.0
36 -62.4 0.0
37 -62.4 0.0
38 -62.4 0.0
39 -62.4 0.0
40 -62.4 0.0
41 -62.4 0.0
42 -62.4 0.0
43 -62.4 0.0
44 -62.4 0.0
45 -62.4 0.0
46 -62.4 0.0
47 -62.4 0.0
48 -62.4 0.0
49 -62.4 0.0
50 -62.4 0.0
51 -62.4 0.0
52 -62.4 0.0
53 -62.4 0.0
54 -62.4 0.0
55 -62.4 0.0
56 -62.4 0.0
57 -62.4 0.0
58 -62.4 0.0
59 -62.4 0.0
60 -62.4 0.0
61 -62.4 0.0
62 -62.4 0.0
63 -62.4 0.0
64 -62.4 0.0
65 -62.4 0.0
66 -62.4 0.0
67 -62.4 0.0
68 -62.4 0.0
69 -62.4 0.0
70 -62.4 0.0
71 -62.4 0.0
72 -62.4 0.0
73 -62.4 0.0
74 -62.4 0.0
75 -62.4 0.0
76 -62.4 0.0
77 -62.4 0.0
78 -62.4 0.0
79 -62.4 0.0
80 -62.4 0.0
81 -62.4 0.0
82 -62.4 0.0
83 -62.4 0.0
84 -62.4 0.0
85 -62.4 0.0
86 -62.4 0.0
87 -62.4 0.0
88 -62.4 0.0
89 -62.4 0.0
90 -62.4 0.0
91 -62.4 0.0
92 -62.4 0.0
93 -62.4 0.0
94 -62.4 0.0
95 -62.4 0.0
96 -62.4 0.0
97 -62.4 0.0
98 -62.4 0.0
99 -62.4 0.0
100 -62.4 0.0
101 -62.4 0.0
102 -62.4 0.0
103 -62.4 0.0
104 -62.4 0.0
105 -62.4 0.0
106 -62.4 0.0
107 -62.4 0.0
108 -62.4 0.0
109 -62.4 0.0
110 -62.4 0.0
111 -62.4 0.0
112 -62.4 0.0
113 -62.4 0.0
114 -62.4 0.0
115 -62.4 0.0
116 -62.4 0.0
117 -62.4 0.0
118 -62.4 0.0
119 -62.4 0.0
120 -62.4 0.0
0 -69.8 0.0
2 -69.8 0.0
4 -69.8 0.0
6 -69.8 0.0
8 -69.8 0.0
10 -69.8 0.0
12 -69.8 0.0
14 -69.8 0.0
16 -69.8 0.0
18 -69.8 0.0
20 -69.8 0.0
22 -69.8 0.0
24 -69.8 0.0
26 -69.8 0.0
28 -69.8 0.0
30 -69.8 0.0
32 -69.8 0.0
34 -69.8 0.0
36 -69.8 0.0
38 -69.8 0.0
40 -69.8 0.0
42 -69.8 0.0
44 -69.8 0.0
46 -69.8 0.0
48 -69.8 0.0
50 -69.8 0.0
52 -69.8 0.0
54 -69.8 0.0
56 -69.8 0.0
58 -69.8 0.0
60 -69.8 0.0
62 -69.8 0.0
64 -69.8 0.0
66 -69.8 0.0
68 -69.8 0.0
70 -69.8 0.0
72 -69.8 0.0
74 -69.8 0.0
76 -69.8 0.0
78 -69.8 0.0
80 -69.8 0.0
82 -69.8 0.0
84 -69.8 0.0
86 -69.8 0.0
88 -69.8 0.0
90 -69.8 0.0
92 -69.8 0.0
94 -69.8 0.0
96 -69.8 0.0
98 -69.8 0.0
100 -69.8 0.0
102 -69.8 0.0
104 -69.8 0.0
106 -69.8 0.0
108 -69.8 0.0
110 -69.8 0.0
112 -69.8 0.0
114 -69.8 0.0
116 -69.8 0.0
118 -69.8 0.0
120 -69.8 0.0
0 -77.2 0.0
1 -77.2 0.0
2 -77.2 0.0
3 -77.2 0.0
4 -77.2 0.0
5 -77.2 0.0
6 -77.2 0.0
7 -77.2 0.0
8 -77.2 0.0
9 -77.2 0.0
10 -77.2 0.0
11 -77.2 0.0
12 -77.2 0.0
13 -77.2 0.0
14 -77.2 0.0
15 -77.2 0.0
16 -77.2 0.0
17 -77.2 0.0
18 -77.2 0.0
19 -77.2 0.0
20 -77.2 0.0
21 -77.2 0.0
22 -77.2 0.0
23 -77.2 0.0
24 -77.2 0.0
25 -77.2 0.0
26 -77.2 0.0
27 -77.2 0.0
28 -77.2 0.0
29 -77.2 0.0
30 -77.2 0.0
31 -77.2 0.0
32 -77.2 0.0
33 -77.2 0.0
34 -77.2 0.0
35 -77.2 0.0
36 -77.2 0.0
37 -77.2 0.0
38 -77.2 0.0
39 -77.2 0.0
40 -77.2 0.0
41 -77.2 0.0
42 -77.2 0.0
43 -77.2 0.0
44 -77.2 0.0
45 -77.2 0.0
46 -77.2 0.0
47 -77.2 0.0
48 -77.2 0.0
49 -77.2 0.0
50 -77.2 0.0
51 -77.2 0.0
52 -77.2 0.0
53 -77.2 0.0
54 -77.2 0.0
55 -77.2 0.0
56 -77.2 0.0
57 -77.2 0.0
58 -77.2 0.0
59 -77.2 0.0
60 -77.2 0.0
61 -77.2 0.0
62 -77.2 0.0
63 -77.2 0.0
64 -77.2 0.0
65 -77.2 0.0
66 -77.2 0.0
67 -77.2 0.0
68 -77.2 0.0
69 -77.2 0.0
70 -77.2 0.0
71 -77.2 0.0
72 -77.2 0.0
73 -77.2 0.0
74 -77.2 0.0
75 -77.2 0.0
76 -77.2 0.0
77 -77.2 0.0
78 -77.2 0.0
79 -77.2 0.0
80 -77.2 0.0
81 -77.2 0.0
82 -77.2 0.0
83 -77.2 0.0
84 -77.2 0.0
85 -77.2 0.0
86 -77.2 0.0
87 -77.2 0.0
88 -77.2 0.0
89 -77.2 0.0
90 -77.2 0.0
91 -77.2 0.0
92 -77.2 0.0
93 -77.2 0.0
94 -77.2 0.0
95 -77.2 0.0
96 -77.2 0.0
97 -77.2 0.0
98 -77.2 0.0
99 -77.2 0.0
100 -77.2 0.0
101 -77.2 0.0
102 -77.2 0.0
103 -77.2 0.0
104 -77.2 0.0
105 -77.2 0.0
106 -77.2 0.0
107 -77.2 0.0
108 -77.2 0.0
109 -77.2 0.0
110 -77.2 0.0
111 -77.2 0.0
112 -77.2 0.0
113 -77.2 0.0
114 -77.2 0.0
115 -77.2 0.0
116 -77.2 0.0
117 -77.2 0.0
118 -77.2 0.0
119 -77.2 0.0
120 -77.2 0.0
0 -84.6 0.0
2 -84.6 0.0
4 -84.6 0.0
6 -84.6 0.0
8 -84.6 0.0
10 -84.6 0.0
12 -84.6 0.0
14 -84.6 0.0
16 -84.6 0.0
18 -84.6 0.0
20 -84.6 0.0
22 -84.6 0.0
24 -84.6 0.0
26 -84.6 0.0
28 -84.6 0.0
30 -84.6 0.0
32 -84.6 0.0
34 -84.6 0.0
36 -84.6 0.0
38 -84.6 0.0
40 -84.6 0.0
42 -84.6 0.0
44 -84.6 0.0
46 -84.6 0.0
48 -84.6 0.0
50 -84.6 0.0
52 -84.6 0.0
54 -84.6 0.0
56 -84.6 0.0
58 -84.6 0.0
60 -84.6 0.0
62 -84.6 0.0
64 -84.6 0.0
66 -84.6 0.0
68 -84.6 0.0
70 -84.6 0.0
72 -84.6 0.0
74 -84.6 0.0
76 -84.6 0.0
78 -84.6 0.0
80 -84.6 0.0
82 -84.6 0.0
84 -84.6 0.0
86 -84.6 0.0
88 -84.6 0.0
90 -84.6 0.0
92 -84.6 0.0
94 -84.6 0.0
96 -84.6 0.0
98 -84.6 0.0
100 -84.6 0.0
102 -84.6 0.0
104 -84.6 0.0
106 -84.6 0.0
108 -84.6 0.0
110 -84.6 0.0
112 -84.6 0.0
114 -84.6 0.0
116 -84.6 0.0
118 -84.6 0.0
120 -84.6 0.0
0 -92 0.0
1 -92 0.0
2 -92 0.0
3 -92 0.0
4 -92 0.0
5 -92 0.0
6 -92 0.0
7 -92 0.0
8 -92 0.0
9 -92 0.0
10 -92 0.0
11 -92 0.0
12 -92 0.0
13 -92 0.0
14 -92 0.0
15 -92 0.0
16 -92 0.0
17 -92 0.0
18 -92 0.0
19 -92 0.0
20 -92 0.0
21 -92 0.0
22 -92 0.0
23 -92 0.0
24 -92 0.0
25 -92 0.0
26 -92 0.0
27 -92 0.0
28 -92 0.0
29 -92 0.0
30 -92 0.0
31 -92 0.0
32 -92 0.0
33 -92 0.0
34 -92 0.0
35 -92 0.0
36 -92 0.0
37 -92 0.0
38 -92 0.0
39 -92 0.0
40 -92 0.0
41 -92 0.0
42 -92 0.0
43 -92 0.0
44 -92 0.0
45 -92 0.0
46 -92 0.0
47 -92 0.0
48 -92 0.0
49 -92 0.0
50 -92 0.0
51 -92 0.0
52 -92 0.0
53 -92 0.0
54 -92 0.0
55 -92 0.0
56 -92 0.0
57 -92 0.0
58 -92 0.0
59 -92 0.0
60 -92 0.0
61 -92 0.0
62 -92 0.0
63 -92 0.0
64 -92 0.0
65 -92 0.0
66 -92 0.0
67 -92 0.0
68 -92 0.0
69 -92 0.0
70 -92 0.0
71 -92 0.0
72 -92 0.0
73 -92 0.0
74 -92 0.0
75 -92 0.0
76 -92 0.0
77 -92 0.0
78 -92 0.0
79 -92 0.0
80 -92 0.0
81 -92 0.0
82 -92 0.0
83 -92 0.0
84 -92 0.0
85 -92 0.0
86 -92 0.0
87 -92 0.0
88 -92 0.0
89 -92 0.0
90 -92 0.0
91 -92 0.0
92 -92 0.0
93 -92 0.0
94 -92 0.0
95 -92 0.0
96 -92 0.0
97 -92 0.0
98 -92 0.0
99 -92 0.0
100 -92 0.0
101 -92 0.0
102 -92 0.0
103 -92 0.0
104 -92 0.0
105 -92 0.0
106 -92 0.0
107 -92 0.0
108 -92 0.0
109 -92 0.0
110 -92 0.0
111 -92 0.0
112 -92 0.0
113 -92 0.0
114 -92 0.0
115 -92 0.0
116 -92 0.0
117 -92 0.0
118 -92 0.0
119 -92 0.0
120 -92 0.0
0 -99.4 0.0
2 -99.4 0.0
4 -99.4 0.0
6 -99.4 0.0
8 -99.4 0.0
10 -99.4 0.0
12 -99.4 0.0
14 -99.4 0.0
16 -99.4 0.0
18 -99.4 0.0
20 -99.4 0.0
22 -99.4 0.0
24 -99.4 0.0
26 -99.4 0.0
28 -99.4 0.0
30 -99.4 0.0
32 -99.4 0.0
34 -99.4 0.0
36 -99.4 0.0
38 -99.4 0.0
40 -99.4 0.0
42 -99.4 0.0
44 -99.4 0.0
46 -99.4 0.0
48 -99.4 0.0
50 -99.4 0.0
52 -99.4 0.0
54 -99.4 0.0
56 -99.4 0.0
58 -99.4 0.0
60 -99.4 0.0
62 -99.4 0.0
64 -99.4 0.0
66 -99.4 0.0
68 -99.4 0.0
70 -99.4 0.0
72 -99.4 0.0
74 -99.4 0.0
76 -99.4 0.0
78 -99.4 0.0
80 -99.4 0.0
82 -99.4 0.0
84 -99.4 0.0
86 -99.4 0.0
88 -99.4 0.0
90 -99.4 0.0
92 -99.4 0.0
94 -99.4 0.0
96 -99.4 0.0
98 -99.4 0.0
100 -99.4 0.0
102 -99.4 0.0
104 -99.4 0.0
106 -99.4 0.0
108 -99.4 0.0
110 -99.4 0.0
112 -99.4 0.0
114 -99.4 0.0
116 -99.4 0.0
118 -99.4 0.0
120 -99.4 0.0
0 -106.8 0.0
1 -106.8 0.0
2 -106.8 0.0
3 -106.8 0.0
4 -106.8 0.0
5 -106.8 0.0
6 -106.8 0.0
7 -106.8 0.0
8 -106.8 0.0
9 -106.8 0.0
10 -106.8 0.0
11 -106.8 0.0
12 -106.8 0.0
13 -106.8 0.0
14 -106.8 0.0
15 -106.8 0.0
16 -106.8 0.0
17 -106.8 0.0
18 -106.8 0.0
19 -106.8 0.0
20 -106.8 0.0
21 -106.8 0.0
22 -106.8 0.0
23 -106.8 0.0
24 -106.8 0.0
25 -106.8 0.0
26 -106.8 0.0
27 -106.8 0.0
28 -106.8 0.0
29 -106.8 0.0
30 -106.8 0.0
31 -106.8 0.0
32 -106.8 0.0
33 -106.8 0.0
34 -106.8 0.0
35 -106.8 0.0
36 -106.8 0.0
37 -106.8 0.0
38 -106.8 0.0
39 -106.8 0.0
40 -106.8 0.0
41 -106.8 0.0
42 -106.8 0.0
43 -106.8 0.0
44 -106.8 0.0
45 -106.8 0.0
46 -106.8 0.0
47 -106.8 0.0
48 -106.8 0.0
49 -106.8 0.0
50 -106.8 0.0
51 -106.8 0.0
52 -106.8 0.0
53 -106.8 0.0
54 -106.8 0.0
55 -106.8 0.0
56 -106.8 0.0
57 -106.8 0.0
58 -106.8 0.0
59 -106.8 0.0
60 -106.8 0.0
61 -106.8 0.0
62 -106.8 0.0
63 -106.8 0.0
64 -106.8 0.0
65 -106.8 0.0
66 -106.8 0.0
67 -106.8 0.0
68 -106.8 0.0
69 -106.8 0.0
70 -106.8 0.0
71 -106.8 0.0
72 -106.8 0.0
73 -106.8 0.0
74 -106.8 0.0
75 -106.8 0.0
76 -106.8 0.0
77 -106.8 0.0
78 -106.8 0.0
79 -106.8 0.0
80 -106.8 0.0
81 -106.8 0.0
82 -106.8 0.0
83 -106.8 0.0
84 -106.8 0.0
85 -106.8 0.0
86 -106.8 0.0
87 -106.8 0.0
88 -106.8 0.0
89 -106.8 0.0
90 -106.8 0.0
91 -106.8 0.0
92 -106.8 0.0
93 -106.8 0.0
94 -106.8 0.0
95 -106.8 0.0
96 -106.8 0.0
97 -106.8 0.0
98 -106.8 0.0
99 -106.8 0.0
100 -106.8 0.0
101 -106.8 0.0
102 -106.8 0.0
103 -106.8 0.0
104 -106.8 0.0
105 -106.8 0.0
106 -106.8 0.0
107 -106.8 0.0
108 -106.8 0.0
109 -106.8 0.0
110 -106.8 0.0
111 -106.8 0.0
112 -106.8 0.0
113 -106.8 0.0
114 -106.8 0.0
115 -106.8 0.0
116 -106.8 0.0
117 -106.8 0.0
118 -106.8 0.0
119 -106.8 0.0
120 -106.8 0.0
0 -114.2 0.0
2 -114.2 0.0
4 -114.2 0.0
6 -114.2 0.0
8 -114.2 0.0
10 -114.2 0.0
12 -114.2 0.0
14 -114.2 0.0
16 -114.2 0.0
18 -114.2 0.0
20 -114.2 0.0
22 -114.2 0.0
24 -114.2 0.0
26 -114.2 0.0
28 -114.2 0.0
30 -114.2 0.0
32 -114.2 0.0
34 -114.2 0.0
36 -114.2 0.0
38 -114.2 0.0
40 -114.2 0.0
42 -114.2 0.0
44 -114.2 0.0
46 -114.2 0.0
48 -114.2 0.0
50 -114.2 0.0
52 -114.2 0.0
54 -114.2 0.0
56 -114.2 0.0
58 -114.2 0.0
60 -114.2 0.0
62 -114.2 0.0
64 -114.2 0.0
66 -114.2 0.0
68 -114.2 0.0
70 -114.2 0.0
72 -114.2 0.0
74 -114.2 0.0
76 -114.2 0.0
78 -114.2 0.0
80 -114.2 0.0
82 -114.2 0.0
84 -114.2 0.0
86 -114.2 0.0
88 -114.2 0.0
90 -114.2 0.0
92 -114.2 0.0
94 -114.2 0.0
96 -114.2 0.0
98 -114.2 0.0
100 -114.2 0.0
102 -114.2 0.0
104 -114.2 0.0
106 -114.2 0.0
108 -114.2 0.0
110 -114.2 0.0
112 -114.2 0.0
114 -114.2 0.0
116 -114.2 0.0
118 -114.2 0.0
120 -114.2 0.0
0 -121.6 0.0
1 -121.6 0.0
2 -121.6 0.0
3 -121.6 0.0
4 -121.6 0.0
5 -121.6 0.0
6 -121.6 0.0
7 -121.6 0.0
8 -121.6 0.0
9 -121.6 0.0
10 -121.6 0.0
11 -121.6 0.0
12 -121.6 0.0
13 -121.6 0.0
14 -121.6 0.0
15 -121.6 0.0
16 -121.6 0.0
17 -121.6 0.0
18 -121.6 0.0
19 -121.6 0.0
20 -121.6 0.0
21 -121.6 0.0
22 -121.6 0.0
23 -121.6 0.0
24 -121.6 0.0
25 -121.6 0.0
26 -121.6 0.0
27 -121.6 0.0
28 -121.6 0.0
29 -121.6 0.0
30 -121.6 0.0
31 -121.6 0.0
32 -121.6 0.0
33 -121.6 0.0
34 -121.6 0.0
35 -121.6 0.0
36 -121.6 0.0
37 -121.6 0.0
38 -121.6 0.0
39 -121.6 0.0
40 -121.6 0.0
41 -121.6 0.0
42 -121.6 0.0
43 -121.6 0.0
44 -121.6 0.0
45 -121.6 0.0
46 -121.6 0.0
47 -121.6 0.0
48 -121.6 0.0
49 -121.6 0.0
50 -121.6 0.0
51 -121.6 0.0
52 -121.6 0.0
53 -121.6 0.0
54 -121.6 0.0
55 -121.6 0.0
56 -121.6 0.0
57 -121.6 0.0
58 -121.6 0.0
59 -121.6 0.0
60 -121.6 0.0
61 -121.6 0.0
62 -121.6 0.0
63 -121.6 0.0
64 -121.6 0.0
65 -121.6 0.0
66 -121.6 0.0
67 -121.6 0.0
68 -121.6 0.0
69 -121.6 0.0
70 -121.6 0.0
71 -121.6 0.0
72 -121.6 0.0
73 -121.6 0.0
74 -121.6 0.0
75 -121.6 0.0
76 -121.6 0.0
77 -121.6 0.0
78 -121.6 0.0
79 -121.6 0.0
80 -121.6 0.0
81 -121.6 0.0
82 -121.6 0.0
83 -121.6 0.0
84 -121.6 0.0
85 -121.6 0.0
86 -121.6 0.0
87 -121.6 0.0
88 -121.6 0.0
89 -121.6 0.0
90 -121.6 0.0
91 -121.6 0.0
92 -121.6 0.0
93 -121.6 0.0
94 -121.6 0.0
95 -121.6 0.0
96 -121.6 0.0
97 -121.6 0.0
98 -121.6 0.0
99 -121.6 0.0
100 -121.6 0.0
101 -121.6 0.0
102 -121.6 0.0
103 -121.6 0.0
104 -121.6 0.0
105 -121.6 0.0
106 -121.6 0.0
107 -121.6 0.0
108 -121.6 0.0
109 -121.6 0.0
110 -121.6 0.0
111 -121.6 0.0
112 -121.6 0.0
113 -121.6 0.0
114 -121.6 0.0
115 -121.6 0.0
116 -121.6 0.0
117 -121.6 0.0
118 -121.6 0.0
119 -121.6 0.0
120 -121.6 0.0
0 -129 0.0
2 -129 0.0
4 -129 0.0
6 -129 0.0
8 -129 0.0
10 -129 0.0
12 -129 0.0
14 -129 0.0
16 -129 0.0
18 -129 0.0
20 -129 0.0
22 -129 0.0
24 -129 0.0
26 -129 0.0
28 -129 0.0
30 -129 0.0
32 -129 0.0
34 -129 0.0
36 -129 0.0
38 -129 0.0
40 -129 0.0
42 -129 0.0
44 -129 0.0
46 -129 0.0
48 -129 0.0
50 -129 0.0
52 -129 0.0
54 -129 0.0
56 -129 0.0
58 -129 0.0
60 -129 0.0
62 -129 0.0
64 -129 0.0
66 -129 0.0
68 -129 0.0
70 -129 0.0
72 -129 0.0
74 -129 0.0
76 -129 0.0
78 -129 0.0
80 -129 0.0
82 -129 0.0
84 -129 0.0
86 -129 0.0
88 -129 0.0
90 -129 0.0
92 -129 0.0
94 -129 0.0
96 -129 0.0
98 -129 0.0
100 -129 0.0
102 -129 0.0
104 -129 0.0
106 -129 0.0
108 -129 0.0
110 -129 0.0
112 -129 0.0
114 -129 0.0
116 -129 0.0
118 -129 0.0
120 -129 0.0
0 -136.4 0.0
1 -136.4 0.0
2 -136.4 0.0
3 -136.4 0.0
4 -136.4 0.0
5 -136.4 0.0
6 -136.4 0.0
7 -136.4 0.0
8 -136.4 0.0
9 -136.4 0.0
10 -136.4 0.0
11 -136.4 0.0
12 -136.4 0.0
13 -136.4 0.0
14 -136.4 0.0
15 -136.4 0.0
16 -136.4 0.0
17 -136.4 0.0
18 -136.4 0.0
19 -136.4 0.0
20 -136.4 0.0
21 -136.4 0.0
22 -136.4 0.0
23 -136.4 0.0
24 -136.4 0.0
25 -136.4 0.0
26 -136.4 0.0
27 -136.4 0.0
28 -136.4 0.0
29 -136.4 0.0
30 -136.4 0.0
31 -136.4 0.0
32 -136.4 0.0
33 -136.4 0.0
34 -136.4 0.0
35 -136.4 0.0
36 -136.4 0.0
37 -136.4 0.0
38 -136.4 0.0
39 -136.4 0.0
40 -136.4 0.0
41 -136.4 0.0
42 -136.4 0.0
43 -136.4 0.0
44 -136.4 0.0
45 -136.4 0.0
46 -136.4 0.0
47 -136.4 0.0
48 -136.4 0.0
49 -136.4 0.0
50 -136.4 0.0
51 -136.4 0.0
52 -136.4 0.0
53 -136.4 0.0
54 -136.4 0.0
55 -136.4 0.0
56 -136.4 0.0
57 -136.4 0.0
58 -136.4 0.0
59 -136.4 0.0
60 -136.4 0.0
61 -136.4 0.0
62 -136.4 0.0
63 -136.4 0.0
64 -136.4 0.0
65 -136.4 0.0
66 -136.4 0.0
67 -136.4 0.0
68 -136.4 0.0
69 -136.4 0.0
70 -136.4 0.0
71 -136.4 0.0
72 -136.4 0.0
73 -136.4 0.0
74 -136.4 0.0
75 -136.4 0.0
76 -136.4 0.0
77 -136.4 0.0
78 -136.4 0.0
79 -136.4 0.0
80 -136.4 0.0
81 -136.4 0.0
82 -136.4 0.0
83 -136.4 0.0
84 -136.4 0.0
85 -136.4 0.0
86 -136.4 0.0
87 -136.4 0.0
88 -136.4 0.0
89 -136.4 0.0
90 -136.4 0.0
91 -136.4 0.0
92 -136.4 0.0
93 -136.4 0.0
94 -136.4 0.0
95 -136.4 0.0
96 -136.4 0.0
97 -136.4 0.0
98 -136.4 0.0
99 -136.4 0.0
100 -136.4 0.0
101 -136.4 0.0
102 -136.4 0.0
103 -136.4 0.0
104 -136.4 0.0
105 -136.4 0.0
106 -136.4 0.0
107 -136.4 0.0
108 -136.4 0.0
109 -136.4 0.0
110 -136.4 0.0
111 -136.4 0.0
112 -136.4 0.0
113 -136.4 0.0
114 -136.4 0.0
115 -136.4 0.0
116 -136.4 0.0
117 -136.4 0.0
118 -136.4 0.0
119 -136.4 0.0
120 -136.4 0.0
0 -143.8 0.0
2 -143.8 0.0
4 -143.8 0.0
6 -143.8 0.0
8 -143.8 0.0
10 -143.8 0.0
12 -143.8 0.0
14 -143.8 0.0
16 -143.8 0.0
18 -143.8 0.0
20 -143.8 0.0
22 -143.8 0.0
24 -143.8 0.0
26 -143.8 0.0
28 -143.8 0.0
30 -143.8 0.0
32 -143.8 0.0
34 -143.8 0.0
36 -143.8 0.0
38 -143.8 0.0
40 -143.8 0.0
42 -143.8 0.0
44 -143.8 0.0
46 -143.8 0.0
48 -143.8 0.0
50 -143.8 0.0
52 -143.8 0.0
54 -143.8 0.0
56 -143.8 0.0
58 -143.8 0.0
60 -143.8 0.0
62 -143.8 0.0
64 -143.8 0.0
66 -143.8 0.0
68 -143.8 0.0
70 -143.8 0.0
72 -143.8 0.0
74 -143.8 0.0
76 -143.8 0.0
78 -143.8 0.0
80 -143.8 0.0
82 -143.8 0.0
84 -143.8 0.0
86 -143.8 0.0
88 -143.8 0.0
90 -143.8 0.0
92 -143.8 0.0
94 -143.8 0.0
96 -143.8 0.0
98 -143.8 0.0
100 -143.8 0.0
102 -143.8 0.0
104 -143.8 0.0
106 -143.8 0.0
108 -143.8 0.0
110 -143.8 0.0
112 -143.8 0.0
114 -143.8 0.0
116 -143.8 0.0
118 -143.8 0.0
120 -143.8 0.0
0 -151.2 0.0
1 -151.2 0.0
2 -151.2 0.0
3 -151.2 0.0
4 -151.2 0.0
5 -151.2 0.0
6 -151.2 0.0
7 -151.2 0.0
8 -151.2 0.0
9 -151.2 0.0
10 -151.2 0.0
11 -151.2 0.0
12 -151.2 0.0
13 -151.2 0.0
14 -151.2 0.0
15 -151.2 0.0
16 -151.2 0.0
17 -151.2 0.0
18 -151.2 0.0
19 -151.2 0.0
20 -151.2 0.0
21 -151.2 0.0
22 -151.2 0.0
23 -151.2 0.0
24 -151.2 0.0
25 -151.2 0.0
26 -151.2 0.0
27 -151.2 0.0
28 -151.2 0.0
29 -151.2 0.0
30 -151.2 0.0
31 -151.2 0.0
32 -151.2 0.0
33 -151.2 0.0
34 -151.2 0.0
35 -151.2 0.0
36 -151.2 0.0
37 -151.2 0.0
38 -151.2 0.0
39 -151.2 0.0
40 -151.2 0.0
41 -151.2 0.0
42 -151.2 0.0
43 -151.2 0.0
44 -151.2 0.0
45 -151.2 0.0
46 -151.2 0.0
47 -151.2 0.0
48 -151.2 0.0
49 -151.2 0.0
50 -151.2 0.0
51 -151.2 0.0
52 -151.2 0.0
53 -151.2 0.0
54 -151.2 0.0
55 -151.2 0.0
56 -151.2 0.0
57 -151.2 0.0
58 -151.2 0.0
59 -151.2 0.0
60 -151.2 0.0
61 -151.2 0.0
62 -151.2 0.0
63 -151.2 0.0
64 -151.2 0.0
65 -151.2 0.0
66 -151.2 0.0
67 -151.2 0.0
68 -151.2 0.0
69 -151.2 0.0
70 -151.2 0.0
71 -151.2 0.0
72 -151.2 0.0
73 -151.2 0.0
74 -151.2 0.0
75 -151.2 0.0
76 -151.2 0.0
77 -151.2 0.0
78 -151.2 0.0
79 -151.2 0.0
80 -151.2 0.0
81 -151.2 0.0
82 -151.2 0.0
83 -151.2 0.0
84 -151.2 0.0
85 -151.2 0.0
86 -151.2 0.0
87 -151.2 0.0
88 -151.2 0.0
89 -151.2 0.0
90 -151.2 0.0
91 -151.2 0.0
92 -151.2 0.0
93 -151.2 0.0
94 -151.2 0.0
95 -151.2 0.0
96 -151.2 0.0
97 -151.2 0.0
98 -151.2 0.0
99 -151.2 0.0
100 -151.2 0.0
101 -151.2 0.0
102 -151.2 0.0
103 -151.2 0.0
104 -151.2 0.0
105 -151.2 0.0
106 -151.2 0.0
107 -151.2 0.0
108 -151.2 0.0
109 -151.2 0.0
110 -151.2 0.0
111 -151.2 0.0
112 -151.2 0.0
113 -151.2 0.0
114 -151.2 0.0
115 -151.2 0.0
116 -151.2 0.0
117 -151.2 0.0
118 -151.2 0.0
119 -151.2 0.0
120 -151.2 0.0
0 -158.6 0.0
2 -158.6 0.0
4 -158.6 0.0
6 -158.6 0.0
8 -158.6 0.0
10 -158.6 0.0
12 -158.6 0.0
14 -158.6 0.0
16 -158.6 0.0
18 -158.6 0.0
20 -158.6 0.0
22 -158.6 0.0
24 -158.6 0.0
26 -158.6 0.0
28 -158.6 0.0
30 -158.6 0.0
32 -158.6 0.0
34 -158.6 0.0
36 -158.6 0.0
38 -158.6 0.0
40 -158.6 0.0
42 -158.6 0.0
44 -158.6 0.0
46 -158.6 0.0
48 -158.6 0.0
50 -158.6 0.0
52 -158.6 0.0
54 -158.6 0.0
56 -158.6 0.0
58 -158.6 0.0
60 -158.6 0.0
62 -158.6 0.0
64 -158.6 0.0
66 -158.6 0.0
68 -158.6 0.0
70 -158.6 0.0
72 -158.6 0.0
74 -158.6 0.0
76 -158.6 0.0
78 -158.6 0.0
80 -158.6 0.0
82 -158.6 0.0
84 -158.6 0.0
86 -158.6 0.0
88 -158.6 0.0
90 -158.6 0.0
92 -158.6 0.0
94 -158.6 0.0
96 -158.6 0.0
98 -158.6 0.0
100 -158.6 0.0
102 -158.6 0.0
104 -158.6 0.0
106 -158.6 0.0
108 -158.6 0.0
110 -158.6 0.0
112 -158.6 0.0
114 -158.6 0.0
116 -158.6 0.0
118 -158.6 0.0
120 -158.6 0.0
0 -166 0.0
1 -166 0.0
2 -166 0.0
3 -166 0.0
4 -166 0.0
5 -166 0.0
6 -166 0.0
7 -166 0.0
8 -166 0.0
9 -166 0.0
10 -166 0.0
11 -166 0.0
12 -166 0.0
13 -166 0.0
14 -166 0.0
15 -166 0.0
16 -166 0.0
17 -166 0.0
18 -166 0.0
19 -166 0.0
20 -166 0.0
21 -166 0.0
22 -166 0.0
23 -166 0.0
24 -166 0.0
25 -166 0.0
26 -166 0.0
27 -166 0.0
28 -166 0.0
29 -166 0.0
30 -166 0.0
31 -166 0.0
32 -166 0.0
33 -166 0.0
34 -166 0.0
35 -166 0.0
36 -166 0.0
37 -166 0.0
38 -166 0.0
39 -166 0.0
40 -166 0.0
41 -166 0.0
42 -166 0.0
43 -166 0.0
44 -166 0.0
45 -166 0.0
46 -166 0.0
47 -166 0.0
48 -166 0.0
49 -166 0.0
50 -166 0.0
51 -166 0.0
52 -166 0.0
53 -166 0.0
54 -166 0.0
55 -166 0.0
56 -166 0.0
57 -166 0.0
58 -166 0.0
59 -166 0.0
60 -166 0.0
61 -166 0.0
62 -166 0.0
63 -166 0.0
64 -166 0.0
65 -166 0.0
66 -166 0.0
67 -166 0.0
68 -166 0.0
69 -166 0.0
70 -166 0.0
71 -166 0.0
72 -166 0.0
73 -166 0.0
74 -166 0.0
75 -166 0.0
76 -166 0.0
77 -166 0.0
78 -166 0.0
79 -166 0.0
80 -166 0.0
81 -166 0.0
82 -166 0.0
83 -166 0.0
84 -166 0.0
85 -166 0.0
86 -166 0.0
87 -166 0.0
88 -166 0.0
89 -166 0.0
90 -166 0.0
91 -166 0.0
92 -166 0.0
93 -166 0.0
94 -166 0.0
95 -166 0.0
96 -166 0.0
97 -166 0.0
98 -166 0.0
99 -166 0.0
100 -166 0.0
101 -166 0.0
102 -166 0.0
103 -166 0.0
104 -166 0.0
105 -166 0.0
106 -166 0.0
107 -166 0.0
108 -166 0.0
109 -166 0.0
110 -166 0.0
111 -166 0.0
112 -166 0.0
113 -166 0.0
114 -166 0.0
115 -166 0.0
116 -166 0.0
117 -166 0.0
118 -166 0.0
119 -166 0.0
120 -166 0.0
0 -173.4 0.0
2 -173.4 0.0
4 -173.4 0.0
6 -173.4 0.0
8 -173.4 0.0
10 -173.4 0.0
12 -173.4 0.0
14 -173.4 0.0
16 -173.4 0.0
18 -173.4 0.0
20 -173.4 0.0
22 -173.4 0.0
24 -173.4 0.0
26 -173.4 0.0
28 -173.4 0.0
30 -173.4 0.0
32 -173.4 0.0
34 -173.4 0.0
36 -173.4 0.0
38 -173.4 0.0
40 -173.4 0.0
42 -173.4 0.0
44 -173.4 0.0
46 -173.4 0.0
48 -173.4 0.0
50 -173.4 0.0
52 -173.4 0.0
54 -173.4 0.0
56 -173.4 0.0
58 -173.4 0.0
60 -173.4 0.0
62 -173.4 0.0
64 -173.4 0.0
66 -173.4 0.0
68 -173.4 0.0
70 -173.4 0.0
72 -173.4 0.0
74 -173.4 0.0
76 -173.4 0.0
78 -173.4 0.0
80 -173.4 0.0
82 -173.4 0.0
84 -173.4 0.0
86 -173.4 0.0
88 -173.4 0.0
90 -173.4 0.0
92 -173.4 0.0
94 -173.4 0.0
96 -173.4 0.0
98 -173.4 0.0
100 -173.4 0.0
102 -173.4 0.0
104 -173.4 0.0
106 -173.4 0.0
108 -173.4 0.0
110 -173.4 0.0
112 -173.4 0.0
114 -173.4 0.0
116 -173.4 0.0
118 -173.4 0.0
120 -173.4 0.0
0 -180.8 0.0
1 -180.8 0.0
2 -180.8 0.0
3 -180.8 0.0
4 -180.8 0.0
5 -180.8 0.0
6 -180.8 0.0
7 -180.8 0.0
8 -180.8 0.0
9 -180.8 0.0
10 -180.8 0.0
11 -180.8 0.0
12 -180.8 0.0
13 -180.8 0.0
14 -180.8 0.0
15 -180.8 0.0
16 -180.8 0.0
17 -180.8 0.0
18 -180.8 0.0
19 -180.8 0.0
20 -180.8 0.0
21 -180.8 0.0
22 -180.8 0.0
23 -180.8 0.0
24 -180.8 0.0
25 -180.8 0.0
26 -180.8 0.0
27 -180.8 0.0
28 -180.8 0.0
29 -180.8 0.0
30 -180.8 0.0
31 -180.8 0.0
32 -180.8 0.0
33 -180.8 0.0
34 -180.8 0.0
35 -180.8 0.0
36 -180.8 0.0
37 -180.8 0.0
38 -180.8 0.0
39 -180.8 0.0
40 -180.8 0.0
41 -180.8 0.0
42 -180.8 0.0
43 -180.8 0.0
44 -180.8 0.0
45 -180.8 0.0
46 -180.8 0.0
47 -180.8 0.0
48 -180.8 0.0
49 -180.8 0.0
50 -180.8 0.0
51 -180.8 0.0
52 -180.8 0.0
53 -180.8 0.0
54 -180.8 0.0
55 -180.8 0.0
56 -180.8 0.0
57 -180.8 0.0
58 -180.8 0.0
59 -180.8 0.0
60 -180.8 0.0
61 -180.8 0.0
62 -180.8 0.0
63 -180.8 0.0
64 -180.8 0.0
65 -180.8 0.0
66 -180.8 0.0
67 -180.8 0.0
68 -180.8 0.0
69 -180.8 0.0
70 -180.8 0.0
71 -180.8 0.0
72 -180.8 0.0
73 -180.8 0.0
74 -180.8 0.0
75 -180.8 0.0
76 -180.8 0.0
77 -180.8 0.0
78 -180.8 0.0
79 -180.8 0.0
80 -180.8 0.0
81 -180.8 0.0
82 -180.8 0.0
83 -180.8 0.0
84 -180.8 0.0
85 -180.8 0.0
86 -180.8 0.0
87 -180.8 0.0
88 -180.8 0.0
89 -180.8 0.0
90 -180.8 0.0
91 -180.8 0.0
92 -180.8 0.0
93 -180.8 0.0
94 -180.8 0.0
95 -180.8 0.0
96 -180.8 0.0
97 -180.8 0.0
98 -180.8 0.0
99 -180.8 0.0
100 -180.8 0.0
101 -180.8 0.0
102 -180.8 0.0
103 -180.8 0.0
104 -180.8 0.0
105 -180.8 0.0
106 -180.8 0.0
107 -180.8 0.0
108 -180.8 0.0
109 -180.8 0.0
110 -180.8 0.0
111 -180.8 0.0
112 -180.8 0.0
113 -180.8 0.0
114 -180.8 0.0
115 -180.8 0.0
116 -180.8 0.0
117 -180.8 0.0
118 -180.8 0.0
119 -180.8 0.0
120 -180.8 0.0
0 -188.2 0.0
2 -188.2 0.0
4 -188.2 0.0
6 -188.2 0.0
8 -188.2 0.0
10 -188.2 0.0
12 -188.2 0.0
14 -188.2 0.0
16 -188.2 0.0
18 -188.2 0.0
20 -188.2 0.0
22 -188.2 0.0
24 -188.2 0.0
26 -188.2 0.0
28 -188.2 0.0
30 -188.2 0.0
32 -188.2 0.0
34 -188.2 0.0
36 -188.2 0.0
38 -188.2 0.0
40 -188.2 0.0
42 -188.2 0.0
44 -188.2 0.0
46 -188.2 0.0
48 -188.2 0.0
50 -188.2 0.0
52 -188.2 0.0
54 -188.2 0.0
56 -188.2 0.0
58 -188.2 0.0
60 -188.2 0.0
62 -188.2 0.0
64 -188.2 0.0
66 -188.2 0.0
68 -188.2 0.0
70 -188.2 0.0
72 -188.2 0.0
74 -188.2 0.0
76 -188.2 0.0
78 -188.2 0.0
80 -188.2 0.0
82 -188.2 0.0
84 -188.2 0.0
86 -188.2 0.0
88 -188.2 0.0
90 -188.2 0.0
92 -188.2 0.0
94 -188.2 0.0
96 -188.2 0.0
98 -188.2 0.0
100 -188.2 0.0
102 -188.2 0.0
104 -188.2 0.0
106 -188.2 0.0
108 -188.2 0.0
110 -188.2 0.0
112 -188.2 0.0
114 -188.2 0.0
116 -188.2 0.0
118 -188.2 0.0
120 -188.2 0.0
0 -195.6 0.0
1 -195.6 0.0
2 -195.6 0.0
3 -195.6 0.0
4 -195.6 0.0
5 -195.6 0.0
6 -195.6 0.0
7 -195.6 0.0
8 -195.6 0.0
9 -195.6 0.0
10 -195.6 0.0
11 -195.6 0.0
12 -195.6 0.0
13 -195.6 0.0
14 -195.6 0.0
15 -195.6 0.0
16 -195.6 0.0
17 -195.6 0.0
18 -195.6 0.0
19 -195.6 0.0
20 -195.6 0.0
21 -195.6 0.0
22 -195.6 0.0
23 -195.6 0.0
24 -195.6 0.0
25 -195.6 0.0
26 -195.6 0.0
27 -195.6 0.0
28 -195.6 0.0
29 -195.6 0.0
30 -195.6 0.0
31 -195.6 0.0
32 -195.6 0.0
33 -195.6 0.0
34 -195.6 0.0
35 -195.6 0.0
36 -195.6 0.0
37 -195.6 0.0
38 -195.6 0.0
39 -195.6 0.0
40 -195.6 0.0
41 -195.6 0.0
42 -195.6 0.0
43 -195.6 0.0
44 -195.6 0.0
45 -195.6 0.0
46 -195.6 0.0
47 -195.6 0.0
48 -195.6 0.0
49 -195.6 0.0
50 -195.6 0.0
51 -195.6 0.0
52 -195.6 0.0
53 -195.6 0.0
54 -195.6 0.0
55 -195.6 0.0
56 -195.6 0.0
57 -195.6 0.0
58 -195.6 0.0
59 -195.6 0.0
60 -195.6 0.0
61 -195.6 0.0
62 -195.6 0.0
63 -195.6 0.0
64 -195.6 0.0
65 -195.6 0.0
66 -195.6 0.0
67 -195.6 0.0
68 -195.6 0.0
69 -195.6 0.0
70 -195.6 0.0
71 -195.6 0.0
72 -195.6 0.0
73 -195.6 0.0
74 -195.6 0.0
75 -195.6 0.0
76 -195.6 0.0
77 -195.6 0.0
78 -195.6 0.0
79 -195.6 0.0
80 -195.6 0.0
81 -195.6 0.0
82 -195.6 0.0
83 -195.6 0.0
84 -195.6 0.0
85 -195.6 0.0
86 -195.6 0.0
87 -195.6 0.0
88 -195.6 0.0
89 -195.6 0.0
90 -195.6 0.0
91 -195.6 0.0
92 -195.6 0.0
93 -195.6 0.0
94 -195.6 0.0
95 -195.6 0.0
96 -195.6 0.0
97 -195.6 0.0
98 -195.6 0.0
99 -195.6 0.0
100 -195.6 0.0
101 -195.6 0.0
102 -195.6 0.0
103 -195.6 0.0
104 -195.6 0.0
105 -195.6 0.0
106 -195.6 0.0
107 -195.6 0.0
108 -195.6 0.0
109 -195.6 0.0
110 -195.6 0.0
111 -195.6 0.0
112 -195.6 0.0
113 -195.6 0.0
114 -195.6 0.0
115 -195.6 0.0
116 -195.6 0.0
117 -195.6 0.0
118 -195.6 0.0
119 -195.6 0.0
120 -195.6 0.0
0 -203 0.0
2 -203 0.0
4 -203 0.0
6 -203 0.0
8 -203 0.0
10 -203 0.0
12 -203 0.0
14 -203 0.0
16 -203 0.0
18 -203 0.0
20 -203 0.0
22 -203 0.0
24 -203 0.0
26 -203 0.0
28 -203 0.0
30 -203 0.0
32 -203 0.0
34 -203 0.0
36 -203 0.0
38 -203 0.0
40 -203 0.0
42 -203 0.0
44 -203 0.0
46 -203 0.0
48 -203 0.0
50 -203 0.0
52 -203 0.0
54 -203 0.0
56 -203 0.0
58 -203 0.0
60 -203 0.0
62 -203 0.0
64 -203 0.0
66 -203 0.0
68 -203 0.0
70 -203 0.0
72 -203 0.0
74 -203 0.0
76 -203 0.0
78 -203 0.0
80 -203 0.0
82 -203 0.0
84 -203 0.0
86 -203 0.0
88 -203 0.0
90 -203 0.0
92 -203 0.0
94 -203 0.0
96 -203 0.0
98 -203 0.0
100 -203 0.0
102 -203 0.0
104 -203 0.0
106 -203 0.0
108 -203 0.0
110 -203 0.0
112 -203 0.0
114 -203 0.0
116 -203 0.0
118 -203 0.0
120 -203 0.0
0 -210.4 0.0
1 -210.4 0.0
2 -210.4 0.0
3 -210.4 0.0
4 -210.4 0.0
5 -210.4 0.0
6 -210.4 0.0
7 -210.4 0.0
8 -210.4 0.0
9 -210.4 0.0
10 -210.4 0.0
11 -210.4 0.0
12 -210.4 0.0
13 -210.4 0.0
14 -210.4 0.0
15 -210.4 0.0
16 -210.4 0.0
17 -210.4 0.0
18 -210.4 0.0
19 -210.4 0.0
20 -210.4 0.0
21 -210.4 0.0
22 -210.4 0.0
23 -210.4 0.0
24 -210.4 0.0
25 -210.4 0.0
26 -210.4 0.0
27 -210.4 0.0
28 -210.4 0.0
29 -210.4 0.0
30 -210.4 0.0
31 -210.4 0.0
32 -210.4 0.0
33 -210.4 0.0
34 -210.4 0.0
35 -210.4 0.0
36 -210.4 0.0
37 -210.4 0.0
38 -210.4 0.0
39 -210.4 0.0
40 -210.4 0.0
41 -210.4 0.0
42 -210.4 0.0
43 -210.4 0.0
44 -210.4 0.0
45 -210.4 0.0
46 -210.4 0.0
47 -210.4 0.0
48 -210.4 0.0
49 -210.4 0.0
50 -210.4 0.0
51 -210.4 0.0
52 -210.4 0.0
53 -210.4 0.0
54 -210.4 0.0
55 -210.4 0.0
56 -210.4 0.0
57 -210.4 0.0
58 -210.4 0.0
59 -210.4 0.0
60 -210.4 0.0
61 -210.4 0.0
62 -210.4 0.0
63 -210.4 0.0
64 -210.4 0.0
65 -210.4 0.0
66 -210.4 0.0
67 -210.4 0.0
68 -210.4 0.0
69 -210.4 0.0
70 -210.4 0.0
71 -210.4 0.0
72 -210.4 0.0
73 -210.4 0.0
74 -210.4 0.0
75 -210.4 0.0
76 -210.4 0.0
77 -210.4 0.0
78 -210.4 0.0
79 -210.4 0.0
80 -210.4 0.0
81 -210.4 0.0
82 -210.4 0.0
83 -210.4 0.0
84 -210.4 0.0
85 -210.4 0.0
86 -210.4 0.0
87 -210.4 0.0
88 -210.4 0.0
89 -210.4 0.0
90 -210.4 0.0
91 -210.4 0.0
92 -210.4 0.0
93 -210.4 0.0
94 -210.4 0.0
95 -210.4 0.0
96 -210.4 0.0
97 -210.4 0.0
98 -210.4 0.0
99 -210.4 0.0
100 -210.4 0.0
101 -210.4 0.0
102 -210.4 0.0
103 -210.4 0.0
104 -210.4 0.0
105 -210.4 0.0
106 -210.4 0.0
107 -210.4 0.0
108 -210.4 0.0
109 -210.4 0.0
110 -210.4 0.0
111 -210.4 0.0
112 -210.4 0.0
113 -210.4 0.0
114 -210.4 0.0
115 -210.4 0.0
116 -210.4 0.0
117 -210.4 0.0
118 -210.4 0.0
119 -210.4 0.0
120 -210.4 0.0
0 -217.8 0.0
2 -217.8 0.0
4 -217.8 0.0
6 -217.8 0.0
8 -217.8 0.0
10 -217.8 0.0
12 -217.8 0.0
14 -217.8 0.0
16 -217.8 0.0
18 -217.8 0.0
20 -217.8 0.0
22 -217.8 0.0
24 -217.8 0.0
26 -217.8 0.0
28 -217.8 0.0
30 -217.8 0.0
32 -217.8 0.0
34 -217.8 0.0
36 -217.8 0.0
38 -217.8 0.0
40 -217.8 0.0
42 -217.8 0.0
44 -217.8 0.0
46 -217.8 0.0
48 -217.8 0.0
50 -217.8 0.0
52 -217.8 0.0
54 -217.8 0.0
56 -217.8 0.0
58 -217.8 0.0
60 -217.8 0.0
62 -217.8 0.0
64 -217.8 0.0
66 -217.8 0.0
68 -217.8 0.0
70 -217.8 0.0
72 -217.8 0.0
74 -217.8 0.0
76 -217.8 0.0
78 -217.8 0.0
80 -217.8 0.0
82 -217.8 0.0
84 -217.8 0.0
86 -217.8 0.0
88 -217.8 0.0
90 -217.8 0.0
92 -217.8 0.0
94 -217.8 0.0
96 -217.8 0.0
98 -217.8 0.0
100 -217.8 0.0
102 -217.8 0.0
104 -217.8 0.0
106 -217.8 0.0
108 -217.8 0.0
110 -217.8 0.0
112 -217.8 0.0
114 -217.8 0.0
116 -217.8 0.0
118 -217.8 0.0
120 -217.8 0.0
0 -225.2 0.0
1 -225.2 0.0
2 -225.2 0.0
3 -225.2 0.0
4 -225.2 0.0
5 -225.2 0.0
6 -225.2 0.0
7 -225.2 0.0
8 -225.2 0.0
9 -225.2 0.0
10 -225.2 0.0
11 -225.2 0.0
12 -225.2 0.0
13 -225.2 0.0
14 -225.2 0.0
15 -225.2 0.0
16 -225.2 0.0
17 -225.2 0.0
18 -225.2 0.0
19 -225.2 0.0
20 -225.2 0.0
21 -225.2 0.0
22 -225.2 0.0
23 -225.2 0.0
24 -225.2 0.0
25 -225.2 0.0
26 -225.2 0.0
27 -225.2 0.0
28 -225.2 0.0
29 -225.2 0.0
30 -225.2 0.0
31 -225.2 0.0
32 -225.2 0.0
33 -225.2 0.0
34 -225.2 0.0
35 -225.2 0.0
36 -225.2 0.0
37 -225.2 0.0
38 -225.2 0.0
39 -225.2 0.0
40 -225.2 0.0
41 -225.2 0.0
42 -225.2 0.0
43 -225.2 0.0
44 -225.2 0.0
45 -225.2 0.0
46 -225.2 0.0
47 -225.2 0.0
48 -225.2 0.0
49 -225.2 0.0
50 -225.2 0.0
51 -225.2 0.0
52 -225.2 0.0
53 -225.2 0.0
54 -225.2 0.0
55 -225.2 0.0
56 -225.2 0.0
57 -225.2 0.0
58 -225.2 0.0
59 -225.2 0.0
60 -225.2 0.0
61 -225.2 0.0
62 -225.2 0.0
63 -225.2 0.0
64 -225.2 0.0
65 -225.2 0.0
66 -225.2 0.0
67 -225.2 0.0
68 -225.2 0.0
69 -225.2 0.0
70 -225.2 0.0
71 -225.2 0.0
72 -225.2 0.0
73 -225.2 0.0
74 -225.2 0.0
75 -225.2 0.0
76 -225.2 0.0
77 -225.2 0.0
78 -225.2 0.0
79 -225.2 0.0
80 -225.2 0.0
81 -225.2 0.0
82 -225.2 0.0
83 -225.2 0.0
84 -225.2 0.0
85 -225.2 0.0
86 -225.2 0.0
87 -225.2 0.0
88 -225.2 0.0
89 -225.2 0.0
90 -225.2 0.0
91 -225.2 0.0
92 -225.2 0.0
93 -225.2 0.0
94 -225.2 0.0
95 -225.2 0.0
96 -225.2 0.0
97 -225.2 0.0
98 -225.2 0.0
99 -225.2 0.0
100 -225.2 0.0
101 -225.2 0.0
102 -225.2 0.0
103 -225.2 0.0
104 -225.2 0.0
105 -225.2 0.0
106 -225.2 0.0
107 -225.2 0.0
108 -225.2 0.0
109 -225.2 0.0
110 -225.2 0.0
111 -225.2 0.0
112 -225.2 0.0
113 -225.2 0.0
114 -225.2 0.0
115 -225.2 0.0
116 -225.2 0.0
117 -225.2 0.0
118 -225.2 0.0
119 -225.2 0.0
120 -225.2 0.0
0 -232.6 0.0
2 -232.6 0.0
4 -232.6 0.0
6 -232.6 0.0
8 -232.6 0.0
10 -232.6 0.0
12 -232.6 0.0
14 -232.6 0.0
16 -232.6 0.0
18 -232.6 0.0
20 -232.6 0.0
22 -232.6 0.0
24 -232.6 0.0
26 -232.6 0.0
28 -232.6 0.0
30 -232.6 0.0
32 -232.6 0.0
34 -232.6 0.0
36 -232.6 0.0
38 -232.6 0.0
40 -232.6 0.0
42 -232.6 0.0
44 -232.6 0.0
46 -232.6 0.0
48 -232.6 0.0
50 -232.6 0.0
52 -232.6 0.0
54 -232.6 0.0
56 -232.6 0.0
58 -232.6 0.0
60 -232.6 0.0
62 -232.6 0.0
64 -232.6 0.0
66 -232.6 0.0
68 -232.6 0.0
70 -232.6 0.0
72 -232.6 0.0
74 -232.6 0.0
76 -232.6 0.0
78 -232.6 0.0
80 -232.6 0.0
82 -232.6 0.0
84 -232.6 0.0
86 -232.6 0.0
88 -232.6 0.0
90 -232.6 0.0
92 -232.6 0.0
94 -232.6 0.0
96 -232.6 0.0
98 -232.6 0.0
100 -232.6 0.0
102 -232.6 0.0
104 -232.6 0.0
106 -232.6 0.0
108 -232.6 0.0
110 -232.6 0.0
112 -232.6 0.0
114 -232.6 0.0
116 -232.6 0.0
118 -232.6 0.0
120 -232.6 0.0
0 -240 0.0
1 -240 0.0
2 -240 0.0
3 -240 0.0
4 -240 0.0
5 -240 0.0
6 -240 0.0
7 -240 0.0
8 -240 0.0
9 -240 0.0
10 -240 0.0
11 -240 0.0
12 -240 0.0
13 -240 0.0
14 -240 0.0
15 -240 0.0
16 -240 0.0
17 -240 0.0
18 -240 0.0
19 -240 0.0
20 -240 0.0
21 -240 0.0
22 -240 0.0
23 -240 0.0
24 -240 0.0
25 -240 0.0
26 -240 0.0
27 -240 0.0
28 -240 0.0
29 -240 0.0
30 -240 0.0
31 -240 0.0
32 -240 0.0
33 -240 0.0
34 -240 0.0
35 -240 0.0
36 -240 0.0
37 -240 0.0
38 -240 0.0
39 -240 0.0
40 -240 0.0
41 -240 0.0
42 -240 0.0
43 -240 0.0
44 -240 0.0
45 -240 0.0
46 -240 0.0
47 -240 0.0
48 -240 0.0
49 -240 0.0
50 -240 0.0
51 -240 0.0
52 -240 0.0
53 -240 0.0
54 -240 0.0
55 -240 0.0
56 -240 0.0
57 -240 0.0
58 -240 0.0
59 -240 0.0
60 -240 0.0
61 -240 0.0
62 -240 0.0
63 -240 0.0
64 -240 0.0
65 -240 0.0
66 -240 0.0
67 -240 0.0
68 -240 0.0
69 -240 0.0
70 -240 0.0
71 -240 0.0
72 -240 0.0
73 -240 0.0
74 -240 0.0
75 -240 0.0
76 -240 0.0
77 -240 0.0
78 -240 0.0
79 -240 0.0
80 -240 0.0
81 -240 0.0
82 -240 0.0
83 -240 0.0
84 -240 0.0
85 -240 0.0
86 -240 0.0
87 -240 0.0
88 -240 0.0
89 -240 0.0
90 -240 0.0
91 -240 0.0
92 -240 0.0
93 -240 0.0
94 -240 0.0
95 -240 0.0
96 -240 0.0
97 -240 0.0
98 -240 0.0
99 -240 0.0
100 -240 0.0
101 -240 0.0
102 -240 0.0
103 -240 0.0
104 -240 0.0
105 -240 0.0
106 -240 0.0
107 -240 0.0
108 -240 0.0
109 -240 0.0
110 -240 0.0
111 -240 0.0
112 -240 0.0
113 -240 0.0
114 -240 0.0
115 -240 0.0
116 -240 0.0
117 -240 0.0
118 -240 0.0
119 -240 0.0
120 -240 0.0

CELLS 5520 49680
8 182 184   2   0 183 122   1 121
8 184 186   4   2 185 123   3 122
8 186 188   6   4 187 124   5 123
8 188 190   8   6 189 125   7 124
8 190 192  10   8 191 126   9 125
8 192 194  12  10 193 127  11 126
8 194 196  14  12 195 128  13 127
8 196 198  16  14 197 129  15 128
8 198 200  18  16 199 130  17 129
8 200 202  20  18 201 131  19 130
8 202 204  22  20 203 132  21 131
8 204 206  24  22 205 133  23 132
8 206 208  26  24 207 134  25 133
8 208 210  28  26 209 135  27 134
8 210 212  30  28 211 136  29 135
8 212 214  32  30 213 137  31 136
8 214 216  34  32 215 138  33 137
8 216 218  36  34 217 139  35 138
8 218 220  38  36 219 140  37 139
8 220 222  40  38 221 141  39 140
8 222 224  42  40 223 142  41 141
8 224 226  44  42 225 143  43 142
8 226 228  46  44 227 144  45 143
8 228 230  48  46 229 145  47 144
8 230 232  50  48 231 146  49 145
8 232 234  52  50 233 147  51 146
8 234 236  54  52 235 148  53 147
8 236 238  56  54 237 149  55 148
8 238 240  58  56 239 150  57 149
8 240 242  60  58 241 151  59 150
8 242 244  62  60 243 152  61 151
8 244 246  64  62 245 153  63 152
8 246 248  66  64 247 154  65 153
8 248 250  68  66 249 155  67 154
8 250 252  70  68 251 156  69 155
8 252 254  72  70 253 157  71 156
8 254 256  74  72 255 158  73 157
8 256 258  76  74 257 159  75 158
8 258 260  78  76 259 160  77 159
8 260 262  80  78 261 161  79 160
8 262 264  82  80 263 162  81 161
8 264 266  84  82 265 163  83 162
8 266 268  86  84 267 164  85 163
8 268 270  88  86 269 165  87 164
8 270 272  90  88 271 166  89 165
8 272 274  92  90 273 167  91 166
8 274 276  94  92 275 168  93 167
8 276 278  96  94 277 169  95 168
8 278 280  98  96 279 170  97 169
8 280 282 100  98 281 171  99 170
8 282 284 102 100 283 172 101 171
8 284 286 104 102 285 173 103 172
8 286 288 106 104 287 174 105 173
8 288 290 108 106 289 175 107 174
8 290 292 110 108 291 176 109 175
8 292 294 112 110 293 177 111 176
8 294 296 114 112 295 178 113 177
8 296 298 116 114 297 179 115 178
8 298 300 118 116 299 180 117 179
8 300 302 120 118 301 181 119 180
8 364 366 184 182 365 304 183 303
8 366 368 186 184 367 305 185 304
8 368 370 188 186 369 306 187 305
8 370 372 190 188 371 307 189 306
8 372 374 192 190 373 308 191 307
8 374 376 194 192 375 309 193 308
8 376 378 196 194 377 310 195 309
8 378 380 198 196 379 311 197 310
8 380 382 200 198 381 312 199 311
8 382 384 202 200 383 313 201 312
8 384 386 204 202 385 314 203 313
8 386 388 206 204 387 315 205 314
8 388 390 208 206 389 316 207 315
8 390 392 210 208 391 317 209 316
8 392 394 212 210 393 318 211 317
8 394 396 214 212 395 319 213 318
8 396 398 216 214 397 320 215 319
8 398 400 218 216 399 321 217 320
8 400 402 220 218 401 322 219 321
8 402 404 222 220 403 323 221 322
8 404 406 224 222 405 324 223 323
8 406 408 226 224 407 325 225 324
8 408 410 228 226 409 326 227 325
8 410 412 230 228 411 327 229 326
8 412 414 232 230 413 328 231 327
8 414 416 234 232 415 329 233 328
8 416 418 236 234 417 330 235 329
8 418 420 238 236 419 331 237 330
8 420 422 240 238 421 332 239 331
8 422 424 242 240 423 333 241 332
8 424 426 244 242 425 334 243 333
8 426 428 246 244 427 335 245 334
8 428 430 248 246 429 336 247 335
8 430 432 250 248 431 337 249 336
8 432 434 252 250 433 338 251 337
8 434 436 254 252 435 339 253 338
8 436 438 256 254 437 340 255 339
8 438 440 258 256 439 341 257 340
8 440 442 260 258 441 342 259 341
8 442 444 262 260 443 343 261 342
8 444 446 264 262 445 344 263 343
8 446 448 266 264 447 345 265 344
8 448 450 268 266 449 346 267 345
8 450 452 270 268 451 347 269 346
8 452 454 272 270 453 348 271 347
8 454 456 274 272 455 349 273 348
8 456 458 276 274 457 350 275 349
8 458 460 278 276 459 351 277 350
8 460 462 280 278 461 352 279 351
8 462 464 282 280 463 353 281 352
8 464 466 284 282 465 354 283 353
8 466 468 286 284 467 355 285 354
8 468 470 288 286 469 356 287 355
8 470 472 290 288 471 357 289 356
8 472 474 292 290 473 358 291 357
8 474 476 294 292 475 359 293 358
8 476 478 296 294 477 360 295 359
8 478 480 298 296 479 361 297 360
8 480 482 300 298 481 362 299 361
8 482 484 302 300 483 363 301 362
8 546 548 366 364 547 486 365 485
8 548 550 368 366 549 487 367 486
8 550 552 370 368 551 488 369 487
8 552 554 372 370 553 489 371 488
8 554 556 374 372 555 490 373 489
8 556 558 376 374 557 491 375 490
8 558 560 378 376 559 492 377 491
8 560 562 380 378 561 493 379 492
8 562 564 382 380 563 494 381 493
8 564 566 384 382 565 495 383 494
8 566 568 386 384 567 496 385 495
8 568 570 388 386 569 497 387 496
8 570 572 390 388 571 498 389 497
8 572 574 392 390 573 499 391 498
8 574 576 394 392 575 500 393 499
8 576 578 396 394 577 501 395 500
8 578 580 398 396 579 502 397 501
8 580 582 400 398 581 503 399 502
8 582 584 402 400 583 504 401 503
8 584 586 404 402 585 505 403 504
8 586 588 406 404 587 506 405 505
8 588 590 408 406 589 507 407 506
8 590 592 410 408 591 508 409 507
8 592 594 412 410 593 509 411 508
8 594 596 414 412 595 510 413 509
8 596 598 416 414 597 511 415 510
8 598 600 418 416 599 512 417 511
8 600 602 420 418 601 513 419 512
8 602 604 422 420 603 514 421 513
8 604 606 424 422 605 515 423 514
8 606 608 426 424 607 516 425 515
8 608 610 428 426 609 517 427 516
8 610 612 430 428 611 518 429 517
8 612 614 432 430 613 519 431 518
8 614 616 434 432 615 520 433 519
8 616 618 436 434 617 521 435 520
8 618 620 438 436 619 522 437 521
8 620 622 440 438 621 523 439 522
8 622 624 442 440 623 524 441 523
8 624 626 444 442 625 525 443 524
8 626 628 446 444 627 526 445 525
8 628 630 448 446 629 527 447 526
8 630 632 450 448 631 528 449 527
8 632 634 452 450 633 529 451 528
8 634 636 454 452 635 530 453 529
8 636 638 456 454 637 531 455 530
8 638 640 458 456 639 532 457 531
8 640 642 460 458 641 533 459 532
8 642 644 462 460 643 534 461 533
8 644 646 464 462 645 535 463 534
8 646 648 466 464 647 536 465 535
8 648 650 468 466 649 537 467 536
8 650 652 470 468 651 538 469 537
8 652 654 472 470 653 539 471 538
8 654 656 474 472 655 540 473 539
8 656 658 476 474 657 541 475 540
8 658 660 478 476 659 542 477 541
8 660 662 480 478 661 543 479 542
8 662 664 482 480 663 544 481 543
8 664 666 484 482 665 545 483 544
8 728 730 548 546 729 668 547 667
8 730 732 550 548 731 669 549 668
8 732 734 552 550 733 670 551 669
8 734 736 554 552 735 671 553 670
8 736 738 556 554 737 672 555 671
8 738 740 558 556 739 673 557 672
8 740 742 560 558 741 674 559 673
8 742 744 562 560 743 675 561 674
8 744 746 564 562 745 676 563 675
8 746 748 566 564 747 677 565 676
8 748 750 568 566 749 678 567 677
8 750 752 570 568 751 679 569 678
8 752 754 572 570 753 680 571 679
8 754 756 574 572 755 681 573 680
8 756 758 576 574 757 682 575 681
8 758 760 578 576 759 683 577 682
8 760 762 580 578 761 684 579 683
8 762 764 582 580 763 685 581 684
8 764 766 584 582 765 686 583 685
8 766 768 586 584 767 687 585 686
8 768 770 588 586 769 688 587 687
8 770 772 590 588 771 689 589 688
8 772 774 592 590 773 690 591 689
8 774 776 594 592 775 691 593 690
8 776 778 596 594 777 692 595 691
8 778 780 598 596 779 693 597 692
8 780 782 600 598 781 694 599 693
8 782 784 602 600 783 695 601 694
8 784 786 604 602 785 696 603 695
8 786 788 606 604 787 697 605 696
8 788 790 608 606 789 698 607 697
8 790 792 610 608 791 699 609 698
8 792 794 612 610 793 700 611 699
8 794 796 614 612 795 701 613 700
8 796 798 616 614 797 702 615 701
8 798 800 618 616 799 703 617 702
8 800 802 620 618 801 704 619 703
8 802 804 622 620 803 705 621 704
8 804 806 624 622 805 706 623 705
8 806 808 626 624 807 707 625 706
8 808 810 628 626 809 708 627 707
8 810 812 630 628 811 709 629 708
8 812 814 632 630 813 710 631 709
8 814 816 634 632 815 711 633 710
8 816 818 636 634 817 712 635 711
8 818 820 638 636 819 713 637 712
8 820 822 640 638 821 714 639 713
8 822 824 642 640 823 715 641 714
8 824 826 644 642 825 716 643 715
8 826 828 646 644 827 717 645 716
8 828 830 648 646 829 718 647 717
8 830 832 650 648 831 719 649 718
8 832 834 652 650 833 720 651 719
8 834 836 654 652 835 721 653 720
8 836 838 656 654 837 722 655 721
8 838 840 658 656 839 723 657 722
8 840 842 660 658 841 724 659 723
8 842 844 662 660 843 725 661 724
8 844 846 664 662 845 726 663 725
8 846 848 666 664 847 727 665 726
8 910 912 730 728 911 850 729 849
8 912 914 732 730 913 851 731 850
8 914 916 734 732 915 852 733 851
8 916 918 736 734 917 853 735 852
8 918 920 738 736 919 854 737 853
8 920 922 740 738 921 855 739 854
8 922 924 742 740 923 856 741 855
8 924 926 744 742 925 857 743 856
8 926 928 746 744 927 858 745 857
8 928 930 748 746 929 859 747 858
8 930 932 750 748 931 860 749 859
8 932 934 752 750 933 861 751 860
8 934 936 754 752 935 862 753 861
8 936 938 756 754 937 863 755 862
8 938 940 758 756 939 864 757 863
8 940 942 760 758 941 865 759 864
8 942 944 762 760 943 866 761 865
8 944 946 764 762 945 867 763 866
8 946 948 766 764 947 868 765 867
8 948 950 768 766 949 869 767 868
8 950 952 770 768 951 870 769 869
8 952 954 772 770 953 871 771 870
8 954 956 774 772 955 872 773 871
8 956 958 776 774 957 873 775 872
8 958 960 778 776 959 874 777 873
8 960 962 780 778 961 875 779 874
8 962 964 782 780 963 876 781 875
8 964 966 784 782 965 877 783 876
8 966 968 786 784 967 878 785 877
8 968 970 788 786 969 879 787 878
8 970 972 790 788 971 880 789 879
8 972 974 792 790 973 881 791 880
8 974 976 794 792 975 882 793 881
8 976 978 796 794 977 883 795 882
8 978 980 798 796 979 884 797 883
8 980 982 800 798 981 885 799 884
8 982 984 802 800 983 886 801 885
8 984 986 804 802 985 887 803 886
8 986 988 806 804 987 888 805 887
8 988 990 808 806 989 889 807 888
8 990 992 810 808 991 890 809 889
8 992 994 812 810 993 891 811 890
8 994 996 814 812 995 892 813 891
8 996 998 816 814 997 893 815 892
8  998 1000  818  816  999  894  817  893
8 1000 1002  820  818 1001  895  819  894
8 1002 1004  822  820 1003  896  821  895
8 1004 1006  824  822 1005  897  823  896
8 1006 1008  826  824 1007  898  825  897
8 1008 1010  828  826 1009  899  827  898
8 1010 1012  830  828 1011  900  829  899
8 1012 1014  832  830 1013  901  831  900
8 1014 1016  834  832 1015  902  833  901
8 1016 1018  836  834 1017  903  835  902
8 1018 1020  838  836 1019  904  837  903
8 1020 1022  840  838 1021  905  839  904
8 1022 1024  842  840 1023  906  841  905
8 1024 1026  844  842 1025  907  843  906
8 1026 1028  846  844 1027  908  845  907
8 1028 1030  848  846 1029  909  847  908
8 1092 1094  912  910 1093 1032  911 1031
8 1094 1096  914  912 1095 1033  913 1032
8 1096 1098  916  914 1097 1034  915 1033
8 1098 1100  918  916 1099 1035  917 1034
8 1100 1102  920  918 1101 1036  919 1035
8 1102 1104  922  920 1103 1037  921 1036
8 1104 1106  924  922 1105 1038  923 1037
8 1106 1108  926  924 1107 1039  925 1038
8 1108 1110  928  926 1109 1040  927 1039
8 1110 1112  930  928 1111 1041  929 1040
8 1112 1114  932  930 1113 1042  931 1041
8 1114 1116  934  932 1115 1043  933 1042
8 1116 1118  936  934 1117 1044  935 1043
8 1118 1120  938  936 1119 1045  937 1044
8 1120 1122  940  938 1121 1046  939 1045
8 1122 1124  942  940 1123 1047  941 1046
8 1124 1126  944  942 1125 1048  943 1047
8 1126 1128  946  944 1127 1049  945 1048
8 1128 1130  948  946 1129 1050  947 1049
8 1130 1132  950  948 1131 1051  949 1050
8 1132 1134  952  950 1133 1052  951 1051
8 1134 1136  954  952 1135 1053  953 1052
8 1136 1138  956  954 1137 1054  955 1053
8 1138 1140  958  956 1139 1055  957 1054
8 1140 1142  960  958 1141 1056  959 1055
8 1142 1144  962  960 1143 1057  961 1056
8 1144 1146  964  962 1145 1058  963 1057
8 1146 1148  966  964 1147 1059  965 1058
8 1148 1150  968  966 1149 1060  967 1059
8 1150 1152  970  968 1151 1061  969 1060
8 1152 1154  972  970 1153 1062  971 1061
8 1154 1156  974  972 1155 1063  973 1062
8 1156 1158  976  974 1157 1064  975 1063
8 1158 1160  978  976 1159 1065  977 1064
8 1160 1162  980  978 1161 1066  979 1065
8 1162 1164  982  980 1163 1067  981 1066
8 1164 1166  984  982 1165 1068  983 1067
8 1166 1168  986  984 1167 1069  985 1068
8 1168 1170  988  986 1169 1070  987 1069
8 1170 1172  990  988 1171 1071  989 1070
8 1172 1174  992  990 1173 1072  991 1071
8 1174 1176  994  992 1175 1073  993 1072
8 1176 1178  996  994 1177 1074  995 1073
8 1178 1180  998  996 1179 1075  997 1074
8 1180 1182 1000  998 1181 1076  999 1075
8 1182 1184 1002 1000 1183 1077 1001 1076
8 1184 1186 1004 1002 1185 1078 1003 1077
8 1186 1188 1006 1004 1187 1079 1005 1078
8 1188 1190 1008 1006 1189 1080 1007 1079
8 1190 1192 1010 1008 1191 1081 1009 1080
8 1192 1194 1012 1010 1193 1082 1011 1081
8 1194 1196 1014 1012 1195 1083 1013 1082
8 1196 1198 1016 1014 1197 1084 1015 1083
8 1198 1200 1018 1016 1199 1085 1017 1084
8 1200 1202 1020 1018 1201 1086 1019 1085
8 1202 1204 1022 1020 1203 1087 1021 1086
8 1204 1206 1024 1022 1205 1088 1023 1087
8 1206 1208 1026 1024 1207 1089 1025 1088
8 1208 1210 1028 1026 1209 1090 1027 1089
8 1210 1212 1030 1028 1211 1091 1029 1090
8 1274 1276 1094 1092 1275 1214 1093 1213
8 1276 1278 1096 1094 1277 1215 1095 1214
8 1278 1280 1098 1096 1279 1216 1097 1215
8 1280 1282 1100 1098 1281 1217 1099 1216
8 1282 1284 1102 1100 1283 1218 1101 1217
8 1284 1286 1104 1102 1285 1219 1103 1218
8 1286 1288 1106 1104 1287 1220 1105 1219
8 1288 1290 1108 1106 1289 1221 1107 1220
8 1290 1292 1110 1108 1291 1222 1109 1221
8 1292 1294 1112 1110 1293 1223 1111 1222
8 1294 1296 1114 1112 1295 1224 1113 1223
8 1296 1298 1116 1114 1297 1225 1115 1224
8 1298 1300 1118 1116 1299 1226 1117 1225
8 1300 1302 1120 1118 1301 1227 1119 1226
8 1302 1304 1122 1120 1303 1228 1121 1227
8 1304 1306 1124 1122 1305 1229 1123 1228
8 1306 1308 1126 1124 1307 1230 1125 1229
8 1308 1310 1128 1126 1309 1231 1127 1230
8 1310 1312 1130 1128 1311 1232 1129 1231
8 1312 1314 1132 1130 1313 1233 1131 1232
8 1314 1316 1134 1132 1315 1234 1133 1233
8 1316 1318 1136 1134 1317 1235 1135 1234
8 1318 1320 1138 1136 1319 1236 1137 1235
8 1320 1322 1140 1138 1321 1237 1139 1236
8 1322 1324 1142 1140 1323 1238 1141 1237
8 1324 1326 1144 1142 1325 1239 1143 1238
8 1326 1328 1146 1144 1327 1240 1145 1239
8 1328 1330 1148 1146 1329 1241 1147 1240
8 1330 1332 1150 1148 1331 1242 1149 1241
8 1332 1334 1152 1150 1333 1243 1151 1242
8 1334 1336 1154 1152 1335 1244 1153 1243
8 1336 1338 1156 1154 1337 1245 1155 1244
8 1338 1340 1158 1156 1339 1246 1157 1245
8 1340 1342 1160 1158 1341 1247 1159 1246
8 1342 1344 1162 1160 1343 1248 1161 1247
8 1344 1346 1164 1162 1345 1249 1163 1248
8 1346 1348 1166 1164 1347 1250 1165 1249
8 1348 1350 1168 1166 1349 1251 1167 1250
8 1350 1352 1170 1168 1351 1252 1169 1251
8 1352 1354 1172 1170 1353 1253 1171 1252
8 1354 1356 1174 1172 1355 1254 1173 1253
8 1356 1358 1176 1174 1357 1255 1175 1254
8 1358 1360 1178 1176 1359 1256 1177 1255
8 1360 1362 1180 1178 1361 1257 1179 1256
8 1362 1364 1182 1180 1363 1258 1181 1257
8 1364 1366 1184 1182 1365 1259 1183 1258
8 1366 1368 1186 1184 1367 1260 1185 1259
8 1368 1370 1188 1186 1369 1261 1187 1260
8 1370 1372 1190 1188 1371 1262 1189 1261
8 1372 1374 1192 1190 1373 1263 1191 1262
8 1374 1376 1194 1192 1375 1264 1193 1263
8 1376 1378 1196 1194 1377 1265 1195 1264
8 1378 1380 1198 1196 1379 1266 1197 1265
8 1380 1382 1200 1198 1381 1267 1199 1266
8 1382 1384 1202 1200 1383 1268 1201 1267
8 1384 1386 1204 1202 1385 1269 1203 1268
8 1386 1388 1206 1204 1387 1270 1205 1269
8 1388 1390 1208 1206 1389 1271 1207 1270
8 1390 1392 1210 1208 1391 1272 1209 1271
8 1392 1394 1212 1210 1393 1273 1211 1272
8 1456 1458 1276 1274 1457 1396 1275 1395
8 1458 1460 1278 1276 1459 1397 1277 1396
8 1460 1462 1280 1278 1461 1398 1279 1397
8 1462 1464 1282 1280 1463 1399 1281 1398
8 1464 1466 1284 1282 1465 1400 1283 1399
8 1466 1468 1286 1284 1467 1401 1285 1400
8 1468 1470 1288 1286 1469 1402 1287 1401
8 1470 1472 1290 1288 1471 1403 1289 1402
8 1472 1474 1292 1290 1473 1404 1291 1403
8 1474 1476 1294 1292 1475 1405 1293 1404
8 1476 1478 1296 1294 1477 1406 1295 1405
8 1478 1480 1298 1296 1479 1407 1297 1406
8 1480 1482 1300 1298 1481 1408 1299 1407
8 1482 1484 1302 1300 1483 1409 1301 1408
8 1484 1486 1304 1302 1485 1410 1303 1409
8 1486 1488 1306 1304 1487 1411 1305 1410
8 1488 1490 1308 1306 1489 1412 1307 1411
8 1490 1492 1310 1308 1491 1413 1309 1412
8 1492 1494 1312 1310 1493 1414 1311 1413
8 1494 1496 1314 1312 1495 1415 1313 1414
8 1496 1498 1316 1314 1497 1416 1315 1415
8 1498 1500 1318 1316 1499 1417 1317 1416
8 1500 1502 1320 1318 1501 1418 1319 1417
8 1502 1504 1322 1320 1503 1419 1321 1418
8 1504 1506 1324 1322 1505 1420 1323 1419
8 1506 1508 1326 1324 1507 1421 1325 1420
8 1508 1510 1328 1326 1509 1422 1327 1421
8 1510 1512 1330 1328 1511 1423 1329 1422
8 1512 1514 1332 1330 1513 1424 1331 1423
8 1514 1516 1334 1332 1515 1425 1333 1424
8 1516 1518 1336 1334 1517 1426 1335 1425
8 1518 1520 1338 1336 1519 1427 1337 1426
8 1520 1522 1340 1338 1521 1428 1339 1427
8 1522 1524 1342 1340 1523 1429 1341 1428
8 1524 1526 1344 1342 1525 1430 1343 1429
8 1526 1528 1346 1344 1527 1431 1345 1430
8 1528 1530 1348 1346 1529 1432 1347 1431
8 1530 1532 1350 1348 1531 1433 1349 1432
8 1532 1534 1352 1350 1533 1434 1351 1433
8 1534 1536 1354 1352 1535 1435 1353 1434
8 1536 1538 1356 1354 1537 1436 1355 1435
8 1538 1540 1358 1356 1539 1437 1357 1436
8 1540 1542 1360 1358 1541 1438 1359 1437
8 1542 1544 1362 1360 1543 1439 1361 1438
8 1544 1546 1364 1362 1545 1440 1363 1439
8 1546 1548 1366 1364 1547 1441 1365 1440
8 1548 1550 1368 1366 1549 1442 1367 1441
8 1550 1552 1370 1368 1551 1443 1369 1442
8 1552 1554 1372 1370 1553 1444 1371 1443
8 1554 1556 1374 1372 1555 1445 1373 1444
8 1556 1558 1376 1374 1557 1446 1375 1445
8 1558 1560 1378 1376 1559 1447 1377 1446
8 1560 1562 1380 1378 1561 1448 1379 1447
8 1562 1564 1382 1380 1563 1449 1381 1448
8 1564 1566 1384 1382 1565 1450 1383 1449
8 1566 1568 1386 1384 1567 1451 1385 1450
8 1568 1570 1388 1386 1569 1452 1387 1451
8 1570 1572 1390 1388 1571 1453 1389 1452
8 1572 1574 1392 1390 1573 1454 1391 1453
8 1574 1576 1394 1392 1575 1455 1393 1454
8 1638 1640 1458 1456 1639 1578 1457 1577
8 1640 1642 1460 1458 1641 1579 1459 1578
8 1642 1644 1462 1460 1643 1580 1461 1579
8 1644 1646 1464 1462 1645 1581 1463 1580
8 1646 1648 1466 1464 1647 1582 1465 1581
8 1648 1650 1468 1466 1649 1583 1467 1582
8 1650 1652 1470 1468 1651 1584 1469 1583
8 1652 1654 1472 1470 1653 1585 1471 1584
8 1654 1656 1474 1472 1655 1586 1473 1585
8 1656 1658 1476 1474 1657 1587 1475 1586
8 1658 1660 1478 1476 1659 1588 1477 1587
8 1660 1662 1480 1478 1661 1589 1479 1588
8 1662 1664 1482 1480 1663 1590 1481 1589
8 1664 1666 1484 1482 1665 1591 1483 1590
8 1666 1668 1486 1484 1667 1592 1485 1591
8 1668 1670 1488 1486 1669 1593 1487 1592
8 1670 1672 1490 1488 1671 1594 1489 1593
8 1672 1674 1492 1490 1673 1595 1491 1594
8 1674 1676 1494 1492 1675 1596 1493 1595
8 1676 1678 1496 1494 1677 1597 1495 1596
8 1678 1680 1498 1496 1679 1598 1497 1597
8 1680 1682 1500 1498 1681 1599 1499 1598
8 1682 1684 1502 1500 1683 1600 1501 1599
8 1684 1686 1504 1502 1685 1601 1503 1600
8 1686 1688 1506 1504 1687 1602 1505 1601
8 1688 1690 1508 1506 1689 1603 1507 1602
8 1690 1692 1510 1508 1691 1604 1509 1603
8 1692 1694 1512 1510 1693 1605 1511 1604
8 1694 1696 1514 1512 1695 1606 1513 1605
8 1696 1698 1516 1514 1697 1607 1515 1606
8 1698 1700 1518 1516 1699 1608 1517 1607
8 1700 1702 1520 1518 1701 1609 1519 1608
8 1702 1704 1522 1520 1703 1610 1521 1609
8 1704 1706 1524 1522 1705 1611 1523 1610
8 1706 1708 1526 1524 1707 1612 1525 1611
8 1708 1710 1528 1526 1709 1613 1527 1612
8 1710 1712 1530 1528 1711 1614 1529 1613
8 1712 1714 1532 1530 1713 1615 1531 1614
8 1714 1716 1534 1532 1715 1616 1533 1615
8 1716 1718 1536 1534 1717 1617 1535 1616
8 1718 1720 1538 1536 1719 1618 1537 1617
8 1720 1722 1540 1538 1721 1619 1539 1618
8 1722 1724 1542 1540 1723 1620 1541 1619
8 1724 1726 1544 1542 1725 1621 1543 1620
8 1726 1728 1546 1544 1727 1622 1545 1621
8 1728 1730 1548 1546 1729 1623 1547 1622
8 1730 1732 1550 1548 1731 1624 1549 1623
8 1732 1734 1552 1550 1733 1625 1551 1624
8 1734 1736 1554 1552 1735 1626 1553 1625
8 1736 1738 1556 1554 1737 1627 1555 1626
8 1738 1740 1558 1556 1739 1628 1557 1627
8 1740 1742 1560 1558 1741 1629 1559 1628
8 1742 1744 1562 1560 1743 1630 1561 1629
8 1744 1746 1564 1562 1745 1631 1563 1630
8 1746 1748 1566 1564 1747 1632 1565 1631
8 1748 1750 1568 1566 1749 1633 1567 1632
8 1750 1752 1570 1568 1751 1634 1569 1633
8 1752 1754 1572 1570 1753 1635 1571 1634
8 1754 1756 1574 1572 1755 1636 1573 1635
8 1756 1758 1576 1574 1757 1637 1575 1636
8 1820 1822 1640 1638 1821 1760 1639 1759
8 1822 1824 1642 1640 1823 1761 1641 1760
8 1824 1826 1644 1642 1825 1762 1643 1761
8 1826 1828 1646 1644 1827 1763 1645 1762
8 1828 1830 1648 1646 1829 1764 1647 1763
8 1830 1832 1650 1648 1831 1765 1649 1764
8 1832 1834 1652 1650 1833 1766 1651 1765
8 1834 1836 1654 1652 1835 1767 1653 1766
8 1836 1838 1656 1654 1837 1768 1655 1767
8 1838 1840 1658 1656 1839 1769 1657 1768
8 1840 1842 1660 1658 1841 1770 1659 1769
8 1842 1844 1662 1660 1843 1771 1661 1770
8 1844 1846 1664 1662 1845 1772 1663 1771
8 1846 1848 1666 1664 1847 1773 1665 1772
8 1848 1850 1668 1666 1849 1774 1667 1773
8 1850 1852 1670 1668 1851 1775 1669 1774
8 1852 1854 1672 1670 1853 1776 1671 1775
8 1854 1856 1674 1672 1855 1777 1673 1776
8 1856 1858 1676 1674 1857 1778 1675 1777
8 1858 1860 1678 1676 1859 1779 1677 1778
8 1860 1862 1680 1678 1861 1780 1679 1779
8 1862 1864 1682 1680 1863 1781 1681 1780
8 1864 1866 1684 1682 1865 1782 1683 1781
8 1866 1868 1686 1684 1867 1783 1685 1782
8 1868 1870 1688 1686 1869 1784 1687 1783
8 1870 1872 1690 1688 1871 1785 1689 1784
8 1872 1874 1692 1690 1873 1786 1691 1785
8 1874 1876 1694 1692 1875 1787 1693 1786
8 1876 1878 1696 1694 1877 1788 1695 1787
8 1878 1880 1698 1696 1879 1789 1697 1788
8 1880 1882 1700 1698 1881 1790 1699 1789
8 1882 1884 1702 1700 1883 1791 1701 1790
8 1884 1886 1704 1702 1885 1792 1703 1791
8 1886 1888 1706 1704 1887 1793 1705 1792
8 1888 1890 1708 1706 1889 1794 1707 1793
8 1890 1892 1710 1708 1891 1795 1709 1794
8 1892 1894 1712 1710 1893 1796 1711 1795
8 1894 1896 1714 1712 1895 1797 1713 1796
8 1896 1898 1716 1714 1897 1798 1715 1797
8 1898 1900 1718 1716 1899 1799 1717 1798
8 1900 1902 1720 1718 1901 1800 1719 1799
8 1902 1904 1722 1720 1903 1801 1721 1800
8 1904 1906 1724 1722 1905 1802 1723 1801
8 1906 1908 1726 1724 1907 1803 1725 1802
8 1908 1910 1728 1726 1909 1804 1727 1803
8 1910 1912 1730 1728 1911 1805 1729 1804
8 1912 1914 1732 1730 1913 1806 1731 1805
8 1914 1916 1734 1732 1915 1807 1733 1806
8 1916 1918 1736 1734 1917 1808 1735 1807
8 1918 1920 1738 1736 1919 1809 1737 1808
8 1920 1922 1740 1738 1921 1810 1739 1809
8 1922 1924 1742 1740 1923 1811 1741 1810
8 1924 1926 1744 1742 1925 1812 1743 1811
8 1926 1928 1746 1744 1927 1813 1745 1812
8 1928 1930 1748 1746 1929 1814 1747 1813
8 1930 1932 1750 1748 1931 1815 1749 1814
8 1932 1934 1752 1750 1933 1816 1751 1815
8 1934 1936 1754 1752 1935 1817 1753 1816
8 1936 1938 1756 1754 1937 1818 1755 1817
8 1938 1940 1758 1756 1939 1819 1757 1818
8 2002 2004 1822 1820 2003 1942 1821 1941
8 2004 2006 1824 1822 2005 1943 1823 1942
8 2006 2008 1826 1824 2007 1944 1825 1943
8 2008 2010 1828 1826 2009 1945 1827 1944
8 2010 2012 1830 1828 2011 1946 1829 1945
8 2012 2014 1832 1830 2013 1947 1831 1946
8 2014 2016 1834 1832 2015 1948 1833 1947
8 2016 2018 1836 1834 2017 1949 1835 1948
8 2018 2020 1838 1836 2019 1950 1837 1949
8 2020 2022 1840 1838 2021 1951 1839 1950
8 2022 2024 1842 1840 2023 1952 1841 1951
8 2024 2026 1844 1842 2025 1953 1843 1952
8 2026 2028 1846 1844 2027 1954 1845 1953
8 2028 2030 1848 1846 2029 1955 1847 1954
8 2030 2032 1850 1848 2031 1956 1849 1955
8 2032 2034 1852 1850 2033 1957 1851 1956
8 2034 2036 1854 1852 2035 1958 1853 1957
8 2036 2038 1856 1854 2037 1959 1855 1958
8 2038 2040 1858 1856 2039 1960 1857 1959
8 2040 2042 1860 1858 2041 1961 1859 1960
8 2042 2044 1862 1860 2043 1962 1861 1961
8 2044 2046 1864 1862 2045 1963 1863 1962
8 2046 2048 1866 1864 2047 1964 1865 1963
8 2048 2050 1868 1866 2049 1965 1867 1964
8 2050 2052 1870 1868 2051 1966 1869 1965
8 2052 2054 1872 1870 2053 1967 1871 1966
8 2054 2056 1874 1872 2055 1968 1873 1967
8 2056 2058 1876 1874 2057 1969 1875 1968
8 2058 2060 1878 1876 2059 1970 1877 1969
8 2060 2062 1880 1878 2061 1971 1879 1970
8 2062 2064 1882 1880 2063 1972 1881 1971
8 2064 2066 1884 1882 2065 1973 1883 1972
8 2066 2068 1886 1884 2067 1974 1885 1973
8 2068 2070 1888 1886 2069 1975 1887 1974
8 2070 2072 1890 1888 2071 1976 1889 1975
8 2072 2074 1892 1890 2073 1977 1891 1976
8 2074 2076 1894 1892 2075 1978 1893 1977
8 2076 2078 1896 1894 2077 1979 1895 1978
8 2078 2080 1898 1896 2079 1980 1897 1979
8 2080 2082 1900 1898 2081 1981 1899 1980
8 2082 2084 1902 1900 2083 1982 1901 1981
8 2084 2086 1904 1902 2085 1983 1903 1982
8 2086 2088 1906 1904 2087 1984 1905 1983
8 2088 2090 1908 1906 2089 1985 1907 1984
8 2090 2092 1910 1908 2091 1986 1909 1985
8 2092 2094 1912 1910 2093 1987 1911 1986
8 2094 2096 1914 1912 2095 1988 1913 1987
8 2096 2098 1916 1914 2097 1989 1915 1988
8 2098 2100 1918 1916 2099 1990 1917 1989
8 2100 2102 1920 1918 2101 1991 1919 1990
8 2102 2104 1922 1920 2103 1992 1921 1991
8 2104 2106 1924 1922 2105 1993 1923 1992
8 2106 2108 1926 1924 2107 1994 1925 1993
8 2108 2110 1928 1926 2109 1995 1927 1994
8 2110 2112 1930 1928 2111 1996 1929 1995
8 2112 2114 1932 1930 2113 1997 1931 1996
8 2114 2116 1934 1932 2115 1998 1933 1997
8 2116 2118 1936 1934 2117 1999 1935 1998
8 2118 2120 1938 1936 2119 2000 1937 1999
8 2120 2122 1940 1938 2121 2001 1939 2000
8 2184 2186 2004 2002 2185 2124 2003 2123
8 2186 2188 2006 2004 2187 2125 2005 2124
8 2188 2190 2008 2006 2189 2126 2007 2125
8 2190 2192 2010 2008 2191 2127 2009 2126
8 2192 2194 2012 2010 2193 2128 2011 2127
8 2194 2196 2014 2012 2195 2129 2013 2128
8 2196 2198 2016 2014 2197 2130 2015 2129
8 2198 2200 2018 2016 2199 2131 2017 2130
8 2200 2202 2020 2018 2201 2132 2019 2131
8 2202 2204 2022 2020 2203 2133 2021 2132
8 2204 2206 2024 2022 2205 2134 2023 2133
8 2206 2208 2026 2024 2207 2135 2025 2134
8 2208 2210 2028 2026 2209 2136 2027 2135
8 2210 2212 2030 2028 2211 2137 2029 2136
8 2212 2214 2032 2030 2213 2138 2031 2137
8 2214 2216 2034 2032 2215 2139 2033 2138
8 2216 2218 2036 2034 2217 2140 2035 2139
8 2218 2220 2038 2036 2219 2141 2037 2140
8 2220 2222 2040 2038 2221 2142 2039 2141
8 2222 2224 2042 2040 2223 2143 2041 2142
8 2224 2226 2044 2042 2225 2144 2043 2143
8 2226 2228 2046 2044 2227 2145 2045 2144
8 2228 2230 2048 2046 2229 2146 2047 2145
8 2230 2232 2050 2048 2231 2147 2049 2146
8 2232 2234 2052 2050 2233 2148 2051 2147
8 2234 2236 2054 2052 2235 2149 2053 2148
8 2236 2238 2056 2054 2237 2150 2055 2149
8 2238 2240 2058 2056 2239 2151 2057 2150
8 2240 2242 2060 2058 2241 2152 2059 2151
8 2242 2244 2062 2060 2243 2153 2061 2152
8 2244 2246 2064 2062 2245 2154 2063 2153
8 2246 2248 2066 2064 2247 2155 2065 2154
8 2248 2250 2068 2066 2249 2156 2067 2155
8 2250 2252 2070 2068 2251 2157 2069 2156
8 2252 2254 2072 2070 2253 2158 2071 2157
8 2254 2256 2074 2072 2255 2159 2073 2158
8 2256 2258 2076 2074 2257 2160 2075 2159
8 2258 2260 2078 2076 2259 2161 2077 2160
8 2260 2262 2080 2078 2261 2162 2079 2161
8 2262 2264 2082 2080 2263 2163 2081 2162
8 2264 2266 2084 2082 2265 2164 2083 2163
8 2266 2268 2086 2084 2267 2165 2085 2164
8 2268 2270 2088 2086 2269 2166 2087 2165
8 2270 2272 2090 2088 2271 2167 2089 2166
8 2272 2274 2092 2090 2273 2168 2091 2167
8 2274 2276 2094 2092 2275 2169 2093 2168
8 2276 2278 2096 2094 2277 2170 2095 2169
8 2278 2280 2098 2096 2279 2171 2097 2170
8 2280 2282 2100 2098 2281 2172 2099 2171
8 2282 2284 2102 2100 2283 2173 2101 2172
8 2284 2286 2104 2102 2285 2174 2103 2173
8 2286 2288 2106 2104 2287 2175 2105 2174
8 2288 2290 2108 2106 2289 2176 2107 2175
8 2290 2292 2110 2108 2291 2177 2109 2176
8 2292 2294 2112 2110 2293 2178 2111 2177
8 2294 2296 2114 2112 2295 2179 2113 2178
8 2296 2298 2116 2114 2297 2180 2115 2179
8 2298 2300 2118 2116 2299 2181 2117 2180
8 2300 2302 2120 2118 2301 2182 2119 2181
8 2302 2304 2122 2120 2303 2183 2121 2182
8 2366 2368 2186 2184 2367 2306 2185 2305
8 2368 2370 2188 2186 2369 2307 2187 2306
8 2370 2372 2190 2188 2371 2308 2189 2307
8 2372 2374 2192 2190 2373 2309 2191 2308
8 2374 2376 2194 2192 2375 2310 2193 2309
8 2376 2378 2196 2194 2377 2311 2195 2310
8 2378 2380 2198 2196 2379 2312 2197 2311
8 2380 2382 2200 2198 2381 2313 2199 2312
8 2382 2384 2202 2200 2383 2314 2201 2313
8 2384 2386 2204 2202 2385 2315 2203 2314
8 2386 2388 2206 2204 2387 2316 2205 2315
8 2388 2390 2208 2206 2389 2317 2207 2316
8 2390 2392 2210 2208 2391 2318 2209 2317
8 2392 2394 2212 2210 2393 2319 2211 2318
8 2394 2396 2214 2212 2395 2320 2213 2319
8 2396 2398 2216 2214 2397 2321 2215 2320
8 2398 2400 2218 2216 2399 2322 2217 2321
8 2400 2402 2220 2218 2401 2323 2219 2322
8 2402 2404 2222 2220 2403 2324 2221 2323
8 2404 2406 2224 2222 2405 2325 2223 2324
8 2406 2408 2226 2224 2407 2326 2225 2325
8 2408 2410 2228 2226 2409 2327 2227 2326
8 2410 2412 2230 2228 2411 2328 2229 2327
8 2412 2414 2232 2230 2413 2329 2231 2328
8 2414 2416 2234 2232 2415 2330 2233 2329
8 2416 2418 2236 2234 2417 2331 2235 2330
8 2418 2420 2238 2236 2419 2332 2237 2331
8 2420 2422 2240 2238 2421 2333 2239 2332
8 2422 2424 2242 2240 2423 2334 2241 2333
8 2424 2426 2244 2242 2425 2335 2243 2334
8 2426 2428 2246 2244 2427 2336 2245 2335
8 2428 2430 2248 2246 2429 2337 2247 2336
8 2430 2432 2250 2248 2431 2338 2249 2337
8 2432 2434 2252 2250 2433 2339 2251 2338
8 2434 2436 2254 2252 2435 2340 2253 2339
8 2436 2438 2256 2254 2437 2341 2255 2340
8 2438 2440 2258 2256 2439 2342 2257 2341
8 2440 2442 2260 2258 2441 2343 2259 2342
8 2442 2444 2262 2260 2443 2344 2261 2343
8 2444 2446 2264 2262 2445 2345 2263 2344
8 2446 2448 2266 2264 2447 2346 2265 2345
8 2448 2450 2268 2266 2449 2347 2267 2346
8 2450 2452 2270 2268 2451 2348 2269 2347
8 2452 2454 2272 2270 2453 2349 2271 2348
8 2454 2456 2274 2272 2455 2350 2273 2349
8 2456 2458 2276 2274 2457 2351 2275 2350
8 2458 2460 2278 2276 2459 2352 2277 2351
8 2460 2462 2280 2278 2461 2353 2279 2352
8 2462 2464 2282 2280 2463 2354 2281 2353
8 2464 2466 2284 2282 2465 2355 2283 2354
8 2466 2468 2286 2284 2467 2356 2285 2355
8 2468 2470 2288 2286 2469 2357 2287 2356
8 2470 2472 2290 2288 2471 2358 2289 2357
8 2472 2474 2292 2290 2473 2359 2291 2358
8 2474 2476 2294 2292 2475 2360 2293 2359
8 2476 2478 2296 2294 2477 2361 2295 2360
8 2478 2480 2298 2296 2479 2362 2297 2361
8 2480 2482 2300 2298 2481 2363 2299 2362
8 2482 2484 2302 2300 2483 2364 2301 2363
8 2484 2486 2304 2302 2485 2365 2303 2364
8 2548 2550 2368 2366 2549 2488 2367 2487
8 2550 2552 2370 2368 2551 2489 2369 2488
8 2552 2554 2372 2370 2553 2490 2371 2489
8 2554 2556 2374 2372 2555 2491 2373 2490
8 2556 2558 2376 2374 2557 2492 2375 2491
8 2558 2560 2378 2376 2559 2493 2377 2492
8 2560 2562 2380 2378 2561 2494 2379 2493
8 2562 2564 2382 2380 2563 2495 2381 2494
8 2564 2566 2384 2382 2565 2496 2383 2495
8 2566 2568 2386 2384 2567 2497 2385 2496
8 2568 2570 2388 2386 2569 2498 2387 2497
8 2570 2572 2390 2388 2571 2499 2389 2498
8 2572 2574 2392 2390 2573 2500 2391 2499
8 2574 2576 2394 2392 2575 2501 2393 2500
8 2576 2578 2396 2394 2577 2502 2395 2501
8 2578 2580 2398 2396 2579 2503 2397 2502
8 2580 2582 2400 2398 2581 2504 2399 2503
8 2582 2584 2402 2400 2583 2505 2401 2504
8 2584 2586 2404 2402 2585 2506 2403 2505
8 2586 2588 2406 2404 2587 2507 2405 2506
8 2588 2590 2408 2406 2589 2508 2407 2507
8 2590 2592 2410 2408 2591 2509 2409 2508
8 2592 2594 2412 2410 2593 2510 2411 2509
8 2594 2596 2414 2412 2595 2511 2413 2510
8 2596 2598 2416 2414 2597 2512 2415 2511
8 2598 2600 2418 2416 2599 2513 2417 2512
8 2600 2602 2420 2418 2601 2514 2419 2513
8 2602 2604 2422 2420 2603 2515 2421 2514
8 2604 2606 2424 2422 2605 2516 2423 2515
8 2606 2608 2426 2424 2607 2517 2425 2516
8 2608 2610 2428 2426 2609 2518 2427 2517
8 2610 2612 2430 2428 2611 2519 2429 2518
8 2612 2614 2432 2430 2613 2520 2431 2519
8 2614 2616 2434 2432 2615 2521 2433 2520
8 2616 2618 2436 2434 2617 2522 2435 2521
8 2618 2620 2438 2436 2619 2523 2437 2522
8 2620 2622 2440 2438 2621 2524 2439 2523
8 2622 2624 2442 2440 2623 2525 2441 2524
8 2624 2626 2444 2442 2625 2526 2443 2525
8 2626 2628 2446 2444 2627 2527 2445 2526
8 2628 2630 2448 2446 2629 2528 2447 2527
8 2630 2632 2450 2448 2631 2529 2449 2528
8 2632 2634 2452 2450 2633 2530 2451 2529
8 2634 2636 2454 2452 2635 2531 2453 2530
8 2636 2638 2456 2454 2637 2532 2455 2531
8 2638 2640 2458 2456 2639 2533 2457 2532
8 2640 2642 2460 2458 2641 2534 2459 2533
8 2642 2644 2462 2460 2643 2535 2461 2534
8 2644 2646 2464 2462 2645 2536 2463 2535
8 2646 2648 2466 2464 2647 2537 2465 2536
8 2648 2650 2468 2466 2649 2538 2467 2537
8 2650 2652 2470 2468 2651 2539 2469 2538
8 2652 2654 2472 2470 2653 2540 2471 2539
8 2654 2656 2474 2472 2655 2541 2473 2540
8 2656 2658 2476 2474 2657 2542 2475 2541
8 2658 2660 2478 2476 2659 2543 2477 2542
8 2660 2662 2480 2478 2661 2544 2479 2543
8 2662 2664 2482 2480 2663 2545 2481 2544
8 2664 2666 2484 2482 2665 2546 2483 2545
8 2666 2668 2486 2484 2667 2547 2485 2546
8 2730 2732 2550 2548 2731 2670 2549 2669
8 2732 2734 2552 2550 2733 2671 2551 2670
8 2734 2736 2554 2552 2735 2672 2553 2671
8 2736 2738 2556 2554 2737 2673 2555 2672
8 2738 2740 2558 2556 2739 2674 2557 2673
8 2740 2742 2560 2558 2741 2675 2559 2674
8 2742 2744 2562 2560 2743 2676 2561 2675
8 2744 2746 2564 2562 2745 2677 2563 2676
8 2746 2748 2566 2564 2747 2678 2565 2677
8 2748 2750 2568 2566 2749 2679 2567 2678
8 2750 2752 2570 2568 2751 2680 2569 2679
8 2752 2754 2572 2570 2753 2681 2571 2680
8 2754 2756 2574 2572 2755 2682 2573 2681
8 2756 2758 2576 2574 2757 2683 2575 2682
8 2758 2760 2578 2576 2759 2684 2577 2683
8 2760 2762 2580 2578 2761 2685 2579 2684
8 2762 2764 2582 2580 2763 2686 2581 2685
8 2764 2766 2584 2582 2765 2687 2583 2686
8 2766 2768 2586 2584 2767 2688 2585 2687
8 2768 2770 2588 2586 2769 2689 2587 2688
8 2770 2772 2590 2588 2771 2690 2589 2689
8 2772 2774 2592 2590 2773 2691 2591 2690
8 2774 2776 2594 2592 2775 2692 2593 2691
8 2776 2778 2596 2594 2777 2693 2595 2692
8 2778 2780 2598 2596 2779 2694 2597 2693
8 2780 2782 2600 2598 2781 2695 2599 2694
8 2782 2784 2602 2600 2783 2696 2601 2695
8 2784 2786 2604 2602 2785 2697 2603 2696
8 2786 2788 2606 2604 2787 2698 2605 2697
8 2788 2790 2608 2606 2789 2699 2607 2698
8 2790 2792 2610 2608 2791 2700 2609 2699
8 2792 2794 2612 2610 2793 2701 2611 2700
8 2794 2796 2614 2612 2795 2702 2613 2701
8 2796 2798 2616 2614 2797 2703 2615 2702
8 2798 2800 2618 2616 2799 2704 2617 2703
8 2800 2802 2620 2618 2801 2705 2619 2704
8 2802 2804 2622 2620 2803 2706 2621 2705
8 2804 2806 2624 2622 2805 2707 2623 2706
8 2806 2808 2626 2624 2807 2708 2625 2707
8 2808 2810 2628 2626 2809 2709 2627 2708
8 2810 2812 2630 2628 2811 2710 2629 2709
8 2812 2814 2632 2630 2813 2711 2631 2710
8 2814 2816 2634 2632 2815 2712 2633 2711
8 2816 2818 2636 2634 2817 2713 2635 2712
8 2818 2820 2638 2636 2819 2714 2637 2713
8 2820 2822 2640 2638 2821 2715 2639 2714
8 2822 2824 2642 2640 2823 2716 2641 2715
8 2824 2826 2644 2642 2825 2717 2643 2716
8 2826 2828 2646 2644 2827 2718 2645 2717
8 2828 2830 2648 2646 2829 2719 2647 2718
8 2830 2832 2650 2648 2831 2720 2649 2719
8 2832 2834 2652 2650 2833 2721 2651 2720
8 2834 2836 2654 2652 2835 2722 2653 2721
8 2836 2838 2656 2654 2837 2723 2655 2722
8 2838 2840 2658 2656 2839 2724 2657 2723
8 2840 2842 2660 2658 2841 2725 2659 2724
8 2842 2844 2662 2660 2843 2726 2661 2725
8 2844 2846 2664 2662 2845 2727 2663 2726
8 2846 2848 2666 2664 2847 2728 2665 2727
8 2848 2850 2668 2666 2849 2729 2667 2728
8 2912 2914 2732 2730 2913 2852 2731 2851
8 2914 2916 2734 2732 2915 2853 2733 2852
8 2916 2918 2736 2734 2917 2854 2735 2853
8 2918 2920 2738 2736 2919 2855 2737 2854
8 2920 2922 2740 2738 2921 2856 2739 2855
8 2922 2924 2742 2740 2923 2857 2741 2856
8 2924 2926 2744 2742 2925 2858 2743 2857
8 2926 2928 2746 2744 2927 2859 2745 2858
8 2928 2930 2748 2746 2929 2860 2747 2859
8 2930 2932 2750 2748 2931 2861 2749 2860
8 2932 2934 2752 2750 2933 2862 2751 2861
8 2934 2936 2754 2752 2935 2863 2753 2862
8 2936 2938 2756 2754 2937 2864 2755 2863
8 2938 2940 2758 2756 2939 2865 2757 2864
8 2940 2942 2760 2758 2941 2866 2759 2865
8 2942 2944 2762 2760 2943 2867 2761 2866
8 2944 2946 2764 2762 2945 2868 2763 2867
8 2946 2948 2766 2764 2947 2869 2765 2868
8 2948 2950 2768 2766 2949 2870 2767 2869
8 2950 2952 2770 2768 2951 2871 2769 2870
8 2952 2954 2772 2770 2953 2872 2771 2871
8 2954 2956 2774 2772 2955 2873 2773 2872
8 2956 2958 2776 2774 2957 2874 2775 2873
8 2958 2960 2778 2776 2959 2875 2777 2874
8 2960 2962 2780 2778 2961 2876 2779 2875
8 2962 2964 2782 2780 2963 2877 2781 2876
8 2964 2966 2784 2782 2965 2878 2783 2877
8 2966 2968 2786 2784 2967 2879 2785 2878
8 2968 2970 2788 2786 2969 2880 2787 2879
8 2970 2972 2790 2788 2971 2881 2789 2880
8 2972 2974 2792 2790 2973 2882 2791 2881
8 2974 2976 2794 2792 2975 2883 2793 2882
8 2976 2978 2796 2794 2977 2884 2795 2883
8 2978 2980 2798 2796 2979 2885 2797 2884
8 2980 2982 2800 2798 2981 2886 2799 2885
8 2982 2984 2802 2800 2983 2887 2801 2886
8 2984 2986 2804 2802 2985 2888 2803 2887
8 2986 2988 2806 2804 2987 2889 2805 2888
8 2988 2990 2808 2806 2989 2890 2807 2889
8 2990 2992 2810 2808 2991 2891 2809 2890
8 2992 2994 2812 2810 2993 2892 2811 2891
8 2994 2996 2814 2812 2995 2893 2813 2892
8 2996 2998 2816 2814 2997 2894 2815 2893
8 2998 3000 2818 2816 2999 2895 2817 2894
8 3000 3002 2820 2818 3001 2896 2819 2895
8 3002 3004 2822 2820 3003 2897 2821 2896
8 3004 3006 2824 2822 3005 2898 2823 2897
8 3006 3008 2826 2824 3007 2899 2825 2898
8 3008 3010 2828 2826 3009 2900 2827 2899
8 3010 3012 2830 2828 3011 2901 2829 2900
8 3012 3014 2832 2830 3013 2902 2831 2901
8 3014 3016 2834 2832 3015 2903 2833 2902
8 3016 3018 2836 2834 3017 2904 2835 2903
8 3018 3020 2838 2836 3019 2905 2837 2904
8 3020 3022 2840 2838 3021 2906 2839 2905
8 3022 3024 2842 2840 3023 2907 2841 2906
8 3024 3026 2844 2842 3025 2908 2843 2907
8 3026 3028 2846 2844 3027 2909 2845 2908
8 3028 3030 2848 2846 3029 2910 2847 2909
8 3030 3032 2850 2848 3031 2911 2849 2910
8 3094 3096 2914 2912 3095 3034 2913 3033
8 3096 3098 2916 2914 3097 3035 2915 3034
8 3098 3100 2918 2916 3099 3036 2917 3035
8 3100 3102 2920 2918 3101 3037 2919 3036
8 3102 3104 2922 2920 3103 3038 2921 3037
8 3104 3106 2924 2922 3105 3039 2923 3038
8 3106 3108 2926 2924 3107 3040 2925 3039
8 3108 3110 2928 2926 3109 3041 2927 3040
8 3110 3112 2930 2928 3111 3042 2929 3041
8 3112 3114 2932 2930 3113 3043 2931 3042
8 3114 3116 2934 2932 3115 3044 2933 3043
8 3116 3118 2936 2934 3117 3045 2935 3044
8 3118 3120 2938 2936 3119 3046 2937 3045
8 3120 3122 2940 2938 3121 3047 2939 3046
8 3122 3124 2942 2940 3123 3048 2941 3047
8 3124 3126 2944 2942 3125 3049 2943 3048
8 3126 3128 2946 2944 3127 3050 2945 3049
8 3128 3130 2948 2946 3129 3051 2947 3050
8 3130 3132 2950 2948 3131 3052 2949 3051
8 3132 3134 2952 2950 3133 3053 2951 3052
8 3134 3136 2954 2952 3135 3054 2953 3053
8 3136 3138 2956 2954 3137 3055 2955 3054
8 3138 3140 2958 2956 3139 3056 2957 3055
8 3140 3142 2960 2958 3141 3057 2959 3056
8 3142 3144 2962 2960 3143 3058 2961 3057
8 3144 3146 2964 2962 3145 3059 2963 3058
8 3146 3148 2966 2964 3147 3060 2965 3059
8 3148 3150 2968 2966 3149 3061 2967 3060
8 3150 3152 2970 2968 3151 3062 2969 3061
8 3152 3154 2972 2970 3153 3063 2971 3062
8 3154 3156 2974 2972 3155 3064 2973 3063
8 3156 3158 2976 2974 3157 3065 2975 3064
8 3158 3160 2978 2976 3159 3066 2977 3065
8 3160 3162 2980 2978 3161 3067 2979 3066
8 3162 3164 2982 2980 3163 3068 2981 3067
8 3164 3166 2984 2982 3165 3069 2983 3068
8 3166 3168 2986 2984 3167 3070 2985 3069
8 3168 3170 2988 2986 3169 3071 2987 3070
8 3170 3172 2990 2988 3171 3072 2989 3071
8 3172 3174 2992 2990 3173 3073 2991 3072
8 3174 3176 2994 2992 3175 3074 2993 3073
8 3176 3178 2996 2994 3177 3075 2995 3074
8 3178 3180 2998 2996 3179 3076 2997 3075
8 3180 3182 3000 2998 3181 3077 2999 3076
8 3182 3184 3002 3000 3183 3078 3001 3077
8 3184 3186 3004 3002 3185 3079 3003 3078
8 3186 3188 3006 3004 3187 3080 3005 3079
8 3188 3190 3008 3006 3189 3081 3007 3080
8 3190 3192 3010 3008 3191 3082 3009 3081
8 3192 3194 3012 3010 3193 3083 3011 3082
8 3194 3196 3014 3012 3195 3084 3013 3083
8 3196 3198 3016 3014 3197 3085 3015 3084
8 3198 3200 3018 3016 3199 3086 3017 3085
8 3200 3202 3020 3018 3201 3087 3019 3086
8 3202 3204 3022 3020 3203 3088 3021 3087
8 3204 3206 3024 3022 3205 3089 3023 3088
8 3206 3208 3026 3024 3207 3090 3025 3089
8 3208 3210 3028 3026 3209 3091 3027 3090
8 3210 3212 3030 3028 3211 3092 3029 3091
8 3212 3214 3032 3030 3213 3093 3031 3092
8 3276 3278 3096 3094 3277 3216 3095 3215
8 3278 3280 3098 3096 3279 3217 3097 3216
8 3280 3282 3100 3098 3281 3218 3099 3217
8 3282 3284 3102 3100 3283 3219 3101 3218
8 3284 3286 3104 3102 3285 3220 3103 3219
8 3286 3288 3106 3104 3287 3221 3105 3220
8 3288 3290 3108 3106 3289 3222 3107 3221
8 3290 3292 3110 3108 3291 3223 3109 3222
8 3292 3294 3112 3110 3293 3224 3111 3223
8 3294 3296 3114 3112 3295 3225 3113 3224
8 3296 3298 3116 3114 3297 3226 3115 3225
8 3298 3300 3118 3116 3299 3227 3117 3226
8 3300 3302 3120 3118 3301 3228 3119 3227
8 3302 3304 3122 3120 3303 3229 3121 3228
8 3304 3306 3124 3122 3305 3230 3123 3229
8 3306 3308 3126 3124 3307 3231 3125 3230
8 3308 3310 3128 3126 3309 3232 3127 3231
8 3310 3312 3130 3128 3311 3233 3129 3232
8 3312 3314 3132 3130 3313 3234 3131 3233
8 3314 3316 3134 3132 3315 3235 3133 3234
8 3316 3318 3136 3134 3317 3236 3135 3235
8 3318 3320 3138 3136 3319 3237 3137 3236
8 3320 3322 3140 3138 3321 3238 3139 3237
8 3322 3324 3142 3140 3323 3239 3141 3238
8 3324 3326 3144 3142 3325 3240 3143 3239
8 3326 3328 3146 3144 3327 3241 3145 3240
8 3328 3330 3148 3146 3329 3242 3147 3241
8 3330 3332 3150 3148 3331 3243 3149 3242
8 3332 3334 3152 3150 3333 3244 3151 3243
8 3334 3336 3154 3152 3335 3245 3153 3244
8 3336 3338 3156 3154 3337 3246 3155 3245
8 3338 3340 3158 3156 3339 3247 3157 3246
8 3340 3342 3160 3158 3341 3248 3159 3247
8 3342 3344 3162 3160 3343 3249 3161 3248
8 3344 3346 3164 3162 3345 3250 3163 3249
8 3346 3348 3166 3164 3347 3251 3165 3250
8 3348 3350 3168 3166 3349 3252 3167 3251
8 3350 3352 3170 3168 3351 3253 3169 3252
8 3352 3354 3172 3170 3353 3254 3171 3253
8 3354 3356 3174 3172 3355 3255 3173 3254
8 3356 3358 3176 3174 3357 3256 3175 3255
8 3358 3360 3178 3176 3359 3257 3177 3256
8 3360 3362 3180 3178 3361 3258 3179 3257
8 3362 3364 3182 3180 3363 3259 3181 3258
8 3364 3366 3184 3182 3365 3260 3183 3259
8 3366 3368 3186 3184 3367 3261 3185 3260
8 3368 3370 3188 3186 3369 3262 3187 3261
8 3370 3372 3190 3188 3371 3263 3189 3262
8 3372 3374 3192 3190 3373 3264 3191 3263
8 3374 3376 3194 3192 3375 3265 3193 3264
8 3376 3378 3196 3194 3377 3266 3195 3265
8 3378 3380 3198 3196 3379 3267 3197 3266
8 3380 3382 3200 3198 3381 3268 3199 3267
8 3382 3384 3202 3200 3383 3269 3201 3268
8 3384 3386 3204 3202 3385 3270 3203 3269
8 3386 3388 3206 3204 3387 3271 3205 3270
8 3388 3390 3208 3206 3389 3272 3207 3271
8 3390 3392 3210 3208 3391 3273 3209 3272
8 3392 3394 3212 3210 3393 3274 3211 3273
8 3394 3396 3214 3212 3395 3275 3213 3274
8 3458 3460 3278 3276 3459 3398 3277 3397
8 3460 3462 3280 3278 3461 3399 3279 3398
8 3462 3464 3282 3280 3463 3400 3281 3399
8 3464 3466 3284 3282 3465 3401 3283 3400
8 3466 3468 3286 3284 3467 3402 3285 3401
8 3468 3470 3288 3286 3469 3403 3287 3402
8 3470 3472 3290 3288 3471 3404 3289 3403
8 3472 3474 3292 3290 3473 3405 3291 3404
8 3474 3476 3294 3292 3475 3406 3293 3405
8 3476 3478 3296 3294 3477 3407 3295 3406
8 3478 3480 3298 3296 3479 3408 3297 3407
8 3480 3482 3300 3298 3481 3409 3299 3408
8 3482 3484 3302 3300 3483 3410 3301 3409
8 3484 3486 3304 3302 3485 3411 3303 3410
8 3486 3488 3306 3304 3487 3412 3305 3411
8 3488 3490 3308 3306 3489 3413 3307 3412
8 3490 3492 3310 3308 3491 3414 3309 3413
8 3492 3494 3312 3310 3493 3415 3311 3414
8 3494 3496 3314 3312 3495 3416 3313 3415
8 3496 3498 3316 3314 3497 3417 3315 3416
8 3498 3500 3318 3316 3499 3418 3317 3417
8 3500 3502 3320 3318 3501 3419 3319 3418
8 3502 3504 3322 3320 3503 3420 3321 3419
8 3504 3506 3324 3322 3505 3421 3323 3420
8 3506 3508 3326 3324 3507 3422 3325 3421
8 3508 3510 3328 3326 3509 3423 3327 3422
8 3510 3512 3330 3328 3511 3424 3329 3423
8 3512 3514 3332 3330 3513 3425 3331 3424
8 3514 3516 3334 3332 3515 3426 3333 3425
8 3516 3518 3336 3334 3517 3427 3335 3426
8 3518 3520 3338 3336 3519 3428 3337 3427
8 3520 3522 3340 3338 3521 3429 3339 3428
8 3522 3524 3342 3340 3523 3430 3341 3429
8 3524 3526 3344 3342 3525 3431 3343 3430
8 3526 3528 3346 3344 3527 3432 3345 3431
8 3528 3530 3348 3346 3529 3433 3347 3432
8 3530 3532 3350 3348 3531 3434 3349 3433
8 3532 3534 3352 3350 3533 3435 3351 3434
8 3534 3536 3354 3352 3535 3436 3353 3435
8 3536 3538 3356 3354 3537 3437 3355 3436
8 3538 3540 3358 3356 3539 3438 3357 3437
8 3540 3542 3360 3358 3541 3439 3359 3438
8 3542 3544 3362 3360 3543 3440 3361 3439
8 3544 3546 3364 3362 3545 3441 3363 3440
8 3546 3548 3366 3364 3547 3442 3365 3441
8 3548 3550 3368 3366 3549 3443 3367 3442
8 3550 3552 3370 3368 3551 3444 3369 3443
8 3552 3554 3372 3370 3553 3445 3371 3444
8 3554 3556 3374 3372 3555 3446 3373 3445
8 3556 3558 3376 3374 3557 3447 3375 3446
8 3558 3560 3378 3376 3559 3448 3377 3447
8 3560 3562 3380 3378 3561 3449 3379 3448
8 3562 3564 3382 3380 3563 3450 3381 3449
8 3564 3566 3384 3382 3565 3451 3383 3450
8 3566 3568 3386 3384 3567 3452 3385 3451
8 3568 3570 3388 3386 3569 3453 3387 3452
8 3570 3572 3390 3388 3571 3454 3389 3453
8 3572 3574 3392 3390 3573 3455 3391 3454
8 3574 3576 3394 3392 3575 3456 3393 3455
8 3576 3578 3396 3394 3577 3457 3395 3456
8 3640 3642 3460 3458 3641 3580 3459 3579
8 3642 3644 3462 3460 3643 3581 3461 3580
8 3644 3646 3464 3462 3645 3582 3463 3581
8 3646 3648 3466 3464 3647 3583 3465 3582
8 3648 3650 3468 3466 3649 3584 3467 3583
8 3650 3652 3470 3468 3651 3585 3469 3584
8 3652 3654 3472 3470 3653 3586 3471 3585
8 3654 3656 3474 3472 3655 3587 3473 3586
8 3656 3658 3476 3474 3657 3588 3475 3587
8 3658 3660 3478 3476 3659 3589 3477 3588
8 3660 3662 3480 3478 3661 3590 3479 3589
8 3662 3664 3482 3480 3663 3591 3481 3590
8 3664 3666 3484 3482 3665 3592 3483 3591
8 3666 3668 3486 3484 3667 3593 3485 3592
8 3668 3670 3488 3486 3669 3594 3487 3593
8 3670 3672 3490 3488 3671 3595 3489 3594
8 3672 3674 3492 3490 3673 3596 3491 3595
8 3674 3676 3494 3492 3675 3597 3493 3596
8 3676 3678 3496 3494 3677 3598 3495 3597
8 3678 3680 3498 3496 3679 3599 3497 3598
8 3680 3682 3500 3498 3681 3600 3499 3599
8 3682 3684 3502 3500 3683 3601 3501 3600
8 3684 3686 3504 3502 3685 3602 3503 3601
8 3686 3688 3506 3504 3687 3603 3505 3602
8 3688 3690 3508 3506 3689 3604 3507 3603
8 3690 3692 3510 3508 3691 3605 3509 3604
8 3692 3694 3512 3510 3693 3606 3511 3605
8 3694 3696 3514 3512 3695 3607 3513 3606
8 3696 3698 3516 3514 3697 3608 3515 3607
8 3698 3700 3518 3516 3699 3609 3517 3608
8 3700 3702 3520 3518 3701 3610 3519 3609
8 3702 3704 3522 3520 3703 3611 3521 3610
8 3704 3706 3524 3522 3705 3612 3523 3611
8 3706 3708 3526 3524 3707 3613 3525 3612
8 3708 3710 3528 3526 3709 3614 3527 3613
8 3710 3712 3530 3528 3711 3615 3529 3614
8 3712 3714 3532 3530 3713 3616 3531 3615
8 3714 3716 3534 3532 3715 3617 3533 3616
8 3716 3718 3536 3534 3717 3618 3535 3617
8 3718 3720 3538 3536 3719 3619 3537 3618
8 3720 3722 3540 3538 3721 3620 3539 3619
8 3722 3724 3542 3540 3723 3621 3541 3620
8 3724 3726 3544 3542 3725 3622 3543 3621
8 3726 3728 3546 3544 3727 3623 3545 3622
8 3728 3730 3548 3546 3729 3624 3547 3623
8 3730 3732 3550 3548 3731 3625 3549 3624
8 3732 3734 3552 3550 3733 3626 3551 3625
8 3734 3736 3554 3552 3735 3627 3553 3626
8 3736 3738 3556 3554 3737 3628 3555 3627
8 3738 3740 3558 3556 3739 3629 3557 3628
8 3740 3742 3560 3558 3741 3630 3559 3629
8 3742 3744 3562 3560 3743 3631 3561 3630
8 3744 3746 3564 3562 3745 3632 3563 3631
8 3746 3748 3566 3564 3747 3633 3565 3632
8 3748 3750 3568 3566 3749 3634 3567 3633
8 3750 3752 3570 3568 3751 3635 3569 3634
8 3752 3754 3572 3570 3753 3636 3571 3635
8 3754 3756 3574 3572 3755 3637 3573 3636
8 3756 3758 3576 3574 3757 3638 3575 3637
8 3758 3760 3578 3576 3759 3639 3577 3638
8 3822 3824 3642 3640 3823 3762 3641 3761
8 3824 3826 3644 3642 3825 3763 3643 3762
8 3826 3828 3646 3644 3827 3764 3645 3763
8 3828 3830 3648 3646 3829 3765 3647 3764
8 3830 3832 3650 3648 3831 3766 3649 3765
8 3832 3834 3652 3650 3833 3767 3651 3766
8 3834 3836 3654 3652 3835 3768 3653 3767
8 3836 3838 3656 3654 3837 3769 3655 3768
8 3838 3840 3658 3656 3839 3770 3657 3769
8 3840 3842 3660 3658 3841 3771 3659 3770
8 3842 3844 3662 3660 3843 3772 3661 3771
8 3844 3846 3664 3662 3845 3773 3663 3772
8 3846 3848 3666 3664 3847 3774 3665 3773
8 3848 3850 3668 3666 3849 3775 3667 3774
8 3850 3852 3670 3668 3851 3776 3669 3775
8 3852 3854 3672 3670 3853 3777 3671 3776
8 3854 3856 3674 3672 3855 3778 3673 3777
8 3856 3858 3676 3674 3857 3779 3675 3778
8 3858 3860 3678 3676 3859 3780 3677 3779
8 3860 3862 3680 3678 3861 3781 3679 3780
8 3862 3864 3682 3680 3863 3782 3681 3781
8 3864 3866 3684 3682 3865 3783 3683 3782
8 3866 3868 3686 3684 3867 3784 3685 3783
8 3868 3870 3688 3686 3869 3785 3687 3784
8 3870 3872 3690 3688 3871 3786 3689 3785
8 3872 3874 3692 3690 3873 3787 3691 3786
8 3874 3876 3694 3692 3875 3788 3693 3787
8 3876 3878 3696 3694 3877 3789 3695 3788
8 3878 3880 3698 3696 3879 3790 3697 3789
8 3880 3882 3700 3698 3881 3791 3699 3790
8 3882 3884 3702 3700 3883 3792 3701 3791
8 3884 3886 3704 3702 3885 3793 3703 3792
8 3886 3888 3706 3704 3887 3794 3705 3793
8 3888 3890 3708 3706 3889 3795 3707 3794
8 3890 3892 3710 3708 3891 3796 3709 3795
8 3892 3894 3712 3710 3893 3797 3711 3796
8 3894 3896 3714 3712 3895 3798 3713 3797
8 3896 3898 3716 3714 3897 3799 3715 3798
8 3898 3900 3718 3716 3899 3800 3717 3799
8 3900 3902 3720 3718 3901 3801 3719 3800
8 3902 3904 3722 3720 3903 3802 3721 3801
8 3904 3906 3724 3722 3905 3803 3723 3802
8 3906 3908 3726 3724 3907 3804 3725 3803
8 3908 3910 3728 3726 3909 3805 3727 3804
8 3910 3912 3730 3728 3911 3806 3729 3805
8 3912 3914 3732 3730 3913 3807 3731 3806
8 3914 3916 3734 3732 3915 3808 3733 3807
8 3916 3918 3736 3734 3917 3809 3735 3808
8 3918 3920 3738 3736 3919 3810 3737 3809
8 3920 3922 3740 3738 3921 3811 3739 3810
8 3922 3924 3742 3740 3923 3812 3741 3811
8 3924 3926 3744 3742 3925 3813 3743 3812
8 3926 3928 3746 3744 3927 3814 3745 3813
8 3928 3930 3748 3746 3929 3815 3747 3814
8 3930 3932 3750 3748 3931 3816 3749 3815
8 3932 3934 3752 3750 3933 3817 3751 3816
8 3934 3936 3754 3752 3935 3818 3753 3817
8 3936 3938 3756 3754 3937 3819 3755 3818
8 3938 3940 3758 3756 3939 3820 3757 3819
8 3940 3942 3760 3758 3941 3821 3759 3820
8 4004 4006 3824 3822 4005 3944 3823 3943
8 4006 4008 3826 3824 4007 3945 3825 3944
8 4008 4010 3828 3826 4009 3946 3827 3945
8 4010 4012 3830 3828 4011 3947 3829 3946
8 4012 4014 3832 3830 4013 3948 3831 3947
8 4014 4016 3834 3832 4015 3949 3833 3948
8 4016 4018 3836 3834 4017 3950 3835 3949
8 4018 4020 3838 3836 4019 3951 3837 3950
8 4020 4022 3840 3838 4021 3952 3839 3951
8 4022 4024 3842 3840 4023 3953 3841 3952
8 4024 4026 3844 3842 4025 3954 3843 3953
8 4026 4028 3846 3844 4027 3955 3845 3954
8 4028 4030 3848 3846 4029 3956 3847 3955
8 4030 4032 3850 3848 4031 3957 3849 3956
8 4032 4034 3852 3850 4033 3958 3851 3957
8 4034 4036 3854 3852 4035 3959 3853 3958
8 4036 4038 3856 3854 4037 3960 3855 3959
8 4038 4040 3858 3856 4039 3961 3857 3960
8 4040 4042 3860 3858 4041 3962 3859 3961
8 4042 4044 3862 3860 4043 3963 3861 3962
8 4044 4046 3864 3862 4045 3964 3863 3963
8 4046 4048 3866 3864 4047 3965 3865 3964
8 4048 4050 3868 3866 4049 3966 3867 3965
8 4050 4052 3870 3868 4051 3967 3869 3966
8 4052 4054 3872 3870 4053 3968 3871 3967
8 4054 4056 3874 3872 4055 3969 3873 3968
8 4056 4058 3876 3874 4057 3970 3875 3969
8 4058 4060 3878 3876 4059 3971 3877 3970
8 4060 4062 3880 3878 4061 3972 3879 3971
8 4062 4064 3882 3880 4063 3973 3881 3972
8 4064 4066 3884 3882 4065 3974 3883 3973
8 4066 4068 3886 3884 4067 3975 3885 3974
8 4068 4070 3888 3886 4069 3976 3887 3975
8 4070 4072 3890 3888 4071 3977 3889 3976
8 4072 4074 3892 3890 4073 3978 3891 3977
8 4074 4076 3894 3892 4075 3979 3893 3978
8 4076 4078 3896 3894 4077 3980 3895 3979
8 4078 4080 3898 3896 4079 3981 3897 3980
8 4080 4082 3900 3898 4081 3982 3899 3981
8 4082 4084 3902 3900 4083 3983 3901 3982
8 4084 4086 3904 3902 4085 3984 3903 3983
8 4086 4088 3906 3904 4087 3985 3905 3984
8 4088 4090 3908 3906 4089 3986 3907 3985
8 4090 4092 3910 3908 4091 3987 3909 3986
8 4092 4094 3912 3910 4093 3988 3911 3987
8 4094 4096 3914 3912 4095 3989 3913 3988
8 4096 4098 3916 3914 4097 3990 3915 3989
8 4098 4100 3918 3916 4099 3991 3917 3990
8 4100 4102 3920 3918 4101 3992 3919 3991
8 4102 4104 3922 3920 4103 3993 3921 3992
8 4104 4106 3924 3922 4105 3994 3923 3993
8 4106 4108 3926 3924 4107 3995 3925 3994
8 4108 4110 3928 3926 4109 3996 3927 3995
8 4110 4112 3930 3928 4111 3997 3929 3996
8 4112 4114 3932 3930 4113 3998 3931 3997
8 4114 4116 3934 3932 4115 3999 3933 3998
8 4116 4118 3936 3934 4117 4000 3935 3999
8 4118 4120 3938 3936 4119 4001 3937 4000
8 4120 4122 3940 3938 4121 4002 3939 4001
8 4122 4124 3942 3940 4123 4003 3941 4002
8 4186 4188 4006 4004 4187 4126 4005 4125
8 4188 4190 4008 4006 4189 4127 4007 4126
8 4190 4192 4010 4008 4191 4128 4009 4127
8 4192 4194 4012 4010 4193 4129 4011 4128
8 4194 4196 4014 4012 4195 4130 4013 4129
8 4196 4198 4016 4014 4197 4131 4015 4130
8 4198 4200 4018 4016 4199 4132 4017 4131
8 4200 4202 4020 4018 4201 4133 4019 4132
8 4202 4204 4022 4020 4203 4134 4021 4133
8 4204 4206 4024 4022 4205 4135 4023 4134
8 4206 4208 4026 4024 4207 4136 4025 4135
8 4208 4210 4028 4026 4209 4137 4027 4136
8 4210 4212 4030 4028 4211 4138 4029 4137
8 4212 4214 4032 4030 4213 4139 4031 4138
8 4214 4216 4034 4032 4215 4140 4033 4139
8 4216 4218 4036 4034 4217 4141 4035 4140
8 4218 4220 4038 4036 4219 4142 4037 4141
8 4220 4222 4040 4038 4221 4143 4039 4142
8 4222 4224 4042 4040 4223 4144 4041 4143
8 4224 4226 4044 4042 4225 4145 4043 4144
8 4226 4228 4046 4044 4227 4146 4045 4145
8 4228 4230 4048 4046 4229 4147 4047 4146
8 4230 4232 4050 4048 4231 4148 4049 4147
8 4232 4234 4052 4050 4233 4149 4051 4148
8 4234 4236 4054 4052 4235 4150 4053 4149
8 4236 4238 4056 4054 4237 4151 4055 4150
8 4238 4240 4058 4056 4239 4152 4057 4151
8 4240 4242 4060 4058 4241 4153 4059 4152
8 4242 4244 4062 4060 4243 4154 4061 4153
8 4244 4246 4064 4062 4245 4155 4063 4154
8 4246 4248 4066 4064 4247 4156 4065 4155
8 4248 4250 4068 4066 4249 4157 4067 4156
8 4250 4252 4070 4068 4251 4158 4069 4157
8 4252 4254 4072 4070 4253 4159 4071 4158
8 4254 4256 4074 4072 4255 4160 4073 4159
8 4256 4258 4076 4074 4257 4161 4075 4160
8 4258 4260 4078 4076 4259 4162 4077 4161
8 4260 4262 4080 4078 4261 4163 4079 4162
8 4262 4264 4082 4080 4263 4164 4081 4163
8 4264 4266 4084 4082 4265 4165 4083 4164
8 4266 4268 4086 4084 4267 4166 4085 4165
8 4268 4270 4088 4086 4269 4167 4087 4166
8 4270 4272 4090 4088 4271 4168 4089 4167
8 4272 4274 4092 4090 4273 4169 4091 4168
8 4274 4276 4094 4092 4275 4170 4093 4169
8 4276 4278 4096 4094 4277 4171 4095 4170
8 4278 4280 4098 4096 4279 4172 4097 4171
8 4280 4282 4100 4098 4281 4173 4099 4172
8 4282 4284 4102 4100 4283 4174 4101 4173
8 4284 4286 4104 4102 4285 4175 4103 4174
8 4286 4288 4106 4104 4287 4176 4105 4175
8 4288 4290 4108 4106 4289 4177 4107 4176
8 4290 4292 4110 4108 4291 4178 4109 4177
8 4292 4294 4112 4110 4293 4179 4111 4178
8 4294 4296 4114 4112 4295 4180 4113 4179
8 4296 4298 4116 4114 4297 4181 4115 4180
8 4298 4300 4118 4116 4299 4182 4117 4181
8 4300 4302 4120 4118 4301 4183 4119 4182
8 4302 4304 4122 4120 4303 4184 4121 4183
8 4304 4306 4124 4122 4305 4185 4123 4184
8 4368 4370 4188 4186 4369 4308 4187 4307
8 4370 4372 4190 4188 4371 4309 4189 4308
8 4372 4374 4192 4190 4373 4310 4191 4309
8 4374 4376 4194 4192 4375 4311 4193 4310
8 4376 4378 4196 4194 4377 4312 4195 4311
8 4378 4380 4198 4196 4379 4313 4197 4312
8 4380 4382 4200 4198 4381 4314 4199 4313
8 4382 4384 4202 4200 4383 4315 4201 4314
8 4384 4386 4204 4202 4385 4316 4203 4315
8 4386 4388 4206 4204 4387 4317 4205 4316
8 4388 4390 4208 4206 4389 4318 4207 4317
8 4390 4392 4210 4208 4391 4319 4209 4318
8 4392 4394 4212 4210 4393 4320 4211 4319
8 4394 4396 4214 4212 4395 4321 4213 4320
8 4396 4398 4216 4214 4397 4322 4215 4321
8 4398 4400 4218 4216 4399 4323 4217 4322
8 4400 4402 4220 4218 4401 4324 4219 4323
8 4402 4404 4222 4220 4403 4325 4221 4324
8 4404 4406 4224 4222 4405 4326 4223 4325
8 4406 4408 4226 4224 4407 4327 4225 4326
8 4408 4410 4228 4226 4409 4328 4227 4327
8 4410 4412 4230 4228 4411 4329 4229 4328
8 4412 4414 4232 4230 4413 4330 4231 4329
8 4414 4416 4234 4232 4415 4331 4233 4330
8 4416 4418 4236 4234 4417 4332 4235 4331
8 4418 4420 4238 4236 4419 4333 4237 4332
8 4420 4422 4240 4238 4421 4334 4239 4333
8 4422 4424 4242 4240 4423 4335 4241 4334
8 4424 4426 4244 4242 4425 4336 4243 4335
8 4426 4428 4246 4244 4427 4337 4245 4336
8 4428 4430 4248 4246 4429 4338 4247 4337
8 4430 4432 4250 4248 4431 4339 4249 4338
8 4432 4434 4252 4250 4433 4340 4251 4339
8 4434 4436 4254 4252 4435 4341 4253 4340
8 4436 4438 4256 4254 4437 4342 4255 4341
8 4438 4440 4258 4256 4439 4343 4257 4342
8 4440 4442 4260 4258 4441 4344 4259 4343
8 4442 4444 4262 4260 4443 4345 4261 4344
8 4444 4446 4264 4262 4445 4346 4263 4345
8 4446 4448 4266 4264 4447 4347 4265 4346
8 4448 4450 4268 4266 4449 4348 4267 4347
8 4450 4452 4270 4268 4451 4349 4269 4348
8 4452 4454 4272 4270 4453 4350 4271 4349
8 4454 4456 4274 4272 4455 4351 4273 4350
8 4456 4458 4276 4274 4457 4352 4275 4351
8 4458 4460 4278 4276 4459 4353 4277 4352
8 4460 4462 4280 4278 4461 4354 4279 4353
8 4462 4464 4282 4280 4463 4355 4281 4354
8 4464 4466 4284 4282 4465 4356 4283 4355
8 4466 4468 4286 4284 4467 4357 4285 4356
8 4468 4470 4288 4286 4469 4358 4287 4357
8 4470 4472 4290 4288 4471 4359 4289 4358
8 4472 4474 4292 4290 4473 4360 4291 4359
8 4474 4476 4294 4292 4475 4361 4293 4360
8 4476 4478 4296 4294 4477 4362 4295 4361
8 4478 4480 4298 4296 4479 4363 4297 4362
8 4480 4482 4300 4298 4481 4364 4299 4363
8 4482 4484 4302 4300 4483 4365 4301 4364
8 4484 4486 4304 4302 4485 4366 4303 4365
8 4486 4488 4306 4304 4487 4367 4305 4366
8 4550 4552 4370 4368 4551 4490 4369 4489
8 4552 4554 4372 4370 4553 4491 4371 4490
8 4554 4556 4374 4372 4555 4492 4373 4491
8 4556 4558 4376 4374 4557 4493 4375 4492
8 4558 4560 4378 4376 4559 4494 4377 4493
8 4560 4562 4380 4378 4561 4495 4379 4494
8 4562 4564 4382 4380 4563 4496 4381 4495
8 4564 4566 4384 4382 4565 4497 4383 4496
8 4566 4568 4386 4384 4567 4498 4385 4497
8 4568 4570 4388 4386 4569 4499 4387 4498
8 4570 4572 4390 4388 4571 4500 4389 4499
8 4572 4574 4392 4390 4573 4501 4391 4500
8 4574 4576 4394 4392 4575 4502 4393 4501
8 4576 4578 4396 4394 4577 4503 4395 4502
8 4578 4580 4398 4396 4579 4504 4397 4503
8 4580 4582 4400 4398 4581 4505 4399 4504
8 4582 4584 4402 4400 4583 4506 4401 4505
8 4584 4586 4404 4402 4585 4507 4403 4506
8 4586 4588 4406 4404 4587 4508 4405 4507
8 4588 4590 4408 4406 4589 4509 4407 4508
8 4590 4592 4410 4408 4591 4510 4409 4509
8 4592 4594 4412 4410 4593 4511 4411 4510
8 4594 4596 4414 4412 4595 4512 4413 4511
8 4596 4598 4416 4414 4597 4513 4415 4512
8 4598 4600 4418 4416 4599 4514 4417 4513
8 4600 4602 4420 4418 4601 4515 4419 4514
8 4602 4604 4422 4420 4603 4516 4421 4515
8 4604 4606 4424 4422 4605 4517 4423 4516
8 4606 4608 4426 4424 4607 4518 4425 4517
8 4608 4610 4428 4426 4609 4519 4427 4518
8 4610 4612 4430 4428 4611 4520 4429 4519
8 4612 4614 4432 4430 4613 4521 4431 4520
8 4614 4616 4434 4432 4615 4522 4433 4521
8 4616 4618 4436 4434 4617 4523 4435 4522
8 4618 4620 4438 4436 4619 4524 4437 4523
8 4620 4622 4440 4438 4621 4525 4439 4524
8 4622 4624 4442 4440 4623 4526 4441 4525
8 4624 4626 4444 4442 4625 4527 4443 4526
8 4626 4628 4446 4444 4627 4528 4445 4527
8 4628 4630 4448 4446 4629 4529 4447 4528
8 4630 4632 4450 4448 4631 4530 4449 4529
8 4632 4634 4452 4450 4633 4531 4451 4530
8 4634 4636 4454 4452 4635 4532 4453 4531
8 4636 4638 4456 4454 4637 4533 4455 4532
8 4638 4640 4458 4456 4639 4534 4457 4533
8 4640 4642 4460 4458 4641 4535 4459 4534
8 4642 4644 4462 4460 4643 4536 4461 4535
8 4644 4646 4464 4462 4645 4537 4463 4536
8 4646 4648 4466 4464 4647 4538 4465 4537
8 4648 4650 4468 4466 4649 4539 4467 4538
8 4650 4652 4470 4468 4651 4540 4469 4539
8 4652 4654 4472 4470 4653 4541 4471 4540
8 4654 4656 4474 4472 4655 4542 4473 4541
8 4656 4658 4476 4474 4657 4543 4475 4542
8 4658 4660 4478 4476 4659 4544 4477 4543
8 4660 4662 4480 4478 4661 4545 4479 4544
8 4662 4664 4482 4480 4663 4546 4481 4545
8 4664 4666 4484 4482 4665 4547 4483 4546
8 4666 4668 4486 4484 4667 4548 4485 4547
8 4668 4670 4488 4486 4669 4549 4487 4548
8 4732 4734 4552 4550 4733 4672 4551 4671
8 4734 4736 4554 4552 4735 4673 4553 4672
8 4736 4738 4556 4554 4737 4674 4555 4673
8 4738 4740 4558 4556 4739 4675 4557 4674
8 4740 4742 4560 4558 4741 4676 4559 4675
8 4742 4744 4562 4560 4743 4677 4561 4676
8 4744 4746 4564 4562 4745 4678 4563 4677
8 4746 4748 4566 4564 4747 4679 4565 4678
8 4748 4750 4568 4566 4749 4680 4567 4679
8 4750 4752 4570 4568 4751 4681 4569 4680
8 4752 4754 4572 4570 4753 4682 4571 4681
8 4754 4756 4574 4572 4755 4683 4573 4682
8 4756 4758 4576 4574 4757 4684 4575 4683
8 4758 4760 4578 4576 4759 4685 4577 4684
8 4760 4762 4580 4578 4761 4686 4579 4685
8 4762 4764 4582 4580 4763 4687 4581 4686
8 4764 4766 4584 4582 4765 4688 4583 4687
8 4766 4768 4586 4584 4767 4689 4585 4688
8 4768 4770 4588 4586 4769 4690 4587 4689
8 4770 4772 4590 4588 4771 4691 4589 4690
8 4772 4774 4592 4590 4773 4692 4591 4691
8 4774 4776 4594 4592 4775 4693 4593 4692
8 4776 4778 4596 4594 4777 4694 4595 4693
8 4778 4780 4598 4596 4779 4695 4597 4694
8 4780 4782 4600 4598 4781 4696 4599 4695
8 4782 4784 4602 4600 4783 4697 4601 4696
8 4784 4786 4604 4602 4785 4698 4603 4697
8 4786 4788 4606 4604 4787 4699 4605 4698
8 4788 4790 4608 4606 4789 4700 4607 4699
8 4790 4792 4610 4608 4791 4701 4609 4700
8 4792 4794 4612 4610 4793 4702 4611 4701
8 4794 4796 4614 4612 4795 4703 4613 4702
8 4796 4798 4616 4614 4797 4704 4615 4703
8 4798 4800 4618 4616 4799 4705 4617 4704
8 4800 4802 4620 4618 4801 4706 4619 4705
8 4802 4804 4622 4620 4803 4707 4621 4706
8 4804 4806 4624 4622 4805 4708 4623 4707
8 4806 4808 4626 4624 4807 4709 4625 4708
8 4808 4810 4628 4626 4809 4710 4627 4709
8 4810 4812 4630 4628 4811 4711 4629 4710
8 4812 4814 4632 4630 4813 4712 4631 4711
8 4814 4816 4634 4632 4815 4713 4633 4712
8 4816 4818 4636 4634 4817 4714 4635 4713
8 4818 4820 4638 4636 4819 4715 4637 4714
8 4820 4822 4640 4638 4821 4716 4639 4715
8 4822 4824 4642 4640 4823 4717 4641 4716
8 4824 4826 4644 4642 4825 4718 4643 4717
8 4826 4828 4646 4644 4827 4719 4645 4718
8 4828 4830 4648 4646 4829 4720 4647 4719
8 4830 4832 4650 4648 4831 4721 4649 4720
8 4832 4834 4652 4650 4833 4722 4651 4721
8 4834 4836 4654 4652 4835 4723 4653 4722
8 4836 4838 4656 4654 4837 4724 4655 4723
8 4838 4840 4658 4656 4839 4725 4657 4724
8 4840 4842 4660 4658 4841 4726 4659 4725
8 4842 4844 4662 4660 4843 4727 4661 4726
8 4844 4846 4664 4662 4845 4728 4663 4727
8 4846 4848 4666 4664 4847 4729 4665 4728
8 4848 4850 4668 4666 4849 4730 4667 4729
8 4850 4852 4670 4668 4851 4731 4669 4730
8 4914 4916 4734 4732 4915 4854 4733 4853
8 4916 4918 4736 4734 4917 4855 4735 4854
8 4918 4920 4738 4736 4919 4856 4737 4855
8 4920 4922 4740 4738 4921 4857 4739 4856
8 4922 4924 4742 4740 4923 4858 4741 4857
8 4924 4926 4744 4742 4925 4859 4743 4858
8 4926 4928 4746 4744 4927 4860 4745 4859
8 4928 4930 4748 4746 4929 4861 4747 4860
8 4930 4932 4750 4748 4931 4862 4749 4861
8 4932 4934 4752 4750 4933 4863 4751 4862
8 4934 4936 4754 4752 4935 4864 4753 4863
8 4936 4938 4756 4754 4937 4865 4755 4864
8 4938 4940 4758 4756 4939 4866 4757 4865
8 4940 4942 4760 4758 4941 4867 4759 4866
8 4942 4944 4762 4760 4943 4868 4761 4867
8 4944 4946 4764 4762 4945 4869 4763 4868
8 4946 4948 4766 4764 4947 4870 4765 4869
8 4948 4950 4768 4766 4949 4871 4767 4870
8 4950 4952 4770 4768 4951 4872 4769 4871
8 4952 4954 4772 4770 4953 4873 4771 4872
8 4954 4956 4774 4772 4955 4874 4773 4873
8 4956 4958 4776 4774 4957 4875 4775 4874
8 4958 4960 4778 4776 4959 4876 4777 4875
8 4960 4962 4780 4778 4961 4877 4779 4876
8 4962 4964 4782 4780 4963 4878 4781 4877
8 4964 4966 4784 4782 4965 4879 4783 4878
8 4966 4968 4786 4784 4967 4880 4785 4879
8 4968 4970 4788 4786 4969 4881 4787 4880
8 4970 4972 4790 4788 4971 4882 4789 4881
8 4972 4974 4792 4790 4973 4883 4791 4882
8 4974 4976 4794 4792 4975 4884 4793 4883
8 4976 4978 4796 4794 4977 4885 4795 4884
8 4978 4980 4798 4796 4979 4886 4797 4885
8 4980 4982 4800 4798 4981 4887 4799 4886
8 4982 4984 4802 4800 4983 4888 4801 4887
8 4984 4986 4804 4802 4985 4889 4803 4888
8 4986 4988 4806 4804 4987 4890 4805 4889
8 4988 4990 4808 4806 4989 4891 4807 4890
8 4990 4992 4810 4808 4991 4892 4809 4891
8 4992 4994 4812 4810 4993 4893 4811 4892
8 4994 4996 4814 4812 4995 4894 4813 4893
8 4996 4998 4816 4814 4997 4895 4815 4894
8 4998 5000 4818 4816 4999 4896 4817 4895
8 5000 5002 4820 4818 5001 4897 4819 4896
8 5002 5004 4822 4820 5003 4898 4821 4897
8 5004 5006 4824 4822 5005 4899 4823 4898
8 5006 5008 4826 4824 5007 4900 4825 4899
8 5008 5010 4828 4826 5009 4901 4827 4900
8 5010 5012 4830 4828 5011 4902 4829 4901
8 5012 5014 4832 4830 5013 4903 4831 4902
8 5014 5016 4834 4832 5015 4904 4833 4903
8 5016 5018 4836 4834 5017 4905 4835 4904
8 5018 5020 4838 4836 5019 4906 4837 4905
8 5020 5022 4840 4838 5021 4907 4839 4906
8 5022 5024 4842 4840 5023 4908 4841 4907
8 5024 5026 4844 4842 5025 4909 4843 4908
8 5026 5028 4846 4844 5027 4910 4845 4909
8 5028 5030 4848 4846 5029 4911 4847 4910
8 5030 5032 4850 4848 5031 4912 4849 4911
8 5032 5034 4852 4850 5033 4913 4851 4912
8 5096 5098 4916 4914 5097 5036 4915 5035
8 5098 5100 4918 4916 5099 5037 4917 5036
8 5100 5102 4920 4918 5101 5038 4919 5037
8 5102 5104 4922 4920 5103 5039 4921 5038
8 5104 5106 4924 4922 5105 5040 4923 5039
8 5106 5108 4926 4924 5107 5041 4925 5040
8 5108 5110 4928 4926 5109 5042 4927 5041
8 5110 5112 4930 4928 5111 5043 4929 5042
8 5112 5114 4932 4930 5113 5044 4931 5043
8 5114 5116 4934 4932 5115 5045 4933 5044
8 5116 5118 4936 4934 5117 5046 4935 5045
8 5118 5120 4938 4936 5119 5047 4937 5046
8 5120 5122 4940 4938 5121 5048 4939 5047
8 5122 5124 4942 4940 5123 5049 4941 5048
8 5124 5126 4944 4942 5125 5050 4943 5049
8 5126 5128 4946 4944 5127 5051 4945 5050
8 5128 5130 4948 4946 5129 5052 4947 5051
8 5130 5132 4950 4948 5131 5053 4949 5052
8 5132 5134 4952 4950 5133 5054 4951 5053
8 5134 5136 4954 4952 5135 5055 4953 5054
8 5136 5138 4956 4954 5137 5056 4955 5055
8 5138 5140 4958 4956 5139 5057 4957 5056
8 5140 5142 4960 4958 5141 5058 4959 5057
8 5142 5144 4962 4960 5143 5059 4961 5058
8 5144 5146 4964 4962 5145 5060 4963 5059
8 5146 5148 4966 4964 5147 5061 4965 5060
8 5148 5150 4968 4966 5149 5062 4967 5061
8 5150 5152 4970 4968 5151 5063 4969 5062
8 5152 5154 4972 4970 5153 5064 4971 5063
8 5154 5156 4974 4972 5155 5065 4973 5064
8 5156 5158 4976 4974 5157 5066 4975 5065
8 5158 5160 4978 4976 5159 5067 4977 5066
8 5160 5162 4980 4978 5161 5068 4979 5067
8 5162 5164 4982 4980 5163 5069 4981 5068
8 5164 5166 4984 4982 5165 5070 4983 5069
8 5166 5168 4986 4984 5167 5071 4985 5070
8 5168 5170 4988 4986 5169 5072 4987 5071
8 5170 5172 4990 4988 5171 5073 4989 5072
8 5172 5174 4992 4990 5173 5074 4991 5073
8 5174 5176 4994 4992 5175 5075 4993 5074
8 5176 5178 4996 4994 5177 5076 4995 5075
8 5178 5180 4998 4996 5179 5077 4997 5076
8 5180 5182 5000 4998 5181 5078 4999 5077
8 5182 5184 5002 5000 5183 5079 5001 5078
8 5184 5186 5004 5002 5185 5080 5003 5079
8 5186 5188 5006 5004 5187 5081 5005 5080
8 5188 5190 5008 5006 5189 5082 5007 5081
8 5190 5192 5010 5008 5191 5083 5009 5082
8 5192 5194 5012 5010 5193 5084 5011 5083
8 5194 5196 5014 5012 5195 5085 5013 5084
8 5196 5198 5016 5014 5197 5086 5015 5085
8 5198 5200 5018 5016 5199 5087 5017 5086
8 5200 5202 5020 5018 5201 5088 5019 5087
8 5202 5204 5022 5020 5203 5089 5021 5088
8 5204 5206 5024 5022 5205 5090 5023 5089
8 5206 5208 5026 5024 5207 5091 5025 5090
8 5208 5210 5028 5026 5209 5092 5027 5091
8 5210 5212 5030 5028 5211 5093 5029 5092
8 5212 5214 5032 5030 5213 5094 5031 5093
8 5214 5216 5034 5032 5215 5095 5033 5094
8 5278 5280 5098 5096 5279 5218 5097 5217
8 5280 5282 5100 5098 5281 5219 5099 5218
8 5282 5284 5102 5100 5283 5220 5101 5219
8 5284 5286 5104 5102 5285 5221 5103 5220
8 5286 5288 5106 5104 5287 5222 5105 5221
8 5288 5290 5108 5106 5289 5223 5107 5222
8 5290 5292 5110 5108 5291 5224 5109 5223
8 5292 5294 5112 5110 5293 5225 5111 5224
8 5294 5296 5114 5112 5295 5226 5113 5225
8 5296 5298 5116 5114 5297 5227 5115 5226
8 5298 5300 5118 5116 5299 5228 5117 5227
8 5300 5302 5120 5118 5301 5229 5119 5228
8 5302 5304 5122 5120 5303 5230 5121 5229
8 5304 5306 5124 5122 5305 5231 5123 5230
8 5306 5308 5126 5124 5307 5232 5125 5231
8 5308 5310 5128 5126 5309 5233 5127 5232
8 5310 5312 5130 5128 5311 5234 5129 5233
8 5312 5314 5132 5130 5313 5235 5131 5234
8 5314 5316 5134 5132 5315 5236 5133 5235
8 5316 5318 5136 5134 5317 5237 5135 5236
8 5318 5320 5138 5136 5319 5238 5137 5237
8 5320 5322 5140 5138 5321 5239 5139 5238
8 5322 5324 5142 5140 5323 5240 5141 5239
8 5324 5326 5144 5142 5325 5241 5143 5240
8 5326 5328 5146 5144 5327 5242 5145 5241
8 5328 5330 5148 5146 5329 5243 5147 5242
8 5330 5332 5150 5148 5331 5244 5149 5243
8 5332 5334 5152 5150 5333 5245 5151 5244
8 5334 5336 5154 5152 5335 5246 5153 5245
8 5336 5338 5156 5154 5337 5247 5155 5246
8 5338 5340 5158 5156 5339 5248 5157 5247
8 5340 5342 5160 5158 5341 5249 5159 5248
8 5342 5344 5162 5160 5343 5250 5161 5249
8 5344 5346 5164 5162 5345 5251 5163 5250
8 5346 5348 5166 5164 5347 5252 5165 5251
8 5348 5350 5168 5166 5349 5253 5167 5252
8 5350 5352 5170 5168 5351 5254 5169 5253
8 5352 5354 5172 5170 5353 5255 5171 5254
8 5354 5356 5174 5172 5355 5256 5173 5255
8 5356 5358 5176 5174 5357 5257 5175 5256
8 5358 5360 5178 5176 5359 5258 5177 5257
8 5360 5362 5180 5178 5361 5259 5179 5258
8 5362 5364 5182 5180 5363 5260 5181 5259
8 5364 5366 5184 5182 5365 5261 5183 5260
8 5366 5368 5186 5184 5367 5262 5185 5261
8 5368 5370 5188 5186 5369 5263 5187 5262
8 5370 5372 5190 5188 5371 5264 5189 5263
8 5372 5374 5192 5190 5373 5265 5191 5264
8 5374 5376 5194 5192 5375 5266 5193 5265
8 5376 5378 5196 5194 5377 5267 5195 5266
8 5378 5380 5198 5196 5379 5268 5197 5267
8 5380 5382 5200 5198 5381 5269 5199 5268
8 5382 5384 5202 5200 5383 5270 5201 5269
8 5384 5386 5204 5202 5385 5271 5203 5270
8 5386 5388 5206 5204 5387 5272 5205 5271
8 5388 5390 5208 5206 5389 5273 5207 5272
8 5390 5392 5210 5208 5391 5274 5209 5273
8 5392 5394 5212 5210 5393 5275 5211 5274
8 5394 5396 5214 5212 5395 5276 5213 5275
8 5396 5398 5216 5214 5397 5277 5215 5276
8 5460 5462 5280 5278 5461 5400 5279 5399
8 5462 5464 5282 5280 5463 5401 5281 5400
8 5464 5466 5284 5282 5465 5402 5283 5401
8 5466 5468 5286 5284 5467 5403 5285 5402
8 5468 5470 5288 5286 5469 5404 5287 5403
8 5470 5472 5290 5288 5471 5405 5289 5404
8 5472 5474 5292 5290 5473 5406 5291 5405
8 5474 5476 5294 5292 5475 5407 5293 5406
8 5476 5478 5296 5294 5477 5408 5295 5407
8 5478 5480 5298 5296 5479 5409 5297 5408
8 5480 5482 5300 5298 5481 5410 5299 5409
8 5482 5484 5302 5300 5483 5411 5301 5410
8 5484 5486 5304 5302 5485 5412 5303 5411
8 5486 5488 5306 5304 5487 5413 5305 5412
8 5488 5490 5308 5306 5489 5414 5307 5413
8 5490 5492 5310 5308 5491 5415 5309 5414
8 5492 5494 5312 5310 5493 5416 5311 5415
8 5494 5496 5314 5312 5495 5417 5313 5416
8 5496 5498 5316 5314 5497 5418 5315 5417
8 5498 5500 5318 5316 5499 5419 5317 5418
8 5500 5502 5320 5318 5501 5420 5319 5419
8 5502 5504 5322 5320 5503 5421 5321 5420
8 5504 5506 5324 5322 5505 5422 5323 5421
8 5506 5508 5326 5324 5507 5423 5325 5422
8 5508 5510 5328 5326 5509 5424 5327 5423
8 5510 5512 5330 5328 5511 5425 5329 5424
8 5512 5514 5332 5330 5513 5426 5331 5425
8 5514 5516 5334 5332 5515 5427 5333 5426
8 5516 5518 5336 5334 5517 5428 5335 5427
8 5518 5520 5338 5336 5519 5429 5337 5428
8 5520 5522 5340 5338 5521 5430 5339 5429
8 5522 5524 5342 5340 5523 5431 5341 5430
8 5524 5526 5344 5342 5525 5432 5343 5431
8 5526 5528 5346 5344 5527 5433 5345 5432
8 5528 5530 5348 5346 5529 5434 5347 5433
8 5530 5532 5350 5348 5531 5435 5349 5434
8 5532 5534 5352 5350 5533 5436 5351 5435
8 5534 5536 5354 5352 5535 5437 5353 5436
8 5536 5538 5356 5354 5537 5438 5355 5437
8 5538 5540 5358 5356 5539 5439 5357 5438
8 5540 5542 5360 5358 5541 5440 5359 5439
8 5542 5544 5362 5360 5543 5441 5361 5440
8 5544 5546 5364 5362 5545 5442 5363 5441
8 5546 5548 5366 5364 5547 5443 5365 5442
8 5548 5550 5368 5366 5549 5444 5367 5443
8 5550 5552 5370 5368 5551 5445 5369 5444
8 5552 5554 5372 5370 5553 5446 5371 5445
8 5554 5556 5374 5372 5555 5447 5373 5446
8 5556 5558 5376 5374 5557 5448 5375 5447
8 5558 5560 5378 5376 5559 5449 5377 5448
8 5560 5562 5380 5378 5561 5450 5379 5449
8 5562 5564 5382 5380 5563 5451 5381 5450
8 5564 5566 5384 5382 5565 5452 5383 5451
8 5566 5568 5386 5384 5567 5453 5385 5452
8 5568 5570 5388 5386 5569 5454 5387 5453
8 5570 5572 5390 5388 5571 5455 5389 5454
8 5572 5574 5392 5390 5573 5456 5391 5455
8 5574 5576 5394 5392 5575 5457 5393 5456
8 5576 5578 5396 5394 5577 5458 5395 5457
8 5578 5580 5398 5396 5579 5459 5397 5458
8 5642 5644 5462 5460 5643 5582 5461 5581
8 5644 5646 5464 5462 5645 5583 5463 5582
8 5646 5648 5466 5464 5647 5584 5465 5583
8 5648 5650 5468 5466 5649 5585 5467 5584
8 5650 5652 5470 5468 5651 5586 5469 5585
8 5652 5654 5472 5470 5653 5587 5471 5586
8 5654 5656 5474 5472 5655 5588 5473 5587
8 5656 5658 5476 5474 5657 5589 5475 5588
8 5658 5660 5478 5476 5659 5590 5477 5589
8 5660 5662 5480 5478 5661 5591 5479 5590
8 5662 5664 5482 5480 5663 5592 5481 5591
8 5664 5666 5484 5482 5665 5593 5483 5592
8 5666 5668 5486 5484 5667 5594 5485 5593
8 5668 5670 5488 5486 5669 5595 5487 5594
8 5670 5672 5490 5488 5671 5596 5489 5595
8 5672 5674 5492 5490 5673 5597 5491 5596
8 5674 5676 5494 5492 5675 5598 5493 5597
8 5676 5678 5496 5494 5677 5599 5495 5598
8 5678 5680 5498 5496 5679 5600 5497 5599
8 5680 5682 5500 5498 5681 5601 5499 5600
8 5682 5684 5502 5500 5683 5602 5501 5601
8 5684 5686 5504 5502 5685 5603 5503 5602
8 5686 5688 5506 5504 5687 5604 5505 5603
8 5688 5690 5508 5506 5689 5605 5507 5604
8 5690 5692 5510 5508 5691 5606 5509 5605
8 5692 5694 5512 5510 5693 5607 5511 5606
8 5694 5696 5514 5512 5695 5608 5513 5607
8 5696 5698 5516 5514 5697 5609 5515 5608
8 5698 5700 5518 5516 5699 5610 5517 5609
8 5700 5702 5520 5518 5701 5611 5519 5610
8 5702 5704 5522 5520 5703 5612 5521 5611
8 5704 5706 5524 5522 5705 5613 5523 5612
8 5706 5708 5526 5524 5707 5614 5525 5613
8 5708 5710 5528 5526 5709 5615 5527 5614
8 5710 5712 5530 5528 5711 5616 5529 5615
8 5712 5714 5532 5530 5713 5617 5531 5616
8 5714 5716 5534 5532 5715 5618 5533 5617
8 5716 5718 5536 5534 5717 5619 5535 5618
8 5718 5720 5538 5536 5719 5620 5537 5619
8 5720 5722 5540 5538 5721 5621 5539 5620
8 5722 5724 5542 5540 5723 5622 5541 5621
8 5724 5726 5544 5542 5725 5623 5543 5622
8 5726 5728 5546 5544 5727 5624 5545 5623
8 5728 5730 5548 5546 5729 5625 5547 5624
8 5730 5732 5550 5548 5731 5626 5549 5625
8 5732 5734 5552 5550 5733 5627 5551 5626
8 5734 5736 5554 5552 5735 5628 5553 5627
8 5736 5738 5556 5554 5737 5629 5555 5628
8 5738 5740 5558 5556 5739 5630 5557 5629
8 5740 5742 5560 5558 5741 5631 5559 5630
8 5742 5744 5562 5560 5743 5632 5561 5631
8 5744 5746 5564 5562 5745 5633 5563 5632
8 5746 5748 5566 5564 5747 5634 5565 5633
8 5748 5750 5568 5566 5749 5635 5567 5634
8 5750 5752 5570 5568 5751 5636 5569 5635
8 5752 5754 5572 5570 5753 5637 5571 5636
8 5754 5756 5574 5572 5755 5638 5573 5637
8 5756 5758 5576 5574 5757 5639 5575 5638
8 5758 5760 5578 5576 5759 5640 5577 5639
8 5760 5762 5580 5578 5761 5641 5579 5640
8 5824 5826 5644 5642 5825 5764 5643 5763
8 5826 5828 5646 5644 5827 5765 5645 5764
8 5828 5830 5648 5646 5829 5766 5647 5765
8 5830 5832 5650 5648 5831 5767 5649 5766
8 5832 5834 5652 5650 5833 5768 5651 5767
8 5834 5836 5654 5652 5835 5769 5653 5768
8 5836 5838 5656 5654 5837 5770 5655 5769
8 5838 5840 5658 5656 5839 5771 5657 5770
8 5840 5842 5660 5658 5841 5772 5659 5771
8 5842 5844 5662 5660 5843 5773 5661 5772
8 5844 5846 5664 5662 5845 5774 5663 5773
8 5846 5848 5666 5664 5847 5775 5665 5774
8 5848 5850 5668 5666 5849 5776 5667 5775
8 5850 5852 5670 5668 5851 5777 5669 5776
8 5852 5854 5672 5670 5853 5778 5671 5777
8 5854 5856 5674 5672 5855 5779 5673 5778
8 5856 5858 5676 5674 5857 5780 5675 5779
8 5858 5860 5678 5676 5859 5781 5677 5780
8 5860 5862 5680 5678 5861 5782 5679 5781
8 5862 5864 5682 5680 5863 5783 5681 5782
8 5864 5866 5684 5682 5865 5784 5683 5783
8 5866 5868 5686 5684 5867 5785 5685 5784
8 5868 5870 5688 5686 5869 5786 5687 5785
8 5870 5872 5690 5688 5871 5787 5689 5786
8 5872 5874 5692 5690 5873 5788 5691 5787
8 5874 5876 5694 5692 5875 5789 5693 5788
8 5876 5878 5696 5694 5877 5790 5695 5789
8 5878 5880 5698 5696 5879 5791 5697 5790
8 5880 5882 5700 5698 5881 5792 5699 5791
8 5882 5884 5702 5700 5883 5793 5701 5792
8 5884 5886 5704 5702 5885 5794 5703 5793
8 5886 5888 5706 5704 5887 5795 5705 5794
8 5888 5890 5708 5706 5889 5796 5707 5795
8 5890 5892 5710 5708 5891 5797 5709 5796
8 5892 5894 5712 5710 5893 5798 5711 5797
8 5894 5896 5714 5712 5895 5799 5713 5798
8 5896 5898 5716 5714 5897 5800 5715 5799
8 5898 5900 5718 5716 5899 5801 5717 5800
8 5900 5902 5720 5718 5901 5802 5719 5801
8 5902 5904 5722 5720 5903 5803 5721 5802
8 5904 5906 5724 5722 5905 5804 5723 5803
8 5906 5908 5726 5724 5907 5805 5725 5804
8 5908 5910 5728 5726 5909 5806 5727 5805
8 5910 5912 5730 5728 5911 5807 5729 5806
8 5912 5914 5732 5730 5913 5808 5731 5807
8 5914 5916 5734 5732 5915 5809 5733 5808
8 5916 5918 5736 5734 5917 5810 5735 5809
8 5918 5920 5738 5736 5919 5811 5737 5810
8 5920 5922 5740 5738 5921 5812 5739 5811
8 5922 5924 5742 5740 5923 5813 5741 5812
8 5924 5926 5744 5742 5925 5814 5743 5813
8 5926 5928 5746 5744 5927 5815 5745 5814
8 5928 5930 5748 5746 5929 5816 5747 5815
8 5930 5932 5750 5748 5931 5817 5749 5816
8 5932 5934 5752 5750 5933 5818 5751 5817
8 5934 5936 5754 5752 5935 5819 5753 5818
8 5936 5938 5756 5754 5937 5820 5755 5819
8 5938 5940 5758 5756 5939 5821 5757 5820
8 5940 5942 5760 5758 5941 5822 5759 5821
8 5942 5944 5762 5760 5943 5823 5761 5822
8 6006 6008 5826 5824 6007 5946 5825 5945
8 6008 6010 5828 5826 6009 5947 5827 5946
8 6010 6012 5830 5828 6011 5948 5829 5947
8 6012 6014 5832 5830 6013 5949 5831 5948
8 6014 6016 5834 5832 6015 5950 5833 5949
8 6016 6018 5836 5834 6017 5951 5835 5950
8 6018 6020 5838 5836 6019 5952 5837 5951
8 6020 6022 5840 5838 6021 5953 5839 5952
8 6022 6024 5842 5840 6023 5954 5841 5953
8 6024 6026 5844 5842 6025 5955 5843 5954
8 6026 6028 5846 5844 6027 5956 5845 5955
8 6028 6030 5848 5846 6029 5957 5847 5956
8 6030 6032 5850 5848 6031 5958 5849 5957
8 6032 6034 5852 5850 6033 5959 5851 5958
8 6034 6036 5854 5852 6035 5960 5853 5959
8 6036 6038 5856 5854 6037 5961 5855 5960
8 6038 6040 5858 5856 6039 5962 5857 5961
8 6040 6042 5860 5858 6041 5963 5859 5962
8 6042 6044 5862 5860 6043 5964 5861 5963
8 6044 6046 5864 5862 6045 5965 5863 5964
8 6046 6048 5866 5864 6047 5966 5865 5965
8 6048 6050 5868 5866 6049 5967 5867 5966
8 6050 6052 5870 5868 6051 5968 5869 5967
8 6052 6054 5872 5870 6053 5969 5871 5968
8 6054 6056 5874 5872 6055 5970 5873 5969
8 6056 6058 5876 5874 6057 5971 5875 5970
8 6058 6060 5878 5876 6059 5972 5877 5971
8 6060 6062 5880 5878 6061 5973 5879 5972
8 6062 6064 5882 5880 6063 5974 5881 5973
8 6064 6066 5884 5882 6065 5975 5883 5974
8 6066 6068 5886 5884 6067 5976 5885 5975
8 6068 6070 5888 5886 6069 5977 5887 5976
8 6070 6072 5890 5888 6071 5978 5889 5977
8 6072 6074 5892 5890 6073 5979 5891 5978
8 6074 6076 5894 5892 6075 5980 5893 5979
8 6076 6078 5896 5894 6077 5981 5895 5980
8 6078 6080 5898 5896 6079 5982 5897 5981
8 6080 6082 5900 5898 6081 5983 5899 5982
8 6082 6084 5902 5900 6083 5984 5901 5983
8 6084 6086 5904 5902 6085 5985 5903 5984
8 6086 6088 5906 5904 6087 5986 5905 5985
8 6088 6090 5908 5906 6089 5987 5907 5986
8 6090 6092 5910 5908 6091 5988 5909 5987
8 6092 6094 5912 5910 6093 5989 5911 5988
8 6094 6096 5914 5912 6095 5990 5913 5989
8 6096 6098 5916 5914 6097 5991 5915 5990
8 6098 6100 5918 5916 6099 5992 5917 5991
8 6100 6102 5920 5918 6101 5993 5919 5992
8 6102 6104 5922 5920 6103 5994 5921 5993
8 6104 6106 5924 5922 6105 5995 5923 5994
8 6106 6108 5926 5924 6107 5996 5925 5995
8 6108 6110 5928 5926 6109 5997 5927 5996
8 6110 6112 5930 5928 6111 5998 5929 5997
8 6112 6114 5932 5930 6113 5999 5931 5998
8 6114 6116 5934 5932 6115 6000 5933 5999
8 6116 6118 5936 5934 6117 6001 5935 6000
8 6118 6120 5938 5936 6119 6002 5937 6001
8 6120 6122 5940 5938 6121 6003 5939 6002
8 6122 6124 5942 5940 6123 6004 5941 6003
8 6124 6126 5944 5942 6125 6005 5943 6004
8 6188 6190 6008 6006 6189 6128 6007 6127
8 6190 6192 6010 6008 6191 6129 6009 6128
8 6192 6194 6012 6010 6193 6130 6011 6129
8 6194 6196 6014 6012 6195 6131 6013 6130
8 6196 6198 6016 6014 6197 6132 6015 6131
8 6198 6200 6018 6016 6199 6133 6017 6132
8 6200 6202 6020 6018 6201 6134 6019 6133
8 6202 6204 6022 6020 6203 6135 6021 6134
8 6204 6206 6024 6022 6205 6136 6023 6135
8 6206 6208 6026 6024 6207 6137 6025 6136
8 6208 6210 6028 6026 6209 6138 6027 6137
8 6210 6212 6030 6028 6211 6139 6029 6138
8 6212 6214 6032 6030 6213 6140 6031 6139
8 6214 6216 6034 6032 6215 6141 6033 6140
8 6216 6218 6036 6034 6217 6142 6035 6141
8 6218 6220 6038 6036 6219 6143 6037 6142
8 6220 6222 6040 6038 6221 6144 6039 6143
8 6222 6224 6042 6040 6223 6145 6041 6144
8 6224 6226 6044 6042 6225 6146 6043 6145
8 6226 6228 6046 6044 6227 6147 6045 6146
8 6228 6230 6048 6046 6229 6148 6047 6147
8 6230 6232 6050 6048 6231 6149 6049 6148
8 6232 6234 6052 6050 6233 6150 6051 6149
8 6234 6236 6054 6052 6235 6151 6053 6150
8 6236 6238 6056 6054 6237 6152 6055 6151
8 6238 6240 6058 6056 6239 6153 6057 6152
8 6240 6242 6060 6058 6241 6154 6059 6153
8 6242 6244 6062 6060 6243 6155 6061 6154
8 6244 6246 6064 6062 6245 6156 6063 6155
8 6246 6248 6066 6064 6247 6157 6065 6156
8 6248 6250 6068 6066 6249 6158 6067 6157
8 6250 6252 6070 6068 6251 6159 6069 6158
8 6252 6254 6072 6070 6253 6160 6071 6159
8 6254 6256 6074 6072 6255 6161 6073 6160
8 6256 6258 6076 6074 6257 6162 6075 6161
8 6258 6260 6078 6076 6259 6163 6077 6162
8 6260 6262 6080 6078 6261 6164 6079 6163
8 6262 6264 6082 6080 6263 6165 6081 6164
8 6264 6266 6084 6082 6265 6166 6083 6165
8 6266 6268 6086 6084 6267 6167 6085 6166
8 6268 6270 6088 6086 6269 6168 6087 6167
8 6270 6272 6090 6088 6271 6169 6089 6168
8 6272 6274 6092 6090 6273 6170 6091 6169
8 6274 6276 6094 6092 6275 6171 6093 6170
8 6276 6278 6096 6094 6277 6172 6095 6171
8 6278 6280 6098 6096 6279 6173 6097 6172
8 6280 6282 6100 6098 6281 6174 6099 6173
8 6282 6284 6102 6100 6283 6175 6101 6174
8 6284 6286 6104 6102 6285 6176 6103 6175
8 6286 6288 6106 6104 6287 6177 6105 6176
8 6288 6290 6108 6106 6289 6178 6107 6177
8 6290 6292 6110 6108 6291 6179 6109 6178
8 6292 6294 6112 6110 6293 6180 6111 6179
8 6294 6296 6114 6112 6295 6181 6113 6180
8 6296 6298 6116 6114 6297 6182 6115 6181
8 6298 6300 6118 6116 6299 6183 6117 6182
8 6300 6302 6120 6118 6301 6184 6119 6183
8 6302 6304 6122 6120 6303 6185 6121 6184
8 6304 6306 6124 6122 6305 6186 6123 6185
8 6306 6308 6126 6124 6307 6187 6125 6186
8 6370 6372 6190 6188 6371 6310 6189 6309
8 6372 6374 6192 6190 6373 6311 6191 6310
8 6374 6376 6194 6192 6375 6312 6193 6311
8 6376 6378 6196 6194 6377 6313 6195 6312
8 6378 6380 6198 6196 6379 6314 6197 6313
8 6380 6382 6200 6198 6381 6315 6199 6314
8 6382 6384 6202 6200 6383 6316 6201 6315
8 6384 6386 6204 6202 6385 6317 6203 6316
8 6386 6388 6206 6204 6387 6318 6205 6317
8 6388 6390 6208 6206 6389 6319 6207 6318
8 6390 6392 6210 6208 6391 6320 6209 6319
8 6392 6394 6212 6210 6393 6321 6211 6320
8 6394 6396 6214 6212 6395 6322 6213 6321
8 6396 6398 6216 6214 6397 6323 6215 6322
8 6398 6400 6218 6216 6399 6324 6217 6323
8 6400 6402 6220 6218 6401 6325 6219 6324
8 6402 6404 6222 6220 6403 6326 6221 6325
8 6404 6406 6224 6222 6405 6327 6223 6326
8 6406 6408 6226 6224 6407 6328 6225 6327
8 6408 6410 6228 6226 6409 6329 6227 6328
8 6410 6412 6230 6228 6411 6330 6229 6329
8 6412 6414 6232 6230 6413 6331 6231 6330
8 6414 6416 6234 6232 6415 6332 6233 6331
8 6416 6418 6236 6234 6417 6333 6235 6332
8 6418 6420 6238 6236 6419 6334 6237 6333
8 6420 6422 6240 6238 6421 6335 6239 6334
8 6422 6424 6242 6240 6423 6336 6241 6335
8 6424 6426 6244 6242 6425 6337 6243 6336
8 6426 6428 6246 6244 6427 6338 6245 6337
8 6428 6430 6248 6246 6429 6339 6247 6338
8 6430 6432 6250 6248 6431 6340 6249 6339
8 6432 6434 6252 6250 6433 6341 6251 6340
8 6434 6436 6254 6252 6435 6342 6253 6341
8 6436 6438 6256 6254 6437 6343 6255 6342
8 6438 6440 6258 6256 6439 6344 6257 6343
8 6440 6442 6260 6258 6441 6345 6259 6344
8 6442 6444 6262 6260 6443 6346 6261 6345
8 6444 6446 6264 6262 6445 6347 6263 6346
8 6446 6448 6266 6264 6447 6348 6265 6347
8 6448 6450 6268 6266 6449 6349 6267 6348
8 6450 6452 6270 6268 6451 6350 6269 6349
8 6452 6454 6272 6270 6453 6351 6271 6350
8 6454 6456 6274 6272 6455 6352 6273 6351
8 6456 6458 6276 6274 6457 6353 6275 6352
8 6458 6460 6278 6276 6459 6354 6277 6353
8 6460 6462 6280 6278 6461 6355 6279 6354
8 6462 6464 6282 6280 6463 6356 6281 6355
8 6464 6466 6284 6282 6465 6357 6283 6356
8 6466 6468 6286 6284 6467 6358 6285 6357
8 6468 6470 6288 6286 6469 6359 6287 6358
8 6470 6472 6290 6288 6471 6360 6289 6359
8 6472 6474 6292 6290 6473 6361 6291 6360
8 6474 6476 6294 6292 6475 6362 6293 6361
8 6476 6478 6296 6294 6477 6363 6295 6362
8 6478 6480 6298 6296 6479 6364 6297 6363
8 6480 6482 6300 6298 6481 6365 6299 6364
8 6482 6484 6302 6300 6483 6366 6301 6365
8 6484 6486 6304 6302 6485 6367 6303 6366
8 6486 6488 6306 6304 6487 6368 6305 6367
8 6488 6490 6308 6306 6489 6369 6307 6368
8 6552 6554 6372 6370 6553 6492 6371 6491
8 6554 6556 6374 6372 6555 6493 6373 6492
8 6556 6558 6376 6374 6557 6494 6375 6493
8 6558 6560 6378 6376 6559 6495 6377 6494
8 6560 6562 6380 6378 6561 6496 6379 6495
8 6562 6564 6382 6380 6563 6497 6381 6496
8 6564 6566 6384 6382 6565 6498 6383 6497
8 6566 6568 6386 6384 6567 6499 6385 6498
8 6568 6570 6388 6386 6569 6500 6387 6499
8 6570 6572 6390 6388 6571 6501 6389 6500
8 6572 6574 6392 6390 6573 6502 6391 6501
8 6574 6576 6394 6392 6575 6503 6393 6502
8 6576 6578 6396 6394 6577 6504 6395 6503
8 6578 6580 6398 6396 6579 6505 6397 6504
8 6580 6582 6400 6398 6581 6506 6399 6505
8 6582 6584 6402 6400 6583 6507 6401 6506
8 6584 6586 6404 6402 6585 6508 6403 6507
8 6586 6588 6406 6404 6587 6509 6405 6508
8 6588 6590 6408 6406 6589 6510 6407 6509
8 6590 6592 6410 6408 6591 6511 6409 6510
8 6592 6594 6412 6410 6593 6512 6411 6511
8 6594 6596 6414 6412 6595 6513 6413 6512
8 6596 6598 6416 6414 6597 6514 6415 6513
8 6598 6600 6418 6416 6599 6515 6417 6514
8 6600 6602 6420 6418 6601 6516 6419 6515
8 6602 6604 6422 6420 6603 6517 6421 6516
8 6604 6606 6424 6422 6605 6518 6423 6517
8 6606 6608 6426 6424 6607 6519 6425 6518
8 6608 6610 6428 6426 6609 6520 6427 6519
8 6610 6612 6430 6428 6611 6521 6429 6520
8 6612 6614 6432 6430 6613 6522 6431 6521
8 6614 6616 6434 6432 6615 6523 6433 6522
8 6616 6618 6436 6434 6617 6524 6435 6523
8 6618 6620 6438 6436 6619 6525 6437 6524
8 6620 6622 6440 6438 6621 6526 6439 6525
8 6622 6624 6442 6440 6623 6527 6441 6526
8 6624 6626 6444 6442 6625 6528 6443 6527
8 6626 6628 6446 6444 6627 6529 6445 6528
8 6628 6630 6448 6446 6629 6530 6447 6529
8 6630 6632 6450 6448 6631 6531 6449 6530
8 6632 6634 6452 6450 6633 6532 6451 6531
8 6634 6636 6454 6452 6635 6533 6453 6532
8 6636 6638 6456 6454 6637 6534 6455 6533
8 6638 6640 6458 6456 6639 6535 6457 6534
8 6640 6642 6460 6458 6641 6536 6459 6535
8 6642 6644 6462 6460 6643 6537 6461 6536
8 6644 6646 6464 6462 6645 6538 6463 6537
8 6646 6648 6466 6464 6647 6539 6465 6538
8 6648 6650 6468 6466 6649 6540 6467 6539
8 6650 6652 6470 6468 6651 6541 6469 6540
8 6652 6654 6472 6470 6653 6542 6471 6541
8 6654 6656 6474 6472 6655 6543 6473 6542
8 6656 6658 6476 6474 6657 6544 6475 6543
8 6658 6660 6478 6476 6659 6545 6477 6544
8 6660 6662 6480 6478 6661 6546 6479 6545
8 6662 6664 6482 6480 6663 6547 6481 6546
8 6664 6666 6484 6482 6665 6548 6483 6547
8 6666 6668 6486 6484 6667 6549 6485 6548
8 6668 6670 6488 6486 6669 6550 6487 6549
8 6670 6672 6490 6488 6671 6551 6489 6550
8 6734 6736 6554 6552 6735 6674 6553 6673
8 6736 6738 6556 6554 6737 6675 6555 6674
8 6738 6740 6558 6556 6739 6676 6557 6675
8 6740 6742 6560 6558 6741 6677 6559 6676
8 6742 6744 6562 6560 6743 6678 6561 6677
8 6744 6746 6564 6562 6745 6679 6563 6678
8 6746 6748 6566 6564 6747 6680 6565 6679
8 6748 6750 6568 6566 6749 6681 6567 6680
8 6750 6752 6570 6568 6751 6682 6569 6681
8 6752 6754 6572 6570 6753 6683 6571 6682
8 6754 6756 6574 6572 6755 6684 6573 6683
8 6756 6758 6576 6574 6757 6685 6575 6684
8 6758 6760 6578 6576 6759 6686 6577 6685
8 6760 6762 6580 6578 6761 6687 6579 6686
8 6762 6764 6582 6580 6763 6688 6581 6687
8 6764 6766 6584 6582 6765 6689 6583 6688
8 6766 6768 6586 6584 6767 6690 6585 6689
8 6768 6770 6588 6586 6769 6691 6587 6690
8 6770 6772 6590 6588 6771 6692 6589 6691
8 6772 6774 6592 6590 6773 6693 6591 6692
8 6774 6776 6594 6592 6775 6694 6593 6693
8 6776 6778 6596 6594 6777 6695 6595 6694
8 6778 6780 6598 6596 6779 6696 6597 6695
8 6780 6782 6600 6598 6781 6697 6599 6696
8 6782 6784 6602 6600 6783 6698 6601 6697
8 6784 6786 6604 6602 6785 6699 6603 6698
8 6786 6788 6606 6604 6787 6700 6605 6699
8 6788 6790 6608 6606 6789 6701 6607 6700
8 6790 6792 6610 6608 6791 6702 6609 6701
8 6792 6794 6612 6610 6793 6703 6611 6702
8 6794 6796 6614 6612 6795 6704 6613 6703
8 6796 6798 6616 6614 6797 6705 6615 6704
8 6798 6800 6618 6616 6799 6706 6617 6705
8 6800 6802 6620 6618 6801 6707 6619 6706
8 6802 6804 6622 6620 6803 6708 6621 6707
8 6804 6806 6624 6622 6805 6709 6623 6708
8 6806 6808 6626 6624 6807 6710 6625 6709
8 6808 6810 6628 6626 6809 6711 6627 6710
8 6810 6812 6630 6628 6811 6712 6629 6711
8 6812 6814 6632 6630 6813 6713 6631 6712
8 6814 6816 6634 6632 6815 6714 6633 6713
8 6816 6818 6636 6634 6817 6715 6635 6714
8 6818 6820 6638 6636 6819 6716 6637 6715
8 6820 6822 6640 6638 6821 6717 6639 6716
8 6822 6824 6642 6640 6823 6718 6641 6717
8 6824 6826 6644 6642 6825 6719 6643 6718
8 6826 6828 6646 6644 6827 6720 6645 6719
8 6828 6830 6648 6646 6829 6721 6647 6720
8 6830 6832 6650 6648 6831 6722 6649 6721
8 6832 6834 6652 6650 6833 6723 6651 6722
8 6834 6836 6654 6652 6835 6724 6653 6723
8 6836 6838 6656 6654 6837 6725 6655 6724
8 6838 6840 6658 6656 6839 6726 6657 6725
8 6840 6842 6660 6658 6841 6727 6659 6726
8 6842 6844 6662 6660 6843 6728 6661 6727
8 6844 6846 6664 6662 6845 6729 6663 6728
8 6846 6848 6666 6664 6847 6730 6665 6729
8 6848 6850 6668 6666 6849 6731 6667 6730
8 6850 6852 6670 6668 6851 6732 6669 6731
8 6852 6854 6672 6670 6853 6733 6671 6732
8 6916 6918 6736 6734 6917 6856 6735 6855
8 6918 6920 6738 6736 6919 6857 6737 6856
8 6920 6922 6740 6738 6921 6858 6739 6857
8 6922 6924 6742 6740 6923 6859 6741 6858
8 6924 6926 6744 6742 6925 6860 6743 6859
8 6926 6928 6746 6744 6927 6861 6745 6860
8 6928 6930 6748 6746 6929 6862 6747 6861
8 6930 6932 6750 6748 6931 6863 6749 6862
8 6932 6934 6752 6750 6933 6864 6751 6863
8 6934 6936 6754 6752 6935 6865 6753 6864
8 6936 6938 6756 6754 6937 6866 6755 6865
8 6938 6940 6758 6756 6939 6867 6757 6866
8 6940 6942 6760 6758 6941 6868 6759 6867
8 6942 6944 6762 6760 6943 6869 6761 6868
8 6944 6946 6764 6762 6945 6870 6763 6869
8 6946 6948 6766 6764 6947 6871 6765 6870
8 6948 6950 6768 6766 6949 6872 6767 6871
8 6950 6952 6770 6768 6951 6873 6769 6872
8 6952 6954 6772 6770 6953 6874 6771 6873
8 6954 6956 6774 6772 6955 6875 6773 6874
8 6956 6958 6776 6774 6957 6876 6775 6875
8 6958 6960 6778 6776 6959 6877 6777 6876
8 6960 6962 6780 6778 6961 6878 6779 6877
8 6962 6964 6782 6780 6963 6879 6781 6878
8 6964 6966 6784 6782 6965 6880 6783 6879
8 6966 6968 6786 6784 6967 6881 6785 6880
8 6968 6970 6788 6786 6969 6882 6787 6881
8 6970 6972 6790 6788 6971 6883 6789 6882
8 6972 6974 6792 6790 6973 6884 6791 6883
8 6974 6976 6794 6792 6975 6885 6793 6884
8 6976 6978 6796 6794 6977 6886 6795 6885
8 6978 6980 6798 6796 6979 6887 6797 6886
8 6980 6982 6800 6798 6981 6888 6799 6887
8 6982 6984 6802 6800 6983 6889 6801 6888
8 6984 6986 6804 6802 6985 6890 6803 6889
8 6986 6988 6806 6804 6987 6891 6805 6890
8 6988 6990 6808 6806 6989 6892 6807 6891
8 6990 6992 6810 6808 6991 6893 6809 6892
8 6992 6994 6812 6810 6993 6894 6811 6893
8 6994 6996 6814 6812 6995 6895 6813 6894
8 6996 6998 6816 6814 6997 6896 6815 6895
8 6998 7000 6818 6816 6999 6897 6817 6896
8 7000 7002 6820 6818 7001 6898 6819 6897
8 7002 7004 6822 6820 7003 6899 6821 6898
8 7004 7006 6824 6822 7005 6900 6823 6899
8 7006 7008 6826 6824 7007 6901 6825 6900
8 7008 7010 6828 6826 7009 6902 6827 6901
8 7010 7012 6830 6828 7011 6903 6829 6902
8 7012 7014 6832 6830 7013 6904 6831 6903
8 7014 7016 6834 6832 7015 6905 6833 6904
8 7016 7018 6836 6834 7017 6906 6835 6905
8 7018 7020 6838 6836 7019 6907 6837 6906
8 7020 7022 6840 6838 7021 6908 6839 6907
8 7022 7024 6842 6840 7023 6909 6841 6908
8 7024 7026 6844 6842 7025 6910 6843 6909
8 7026 7028 6846 6844 7027 6911 6845 6910
8 7028 7030 6848 6846 7029 6912 6847 6911
8 7030 7032 6850 6848 7031 6913 6849 6912
8 7032 7034 6852 6850 7033 6914 6851 6913
8 7034 7036 6854 6852 7035 6915 6853 6914
8 7098 7100 6918 6916 7099 7038 6917 7037
8 7100 7102 6920 6918 7101 7039 6919 7038
8 7102 7104 6922 6920 7103 7040 6921 7039
8 7104 7106 6924 6922 7105 7041 6923 7040
8 7106 7108 6926 6924 7107 7042 6925 7041
8 7108 7110 6928 6926 7109 7043 6927 7042
8 7110 7112 6930 6928 7111 7044 6929 7043
8 7112 7114 6932 6930 7113 7045 6931 7044
8 7114 7116 6934 6932 7115 7046 6933 7045
8 7116 7118 6936 6934 7117 7047 6935 7046
8 7118 7120 6938 6936 7119 7048 6937 7047
8 7120 7122 6940 6938 7121 7049 6939 7048
8 7122 7124 6942 6940 7123 7050 6941 7049
8 7124 7126 6944 6942 7125 7051 6943 7050
8 7126 7128 6946 6944 7127 7052 6945 7051
8 7128 7130 6948 6946 7129 7053 6947 7052
8 7130 7132 6950 6948 7131 7054 6949 7053
8 7132 7134 6952 6950 7133 7055 6951 7054
8 7134 7136 6954 6952 7135 7056 6953 7055
8 7136 7138 6956 6954 7137 7057 6955 7056
8 7138 7140 6958 6956 7139 7058 6957 7057
8 7140 7142 6960 6958 7141 7059 6959 7058
8 7142 7144 6962 6960 7143 7060 6961 7059
8 7144 7146 6964 6962 7145 7061 6963 7060
8 7146 7148 6966 6964 7147 7062 6965 7061
8 7148 7150 6968 6966 7149 7063 6967 7062
8 7150 7152 6970 6968 7151 7064 6969 7063
8 7152 7154 6972 6970 7153 7065 6971 7064
8 7154 7156 6974 6972 7155 7066 6973 7065
8 7156 7158 6976 6974 7157 7067 6975 7066
8 7158 7160 6978 6976 7159 7068 6977 7067
8 7160 7162 6980 6978 7161 7069 6979 7068
8 7162 7164 6982 6980 7163 7070 6981 7069
8 7164 7166 6984 6982 7165 7071 6983 7070
8 7166 7168 6986 6984 7167 7072 6985 7071
8 7168 7170 6988 6986 7169 7073 6987 7072
8 7170 7172 6990 6988 7171 7074 6989 7073
8 7172 7174 6992 6990 7173 7075 6991 7074
8 7174 7176 6994 6992 7175 7076 6993 7075
8 7176 7178 6996 6994 7177 7077 6995 7076
8 7178 7180 6998 6996 7179 7078 6997 7077
8 7180 7182 7000 6998 7181 7079 6999 7078
8 7182 7184 7002 7000 7183 7080 7001 7079
8 7184 7186 7004 7002 7185 7081 7003 7080
8 7186 7188 7006 7004 7187 7082 7005 7081
8 7188 7190 7008 7006 7189 7083 7007 7082
8 7190 7192 7010 7008 7191 7084 7009 7083
8 7192 7194 7012 7010 7193 7085 7011 7084
8 7194 7196 7014 7012 7195 7086 7013 7085
8 7196 7198 7016 7014 7197 7087 7015 7086
8 7198 7200 7018 7016 7199 7088 7017 7087
8 7200 7202 7020 7018 7201 7089 7019 7088
8 7202 7204 7022 7020 7203 7090 7021 7089
8 7204 7206 7024 7022 7205 7091 7023 7090
8 7206 7208 7026 7024 7207 7092 7025 7091
8 7208 7210 7028 7026 7209 7093 7027 7092
8 7210 7212 7030 7028 7211 7094 7029 7093
8 7212 7214 7032 7030 7213 7095 7031 7094
8 7214 7216 7034 7032 7215 7096 7033 7095
8 7216 7218 7036 7034 7217 7097 7035 7096
8 7280 7282 7100 7098 7281 7220 7099 7219
8 7282 7284 7102 7100 7283 7221 7101 7220
8 7284 7286 7104 7102 7285 7222 7103 7221
8 7286 7288 7106 7104 7287 7223 7105 7222
8 7288 7290 7108 7106 7289 7224 7107 7223
8 7290 7292 7110 7108 7291 7225 7109 7224
8 7292 7294 7112 7110 7293 7226 7111 7225
8 7294 7296 7114 7112 7295 7227 7113 7226
8 7296 7298 7116 7114 7297 7228 7115 7227
8 7298 7300 7118 7116 7299 7229 7117 7228
8 7300 7302 7120 7118 7301 7230 7119 7229
8 7302 7304 7122 7120 7303 7231 7121 7230
8 7304 7306 7124 7122 7305 7232 7123 7231
8 7306 7308 7126 7124 7307 7233 7125 7232
8 7308 7310 7128 7126 7309 7234 7127 7233
8 7310 7312 7130 7128 7311 7235 7129 7234
8 7312 7314 7132 7130 7313 7236 7131 7235
8 7314 7316 7134 7132 7315 7237 7133 7236
8 7316 7318 7136 7134 7317 7238 7135 7237
8 7318 7320 7138 7136 7319 7239 7137 7238
8 7320 7322 7140 7138 7321 7240 7139 7239
8 7322 7324 7142 7140 7323 7241 7141 7240
8 7324 7326 7144 7142 7325 7242 7143 7241
8 7326 7328 7146 7144 7327 7243 7145 7242
8 7328 7330 7148 7146 7329 7244 7147 7243
8 7330 7332 7150 7148 7331 7245 7149 7244
8 7332 7334 7152 7150 7333 7246 7151 7245
8 7334 7336 7154 7152 7335 7247 7153 7246
8 7336 7338 7156 7154 7337 7248 7155 7247
8 7338 7340 7158 7156 7339 7249 7157 7248
8 7340 7342 7160 7158 7341 7250 7159 7249
8 7342 7344 7162 7160 7343 7251 7161 7250
8 7344 7346 7164 7162 7345 7252 7163 7251
8 7346 7348 7166 7164 7347 7253 7165 7252
8 7348 7350 7168 7166 7349 7254 7167 7253
8 7350 7352 7170 7168 7351 7255 7169 7254
8 7352 7354 7172 7170 7353 7256 7171 7255
8 7354 7356 7174 7172 7355 7257 7173 7256
8 7356 7358 7176 7174 7357 7258 7175 7257
8 7358 7360 7178 7176 7359 7259 7177 7258
8 7360 7362 7180 7178 7361 7260 7179 7259
8 7362 7364 7182 7180 7363 7261 7181 7260
8 7364 7366 7184 7182 7365 7262 7183 7261
8 7366 7368 7186 7184 7367 7263 7185 7262
8 7368 7370 7188 7186 7369 7264 7187 7263
8 7370 7372 7190 7188 7371 7265 7189 7264
8 7372 7374 7192 7190 7373 7266 7191 7265
8 7374 7376 7194 7192 7375 7267 7193 7266
8 7376 7378 7196 7194 7377 7268 7195 7267
8 7378 7380 7198 7196 7379 7269 7197 7268
8 7380 7382 7200 7198 7381 7270 7199 7269
8 7382 7384 7202 7200 7383 7271 7201 7270
8 7384 7386 7204 7202 7385 7272 7203 7271
8 7386 7388 7206 7204 7387 7273 7205 7272
8 7388 7390 7208 7206 7389 7274 7207 7273
8 7390 7392 7210 7208 7391 7275 7209 7274
8 7392 7394 7212 7210 7393 7276 7211 7275
8 7394 7396 7214 7212 7395 7277 7213 7276
8 7396 7398 7216 7214 7397 7278 7215 7277
8 7398 7400 7218 7216 7399 7279 7217 7278
8 7462 7464 7282 7280 7463 7402 7281 7401
8 7464 7466 7284 7282 7465 7403 7283 7402
8 7466 7468 7286 7284 7467 7404 7285 7403
8 7468 7470 7288 7286 7469 7405 7287 7404
8 7470 7472 7290 7288 7471 7406 7289 7405
8 7472 7474 7292 7290 7473 7407 7291 7406
8 7474 7476 7294 7292 7475 7408 7293 7407
8 7476 7478 7296 7294 7477 7409 7295 7408
8 7478 7480 7298 7296 7479 7410 7297 7409
8 7480 7482 7300 7298 7481 7411 7299 7410
8 7482 7484 7302 7300 7483 7412 7301 7411
8 7484 7486 7304 7302 7485 7413 7303 7412
8 7486 7488 7306 7304 7487 7414 7305 7413
8 7488 7490 7308 7306 7489 7415 7307 7414
8 7490 7492 7310 7308 7491 7416 7309 7415
8 7492 7494 7312 7310 7493 7417 7311 7416
8 7494 7496 7314 7312 7495 7418 7313 7417
8 7496 7498 7316 7314 7497 7419 7315 7418
8 7498 7500 7318 7316 7499 7420 7317 7419
8 7500 7502 7320 7318 7501 7421 7319 7420
8 7502 7504 7322 7320 7503 7422 7321 7421
8 7504 7506 7324 7322 7505 7423 7323 7422
8 7506 7508 7326 7324 7507 7424 7325 7423
8 7508 7510 7328 7326 7509 7425 7327 7424
8 7510 7512 7330 7328 7511 7426 7329 7425
8 7512 7514 7332 7330 7513 7427 7331 7426
8 7514 7516 7334 7332 7515 7428 7333 7427
8 7516 7518 7336 7334 7517 7429 7335 7428
8 7518 7520 7338 7336 7519 7430 7337 7429
8 7520 7522 7340 7338 7521 7431 7339 7430
8 7522 7524 7342 7340 7523 7432 7341 7431
8 7524 7526 7344 7342 7525 7433 7343 7432
8 7526 7528 7346 7344 7527 7434 7345 7433
8 7528 7530 7348 7346 7529 7435 7347 7434
8 7530 7532 7350 7348 7531 7436 7349 7435
8 7532 7534 7352 7350 7533 7437 7351 7436
8 7534 7536 7354 7352 7535 7438 7353 7437
8 7536 7538 7356 7354 7537 7439 7355 7438
8 7538 7540 7358 7356 7539 7440 7357 7439
8 7540 7542 7360 7358 7541 7441 7359 7440
8 7542 7544 7362 7360 7543 7442 7361 7441
8 7544 7546 7364 7362 7545 7443 7363 7442
8 7546 7548 7366 7364 7547 7444 7365 7443
8 7548 7550 7368 7366 7549 7445 7367 7444
8 7550 7552 7370 7368 7551 7446 7369 7445
8 7552 7554 7372 7370 7553 7447 7371 7446
8 7554 7556 7374 7372 7555 7448 7373 7447
8 7556 7558 7376 7374 7557 7449 7375 7448
8 7558 7560 7378 7376 7559 7450 7377 7449
8 7560 7562 7380 7378 7561 7451 7379 7450
8 7562 7564 7382 7380 7563 7452 7381 7451
8 7564 7566 7384 7382 7565 7453 7383 7452
8 7566 7568 7386 7384 7567 7454 7385 7453
8 7568 7570 7388 7386 7569 7455 7387 7454
8 7570 7572 7390 7388 7571 7456 7389 7455
8 7572 7574 7392 7390 7573 7457 7391 7456
8 7574 7576 7394 7392 7575 7458 7393 7457
8 7576 7578 7396 7394 7577 7459 7395 7458
8 7578 7580 7398 7396 7579 7460 7397 7459
8 7580 7582 7400 7398 7581 7461 7399 7460
8 7644 7646 7464 7462 7645 7584 7463 7583
8 7646 7648 7466 7464 7647 7585 7465 7584
8 7648 7650 7468 7466 7649 7586 7467 7585
8 7650 7652 7470 7468 7651 7587 7469 7586
8 7652 7654 7472 7470 7653 7588 7471 7587
8 7654 7656 7474 7472 7655 7589 7473 7588
8 7656 7658 7476 7474 7657 7590 7475 7589
8 7658 7660 7478 7476 7659 7591 7477 7590
8 7660 7662 7480 7478 7661 7592 7479 7591
8 7662 7664 7482 7480 7663 7593 7481 7592
8 7664 7666 7484 7482 7665 7594 7483 7593
8 7666 7668 7486 7484 7667 7595 7485 7594
8 7668 7670 7488 7486 7669 7596 7487 7595
8 7670 7672 7490 7488 7671 7597 7489 7596
8 7672 7674 7492 7490 7673 7598 7491 7597
8 7674 7676 7494 7492 7675 7599 7493 7598
8 7676 7678 7496 7494 7677 7600 7495 7599
8 7678 7680 7498 7496 7679 7601 7497 7600
8 7680 7682 7500 7498 7681 7602 7499 7601
8 7682 7684 7502 7500 7683 7603 7501 7602
8 7684 7686 7504 7502 7685 7604 7503 7603
8 7686 7688 7506 7504 7687 7605 7505 7604
8 7688 7690 7508 7506 7689 7606 7507 7605
8 7690 7692 7510 7508 7691 7607 7509 7606
8 7692 7694 7512 7510 7693 7608 7511 7607
8 7694 7696 7514 7512 7695 7609 7513 7608
8 7696 7698 7516 7514 7697 7610 7515 7609
8 7698 7700 7518 7516 7699 7611 7517 7610
8 7700 7702 7520 7518 7701 7612 7519 7611
8 7702 7704 7522 7520 7703 7613 7521 7612
8 7704 7706 7524 7522 7705 7614 7523 7613
8 7706 7708 7526 7524 7707 7615 7525 7614
8 7708 7710 7528 7526 7709 7616 7527 7615
8 7710 7712 7530 7528 7711 7617 7529 7616
8 7712 7714 7532 7530 7713 7618 7531 7617
8 7714 7716 7534 7532 7715 7619 7533 7618
8 7716 7718 7536 7534 7717 7620 7535 7619
8 7718 7720 7538 7536 7719 7621 7537 7620
8 7720 7722 7540 7538 7721 7622 7539 7621
8 7722 7724 7542 7540 7723 7623 7541 7622
8 7724 7726 7544 7542 7725 7624 7543 7623
8 7726 7728 7546 7544 7727 7625 7545 7624
8 7728 7730 7548 7546 7729 7626 7547 7625
8 7730 7732 7550 7548 7731 7627 7549 7626
8 7732 7734 7552 7550 7733 7628 7551 7627
8 7734 7736 7554 7552 7735 7629 7553 7628
8 7736 7738 7556 7554 7737 7630 7555 7629
8 7738 7740 7558 7556 7739 7631 7557 7630
8 7740 7742 7560 7558 7741 7632 7559 7631
8 7742 7744 7562 7560 7743 7633 7561 7632
8 7744 7746 7564 7562 7745 7634 7563 7633
8 7746 7748 7566 7564 7747 7635 7565 7634
8 7748 7750 7568 7566 7749 7636 7567 7635
8 7750 7752 7570 7568 7751 7637 7569 7636
8 7752 7754 7572 7570 7753 7638 7571 7637
8 7754 7756 7574 7572 7755 7639 7573 7638
8 7756 7758 7576 7574 7757 7640 7575 7639
8 7758 7760 7578 7576 7759 7641 7577 7640
8 7760 7762 7580 7578 7761 7642 7579 7641
8 7762 7764 7582 7580 7763 7643 7581 7642
8 7826 7828 7646 7644 7827 7766 7645 7765
8 7828 7830 7648 7646 7829 7767 7647 7766
8 7830 7832 7650 7648 7831 7768 7649 7767
8 7832 7834 7652 7650 7833 7769 7651 7768
8 7834 7836 7654 7652 7835 7770 7653 7769
8 7836 7838 7656 7654 7837 7771 7655 7770
8 7838 7840 7658 7656 7839 7772 7657 7771
8 7840 7842 7660 7658 7841 7773 7659 7772
8 7842 7844 7662 7660 7843 7774 7661 7773
8 7844 7846 7664 7662 7845 7775 7663 7774
8 7846 7848 7666 7664 7847 7776 7665 7775
8 7848 7850 7668 7666 7849 7777 7667 7776
8 7850 7852 7670 7668 7851 7778 7669 7777
8 7852 7854 7672 7670 7853 7779 7671 7778
8 7854 7856 7674 7672 7855 7780 7673 7779
8 7856 7858 7676 7674 7857 7781 7675 7780
8 7858 7860 7678 7676 7859 7782 7677 7781
8 7860 7862 7680 7678 7861 7783 7679 7782
8 7862 7864 7682 7680 7863 7784 7681 7783
8 7864 7866 7684 7682 7865 7785 7683 7784
8 7866 7868 7686 7684 7867 7786 7685 7785
8 7868 7870 7688 7686 7869 7787 7687 7786
8 7870 7872 7690 7688 7871 7788 7689 7787
8 7872 7874 7692 7690 7873 7789 7691 7788
8 7874 7876 7694 7692 7875 7790 7693 7789
8 7876 7878 7696 7694 7877 7791 7695 7790
8 7878 7880 7698 7696 7879 7792 7697 7791
8 7880 7882 7700 7698 7881 7793 7699 7792
8 7882 7884 7702 7700 7883 7794 7701 7793
8 7884 7886 7704 7702 7885 7795 7703 7794
8 7886 7888 7706 7704 7887 7796 7705 7795
8 7888 7890 7708 7706 7889 7797 7707 7796
8 7890 7892 7710 7708 7891 7798 7709 7797
8 7892 7894 7712 7710 7893 7799 7711 7798
8 7894 7896 7714 7712 7895 7800 7713 7799
8 7896 7898 7716 7714 7897 7801 7715 7800
8 7898 7900 7718 7716 7899 7802 7717 7801
8 7900 7902 7720 7718 7901 7803 7719 7802
8 7902 7904 7722 7720 7903 7804 7721 7803
8 7904 7906 7724 7722 7905 7805 7723 7804
8 7906 7908 7726 7724 7907 7806 7725 7805
8 7908 7910 7728 7726 7909 7807 7727 7806
8 7910 7912 7730 7728 7911 7808 7729 7807
8 7912 7914 7732 7730 7913 7809 7731 7808
8 7914 7916 7734 7732 7915 7810 7733 7809
8 7916 7918 7736 7734 7917 7811 7735 7810
8 7918 7920 7738 7736 7919 7812 7737 7811
8 7920 7922 7740 7738 7921 7813 7739 7812
8 7922 7924 7742 7740 7923 7814 7741 7813
8 7924 7926 7744 7742 7925 7815 7743 7814
8 7926 7928 7746 7744 7927 7816 7745 7815
8 7928 7930 7748 7746 7929 7817 7747 7816
8 7930 7932 7750 7748 7931 7818 7749 7817
8 7932 7934 7752 7750 7933 7819 7751 7818
8 7934 7936 7754 7752 7935 7820 7753 7819
8 7936 7938 7756 7754 7937 7821 7755 7820
8 7938 7940 7758 7756 7939 7822 7757 7821
8 7940 7942 7760 7758 7941 7823 7759 7822
8 7942 7944 7762 7760 7943 7824 7761 7823
8 7944 7946 7764 7762 7945 7825 7763 7824
8 8008 8010 7828 7826 8009 7948 7827 7947
8 8010 8012 7830 7828 8011 7949 7829 7948
8 8012 8014 7832 7830 8013 7950 7831 7949
8 8014 8016 7834 7832 8015 7951 7833 7950
8 8016 8018 7836 7834 8017 7952 7835 7951
8 8018 8020 7838 7836 8019 7953 7837 7952
8 8020 8022 7840 7838 8021 7954 7839 7953
8 8022 8024 7842 7840 8023 7955 7841 7954
8 8024 8026 7844 7842 8025 7956 7843 7955
8 8026 8028 7846 7844 8027 7957 7845 7956
8 8028 8030 7848 7846 8029 7958 7847 7957
8 8030 8032 7850 7848 8031 7959 7849 7958
8 8032 8034 7852 7850 8033 7960 7851 7959
8 8034 8036 7854 7852 8035 7961 7853 7960
8 8036 8038 7856 7854 8037 7962 7855 7961
8 8038 8040 7858 7856 8039 7963 7857 7962
8 8040 8042 7860 7858 8041 7964 7859 7963
8 8042 8044 7862 7860 8043 7965 7861 7964
8 8044 8046 7864 7862 8045 7966 7863 7965
8 8046 8048 7866 7864 8047 7967 7865 7966
8 8048 8050 7868 7866 8049 7968 7867 7967
8 8050 8052 7870 7868 8051 7969 7869 7968
8 8052 8054 7872 7870 8053 7970 7871 7969
8 8054 8056 7874 7872 8055 7971 7873 7970
8 8056 8058 7876 7874 8057 7972 7875 7971
8 8058 8060 7878 7876 8059 7973 7877 7972
8 8060 8062 7880 7878 8061 7974 7879 7973
8 8062 8064 7882 7880 8063 7975 7881 7974
8 8064 8066 7884 7882 8065 7976 7883 7975
8 8066 8068 7886 7884 8067 7977 7885 7976
8 8068 8070 7888 7886 8069 7978 7887 7977
8 8070 8072 7890 7888 8071 7979 7889 7978
8 8072 8074 7892 7890 8073 7980 7891 7979
8 8074 8076 7894 7892 8075 7981 7893 7980
8 8076 8078 7896 7894 8077 7982 7895 7981
8 8078 8080 7898 7896 8079 7983 7897 7982
8 8080 8082 7900 7898 8081 7984 7899 7983
8 8082 8084 7902 7900 8083 7985 7901 7984
8 8084 8086 7904 7902 8085 7986 7903 7985
8 8086 8088 7906 7904 8087 7987 7905 7986
8 8088 8090 7908 7906 8089 7988 7907 7987
8 8090 8092 7910 7908 8091 7989 7909 7988
8 8092 8094 7912 7910 8093 7990 7911 7989
8 8094 8096 7914 7912 8095 7991 7913 7990
8 8096 8098 7916 7914 8097 7992 7915 7991
8 8098 8100 7918 7916 8099 7993 7917 7992
8 8100 8102 7920 7918 8101 7994 7919 7993
8 8102 8104 7922 7920 8103 7995 7921 7994
8 8104 8106 7924 7922 8105 7996 7923 7995
8 8106 8108 7926 7924 8107 7997 7925 7996
8 8108 8110 7928 7926 8109 7998 7927 7997
8 8110 8112 7930 7928 8111 7999 7929 7998
8 8112 8114 7932 7930 8113 8000 7931 7999
8 8114 8116 7934 7932 8115 8001 7933 8000
8 8116 8118 7936 7934 8117 8002 7935 8001
8 8118 8120 7938 7936 8119 8003 7937 8002
8 8120 8122 7940 7938 8121 8004 7939 8003
8 8122 8124 7942 7940 8123 8005 7941 8004
8 8124 8126 7944 7942 8125 8006 7943 8005
8 8126 8128 7946 7944 8127 8007 7945 8006
8 8190 8192 8010 8008 8191 8130 8009 8129
8 8192 8194 8012 8010 8193 8131 8011 8130
8 8194 8196 8014 8012 8195 8132 8013 8131
8 8196 8198 8016 8014 8197 8133 8015 8132
8 8198 8200 8018 8016 8199 8134 8017 8133
8 8200 8202 8020 8018 8201 8135 8019 8134
8 8202 8204 8022 8020 8203 8136 8021 8135
8 8204 8206 8024 8022 8205 8137 8023 8136
8 8206 8208 8026 8024 8207 8138 8025 8137
8 8208 8210 8028 8026 8209 8139 8027 8138
8 8210 8212 8030 8028 8211 8140 8029 8139
8 8212 8214 8032 8030 8213 8141 8031 8140
8 8214 8216 8034 8032 8215 8142 8033 8141
8 8216 8218 8036 8034 8217 8143 8035 8142
8 8218 8220 8038 8036 8219 8144 8037 8143
8 8220 8222 8040 8038 8221 8145 8039 8144
8 8222 8224 8042 8040 8223 8146 8041 8145
8 8224 8226 8044 8042 8225 8147 8043 8146
8 8226 8228 8046 8044 8227 8148 8045 8147
8 8228 8230 8048 8046 8229 8149 8047 8148
8 8230 8232 8050 8048 8231 8150 8049 8149
8 8232 8234 8052 8050 8233 8151 8051 8150
8 8234 8236 8054 8052 8235 8152 8053 8151
8 8236 8238 8056 8054 8237 8153 8055 8152
8 8238 8240 8058 8056 8239 8154 8057 8153
8 8240 8242 8060 8058 8241 8155 8059 8154
8 8242 8244 8062 8060 8243 8156 8061 8155
8 8244 8246 8064 8062 8245 8157 8063 8156
8 8246 8248 8066 8064 8247 8158 8065 8157
8 8248 8250 8068 8066 8249 8159 8067 8158
8 8250 8252 8070 8068 8251 8160 8069 8159
8 8252 8254 8072 8070 8253 8161 8071 8160
8 8254 8256 8074 8072 8255 8162 8073 8161
8 8256 8258 8076 8074 8257 8163 8075 8162
8 8258 8260 8078 8076 8259 8164 8077 8163
8 8260 8262 8080 8078 8261 8165 8079 8164
8 8262 8264 8082 8080 8263 8166 8081 8165
8 8264 8266 8084 8082 8265 8167 8083 8166
8 8266 8268 8086 8084 8267 8168 8085 8167
8 8268 8270 8088 8086 8269 8169 8087 8168
8 8270 8272 8090 8088 8271 8170 8089 8169
8 8272 8274 8092 8090 8273 8171 8091 8170
8 8274 8276 8094 8092 8275 8172 8093 8171
8 8276 8278 8096 8094 8277 8173 8095 8172
8 8278 8280 8098 8096 8279 8174 8097 8173
8 8280 8282 8100 8098 8281 8175 8099 8174
8 8282 8284 8102 8100 8283 8176 8101 8175
8 8284 8286 8104 8102 8285 8177 8103 8176
8 8286 8288 8106 8104 8287 8178 8105 8177
8 8288 8290 8108 8106 8289 8179 8107 8178
8 8290 8292 8110 8108 8291 8180 8109 8179
8 8292 8294 8112 8110 8293 8181 8111 8180
8 8294 8296 8114 8112 8295 8182 8113 8181
8 8296 8298 8116 8114 8297 8183 8115 8182
8 8298 8300 8118 8116 8299 8184 8117 8183
8 8300 8302 8120 8118 8301 8185 8119 8184
8 8302 8304 8122 8120 8303 8186 8121 8185
8 8304 8306 8124 8122 8305 8187 8123 8186
8 8306 8308 8126 8124 8307 8188 8125 8187
8 8308 8310 8128 8126 8309 8189 8127 8188
8 8372 8374 8192 8190 8373 8312 8191 8311
8 8374 8376 8194 8192 8375 8313 8193 8312
8 8376 8378 8196 8194 8377 8314 8195 8313
8 8378 8380 8198 8196 8379 8315 8197 8314
8 8380 8382 8200 8198 8381 8316 8199 8315
8 8382 8384 8202 8200 8383 8317 8201 8316
8 8384 8386 8204 8202 8385 8318 8203 8317
8 8386 8388 8206 8204 8387 8319 8205 8318
8 8388 8390 8208 8206 8389 8320 8207 8319
8 8390 8392 8210 8208 8391 8321 8209 8320
8 8392 8394 8212 8210 8393 8322 8211 8321
8 8394 8396 8214 8212 8395 8323 8213 8322
8 8396 8398 8216 8214 8397 8324 8215 8323
8 8398 8400 8218 8216 8399 8325 8217 8324
8 8400 8402 8220 8218 8401 8326 8219 8325
8 8402 8404 8222 8220 8403 8327 8221 8326
8 8404 8406 8224 8222 8405 8328 8223 8327
8 8406 8408 8226 8224 8407 8329 8225 8328
8 8408 8410 8228 8226 8409 8330 8227 8329
8 8410 8412 8230 8228 8411 8331 8229 8330
8 8412 8414 8232 8230 8413 8332 8231 8331
8 8414 8416 8234 8232 8415 8333 8233 8332
8 8416 8418 8236 8234 8417 8334 8235 8333
8 8418 8420 8238 8236 8419 8335 8237 8334
8 8420 8422 8240 8238 8421 8336 8239 8335
8 8422 8424 8242 8240 8423 8337 8241 8336
8 8424 8426 8244 8242 8425 8338 8243 8337
8 8426 8428 8246 8244 8427 8339 8245 8338
8 8428 8430 8248 8246 8429 8340 8247 8339
8 8430 8432 8250 8248 8431 8341 8249 8340
8 8432 8434 8252 8250 8433 8342 8251 8341
8 8434 8436 8254 8252 8435 8343 8253 8342
8 8436 8438 8256 8254 8437 8344 8255 8343
8 8438 8440 8258 8256 8439 8345 8257 8344
8 8440 8442 8260 8258 8441 8346 8259 8345
8 8442 8444 8262 8260 8443 8347 8261 8346
8 8444 8446 8264 8262 8445 8348 8263 8347
8 8446 8448 8266 8264 8447 8349 8265 8348
8 8448 8450 8268 8266 8449 8350 8267 8349
8 8450 8452 8270 8268 8451 8351 8269 8350
8 8452 8454 8272 8270 8453 8352 8271 8351
8 8454 8456 8274 8272 8455 8353 8273 8352
8 8456 8458 8276 8274 8457 8354 8275 8353
8 8458 8460 8278 8276 8459 8355 8277 8354
8 8460 8462 8280 8278 8461 8356 8279 8355
8 8462 8464 8282 8280 8463 8357 8281 8356
8 8464 8466 8284 8282 8465 8358 8283 8357
8 8466 8468 8286 8284 8467 8359 8285 8358
8 8468 8470 8288 8286 8469 8360 8287 8359
8 8470 8472 8290 8288 8471 8361 8289 8360
8 8472 8474 8292 8290 8473 8362 8291 8361
8 8474 8476 8294 8292 8475 8363 8293 8362
8 8476 8478 8296 8294 8477 8364 8295 8363
8 8478 8480 8298 8296 8479 8365 8297 8364
8 8480 8482 8300 8298 8481 8366 8299 8365
8 8482 8484 8302 8300 8483 8367 8301 8366
8 8484 8486 8304 8302 8485 8368 8303 8367
8 8486 8488 8306 8304 8487 8369 8305 8368
8 8488 8490 8308 8306 8489 8370 8307 8369
8 8490 8492 8310 8308 8491 8371 8309 8370
8 8554 8556 8374 8372 8555 8494 8373 8493
8 8556 8558 8376 8374 8557 8495 8375 8494
8 8558 8560 8378 8376 8559 8496 8377 8495
8 8560 8562 8380 8378 8561 8497 8379 8496
8 8562 8564 8382 8380 8563 8498 8381 8497
8 8564 8566 8384 8382 8565 8499 8383 8498
8 8566 8568 8386 8384 8567 8500 8385 8499
8 8568 8570 8388 8386 8569 8501 8387 8500
8 8570 8572 8390 8388 8571 8502 8389 8501
8 8572 8574 8392 8390 8573 8503 8391 8502
8 8574 8576 8394 8392 8575 8504 8393 8503
8 8576 8578 8396 8394 8577 8505 8395 8504
8 8578 8580 8398 8396 8579 8506 8397 8505
8 8580 8582 8400 8398 8581 8507 8399 8506
8 8582 8584 8402 8400 8583 8508 8401 8507
8 8584 8586 8404 8402 8585 8509 8403 8508
8 8586 8588 8406 8404 8587 8510 8405 8509
8 8588 8590 8408 8406 8589 8511 8407 8510
8 8590 8592 8410 8408 8591 8512 8409 8511
8 8592 8594 8412 8410 8593 8513 8411 8512
8 8594 8596 8414 8412 8595 8514 8413 8513
8 8596 8598 8416 8414 8597 8515 8415 8514
8 8598 8600 8418 8416 8599 8516 8417 8515
8 8600 8602 8420 8418 8601 8517 8419 8516
8 8602 8604 8422 8420 8603 8518 8421 8517
8 8604 8606 8424 8422 8605 8519 8423 8518
8 8606 8608 8426 8424 8607 8520 8425 8519
8 8608 8610 8428 8426 8609 8521 8427 8520
8 8610 8612 8430 8428 8611 8522 8429 8521
8 8612 8614 8432 8430 8613 8523 8431 8522
8 8614 8616 8434 8432 8615 8524 8433 8523
8 8616 8618 8436 8434 8617 8525 8435 8524
8 8618 8620 8438 8436 8619 8526 8437 8525
8 8620 8622 8440 8438 8621 8527 8439 8526
8 8622 8624 8442 8440 8623 8528 8441 8527
8 8624 8626 8444 8442 8625 8529 8443 8528
8 8626 8628 8446 8444 8627 8530 8445 8529
8 8628 8630 8448 8446 8629 8531 8447 8530
8 8630 8632 8450 8448 8631 8532 8449 8531
8 8632 8634 8452 8450 8633 8533 8451 8532
8 8634 8636 8454 8452 8635 8534 8453 8533
8 8636 8638 8456 8454 8637 8535 8455 8534
8 8638 8640 8458 8456 8639 8536 8457 8535
8 8640 8642 8460 8458 8641 8537 8459 8536
8 8642 8644 8462 8460 8643 8538 8461 8537
8 8644 8646 8464 8462 8645 8539 8463 8538
8 8646 8648 8466 8464 8647 8540 8465 8539
8 8648 8650 8468 8466 8649 8541 8467 8540
8 8650 8652 8470 8468 8651 8542 8469 8541
8 8652 8654 8472 8470 8653 8543 8471 8542
8 8654 8656 8474 8472 8655 8544 8473 8543
8 8656 8658 8476 8474 8657 8545 8475 8544
8 8658 8660 8478 8476 8659 8546 8477 8545
8 8660 8662 8480 8478 8661 8547 8479 8546
8 8662 8664 8482 8480 8663 8548 8481 8547
8 8664 8666 8484 8482 8665 8549 8483 8548
8 8666 8668 8486 8484 8667 8550 8485 8549
8 8668 8670 8488 8486 8669 8551 8487 8550
8 8670 8672 8490 8488 8671 8552 8489 8551
8 8672 8674 8492 8490 8673 8553 8491 8552
8 8736 8738 8556 8554 8737 8676 8555 8675
8 8738 8740 8558 8556 8739 8677 8557 8676
8 8740 8742 8560 8558 8741 8678 8559 8677
8 8742 8744 8562 8560 8743 8679 8561 8678
8 8744 8746 8564 8562 8745 8680 8563 8679
8 8746 8748 8566 8564 8747 8681 8565 8680
8 8748 8750 8568 8566 8749 8682 8567 8681
8 8750 8752 8570 8568 8751 8683 8569 8682
8 8752 8754 8572 8570 8753 8684 8571 8683
8 8754 8756 8574 8572 8755 8685 8573 8684
8 8756 8758 8576 8574 8757 8686 8575 8685
8 8758 8760 8578 8576 8759 8687 8577 8686
8 8760 8762 8580 8578 8761 8688 8579 8687
8 8762 8764 8582 8580 8763 8689 8581 8688
8 8764 8766 8584 8582 8765 8690 8583 8689
8 8766 8768 8586 8584 8767 8691 8585 8690
8 8768 8770 8588 8586 8769 8692 8587 8691
8 8770 8772 8590 8588 8771 8693 8589 8692
8 8772 8774 8592 8590 8773 8694 8591 8693
8 8774 8776 8594 8592 8775 8695 8593 8694
8 8776 8778 8596 8594 8777 8696 8595 8695
8 8778 8780 8598 8596 8779 8697 8597 8696
8 8780 8782 8600 8598 8781 8698 8599 8697
8 8782 8784 8602 8600 8783 8699 8601 8698
8 8784 8786 8604 8602 8785 8700 8603 8699
8 8786 8788 8606 8604 8787 8701 8605 8700
8 8788 8790 8608 8606 8789 8702 8607 8701
8 8790 8792 8610 8608 8791 8703 8609 8702
8 8792 8794 8612 8610 8793 8704 8611 8703
8 8794 8796 8614 8612 8795 8705 8613 8704
8 8796 8798 8616 8614 8797 8706 8615 8705
8 8798 8800 8618 8616 8799 8707 8617 8706
8 8800 8802 8620 8618 8801 8708 8619 8707
8 8802 8804 8622 8620 8803 8709 8621 8708
8 8804 8806 8624 8622 8805 8710 8623 8709
8 8806 8808 8626 8624 8807 8711 8625 8710
8 8808 8810 8628 8626 8809 8712 8627 8711
8 8810 8812 8630 8628 8811 8713 8629 8712
8 8812 8814 8632 8630 8813 8714 8631 8713
8 8814 8816 8634 8632 8815 8715 8633 8714
8 8816 8818 8636 8634 8817 8716 8635 8715
8 8818 8820 8638 8636 8819 8717 8637 8716
8 8820 8822 8640 8638 8821 8718 8639 8717
8 8822 8824 8642 8640 8823 8719 8641 8718
8 8824 8826 8644 8642 8825 8720 8643 8719
8 8826 8828 8646 8644 8827 8721 8645 8720
8 8828 8830 8648 8646 8829 8722 8647 8721
8 8830 8832 8650 8648 8831 8723 8649 8722
8 8832 8834 8652 8650 8833 8724 8651 8723
8 8834 8836 8654 8652 8835 8725 8653 8724
8 8836 8838 8656 8654 8837 8726 8655 8725
8 8838 8840 8658 8656 8839 8727 8657 8726
8 8840 8842 8660 8658 8841 8728 8659 8727
8 8842 8844 8662 8660 8843 8729 8661 8728
8 8844 8846 8664 8662 8845 8730 8663 8729
8 8846 8848 8666 8664 8847 8731 8665 8730
8 8848 8850 8668 8666 8849 8732 8667 8731
8 8850 8852 8670 8668 8851 8733 8669 8732
8 8852 8854 8672 8670 8853 8734 8671 8733
8 8854 8856 8674 8672 8855 8735 8673 8734
8 8918 8920 8738 8736 8919 8858 8737 8857
8 8920 8922 8740 8738 8921 8859 8739 8858
8 8922 8924 8742 8740 8923 8860 8741 8859
8 8924 8926 8744 8742 8925 8861 8743 8860
8 8926 8928 8746 8744 8927 8862 8745 8861
8 8928 8930 8748 8746 8929 8863 8747 8862
8 8930 8932 8750 8748 8931 8864 8749 8863
8 8932 8934 8752 8750 8933 8865 8751 8864
8 8934 8936 8754 8752 8935 8866 8753 8865
8 8936 8938 8756 8754 8937 8867 8755 8866
8 8938 8940 8758 8756 8939 8868 8757 8867
8 8940 8942 8760 8758 8941 8869 8759 8868
8 8942 8944 8762 8760 8943 8870 8761 8869
8 8944 8946 8764 8762 8945 8871 8763 8870
8 8946 8948 8766 8764 8947 8872 8765 8871
8 8948 8950 8768 8766 8949 8873 8767 8872
8 8950 8952 8770 8768 8951 8874 8769 8873
8 8952 8954 8772 8770 8953 8875 8771 8874
8 8954 8956 8774 8772 8955 8876 8773 8875
8 8956 8958 8776 8774 8957 8877 8775 8876
8 8958 8960 8778 8776 8959 8878 8777 8877
8 8960 8962 8780 8778 8961 8879 8779 8878
8 8962 8964 8782 8780 8963 8880 8781 8879
8 8964 8966 8784 8782 8965 8881 8783 8880
8 8966 8968 8786 8784 8967 8882 8785 8881
8 8968 8970 8788 8786 8969 8883 8787 8882
8 8970 8972 8790 8788 8971 8884 8789 8883
8 8972 8974 8792 8790 8973 8885 8791 8884
8 8974 8976 8794 8792 8975 8886 8793 8885
8 8976 8978 8796 8794 8977 8887 8795 8886
8 8978 8980 8798 8796 8979 8888 8797 8887
8 8980 8982 8800 8798 8981 8889 8799 8888
8 8982 8984 8802 8800 8983 8890 8801 8889
8 8984 8986 8804 8802 8985 8891 8803 8890
8 8986 8988 8806 8804 8987 8892 8805 8891
8 8988 8990 8808 8806 8989 8893 8807 8892
8 8990 8992 8810 8808 8991 8894 8809 8893
8 8992 8994 8812 8810 8993 8895 8811 8894
8 8994 8996 8814 8812 8995 8896 8813 8895
8 8996 8998 8816 8814 8997 8897 8815 8896
8 8998 9000 8818 8816 8999 8898 8817 8897
8 9000 9002 8820 8818 9001 8899 8819 8898
8 9002 9004 8822 8820 9003 8900 8821 8899
8 9004 9006 8824 8822 9005 8901 8823 8900
8 9006 9008 8826 8824 9007 8902 8825 8901
8 9008 9010 8828 8826 9009 8903 8827 8902
8 9010 9012 8830 8828 9011 8904 8829 8903
8 9012 9014 8832 8830 9013 8905 8831 8904
8 9014 9016 8834 8832 9015 8906 8833 8905
8 9016 9018 8836 8834 9017 8907 8835 8906
8 9018 9020 8838 8836 9019 8908 8837 8907
8 9020 9022 8840 8838 9021 8909 8839 8908
8 9022 9024 8842 8840 9023 8910 8841 8909
8 9024 9026 8844 8842 9025 8911 8843 8910
8 9026 9028 8846 8844 9027 8912 8845 8911
8 9028 9030 8848 8846 9029 8913 8847 8912
8 9030 9032 8850 8848 9031 8914 8849 8913
8 9032 9034 8852 8850 9033 8915 8851 8914
8 9034 9036 8854 8852 9035 8916 8853 8915
8 9036 9038 8856 8854 9037 8917 8855 8916
8 9100 9102 8920 8918 9101 9040 8919 9039
8 9102 9104 8922 8920 9103 9041 8921 9040
8 9104 9106 8924 8922 9105 9042 8923 9041
8 9106 9108 8926 8924 9107 9043 8925 9042
8 9108 9110 8928 8926 9109 9044 8927 9043
8 9110 9112 8930 8928 9111 9045 8929 9044
8 9112 9114 8932 8930 9113 9046 8931 9045
8 9114 9116 8934 8932 9115 9047 8933 9046
8 9116 9118 8936 8934 9117 9048 8935 9047
8 9118 9120 8938 8936 9119 9049 8937 9048
8 9120 9122 8940 8938 9121 9050 8939 9049
8 9122 9124 8942 8940 9123 9051 8941 9050
8 9124 9126 8944 8942 9125 9052 8943 9051
8 9126 9128 8946 8944 9127 9053 8945 9052
8 9128 9130 8948 8946 9129 9054 8947 9053
8 9130 9132 8950 8948 9131 9055 8949 9054
8 9132 9134 8952 8950 9133 9056 8951 9055
8 9134 9136 8954 8952 9135 9057 8953 9056
8 9136 9138 8956 8954 9137 9058 8955 9057
8 9138 9140 8958 8956 9139 9059 8957 9058
8 9140 9142 8960 8958 9141 9060 8959 9059
8 9142 9144 8962 8960 9143 9061 8961 9060
8 9144 9146 8964 8962 9145 9062 8963 9061
8 9146 9148 8966 8964 9147 9063 8965 9062
8 9148 9150 8968 8966 9149 9064 8967 9063
8 9150 9152 8970 8968 9151 9065 8969 9064
8 9152 9154 8972 8970 9153 9066 8971 9065
8 9154 9156 8974 8972 9155 9067 8973 9066
8 9156 9158 8976 8974 9157 9068 8975 9067
8 9158 9160 8978 8976 9159 9069 8977 9068
8 9160 9162 8980 8978 9161 9070 8979 9069
8 9162 9164 8982 8980 9163 9071 8981 9070
8 9164 9166 8984 8982 9165 9072 8983 9071
8 9166 9168 8986 8984 9167 9073 8985 9072
8 9168 9170 8988 8986 9169 9074 8987 9073
8 9170 9172 8990 8988 9171 9075 8989 9074
8 9172 9174 8992 8990 9173 9076 8991 9075
8 9174 9176 8994 8992 9175 9077 8993 9076
8 9176 9178 8996 8994 9177 9078 8995 9077
8 9178 9180 8998 8996 9179 9079 8997 9078
8 9180 9182 9000 8998 9181 9080 8999 9079
8 9182 9184 9002 9000 9183 9081 9001 9080
8 9184 9186 9004 9002 9185 9082 9003 9081
8 9186 9188 9006 9004 9187 9083 9005 9082
8 9188 9190 9008 9006 9189 9084 9007 9083
8 9190 9192 9010 9008 9191 9085 9009 9084
8 9192 9194 9012 9010 9193 9086 9011 9085
8 9194 9196 9014 9012 9195 9087 9013 9086
8 9196 9198 9016 9014 9197 9088 9015 9087
8 9198 9200 9018 9016 9199 9089 9017 9088
8 9200 9202 9020 9018 9201 9090 9019 9089
8 9202 9204 9022 9020 9203 9091 9021 9090
8 9204 9206 9024 9022 9205 9092 9023 9091
8 9206 9208 9026 9024 9207 9093 9025 9092
8 9208 9210 9028 9026 9209 9094 9027 9093
8 9210 9212 9030 9028 9211 9095 9029 9094
8 9212 9214 9032 9030 9213 9096 9031 9095
8 9214 9216 9034 9032 9215 9097 9033 9096
8 9216 9218 9036 9034 9217 9098 9035 9097
8 9218 9220 9038 9036 9219 9099 9037 9098
8 9282 9284 9102 9100 9283 9222 9101 9221
8 9284 9286 9104 9102 9285 9223 9103 9222
8 9286 9288 9106 9104 9287 9224 9105 9223
8 9288 9290 9108 9106 9289 9225 9107 9224
8 9290 9292 9110 9108 9291 9226 9109 9225
8 9292 9294 9112 9110 9293 9227 9111 9226
8 9294 9296 9114 9112 9295 9228 9113 9227
8 9296 9298 9116 9114 9297 9229 9115 9228
8 9298 9300 9118 9116 9299 9230 9117 9229
8 9300 9302 9120 9118 9301 9231 9119 9230
8 9302 9304 9122 9120 9303 9232 9121 9231
8 9304 9306 9124 9122 9305 9233 9123 9232
8 9306 9308 9126 9124 9307 9234 9125 9233
8 9308 9310 9128 9126 9309 9235 9127 9234
8 9310 9312 9130 9128 9311 9236 9129 9235
8 9312 9314 9132 9130 9313 9237 9131 9236
8 9314 9316 9134 9132 9315 9238 9133 9237
8 9316 9318 9136 9134 9317 9239 9135 9238
8 9318 9320 9138 9136 9319 9240 9137 9239
8 9320 9322 9140 9138 9321 9241 9139 9240
8 9322 9324 9142 9140 9323 9242 9141 9241
8 9324 9326 9144 9142 9325 9243 9143 9242
8 9326 9328 9146 9144 9327 9244 9145 9243
8 9328 9330 9148 9146 9329 9245 9147 9244
8 9330 9332 9150 9148 9331 9246 9149 9245
8 9332 9334 9152 9150 9333 9247 9151 9246
8 9334 9336 9154 9152 9335 9248 9153 9247
8 9336 9338 9156 9154 9337 9249 9155 9248
8 9338 9340 9158 9156 9339 9250 9157 9249
8 9340 9342 9160 9158 9341 9251 9159 9250
8 9342 9344 9162 9160 9343 9252 9161 9251
8 9344 9346 9164 9162 9345 9253 9163 9252
8 9346 9348 9166 9164 9347 9254 9165 9253
8 9348 9350 9168 9166 9349 9255 9167 9254
8 9350 9352 9170 9168 9351 9256 9169 9255
8 9352 9354 9172 9170 9353 9257 9171 9256
8 9354 9356 9174 9172 9355 9258 9173 9257
8 9356 9358 9176 9174 9357 9259 9175 9258
8 9358 9360 9178 9176 9359 9260 9177 9259
8 9360 9362 9180 9178 9361 9261 9179 9260
8 9362 9364 9182 9180 9363 9262 9181 9261
8 9364 9366 9184 9182 9365 9263 9183 9262
8 9366 9368 9186 9184 9367 9264 9185 9263
8 9368 9370 9188 9186 9369 9265 9187 9264
8 9370 9372 9190 9188 9371 9266 9189 9265
8 9372 9374 9192 9190 9373 9267 9191 9266
8 9374 9376 9194 9192 9375 9268 9193 9267
8 9376 9378 9196 9194 9377 9269 9195 9268
8 9378 9380 9198 9196 9379 9270 9197 9269
8 9380 9382 9200 9198 9381 9271 9199 9270
8 9382 9384 9202 9200 9383 9272 9201 9271
8 9384 9386 9204 9202 9385 9273 9203 9272
8 9386 9388 9206 9204 9387 9274 9205 9273
8 9388 9390 9208 9206 9389 9275 9207 9274
8 9390 9392 9210 9208 9391 9276 9209 9275
8 9392 9394 9212 9210 9393 9277 9211 9276
8 9394 9396 9214 9212 9395 9278 9213 9277
8 9396 9398 9216 9214 9397 9279 9215 9278
8 9398 9400 9218 9216 9399 9280 9217 9279
8 9400 9402 9220 9218 9401 9281 9219 9280
8 9464 9466 9284 9282 9465 9404 9283 9403
8 9466 9468 9286 9284 9467 9405 9285 9404
8 9468 9470 9288 9286 9469 9406 9287 9405
8 9470 9472 9290 9288 9471 9407 9289 9406
8 9472 9474 9292 9290 9473 9408 9291 9407
8 9474 9476 9294 9292 9475 9409 9293 9408
8 9476 9478 9296 9294 9477 9410 9295 9409
8 9478 9480 9298 9296 9479 9411 9297 9410
8 9480 9482 9300 9298 9481 9412 9299 9411
8 9482 9484 9302 9300 9483 9413 9301 9412
8 9484 9486 9304 9302 9485 9414 9303 9413
8 9486 9488 9306 9304 9487 9415 9305 9414
8 9488 9490 9308 9306 9489 9416 9307 9415
8 9490 9492 9310 9308 9491 9417 9309 9416
8 9492 9494 9312 9310 9493 9418 9311 9417
8 9494 9496 9314 9312 9495 9419 9313 9418
8 9496 9498 9316 9314 9497 9420 9315 9419
8 9498 9500 9318 9316 9499 9421 9317 9420
8 9500 9502 9320 9318 9501 9422 9319 9421
8 9502 9504 9322 9320 9503 9423 9321 9422
8 9504 9506 9324 9322 9505 9424 9323 9423
8 9506 9508 9326 9324 9507 9425 9325 9424
8 9508 9510 9328 9326 9509 9426 9327 9425
8 9510 9512 9330 9328 9511 9427 9329 9426
8 9512 9514 9332 9330 9513 9428 9331 9427
8 9514 9516 9334 9332 9515 9429 9333 9428
8 9516 9518 9336 9334 9517 9430 9335 9429
8 9518 9520 9338 9336 9519 9431 9337 9430
8 9520 9522 9340 9338 9521 9432 9339 9431
8 9522 9524 9342 9340 9523 9433 9341 9432
8 9524 9526 9344 9342 9525 9434 9343 9433
8 9526 9528 9346 9344 9527 9435 9345 9434
8 9528 9530 9348 9346 9529 9436 9347 9435
8 9530 9532 9350 9348 9531 9437 9349 9436
8 9532 9534 9352 9350 9533 9438 9351 9437
8 9534 9536 9354 9352 9535 9439 9353 9438
8 9536 9538 9356 9354 9537 9440 9355 9439
8 9538 9540 9358 9356 9539 9441 9357 9440
8 9540 9542 9360 9358 9541 9442 9359 9441
8 9542 9544 9362 9360 9543 9443 9361 9442
8 9544 9546 9364 9362 9545 9444 9363 9443
8 9546 9548 9366 9364 9547 9445 9365 9444
8 9548 9550 9368 9366 9549 9446 9367 9445
8 9550 9552 9370 9368 9551 9447 9369 9446
8 9552 9554 9372 9370 9553 9448 9371 9447
8 9554 9556 9374 9372 9555 9449 9373 9448
8 9556 9558 9376 9374 9557 9450 9375 9449
8 9558 9560 9378 9376 9559 9451 9377 9450
8 9560 9562 9380 9378 9561 9452 9379 9451
8 9562 9564 9382 9380 9563 9453 9381 9452
8 9564 9566 9384 9382 9565 9454 9383 9453
8 9566 9568 9386 9384 9567 9455 9385 9454
8 9568 9570 9388 9386 9569 9456 9387 9455
8 9570 9572 9390 9388 9571 9457 9389 9456
8 9572 9574 9392 9390 9573 9458 9391 9457
8 9574 9576 9394 9392 9575 9459 9393 9458
8 9576 9578 9396 9394 9577 9460 9395 9459
8 9578 9580 9398 9396 9579 9461 9397 9460
8 9580 9582 9400 9398 9581 9462 9399 9461
8 9582 9584 9402 9400 9583 9463 9401 9462
8 9646 9648 9466 9464 9647 9586 9465 9585
8 9648 9650 9468 9466 9649 9587 9467 9586
8 9650 9652 9470 9468 9651 9588 9469 9587
8 9652 9654 9472 9470 9653 9589 9471 9588
8 9654 9656 9474 9472 9655 9590 9473 9589
8 9656 9658 9476 9474 9657 9591 9475 9590
8 9658 9660 9478 9476 9659 9592 9477 9591
8 9660 9662 9480 9478 9661 9593 9479 9592
8 9662 9664 9482 9480 9663 9594 9481 9593
8 9664 9666 9484 9482 9665 9595 9483 9594
8 9666 9668 9486 9484 9667 9596 9485 9595
8 9668 9670 9488 9486 9669 9597 9487 9596
8 9670 9672 9490 9488 9671 9598 9489 9597
8 9672 9674 9492 9490 9673 9599 9491 9598
8 9674 9676 9494 9492 9675 9600 9493 9599
8 9676 9678 9496 9494 9677 9601 9495 9600
8 9678 9680 9498 9496 9679 9602 9497 9601
8 9680 9682 9500 9498 9681 9603 9499 9602
8 9682 9684 9502 9500 9683 9604 9501 9603
8 9684 9686 9504 9502 9685 9605 9503 9604
8 9686 9688 9506 9504 9687 9606 9505 9605
8 9688 9690 9508 9506 9689 9607 9507 9606
8 9690 9692 9510 9508 9691 9608 9509 9607
8 9692 9694 9512 9510 9693 9609 9511 9608
8 9694 9696 9514 9512 9695 9610 9513 9609
8 9696 9698 9516 9514 9697 9611 9515 9610
8 9698 9700 9518 9516 9699 9612 9517 9611
8 9700 9702 9520 9518 9701 9613 9519 9612
8 9702 9704 9522 9520 9703 9614 9521 9613
8 9704 9706 9524 9522 9705 9615 9523 9614
8 9706 9708 9526 9524 9707 9616 9525 9615
8 9708 9710 9528 9526 9709 9617 9527 9616
8 9710 9712 9530 9528 9711 9618 9529 9617
8 9712 9714 9532 9530 9713 9619 9531 9618
8 9714 9716 9534 9532 9715 9620 9533 9619
8 9716 9718 9536 9534 9717 9621 9535 9620
8 9718 9720 9538 9536 9719 9622 9537 9621
8 9720 9722 9540 9538 9721 9623 9539 9622
8 9722 9724 9542 9540 9723 9624 9541 9623
8 9724 9726 9544 9542 9725 9625 9543 9624
8 9726 9728 9546 9544 9727 9626 9545 9625
8 9728 9730 9548 9546 9729 9627 9547 9626
8 9730 9732 9550 9548 9731 9628 9549 9627
8 9732 9734 9552 9550 9733 9629 9551 9628
8 9734 9736 9554 9552 9735 9630 9553 9629
8 9736 9738 9556 9554 9737 9631 9555 9630
8 9738 9740 9558 9556 9739 9632 9557 9631
8 9740 9742 9560 9558 9741 9633 9559 9632
8 9742 9744 9562 9560 9743 9634 9561 9633
8 9744 9746 9564 9562 9745 9635 9563 9634
8 9746 9748 9566 9564 9747 9636 9565 9635
8 9748 9750 9568 9566 9749 9637 9567 9636
8 9750 9752 9570 9568 9751 9638 9569 9637
8 9752 9754 9572 9570 9753 9639 9571 9638
8 9754 9756 9574 9572 9755 9640 9573 9639
8 9756 9758 9576 9574 9757 9641 9575 9640
8 9758 9760 9578 9576 9759 9642 9577 9641
8 9760 9762 9580 9578 9761 9643 9579 9642
8 9762 9764 9582 9580 9763 9644 9581 9643
8 9764 9766 9584 9582 9765 9645 9583 9644
8 9828 9830 9648 9646 9829 9768 9647 9767
8 9830 9832 9650 9648 9831 9769 9649 9768
8 9832 9834 9652 9650 9833 9770 9651 9769
8 9834 9836 9654 9652 9835 9771 9653 9770
8 9836 9838 9656 9654 9837 9772 9655 9771
8 9838 9840 9658 9656 9839 9773 9657 9772
8 9840 9842 9660 9658 9841 9774 9659 9773
8 9842 9844 9662 9660 9843 9775 9661 9774
8 9844 9846 9664 9662 9845 9776 9663 9775
8 9846 9848 9666 9664 9847 9777 9665 9776
8 9848 9850 9668 9666 9849 9778 9667 9777
8 9850 9852 9670 9668 9851 9779 9669 9778
8 9852 9854 9672 9670 9853 9780 9671 9779
8 9854 9856 9674 9672 9855 9781 9673 9780
8 9856 9858 9676 9674 9857 9782 9675 9781
8 9858 9860 9678 9676 9859 9783 9677 9782
8 9860 9862 9680 9678 9861 9784 9679 9783
8 9862 9864 9682 9680 9863 9785 9681 9784
8 9864 9866 9684 9682 9865 9786 9683 9785
8 9866 9868 9686 9684 9867 9787 9685 9786
8 9868 9870 9688 9686 9869 9788 9687 9787
8 9870 9872 9690 9688 9871 9789 9689 9788
8 9872 9874 9692 9690 9873 9790 9691 9789
8 9874 9876 9694 9692 9875 9791 9693 9790
8 9876 9878 9696 9694 9877 9792 9695 9791
8 9878 9880 9698 9696 9879 9793 9697 9792
8 9880 9882 9700 9698 9881 9794 9699 9793
8 9882 9884 9702 9700 9883 9795 9701 9794
8 9884 9886 9704 9702 9885 9796 9703 9795
8 9886 9888 9706 9704 9887 9797 9705 9796
8 9888 9890 9708 9706 9889 9798 9707 9797
8 9890 9892 9710 9708 9891 9799 9709 9798
8 9892 9894 9712 9710 9893 9800 9711 9799
8 9894 9896 9714 9712 9895 9801 9713 9800
8 9896 9898 9716 9714 9897 9802 9715 9801
8 9898 9900 9718 9716 9899 9803 9717 9802
8 9900 9902 9720 9718 9901 9804 9719 9803
8 9902 9904 9722 9720 9903 9805 9721 9804
8 9904 9906 9724 9722 9905 9806 9723 9805
8 9906 9908 9726 9724 9907 9807 9725 9806
8 9908 9910 9728 9726 9909 9808 9727 9807
8 9910 9912 9730 9728 9911 9809 9729 9808
8 9912 9914 9732 9730 9913 9810 9731 9809
8 9914 9916 9734 9732 9915 9811 9733 9810
8 9916 9918 9736 9734 9917 9812 9735 9811
8 9918 9920 9738 9736 9919 9813 9737 9812
8 9920 9922 9740 9738 9921 9814 9739 9813
8 9922 9924 9742 9740 9923 9815 9741 9814
8 9924 9926 9744 9742 9925 9816 9743 9815
8 9926 9928 9746 9744 9927 9817 9745 9816
8 9928 9930 9748 9746 9929 9818 9747 9817
8 9930 9932 9750 9748 9931 9819 9749 9818
8 9932 9934 9752 9750 9933 9820 9751 9819
8 9934 9936 9754 9752 9935 9821 9753 9820
8 9936 9938 9756 9754 9937 9822 9755 9821
8 9938 9940 9758 9756 9939 9823 9757 9822
8 9940 9942 9760 9758 9941 9824 9759 9823
8 9942 9944 9762 9760 9943 9825 9761 9824
8 9944 9946 9764 9762 9945 9826 9763 9825
8 9946 9948 9766 9764 9947 9827 9765 9826
8 10010 10012  9830  9828 10011  9950  9829  9949
8 10012 10014  9832  9830 10013  9951  9831  9950
8 10014 10016  9834  9832 10015  9952  9833  9951
8 10016 10018  9836  9834 10017  9953  9835  9952
8 10018 10020  9838  9836 10019  9954  9837  9953
8 10020 10022  9840  9838 10021  9955  9839  9954
8 10022 10024  9842  9840 10023  9956  9841  9955
8 10024 10026  9844  9842 10025  9957  9843  9956
8 10026 10028  9846  9844 10027  9958  9845  9957
8 10028 10030  9848  9846 10029  9959  9847  9958
8 10030 10032  9850  9848 10031  9960  9849  9959
8 10032 10034  9852  9850 10033  9961  9851  9960
8 10034 10036  9854  9852 10035  9962  9853  9961
8 10036 10038  9856  9854 10037  9963  9855  9962
8 10038 10040  9858  9856 10039  9964  9857  9963
8 10040 10042  9860  9858 10041  9965  9859  9964
8 10042 10044  9862  9860 10043  9966  9861  9965
8 10044 10046  9864  9862 10045  9967  9863  9966
8 10046 10048  9866  9864 10047  9968  9865  9967
8 10048 10050  9868  9866 10049  9969  9867  9968
8 10050 10052  9870  9868 10051  9970  9869  9969
8 10052 10054  9872  9870 10053  9971  9871  9970
8 10054 10056  9874  9872 10055  9972  9873  9971
8 10056 10058  9876  9874 10057  9973  9875  9972
8 10058 10060  9878  9876 10059  9974  9877  9973
8 10060 10062  9880  9878 10061  9975  9879  9974
8 10062 10064  9882  9880 10063  9976  9881  9975
8 10064 10066  9884  9882 10065  9977  9883  9976
8 10066 10068  9886  9884 10067  9978  9885  9977
8 10068 10070  9888  9886 10069  9979  9887  9978
8 10070 10072  9890  9888 10071  9980  9889  9979
8 10072 10074  9892  9890 10073  9981  9891  9980
8 10074 10076  9894  9892 10075  9982  9893  9981
8 10076 10078  9896  9894 10077  9983  9895  9982
8 10078 10080  9898  9896 10079  9984  9897  9983
8 10080 10082  9900  9898 10081  9985  9899  9984
8 10082 10084  9902  9900 10083  9986  9901  9985
8 10084 10086  9904  9902 10085  9987  9903  9986
8 10086 10088  9906  9904 10087  9988  9905  9987
8 10088 10090  9908  9906 10089  9989  9907  9988
8 10090 10092  9910  9908 10091  9990  9909  9989
8 10092 10094  9912  9910 10093  9991  9911  9990
8 10094 10096  9914  9912 10095  9992  9913  9991
8 10096 10098  9916  9914 10097  9993  9915  9992
8 10098 10100  9918  9916 10099  9994  9917  9993
8 10100 10102  9920  9918 10101  9995  9919  9994
8 10102 10104  9922  9920 10103  9996  9921  9995
8 10104 10106  9924  9922 10105  9997  9923  9996
8 10106 10108  9926  9924 10107  9998  9925  9997
8 10108 10110  9928  9926 10109  9999  9927  9998
8 10110 10112  9930  9928 10111 10000  9929  9999
8 10112 10114  9932  9930 10113 10001  9931 10000
8 10114 10116  9934  9932 10115 10002  9933 10001
8 10116 10118  9936  9934 10117 10003  9935 10002
8 10118 10120  9938  9936 10119 10004  9937 10003
8 10120 10122  9940  9938 10121 10005  9939 10004
8 10122 10124  9942  9940 10123 10006  9941 10005
8 10124 10126  9944  9942 10125 10007  9943 10006
8 10126 10128  9946  9944 10127 10008  9945 10007
8 10128 10130  9948  9946 10129 10009  9947 10008
8 10192 10194 10012 10010 10193 10132 10011 10131
8 10194 10196 10014 10012 10195 10133 10013 10132
8 10196 10198 10016 10014 10197 10134 10015 10133
8 10198 10200 10018 10016 10199 10135 10017 10134
8 10200 10202 10020 10018 10201 10136 10019 10135
8 10202 10204 10022 10020 10203 10137 10021 10136
8 10204 10206 10024 10022 10205 10138 10023 10137
8 10206 10208 10026 10024 10207 10139 10025 10138
8 10208 10210 10028 10026 10209 10140 10027 10139
8 10210 10212 10030 10028 10211 10141 10029 10140
8 10212 10214 10032 10030 10213 10142 10031 10141
8 10214 10216 10034 10032 10215 10143 10033 10142
8 10216 10218 10036 10034 10217 10144 10035 10143
8 10218 10220 10038 10036 10219 10145 10037 10144
8 10220 10222 10040 10038 10221 10146 10039 10145
8 10222 10224 10042 10040 10223 10147 10041 10146
8 10224 10226 10044 10042 10225 10148 10043 10147
8 10226 10228 10046 10044 10227 10149 10045 10148
8 10228 10230 10048 10046 10229 10150 10047 10149
8 10230 10232 10050 10048 10231 10151 10049 10150
8 10232 10234 10052 10050 10233 10152 10051 10151
8 10234 10236 10054 10052 10235 10153 10053 10152
8 10236 10238 10056 10054 10237 10154 10055 10153
8 10238 10240 10058 10056 10239 10155 10057 10154
8 10240 10242 10060 10058 10241 10156 10059 10155
8 10242 10244 10062 10060 10243 10157 10061 10156
8 10244 10246 10064 10062 10245 10158 10063 10157
8 10246 10248 10066 10064 10247 10159 10065 10158
8 10248 10250 10068 10066 10249 10160 10067 10159
8 10250 10252 10070 10068 10251 10161 10069 10160
8 10252 10254 10072 10070 10253 10162 10071 10161
8 10254 10256 10074 10072 10255 10163 10073 10162
8 10256 10258 10076 10074 10257 10164 10075 10163
8 10258 10260 10078 10076 10259 10165 10077 10164
8 10260 10262 10080 10078 10261 10166 10079 10165
8 10262 10264 10082 10080 10263 10167 10081 10166
8 10264 10266 10084 10082 10265 10168 10083 10167
8 10266 10268 10086 10084 10267 10169 10085 10168
8 10268 10270 10088 10086 10269 10170 10087 10169
8 10270 10272 10090 10088 10271 10171 10089 10170
8 10272 10274 10092 10090 10273 10172 10091 10171
8 10274 10276 10094 10092 10275 10173 10093 10172
8 10276 10278 10096 10094 10277 10174 10095 10173
8 10278 10280 10098 10096 10279 10175 10097 10174
8 10280 10282 10100 10098 10281 10176 10099 10175
8 10282 10284 10102 10100 10283 10177 10101 10176
8 10284 10286 10104 10102 10285 10178 10103 10177
8 10286 10288 10106 10104 10287 10179 10105 10178
8 10288 10290 10108 10106 10289 10180 10107 10179
8 10290 10292 10110 10108 10291 10181 10109 10180
8 10292 10294 10112 10110 10293 10182 10111 10181
8 10294 10296 10114 10112 10295 10183 10113 10182
8 10296 10298 10116 10114 10297 10184 10115 10183
8 10298 10300 10118 10116 10299 10185 10117 10184
8 10300 10302 10120 10118 10301 10186 10119 10185
8 10302 10304 10122 10120 10303 10187 10121 10186
8 10304 10306 10124 10122 10305 10188 10123 10187
8 10306 10308 10126 10124 10307 10189 10125 10188
8 10308 10310 10128 10126 10309 10190 10127 10189
8 10310 10312 10130 10128 10311 10191 10129 10190
8 10374 10376 10194 10192 10375 10314 10193 10313
8 10376 10378 10196 10194 10377 10315 10195 10314
8 10378 10380 10198 10196 10379 10316 10197 10315
8 10380 10382 10200 10198 10381 10317 10199 10316
8 10382 10384 10202 10200 10383 10318 10201 10317
8 10384 10386 10204 10202 10385 10319 10203 10318
8 10386 10388 10206 10204 10387 10320 10205 10319
8 10388 10390 10208 10206 10389 10321 10207 10320
8 10390 10392 10210 10208 10391 10322 10209 10321
8 10392 10394 10212 10210 10393 10323 10211 10322
8 10394 10396 10214 10212 10395 10324 10213 10323
8 10396 10398 10216 10214 10397 10325 10215 10324
8 10398 10400 10218 10216 10399 10326 10217 10325
8 10400 10402 10220 10218 10401 10327 10219 10326
8 10402 10404 10222 10220 10403 10328 10221 10327
8 10404 10406 10224 10222 10405 10329 10223 10328
8 10406 10408 10226 10224 10407 10330 10225 10329
8 10408 10410 10228 10226 10409 10331 10227 10330
8 10410 10412 10230 10228 10411 10332 10229 10331
8 10412 10414 10232 10230 10413 10333 10231 10332
8 10414 10416 10234 10232 10415 10334 10233 10333
8 10416 10418 10236 10234 10417 10335 10235 10334
8 10418 10420 10238 10236 10419 10336 10237 10335
8 10420 10422 10240 10238 10421 10337 10239 10336
8 10422 10424 10242 10240 10423 10338 10241 10337
8 10424 10426 10244 10242 10425 10339 10243 10338
8 10426 10428 10246 10244 10427 10340 10245 10339
8 10428 10430 10248 10246 10429 10341 10247 10340
8 10430 10432 10250 10248 10431 10342 10249 10341
8 10432 10434 10252 10250 10433 10343 10251 10342
8 10434 10436 10254 10252 10435 10344 10253 10343
8 10436 10438 10256 10254 10437 10345 10255 10344
8 10438 10440 10258 10256 10439 10346 10257 10345
8 10440 10442 10260 10258 10441 10347 10259 10346
8 10442 10444 10262 10260 10443 10348 10261 10347
8 10444 10446 10264 10262 10445 10349 10263 10348
8 10446 10448 10266 10264 10447 10350 10265 10349
8 10448 10450 10268 10266 10449 10351 10267 10350
8 10450 10452 10270 10268 10451 10352 10269 10351
8 10452 10454 10272 10270 10453 10353 10271 10352
8 10454 10456 10274 10272 10455 10354 10273 10353
8 10456 10458 10276 10274 10457 10355 10275 10354
8 10458 10460 10278 10276 10459 10356 10277 10355
8 10460 10462 10280 10278 10461 10357 10279 10356
8 10462 10464 10282 10280 10463 10358 10281 10357
8 10464 10466 10284 10282 10465 10359 10283 10358
8 10466 10468 10286 10284 10467 10360 10285 10359
8 10468 10470 10288 10286 10469 10361 10287 10360
8 10470 10472 10290 10288 10471 10362 10289 10361
8 10472 10474 10292 10290 10473 10363 10291 10362
8 10474 10476 10294 10292 10475 10364 10293 10363
8 10476 10478 10296 10294 10477 10365 10295 10364
8 10478 10480 10298 10296 10479 10366 10297 10365
8 10480 10482 10300 10298 10481 10367 10299 10366
8 10482 10484 10302 10300 10483 10368 10301 10367
8 10484 10486 10304 10302 10485 10369 10303 10368
8 10486 10488 10306 10304 10487 10370 10305 10369
8 10488 10490 10308 10306 10489 10371 10307 10370
8 10490 10492 10310 10308 10491 10372 10309 10371
8 10492 10494 10312 10310 10493 10373 10311 10372
8 10556 10558 10376 10374 10557 10496 10375 10495
8 10558 10560 10378 10376 10559 10497 10377 10496
8 10560 10562 10380 10378 10561 10498 10379 10497
8 10562 10564 10382 10380 10563 10499 10381 10498
8 10564 10566 10384 10382 10565 10500 10383 10499
8 10566 10568 10386 10384 10567 10501 10385 10500
8 10568 10570 10388 10386 10569 10502 10387 10501
8 10570 10572 10390 10388 10571 10503 10389 10502
8 10572 10574 10392 10390 10573 10504 10391 10503
8 10574 10576 10394 10392 10575 10505 10393 10504
8 10576 10578 10396 10394 10577 10506 10395 10505
8 10578 10580 10398 10396 10579 10507 10397 10506
8 10580 10582 10400 10398 10581 10508 10399 10507
8 10582 10584 10402 10400 10583 10509 10401 10508
8 10584 10586 10404 10402 10585 10510 10403 10509
8 10586 10588 10406 10404 10587 10511 10405 10510
8 10588 10590 10408 10406 10589 10512 10407 10511
8 10590 10592 10410 10408 10591 10513 10409 10512
8 10592 10594 10412 10410 10593 10514 10411 10513
8 10594 10596 10414 10412 10595 10515 10413 10514
8 10596 10598 10416 10414 10597 10516 10415 10515
8 10598 10600 10418 10416 10599 10517 10417 10516
8 10600 10602 10420 10418 10601 10518 10419 10517
8 10602 10604 10422 10420 10603 10519 10421 10518
8 10604 10606 10424 10422 10605 10520 10423 10519
8 10606 10608 10426 10424 10607 10521 10425 10520
8 10608 10610 10428 10426 10609 10522 10427 10521
8 10610 10612 10430 10428 10611 10523 10429 10522
8 10612 10614 10432 10430 10613 10524 10431 10523
8 10614 10616 10434 10432 10615 10525 10433 10524
8 10616 10618 10436 10434 10617 10526 10435 10525
8 10618 10620 10438 10436 10619 10527 10437 10526
8 10620 10622 10440 10438 10621 10528 10439 10527
8 10622 10624 10442 10440 10623 10529 10441 10528
8 10624 10626 10444 10442 10625 10530 10443 10529
8 10626 10628 10446 10444 10627 10531 10445 10530
8 10628 10630 10448 10446 10629 10532 10447 10531
8 10630 10632 10450 10448 10631 10533 10449 10532
8 10632 10634 10452 10450 10633 10534 10451 10533
8 10634 10636 10454 10452 10635 10535 10453 10534
8 10636 10638 10456 10454 10637 10536 10455 10535
8 10638 10640 10458 10456 10639 10537 10457 10536
8 10640 10642 10460 10458 10641 10538 10459 10537
8 10642 10644 10462 10460 10643 10539 10461 10538
8 10644 10646 10464 10462 10645 10540 10463 10539
8 10646 10648 10466 10464 10647 10541 10465 10540
8 10648 10650 10468 10466 10649 10542 10467 10541
8 10650 10652 10470 10468 10651 10543 10469 10542
8 10652 10654 10472 10470 10653 10544 10471 10543
8 10654 10656 10474 10472 10655 10545 10473 10544
8 10656 10658 10476 10474 10657 10546 10475 10545
8 10658 10660 10478 10476 10659 10547 10477 10546
8 10660 10662 10480 10478 10661 10548 10479 10547
8 10662 10664 10482 10480 10663 10549 10481 10548
8 10664 10666 10484 10482 10665 10550 10483 10549
8 10666 10668 10486 10484 10667 10551 10485 10550
8 10668 10670 10488 10486 10669 10552 10487 10551
8 10670 10672 10490 10488 10671 10553 10489 10552
8 10672 10674 10492 10490 10673 10554 10491 10553
8 10674 10676 10494 10492 10675 10555 10493 10554
8 10738 10740 10558 10556 10739 10678 10557 10677
8 10740 10742 10560 10558 10741 10679 10559 10678
8 10742 10744 10562 10560 10743 10680 10561 10679
8 10744 10746 10564 10562 10745 10681 10563 10680
8 10746 10748 10566 10564 10747 10682 10565 10681
8 10748 10750 10568 10566 10749 10683 10567 10682
8 10750 10752 10570 10568 10751 10684 10569 10683
8 10752 10754 10572 10570 10753 10685 10571 10684
8 10754 10756 10574 10572 10755 10686 10573 10685
8 10756 10758 10576 10574 10757 10687 10575 10686
8 10758 10760 10578 10576 10759 10688 10577 10687
8 10760 10762 10580 10578 10761 10689 10579 10688
8 10762 10764 10582 10580 10763 10690 10581 10689
8 10764 10766 10584 10582 10765 10691 10583 10690
8 10766 10768 10586 10584 10767 10692 10585 10691
8 10768 10770 10588 10586 10769 10693 10587 10692
8 10770 10772 10590 10588 10771 10694 10589 10693
8 10772 10774 10592 10590 10773 10695 10591 10694
8 10774 10776 10594 10592 10775 10696 10593 10695
8 10776 10778 10596 10594 10777 10697 10595 10696
8 10778 10780 10598 10596 10779 10698 10597 10697
8 10780 10782 10600 10598 10781 10699 10599 10698
8 10782 10784 10602 10600 10783 10700 10601 10699
8 10784 10786 10604 10602 10785 10701 10603 10700
8 10786 10788 10606 10604 10787 10702 10605 10701
8 10788 10790 10608 10606 10789 10703 10607 10702
8 10790 10792 10610 10608 10791 10704 10609 10703
8 10792 10794 10612 10610 10793 10705 10611 10704
8 10794 10796 10614 10612 10795 10706 10613 10705
8 10796 10798 10616 10614 10797 10707 10615 10706
8 10798 10800 10618 10616 10799 10708 10617 10707
8 10800 10802 10620 10618 10801 10709 10619 10708
8 10802 10804 10622 10620 10803 10710 10621 10709
8 10804 10806 10624 10622 10805 10711 10623 10710
8 10806 10808 10626 10624 10807 10712 10625 10711
8 10808 10810 10628 10626 10809 10713 10627 10712
8 10810 10812 10630 10628 10811 10714 10629 10713
8 10812 10814 10632 10630 10813 10715 10631 10714
8 10814 10816 10634 10632 10815 10716 10633 10715
8 10816 10818 10636 10634 10817 10717 10635 10716
8 10818 10820 10638 10636 10819 10718 10637 10717
8 10820 10822 10640 10638 10821 10719 10639 10718
8 10822 10824 10642 10640 10823 10720 10641 10719
8 10824 10826 10644 10642 10825 10721 10643 10720
8 10826 10828 10646 10644 10827 10722 10645 10721
8 10828 10830 10648 10646 10829 10723 10647 10722
8 10830 10832 10650 10648 10831 10724 10649 10723
8 10832 10834 10652 10650 10833 10725 10651 10724
8 10834 10836 10654 10652 10835 10726 10653 10725
8 10836 10838 10656 10654 10837 10727 10655 10726
8 10838 10840 10658 10656 10839 10728 10657 10727
8 10840 10842 10660 10658 10841 10729 10659 10728
8 10842 10844 10662 10660 10843 10730 10661 10729
8 10844 10846 10664 10662 10845 10731 10663 10730
8 10846 10848 10666 10664 10847 10732 10665 10731
8 10848 10850 10668 10666 10849 10733 10667 10732
8 10850 10852 10670 10668 10851 10734 10669 10733
8 10852 10854 10672 10670 10853 10735 10671 10734
8 10854 10856 10674 10672 10855 10736 10673 10735
8 10856 10858 10676 10674 10857 10737 10675 10736
8 10920 10922 10740 10738 10921 10860 10739 10859
8 10922 10924 10742 10740 10923 10861 10741 10860
8 10924 10926 10744 10742 10925 10862 10743 10861
8 10926 10928 10746 10744 10927 10863 10745 10862
8 10928 10930 10748 10746 10929 10864 10747 10863
8 10930 10932 10750 10748 10931 10865 10749 10864
8 10932 10934 10752 10750 10933 10866 10751 10865
8 10934 10936 10754 10752 10935 10867 10753 10866
8 10936 10938 10756 10754 10937 10868 10755 10867
8 10938 10940 10758 10756 10939 10869 10757 10868
8 10940 10942 10760 10758 10941 10870 10759 10869
8 10942 10944 10762 10760 10943 10871 10761 10870
8 10944 10946 10764 10762 10945 10872 10763 10871
8 10946 10948 10766 10764 10947 10873 10765 10872
8 10948 10950 10768 10766 10949 10874 10767 10873
8 10950 10952 10770 10768 10951 10875 10769 10874
8 10952 10954 10772 10770 10953 10876 10771 10875
8 10954 10956 10774 10772 10955 10877 10773 10876
8 10956 10958 10776 10774 10957 10878 10775 10877
8 10958 10960 10778 10776 10959 10879 10777 10878
8 10960 10962 10780 10778 10961 10880 10779 10879
8 10962 10964 10782 10780 10963 10881 10781 10880
8 10964 10966 10784 10782 10965 10882 10783 10881
8 10966 10968 10786 10784 10967 10883 10785 10882
8 10968 10970 10788 10786 10969 10884 10787 10883
8 10970 10972 10790 10788 10971 10885 10789 10884
8 10972 10974 10792 10790 10973 10886 10791 10885
8 10974 10976 10794 10792 10975 10887 10793 10886
8 10976 10978 10796 10794 10977 10888 10795 10887
8 10978 10980 10798 10796 10979 10889 10797 10888
8 10980 10982 10800 10798 10981 10890 10799 10889
8 10982 10984 10802 10800 10983 10891 10801 10890
8 10984 10986 10804 10802 10985 10892 10803 10891
8 10986 10988 10806 10804 10987 10893 10805 10892
8 10988 10990 10808 10806 10989 10894 10807 10893
8 10990 10992 10810 10808 10991 10895 10809 10894
8 10992 10994 10812 10810 10993 10896 10811 10895
8 10994 10996 10814 10812 10995 10897 10813 10896
8 10996 10998 10816 10814 10997 10898 10815 10897
8 10998 11000 10818 10816 10999 10899 10817 10898
8 11000 11002 10820 10818 11001 10900 10819 10899
8 11002 11004 10822 10820 11003 10901 10821 10900
8 11004 11006 10824 10822 11005 10902 10823 10901
8 11006 11008 10826 10824 11007 10903 10825 10902
8 11008 11010 10828 10826 11009 10904 10827 10903
8 11010 11012 10830 10828 11011 10905 10829 10904
8 11012 11014 10832 10830 11013 10906 10831 10905
8 11014 11016 10834 10832 11015 10907 10833 10906
8 11016 11018 10836 10834 11017 10908 10835 10907
8 11018 11020 10838 10836 11019 10909 10837 10908
8 11020 11022 10840 10838 11021 10910 10839 10909
8 11022 11024 10842 10840 11023 10911 10841 10910
8 11024 11026 10844 10842 11025 10912 10843 10911
8 11026 11028 10846 10844 11027 10913 10845 10912
8 11028 11030 10848 10846 11029 10914 10847 10913
8 11030 11032 10850 10848 11031 10915 10849 10914
8 11032 11034 10852 10850 11033 10916 10851 10915
8 11034 11036 10854 10852 11035 10917 10853 10916
8 11036 11038 10856 10854 11037 10918 10855 10917
8 11038 11040 10858 10856 11039 10919 10857 10918
8 11102 11104 10922 10920 11103 11042 10921 11041
8 11104 11106 10924 10922 11105 11043 10923 11042
8 11106 11108 10926 10924 11107 11044 10925 11043
8 11108 11110 10928 10926 11109 11045 10927 11044
8 11110 11112 10930 10928 11111 11046 10929 11045
8 11112 11114 10932 10930 11113 11047 10931 11046
8 11114 11116 10934 10932 11115 11048 10933 11047
8 11116 11118 10936 10934 11117 11049 10935 11048
8 11118 11120 10938 10936 11119 11050 10937 11049
8 11120 11122 10940 10938 11121 11051 10939 11050
8 11122 11124 10942 10940 11123 11052 10941 11051
8 11124 11126 10944 10942 11125 11053 10943 11052
8 11126 11128 10946 10944 11127 11054 10945 11053
8 11128 11130 10948 10946 11129 11055 10947 11054
8 11130 11132 10950 10948 11131 11056 10949 11055
8 11132 11134 10952 10950 11133 11057 10951 11056
8 11134 11136 10954 10952 11135 11058 10953 11057
8 11136 11138 10956 10954 11137 11059 10955 11058
8 11138 11140 10958 10956 11139 11060 10957 11059
8 11140 11142 10960 10958 11141 11061 10959 11060
8 11142 11144 10962 10960 11143 11062 10961 11061
8 11144 11146 10964 10962 11145 11063 10963 11062
8 11146 11148 10966 10964 11147 11064 10965 11063
8 11148 11150 10968 10966 11149 11065 10967 11064
8 11150 11152 10970 10968 11151 11066 10969 11065
8 11152 11154 10972 10970 11153 11067 10971 11066
8 11154 11156 10974 10972 11155 11068 10973 11067
8 11156 11158 10976 10974 11157 11069 10975 11068
8 11158 11160 10978 10976 11159 11070 10977 11069
8 11160 11162 10980 10978 11161 11071 10979 11070
8 11162 11164 10982 10980 11163 11072 10981 11071
8 11164 11166 10984 10982 11165 11073 10983 11072
8 11166 11168 10986 10984 11167 11074 10985 11073
8 11168 11170 10988 10986 11169 11075 10987 11074
8 11170 11172 10990 10988 11171 11076 10989 11075
8 11172 11174 10992 10990 11173 11077 10991 11076
8 11174 11176 10994 10992 11175 11078 10993 11077
8 11176 11178 10996 10994 11177 11079 10995 11078
8 11178 11180 10998 10996 11179 11080 10997 11079
8 11180 11182 11000 10998 11181 11081 10999 11080
8 11182 11184 11002 11000 11183 11082 11001 11081
8 11184 11186 11004 11002 11185 11083 11003 11082
8 11186 11188 11006 11004 11187 11084 11005 11083
8 11188 11190 11008 11006 11189 11085 11007 11084
8 11190 11192 11010 11008 11191 11086 11009 11085
8 11192 11194 11012 11010 11193 11087 11011 11086
8 11194 11196 11014 11012 11195 11088 11013 11087
8 11196 11198 11016 11014 11197 11089 11015 11088
8 11198 11200 11018 11016 11199 11090 11017 11089
8 11200 11202 11020 11018 11201 11091 11019 11090
8 11202 11204 11022 11020 11203 11092 11021 11091
8 11204 11206 11024 11022 11205 11093 11023 11092
8 11206 11208 11026 11024 11207 11094 11025 11093
8 11208 11210 11028 11026 11209 11095 11027 11094
8 11210 11212 11030 11028 11211 11096 11029 11095
8 11212 11214 11032 11030 11213 11097 11031 11096
8 11214 11216 11034 11032 11215 11098 11033 11097
8 11216 11218 11036 11034 11217 11099 11035 11098
8 11218 11220 11038 11036 11219 11100 11037 11099
8 11220 11222 11040 11038 11221 11101 11039 11100
8 11284 11286 11104 11102 11285 11224 11103 11223
8 11286 11288 11106 11104 11287 11225 11105 11224
8 11288 11290 11108 11106 11289 11226 11107 11225
8 11290 11292 11110 11108 11291 11227 11109 11226
8 11292 11294 11112 11110 11293 11228 11111 11227
8 11294 11296 11114 11112 11295 11229 11113 11228
8 11296 11298 11116 11114 11297 11230 11115 11229
8 11298 11300 11118 11116 11299 11231 11117 11230
8 11300 11302 11120 11118 11301 11232 11119 11231
8 11302 11304 11122 11120 11303 11233 11121 11232
8 11304 11306 11124 11122 11305 11234 11123 11233
8 11306 11308 11126 11124 11307 11235 11125 11234
8 11308 11310 11128 11126 11309 11236 11127 11235
8 11310 11312 11130 11128 11311 11237 11129 11236
8 11312 11314 11132 11130 11313 11238 11131 11237
8 11314 11316 11134 11132 11315 11239 11133 11238
8 11316 11318 11136 11134 11317 11240 11135 11239
8 11318 11320 11138 11136 11319 11241 11137 11240
8 11320 11322 11140 11138 11321 11242 11139 11241
8 11322 11324 11142 11140 11323 11243 11141 11242
8 11324 11326 11144 11142 11325 11244 11143 11243
8 11326 11328 11146 11144 11327 11245 11145 11244
8 11328 11330 11148 11146 11329 11246 11147 11245
8 11330 11332 11150 11148 11331 11247 11149 11246
8 11332 11334 11152 11150 11333 11248 11151 11247
8 11334 11336 11154 11152 11335 11249 11153 11248
8 11336 11338 11156 11154 11337 11250 11155 11249
8 11338 11340 11158 11156 11339 11251 11157 11250
8 11340 11342 11160 11158 11341 11252 11159 11251
8 11342 11344 11162 11160 11343 11253 11161 11252
8 11344 11346 11164 11162 11345 11254 11163 11253
8 11346 11348 11166 11164 11347 11255 11165 11254
8 11348 11350 11168 11166 11349 11256 11167 11255
8 11350 11352 11170 11168 11351 11257 11169 11256
8 11352 11354 11172 11170 11353 11258 11171 11257
8 11354 11356 11174 11172 11355 11259 11173 11258
8 11356 11358 11176 11174 11357 11260 11175 11259
8 11358 11360 11178 11176 11359 11261 11177 11260
8 11360 11362 11180 11178 11361 11262 11179 11261
8 11362 11364 11182 11180 11363 11263 11181 11262
8 11364 11366 11184 11182 11365 11264 11183 11263
8 11366 11368 11186 11184 11367 11265 11185 11264
8 11368 11370 11188 11186 11369 11266 11187 11265
8 11370 11372 11190 11188 11371 11267 11189 11266
8 11372 11374 11192 11190 11373 11268 11191 11267
8 11374 11376 11194 11192 11375 11269 11193 11268
8 11376 11378 11196 11194 11377 11270 11195 11269
8 11378 11380 11198 11196 11379 11271 11197 11270
8 11380 11382 11200 11198 11381 11272 11199 11271
8 11382 11384 11202 11200 11383 11273 11201 11272
8 11384 11386 11204 11202 11385 11274 11203 11273
8 11386 11388 11206 11204 11387 11275 11205 11274
8 11388 11390 11208 11206 11389 11276 11207 11275
8 11390 11392 11210 11208 11391 11277 11209 11276
8 11392 11394 11212 11210 11393 11278 11211 11277
8 11394 11396 11214 11212 11395 11279 11213 11278
8 11396 11398 11216 11214 11397 11280 11215 11279
8 11398 11400 11218 11216 11399 11281 11217 11280
8 11400 11402 11220 11218 11401 11282 11219 11281
8 11402 11404 11222 11220 11403 11283 11221 11282
8 11466 11468 11286 11284 11467 11406 11285 11405
8 11468 11470 11288 11286 11469 11407 11287 11406
8 11470 11472 11290 11288 11471 11408 11289 11407
8 11472 11474 11292 11290 11473 11409 11291 11408
8 11474 11476 11294 11292 11475 11410 11293 11409
8 11476 11478 11296 11294 11477 11411 11295 11410
8 11478 11480 11298 11296 11479 11412 11297 11411
8 11480 11482 11300 11298 11481 11413 11299 11412
8 11482 11484 11302 11300 11483 11414 11301 11413
8 11484 11486 11304 11302 11485 11415 11303 11414
8 11486 11488 11306 11304 11487 11416 11305 11415
8 11488 11490 11308 11306 11489 11417 11307 11416
8 11490 11492 11310 11308 11491 11418 11309 11417
8 11492 11494 11312 11310 11493 11419 11311 11418
8 11494 11496 11314 11312 11495 11420 11313 11419
8 11496 11498 11316 11314 11497 11421 11315 11420
8 11498 11500 11318 11316 11499 11422 11317 11421
8 11500 11502 11320 11318 11501 11423 11319 11422
8 11502 11504 11322 11320 11503 11424 11321 11423
8 11504 11506 11324 11322 11505 11425 11323 11424
8 11506 11508 11326 11324 11507 11426 11325 11425
8 11508 11510 11328 11326 11509 11427 11327 11426
8 11510 11512 11330 11328 11511 11428 11329 11427
8 11512 11514 11332 11330 11513 11429 11331 11428
8 11514 11516 11334 11332 11515 11430 11333 11429
8 11516 11518 11336 11334 11517 11431 11335 11430
8 11518 11520 11338 11336 11519 11432 11337 11431
8 11520 11522 11340 11338 11521 11433 11339 11432
8 11522 11524 11342 11340 11523 11434 11341 11433
8 11524 11526 11344 11342 11525 11435 11343 11434
8 11526 11528 11346 11344 11527 11436 11345 11435
8 11528 11530 11348 11346 11529 11437 11347 11436
8 11530 11532 11350 11348 11531 11438 11349 11437
8 11532 11534 11352 11350 11533 11439 11351 11438
8 11534 11536 11354 11352 11535 11440 11353 11439
8 11536 11538 11356 11354 11537 11441 11355 11440
8 11538 11540 11358 11356 11539 11442 11357 11441
8 11540 11542 11360 11358 11541 11443 11359 11442
8 11542 11544 11362 11360 11543 11444 11361 11443
8 11544 11546 11364 11362 11545 11445 11363 11444
8 11546 11548 11366 11364 11547 11446 11365 11445
8 11548 11550 11368 11366 11549 11447 11367 11446
8 11550 11552 11370 11368 11551 11448 11369 11447
8 11552 11554 11372 11370 11553 11449 11371 11448
8 11554 11556 11374 11372 11555 11450 11373 11449
8 11556 11558 11376 11374 11557 11451 11375 11450
8 11558 11560 11378 11376 11559 11452 11377 11451
8 11560 11562 11380 11378 11561 11453 11379 11452
8 11562 11564 11382 11380 11563 11454 11381 11453
8 11564 11566 11384 11382 11565 11455 11383 11454
8 11566 11568 11386 11384 11567 11456 11385 11455
8 11568 11570 11388 11386 11569 11457 11387 11456
8 11570 11572 11390 11388 11571 11458 11389 11457
8 11572 11574 11392 11390 11573 11459 11391 11458
8 11574 11576 11394 11392 11575 11460 11393 11459
8 11576 11578 11396 11394 11577 11461 11395 11460
8 11578 11580 11398 11396 11579 11462 11397 11461
8 11580 11582 11400 11398 11581 11463 11399 11462
8 11582 11584 11402 11400 11583 11464 11401 11463
8 11584 11586 11404 11402 11585 11465 11403 11464
8 11648 11650 11468 11466 11649 11588 11467 11587
8 11650 11652 11470 11468 11651 11589 11469 11588
8 11652 11654 11472 11470 11653 11590 11471 11589
8 11654 11656 11474 11472 11655 11591 11473 11590
8 11656 11658 11476 11474 11657 11592 11475 11591
8 11658 11660 11478 11476 11659 11593 11477 11592
8 11660 11662 11480 11478 11661 11594 11479 11593
8 11662 11664 11482 11480 11663 11595 11481 11594
8 11664 11666 11484 11482 11665 11596 11483 11595
8 11666 11668 11486 11484 11667 11597 11485 11596
8 11668 11670 11488 11486 11669 11598 11487 11597
8 11670 11672 11490 11488 11671 11599 11489 11598
8 11672 11674 11492 11490 11673 11600 11491 11599
8 11674 11676 11494 11492 11675 11601 11493 11600
8 11676 11678 11496 11494 11677 11602 11495 11601
8 11678 11680 11498 11496 11679 11603 11497 11602
8 11680 11682 11500 11498 11681 11604 11499 11603
8 11682 11684 11502 11500 11683 11605 11501 11604
8 11684 11686 11504 11502 11685 11606 11503 11605
8 11686 11688 11506 11504 11687 11607 11505 11606
8 11688 11690 11508 11506 11689 11608 11507 11607
8 11690 11692 11510 11508 11691 11609 11509 11608
8 11692 11694 11512 11510 11693 11610 11511 11609
8 11694 11696 11514 11512 11695 11611 11513 11610
8 11696 11698 11516 11514 11697 11612 11515 11611
8 11698 11700 11518 11516 11699 11613 11517 11612
8 11700 11702 11520 11518 11701 11614 11519 11613
8 11702 11704 11522 11520 11703 11615 11521 11614
8 11704 11706 11524 11522 11705 11616 11523 11615
8 11706 11708 11526 11524 11707 11617 11525 11616
8 11708 11710 11528 11526 11709 11618 11527 11617
8 11710 11712 11530 11528 11711 11619 11529 11618
8 11712 11714 11532 11530 11713 11620 11531 11619
8 11714 11716 11534 11532 11715 11621 11533 11620
8 11716 11718 11536 11534 11717 11622 11535 11621
8 11718 11720 11538 11536 11719 11623 11537 11622
8 11720 11722 11540 11538 11721 11624 11539 11623
8 11722 11724 11542 11540 11723 11625 11541 11624
8 11724 11726 11544 11542 11725 11626 11543 11625
8 11726 11728 11546 11544 11727 11627 11545 11626
8 11728 11730 11548 11546 11729 11628 11547 11627
8 11730 11732 11550 11548 11731 11629 11549 11628
8 11732 11734 11552 11550 11733 11630 11551 11629
8 11734 11736 11554 11552 11735 11631 11553 11630
8 11736 11738 11556 11554 11737 11632 11555 11631
8 11738 11740 11558 11556 11739 11633 11557 11632
8 11740 11742 11560 11558 11741 11634 11559 11633
8 11742 11744 11562 11560 11743 11635 11561 11634
8 11744 11746 11564 11562 11745 11636 11563 11635
8 11746 11748 11566 11564 11747 11637 11565 11636
8 11748 11750 11568 11566 11749 11638 11567 11637
8 11750 11752 11570 11568 11751 11639 11569 11638
8 11752 11754 11572 11570 11753 11640 11571 11639
8 11754 11756 11574 11572 11755 11641 11573 11640
8 11756 11758 11576 11574 11757 11642 11575 11641
8 11758 11760 11578 11576 11759 11643 11577 11642
8 11760 11762 11580 11578 11761 11644 11579 11643
8 11762 11764 11582 11580 11763 11645 11581 11644
8 11764 11766 11584 11582 11765 11646 11583 11645
8 11766 11768 11586 11584 11767 11647 11585 11646
8 11830 11832 11650 11648 11831 11770 11649 11769
8 11832 11834 11652 11650 11833 11771 11651 11770
8 11834 11836 11654 11652 11835 11772 11653 11771
8 11836 11838 11656 11654 11837 11773 11655 11772
8 11838 11840 11658 11656 11839 11774 11657 11773
8 11840 11842 11660 11658 11841 11775 11659 11774
8 11842 11844 11662 11660 11843 11776 11661 11775
8 11844 11846 11664 11662 11845 11777 11663 11776
8 11846 11848 11666 11664 11847 11778 11665 11777
8 11848 11850 11668 11666 11849 11779 11667 11778
8 11850 11852 11670 11668 11851 11780 11669 11779
8 11852 11854 11672 11670 11853 11781 11671 11780
8 11854 11856 11674 11672 11855 11782 11673 11781
8 11856 11858 11676 11674 11857 11783 11675 11782
8 11858 11860 11678 11676 11859 11784 11677 11783
8 11860 11862 11680 11678 11861 11785 11679 11784
8 11862 11864 11682 11680 11863 11786 11681 11785
8 11864 11866 11684 11682 11865 11787 11683 11786
8 11866 11868 11686 11684 11867 11788 11685 11787
8 11868 11870 11688 11686 11869 11789 11687 11788
8 11870 11872 11690 11688 11871 11790 11689 11789
8 11872 11874 11692 11690 11873 11791 11691 11790
8 11874 11876 11694 11692 11875 11792 11693 11791
8 11876 11878 11696 11694 11877 11793 11695 11792
8 11878 11880 11698 11696 11879 11794 11697 11793
8 11880 11882 11700 11698 11881 11795 11699 11794
8 11882 11884 11702 11700 11883 11796 11701 11795
8 11884 11886 11704 11702 11885 11797 11703 11796
8 11886 11888 11706 11704 11887 11798 11705 11797
8 11888 11890 11708 11706 11889 11799 11707 11798
8 11890 11892 11710 11708 11891 11800 11709 11799
8 11892 11894 11712 11710 11893 11801 11711 11800
8 11894 11896 11714 11712 11895 11802 11713 11801
8 11896 11898 11716 11714 11897 11803 11715 11802
8 11898 11900 11718 11716 11899 11804 11717 11803
8 11900 11902 11720 11718 11901 11805 11719 11804
8 11902 11904 11722 11720 11903 11806 11721 11805
8 11904 11906 11724 11722 11905 11807 11723 11806
8 11906 11908 11726 11724 11907 11808 11725 11807
8 11908 11910 11728 11726 11909 11809 11727 11808
8 11910 11912 11730 11728 11911 11810 11729 11809
8 11912 11914 11732 11730 11913 11811 11731 11810
8 11914 11916 11734 11732 11915 11812 11733 11811
8 11916 11918 11736 11734 11917 11813 11735 11812
8 11918 11920 11738 11736 11919 11814 11737 11813
8 11920 11922 11740 11738 11921 11815 11739 11814
8 11922 11924 11742 11740 11923 11816 11741 11815
8 11924 11926 11744 11742 11925 11817 11743 11816
8 11926 11928 11746 11744 11927 11818 11745 11817
8 11928 11930 11748 11746 11929 11819 11747 11818
8 11930 11932 11750 11748 11931 11820 11749 11819
8 11932 11934 11752 11750 11933 11821 11751 11820
8 11934 11936 11754 11752 11935 11822 11753 11821
8 11936 11938 11756 11754 11937 11823 11755 11822
8 11938 11940 11758 11756 11939 11824 11757 11823
8 11940 11942 11760 11758 11941 11825 11759 11824
8 11942 11944 11762 11760 11943 11826 11761 11825
8 11944 11946 11764 11762 11945 11827 11763 11826
8 11946 11948 11766 11764 11947 11828 11765 11827
8 11948 11950 11768 11766 11949 11829 11767 11828
8 12012 12014 11832 11830 12013 11952 11831 11951
8 12014 12016 11834 11832 12015 11953 11833 11952
8 12016 12018 11836 11834 12017 11954 11835 11953
8 12018 12020 11838 11836 12019 11955 11837 11954
8 12020 12022 11840 11838 12021 11956 11839 11955
8 12022 12024 11842 11840 12023 11957 11841 11956
8 12024 12026 11844 11842 12025 11958 11843 11957
8 12026 12028 11846 11844 12027 11959 11845 11958
8 12028 12030 11848 11846 12029 11960 11847 11959
8 12030 12032 11850 11848 12031 11961 11849 11960
8 12032 12034 11852 11850 12033 11962 11851 11961
8 12034 12036 11854 11852 12035 11963 11853 11962
8 12036 12038 11856 11854 12037 11964 11855 11963
8 12038 12040 11858 11856 12039 11965 11857 11964
8 12040 12042 11860 11858 12041 11966 11859 11965
8 12042 12044 11862 11860 12043 11967 11861 11966
8 12044 12046 11864 11862 12045 11968 11863 11967
8 12046 12048 11866 11864 12047 11969 11865 11968
8 12048 12050 11868 11866 12049 11970 11867 11969
8 12050 12052 11870 11868 12051 11971 11869 11970
8 12052 12054 11872 11870 12053 11972 11871 11971
8 12054 12056 11874 11872 12055 11973 11873 11972
8 12056 12058 11876 11874 12057 11974 11875 11973
8 12058 12060 11878 11876 12059 11975 11877 11974
8 12060 12062 11880 11878 12061 11976 11879 11975
8 12062 12064 11882 11880 12063 11977 11881 11976
8 12064 12066 11884 11882 12065 11978 11883 11977
8 12066 12068 11886 11884 12067 11979 11885 11978
8 12068 12070 11888 11886 12069 11980 11887 11979
8 12070 12072 11890 11888 12071 11981 11889 11980
8 12072 12074 11892 11890 12073 11982 11891 11981
8 12074 12076 11894 11892 12075 11983 11893 11982
8 12076 12078 11896 11894 12077 11984 11895 11983
8 12078 12080 11898 11896 12079 11985 11897 11984
8 12080 12082 11900 11898 12081 11986 11899 11985
8 12082 12084 11902 11900 12083 11987 11901 11986
8 12084 12086 11904 11902 12085 11988 11903 11987
8 12086 12088 11906 11904 12087 11989 11905 11988
8 12088 12090 11908 11906 12089 11990 11907 11989
8 12090 12092 11910 11908 12091 11991 11909 11990
8 12092 12094 11912 11910 12093 11992 11911 11991
8 12094 12096 11914 11912 12095 11993 11913 11992
8 12096 12098 11916 11914 12097 11994 11915 11993
8 12098 12100 11918 11916 12099 11995 11917 11994
8 12100 12102 11920 11918 12101 11996 11919 11995
8 12102 12104 11922 11920 12103 11997 11921 11996
8 12104 12106 11924 11922 12105 11998 11923 11997
8 12106 12108 11926 11924 12107 11999 11925 11998
8 12108 12110 11928 11926 12109 12000 11927 11999
8 12110 12112 11930 11928 12111 12001 11929 12000
8 12112 12114 11932 11930 12113 12002 11931 12001
8 12114 12116 11934 11932 12115 12003 11933 12002
8 12116 12118 11936 11934 12117 12004 11935 12003
8 12118 12120 11938 11936 12119 12005 11937 12004
8 12120 12122 11940 11938 12121 12006 11939 12005
8 12122 12124 11942 11940 12123 12007 11941 12006
8 12124 12126 11944 11942 12125 12008 11943 12007
8 12126 12128 11946 11944 12127 12009 11945 12008
8 12128 12130 11948 11946 12129 12010 11947 12009
8 12130 12132 11950 11948 12131 12011 11949 12010
8 12194 12196 12014 12012 12195 12134 12013 12133
8 12196 12198 12016 12014 12197 12135 12015 12134
8 12198 12200 12018 12016 12199 12136 12017 12135
8 12200 12202 12020 12018 12201 12137 12019 12136
8 12202 12204 12022 12020 12203 12138 12021 12137
8 12204 12206 12024 12022 12205 12139 12023 12138
8 12206 12208 12026 12024 12207 12140 12025 12139
8 12208 12210 12028 12026 12209 12141 12027 12140
8 12210 12212 12030 12028 12211 12142 12029 12141
8 12212 12214 12032 12030 12213 12143 12031 12142
8 12214 12216 12034 12032 12215 12144 12033 12143
8 12216 12218 12036 12034 12217 12145 12035 12144
8 12218 12220 12038 12036 12219 12146 12037 12145
8 12220 12222 12040 12038 12221 12147 12039 12146
8 12222 12224 12042 12040 12223 12148 12041 12147
8 12224 12226 12044 12042 12225 12149 12043 12148
8 12226 12228 12046 12044 12227 12150 12045 12149
8 12228 12230 12048 12046 12229 12151 12047 12150
8 12230 12232 12050 12048 12231 12152 12049 12151
8 12232 12234 12052 12050 12233 12153 12051 12152
8 12234 12236 12054 12052 12235 12154 12053 12153
8 12236 12238 12056 12054 12237 12155 12055 12154
8 12238 12240 12058 12056 12239 12156 12057 12155
8 12240 12242 12060 12058 12241 12157 12059 12156
8 12242 12244 12062 12060 12243 12158 12061 12157
8 12244 12246 12064 12062 12245 12159 12063 12158
8 12246 12248 12066 12064 12247 12160 12065 12159
8 12248 12250 12068 12066 12249 12161 12067 12160
8 12250 12252 12070 12068 12251 12162 12069 12161
8 12252 12254 12072 12070 12253 12163 12071 12162
8 12254 12256 12074 12072 12255 12164 12073 12163
8 12256 12258 12076 12074 12257 12165 12075 12164
8 12258 12260 12078 12076 12259 12166 12077 12165
8 12260 12262 12080 12078 12261 12167 12079 12166
8 12262 12264 12082 12080 12263 12168 12081 12167
8 12264 12266 12084 12082 12265 12169 12083 12168
8 12266 12268 12086 12084 12267 12170 12085 12169
8 12268 12270 12088 12086 12269 12171 12087 12170
8 12270 12272 12090 12088 12271 12172 12089 12171
8 12272 12274 12092 12090 12273 12173 12091 12172
8 12274 12276 12094 12092 12275 12174 12093 12173
8 12276 12278 12096 12094 12277 12175 12095 12174
8 12278 12280 12098 12096 12279 12176 12097 12175
8 12280 12282 12100 12098 12281 12177 12099 12176
8 12282 12284 12102 12100 12283 12178 12101 12177
8 12284 12286 12104 12102 12285 12179 12103 12178
8 12286 12288 12106 12104 12287 12180 12105 12179
8 12288 12290 12108 12106 12289 12181 12107 12180
8 12290 12292 12110 12108 12291 12182 12109 12181
8 12292 12294 12112 12110 12293 12183 12111 12182
8 12294 12296 12114 12112 12295 12184 12113 12183
8 12296 12298 12116 12114 12297 12185 12115 12184
8 12298 12300 12118 12116 12299 12186 12117 12185
8 12300 12302 12120 12118 12301 12187 12119 12186
8 12302 12304 12122 12120 12303 12188 12121 12187
8 12304 12306 12124 12122 12305 12189 12123 12188
8 12306 12308 12126 12124 12307 12190 12125 12189
8 12308 12310 12128 12126 12309 12191 12127 12190
8 12310 12312 12130 12128 12311 12192 12129 12191
8 12312 12314 12132 12130 12313 12193 12131 12192
8 12376 12378 12196 12194 12377 12316 12195 12315
8 12378 12380 12198 12196 12379 12317 12197 12316
8 12380 12382 12200 12198 12381 12318 12199 12317
8 12382 12384 12202 12200 12383 12319 12201 12318
8 12384 12386 12204 12202 12385 12320 12203 12319
8 12386 12388 12206 12204 12387 12321 12205 12320
8 12388 12390 12208 12206 12389 12322 12207 12321
8 12390 12392 12210 12208 12391 12323 12209 12322
8 12392 12394 12212 12210 12393 12324 12211 12323
8 12394 12396 12214 12212 12395 12325 12213 12324
8 12396 12398 12216 12214 12397 12326 12215 12325
8 12398 12400 12218 12216 12399 12327 12217 12326
8 12400 12402 12220 12218 12401 12328 12219 12327
8 12402 12404 12222 12220 12403 12329 12221 12328
8 12404 12406 12224 12222 12405 12330 12223 12329
8 12406 12408 12226 12224 12407 12331 12225 12330
8 12408 12410 12228 12226 12409 12332 12227 12331
8 12410 12412 12230 12228 12411 12333 12229 12332
8 12412 12414 12232 12230 12413 12334 12231 12333
8 12414 12416 12234 12232 12415 12335 12233 12334
8 12416 12418 12236 12234 12417 12336 12235 12335
8 12418 12420 12238 12236 12419 12337 12237 12336
8 12420 12422 12240 12238 12421 12338 12239 12337
8 12422 12424 12242 12240 12423 12339 12241 12338
8 12424 12426 12244 12242 12425 12340 12243 12339
8 12426 12428 12246 12244 12427 12341 12245 12340
8 12428 12430 12248 12246 12429 12342 12247 12341
8 12430 12432 12250 12248 12431 12343 12249 12342
8 12432 12434 12252 12250 12433 12344 12251 12343
8 12434 12436 12254 12252 12435 12345 12253 12344
8 12436 12438 12256 12254 12437 12346 12255 12345
8 12438 12440 12258 12256 12439 12347 12257 12346
8 12440 12442 12260 12258 12441 12348 12259 12347
8 12442 12444 12262 12260 12443 12349 12261 12348
8 12444 12446 12264 12262 12445 12350 12263 12349
8 12446 12448 12266 12264 12447 12351 12265 12350
8 12448 12450 12268 12266 12449 12352 12267 12351
8 12450 12452 12270 12268 12451 12353 12269 12352
8 12452 12454 12272 12270 12453 12354 12271 12353
8 12454 12456 12274 12272 12455 12355 12273 12354
8 12456 12458 12276 12274 12457 12356 12275 12355
8 12458 12460 12278 12276 12459 12357 12277 12356
8 12460 12462 12280 12278 12461 12358 12279 12357
8 12462 12464 12282 12280 12463 12359 12281 12358
8 12464 12466 12284 12282 12465 12360 12283 12359
8 12466 12468 12286 12284 12467 12361 12285 12360
8 12468 12470 12288 12286 12469 12362 12287 12361
8 12470 12472 12290 12288 12471 12363 12289 12362
8 12472 12474 12292 12290 12473 12364 12291 12363
8 12474 12476 12294 12292 12475 12365 12293 12364
8 12476 12478 12296 12294 12477 12366 12295 12365
8 12478 12480 12298 12296 12479 12367 12297 12366
8 12480 12482 12300 12298 12481 12368 12299 12367
8 12482 12484 12302 12300 12483 12369 12301 12368
8 12484 12486 12304 12302 12485 12370 12303 12369
8 12486 12488 12306 12304 12487 12371 12305 12370
8 12488 12490 12308 12306 12489 12372 12307 12371
8 12490 12492 12310 12308 12491 12373 12309 12372
8 12492 12494 12312 12310 12493 12374 12311 12373
8 12494 12496 12314 12312 12495 12375 12313 12374
8 12558 12560 12378 12376 12559 12498 12377 12497
8 12560 12562 12380 12378 12561 12499 12379 12498
8 12562 12564 12382 12380 12563 12500 12381 12499
8 12564 12566 12384 12382 12565 12501 12383 12500
8 12566 12568 12386 12384 12567 12502 12385 12501
8 12568 12570 12388 12386 12569 12503 12387 12502
8 12570 12572 12390 12388 12571 12504 12389 12503
8 12572 12574 12392 12390 12573 12505 12391 12504
8 12574 12576 12394 12392 12575 12506 12393 12505
8 12576 12578 12396 12394 12577 12507 12395 12506
8 12578 12580 12398 12396 12579 12508 12397 12507
8 12580 12582 12400 12398 12581 12509 12399 12508
8 12582 12584 12402 12400 12583 12510 12401 12509
8 12584 12586 12404 12402 12585 12511 12403 12510
8 12586 12588 12406 12404 12587 12512 12405 12511
8 12588 12590 12408 12406 12589 12513 12407 12512
8 12590 12592 12410 12408 12591 12514 12409 12513
8 12592 12594 12412 12410 12593 12515 12411 12514
8 12594 12596 12414 12412 12595 12516 12413 12515
8 12596 12598 12416 12414 12597 12517 12415 12516
8 12598 12600 12418 12416 12599 12518 12417 12517
8 12600 12602 12420 12418 12601 12519 12419 12518
8 12602 12604 12422 12420 12603 12520 12421 12519
8 12604 12606 12424 12422 12605 12521 12423 12520
8 12606 12608 12426 12424 12607 12522 12425 12521
8 12608 12610 12428 12426 12609 12523 12427 12522
8 12610 12612 12430 12428 12611 12524 12429 12523
8 12612 12614 12432 12430 12613 12525 12431 12524
8 12614 12616 12434 12432 12615 12526 12433 12525
8 12616 12618 12436 12434 12617 12527 12435 12526
8 12618 12620 12438 12436 12619 12528 12437 12527
8 12620 12622 12440 12438 12621 12529 12439 12528
8 12622 12624 12442 12440 12623 12530 12441 12529
8 12624 12626 12444 12442 12625 12531 12443 12530
8 12626 12628 12446 12444 12627 12532 12445 12531
8 12628 12630 12448 12446 12629 12533 12447 12532
8 12630 12632 12450 12448 12631 12534 12449 12533
8 12632 12634 12452 12450 12633 12535 12451 12534
8 12634 12636 12454 12452 12635 12536 12453 12535
8 12636 12638 12456 12454 12637 12537 12455 12536
8 12638 12640 12458 12456 12639 12538 12457 12537
8 12640 12642 12460 12458 12641 12539 12459 12538
8 12642 12644 12462 12460 12643 12540 12461 12539
8 12644 12646 12464 12462 12645 12541 12463 12540
8 12646 12648 12466 12464 12647 12542 12465 12541
8 12648 12650 12468 12466 12649 12543 12467 12542
8 12650 12652 12470 12468 12651 12544 12469 12543
8 12652 12654 12472 12470 12653 12545 12471 12544
8 12654 12656 12474 12472 12655 12546 12473 12545
8 12656 12658 12476 12474 12657 12547 12475 12546
8 12658 12660 12478 12476 12659 12548 12477 12547
8 12660 12662 12480 12478 12661 12549 12479 12548
8 12662 12664 12482 12480 12663 12550 12481 12549
8 12664 12666 12484 12482 12665 12551 12483 12550
8 12666 12668 12486 12484 12667 12552 12485 12551
8 12668 12670 12488 12486 12669 12553 12487 12552
8 12670 12672 12490 12488 12671 12554 12489 12553
8 12672 12674 12492 12490 12673 12555 12491 12554
8 12674 12676 12494 12492 12675 12556 12493 12555
8 12676 12678 12496 12494 12677 12557 12495 12556
8 12740 12742 12560 12558 12741 12680 12559 12679
8 12742 12744 12562 12560 12743 12681 12561 12680
8 12744 12746 12564 12562 12745 12682 12563 12681
8 12746 12748 12566 12564 12747 12683 12565 12682
8 12748 12750 12568 12566 12749 12684 12567 12683
8 12750 12752 12570 12568 12751 12685 12569 12684
8 12752 12754 12572 12570 12753 12686 12571 12685
8 12754 12756 12574 12572 12755 12687 12573 12686
8 12756 12758 12576 12574 12757 12688 12575 12687
8 12758 12760 12578 12576 12759 12689 12577 12688
8 12760 12762 12580 12578 12761 12690 12579 12689
8 12762 12764 12582 12580 12763 12691 12581 12690
8 12764 12766 12584 12582 12765 12692 12583 12691
8 12766 12768 12586 12584 12767 12693 12585 12692
8 12768 12770 12588 12586 12769 12694 12587 12693
8 12770 12772 12590 12588 12771 12695 12589 12694
8 12772 12774 12592 12590 12773 12696 12591 12695
8 12774 12776 12594 12592 12775 12697 12593 12696
8 12776 12778 12596 12594 12777 12698 12595 12697
8 12778 12780 12598 12596 12779 12699 12597 12698
8 12780 12782 12600 12598 12781 12700 12599 12699
8 12782 12784 12602 12600 12783 12701 12601 12700
8 12784 12786 12604 12602 12785 12702 12603 12701
8 12786 12788 12606 12604 12787 12703 12605 12702
8 12788 12790 12608 12606 12789 12704 12607 12703
8 12790 12792 12610 12608 12791 12705 12609 12704
8 12792 12794 12612 12610 12793 12706 12611 12705
8 12794 12796 12614 12612 12795 12707 12613 12706
8 12796 12798 12616 12614 12797 12708 12615 12707
8 12798 12800 12618 12616 12799 12709 12617 12708
8 12800 12802 12620 12618 12801 12710 12619 12709
8 12802 12804 12622 12620 12803 12711 12621 12710
8 12804 12806 12624 12622 12805 12712 12623 12711
8 12806 12808 12626 12624 12807 12713 12625 12712
8 12808 12810 12628 12626 12809 12714 12627 12713
8 12810 12812 12630 12628 12811 12715 12629 12714
8 12812 12814 12632 12630 12813 12716 12631 12715
8 12814 12816 12634 12632 12815 12717 12633 12716
8 12816 12818 12636 12634 12817 12718 12635 12717
8 12818 12820 12638 12636 12819 12719 12637 12718
8 12820 12822 12640 12638 12821 12720 12639 12719
8 12822 12824 12642 12640 12823 12721 12641 12720
8 12824 12826 12644 12642 12825 12722 12643 12721
8 12826 12828 12646 12644 12827 12723 12645 12722
8 12828 12830 12648 12646 12829 12724 12647 12723
8 12830 12832 12650 12648 12831 12725 12649 12724
8 12832 12834 12652 12650 12833 12726 12651 12725
8 12834 12836 12654 12652 12835 12727 12653 12726
8 12836 12838 12656 12654 12837 12728 12655 12727
8 12838 12840 12658 12656 12839 12729 12657 12728
8 12840 12842 12660 12658 12841 12730 12659 12729
8 12842 12844 12662 12660 12843 12731 12661 12730
8 12844 12846 12664 12662 12845 12732 12663 12731
8 12846 12848 12666 12664 12847 12733 12665 12732
8 12848 12850 12668 12666 12849 12734 12667 12733
8 12850 12852 12670 12668 12851 12735 12669 12734
8 12852 12854 12672 12670 12853 12736 12671 12735
8 12854 12856 12674 12672 12855 12737 12673 12736
8 12856 12858 12676 12674 12857 12738 12675 12737
8 12858 12860 12678 12676 12859 12739 12677 12738
8 12922 12924 12742 12740 12923 12862 12741 12861
8 12924 12926 12744 12742 12925 12863 12743 12862
8 12926 12928 12746 12744 12927 12864 12745 12863
8 12928 12930 12748 12746 12929 12865 12747 12864
8 12930 12932 12750 12748 12931 12866 12749 12865
8 12932 12934 12752 12750 12933 12867 12751 12866
8 12934 12936 12754 12752 12935 12868 12753 12867
8 12936 12938 12756 12754 12937 12869 12755 12868
8 12938 12940 12758 12756 12939 12870 12757 12869
8 12940 12942 12760 12758 12941 12871 12759 12870
8 12942 12944 12762 12760 12943 12872 12761 12871
8 12944 12946 12764 12762 12945 12873 12763 12872
8 12946 12948 12766 12764 12947 12874 12765 12873
8 12948 12950 12768 12766 12949 12875 12767 12874
8 12950 12952 12770 12768 12951 12876 12769 12875
8 12952 12954 12772 12770 12953 12877 12771 12876
8 12954 12956 12774 12772 12955 12878 12773 12877
8 12956 12958 12776 12774 12957 12879 12775 12878
8 12958 12960 12778 12776 12959 12880 12777 12879
8 12960 12962 12780 12778 12961 12881 12779 12880
8 12962 12964 12782 12780 12963 12882 12781 12881
8 12964 12966 12784 12782 12965 12883 12783 12882
8 12966 12968 12786 12784 12967 12884 12785 12883
8 12968 12970 12788 12786 12969 12885 12787 12884
8 12970 12972 12790 12788 12971 12886 12789 12885
8 12972 12974 12792 12790 12973 12887 12791 12886
8 12974 12976 12794 12792 12975 12888 12793 12887
8 12976 12978 12796 12794 12977 12889 12795 12888
8 12978 12980 12798 12796 12979 12890 12797 12889
8 12980 12982 12800 12798 12981 12891 12799 12890
8 12982 12984 12802 12800 12983 12892 12801 12891
8 12984 12986 12804 12802 12985 12893 12803 12892
8 12986 12988 12806 12804 12987 12894 12805 12893
8 12988 12990 12808 12806 12989 12895 12807 12894
8 12990 12992 12810 12808 12991 12896 12809 12895
8 12992 12994 12812 12810 12993 12897 12811 12896
8 12994 12996 12814 12812 12995 12898 12813 12897
8 12996 12998 12816 12814 12997 12899 12815 12898
8 12998 13000 12818 12816 12999 12900 12817 12899
8 13000 13002 12820 12818 13001 12901 12819 12900
8 13002 13004 12822 12820 13003 12902 12821 12901
8 13004 13006 12824 12822 13005 12903 12823 12902
8 13006 13008 12826 12824 13007 12904 12825 12903
8 13008 13010 12828 12826 13009 12905 12827 12904
8 13010 13012 12830 12828 13011 12906 12829 12905
8 13012 13014 12832 12830 13013 12907 12831 12906
8 13014 13016 12834 12832 13015 12908 12833 12907
8 13016 13018 12836 12834 13017 12909 12835 12908
8 13018 13020 12838 12836 13019 12910 12837 12909
8 13020 13022 12840 12838 13021 12911 12839 12910
8 13022 13024 12842 12840 13023 12912 12841 12911
8 13024 13026 12844 12842 13025 12913 12843 12912
8 13026 13028 12846 12844 13027 12914 12845 12913
8 13028 13030 12848 12846 13029 12915 12847 12914
8 13030 13032 12850 12848 13031 12916 12849 12915
8 13032 13034 12852 12850 13033 12917 12851 12916
8 13034 13036 12854 12852 13035 12918 12853 12917
8 13036 13038 12856 12854 13037 12919 12855 12918
8 13038 13040 12858 12856 13039 12920 12857 12919
8 13040 13042 12860 12858 13041 12921 12859 12920
8 13104 13106 12924 12922 13105 13044 12923 13043
8 13106 13108 12926 12924 13107 13045 12925 13044
8 13108 13110 12928 12926 13109 13046 12927 13045
8 13110 13112 12930 12928 13111 13047 12929 13046
8 13112 13114 12932 12930 13113 13048 12931 13047
8 13114 13116 12934 12932 13115 13049 12933 13048
8 13116 13118 12936 12934 13117 13050 12935 13049
8 13118 13120 12938 12936 13119 13051 12937 13050
8 13120 13122 12940 12938 13121 13052 12939 13051
8 13122 13124 12942 12940 13123 13053 12941 13052
8 13124 13126 12944 12942 13125 13054 12943 13053
8 13126 13128 12946 12944 13127 13055 12945 13054
8 13128 13130 12948 12946 13129 13056 12947 13055
8 13130 13132 12950 12948 13131 13057 12949 13056
8 13132 13134 12952 12950 13133 13058 12951 13057
8 13134 13136 12954 12952 13135 13059 12953 13058
8 13136 13138 12956 12954 13137 13060 12955 13059
8 13138 13140 12958 12956 13139 13061 12957 13060
8 13140 13142 12960 12958 13141 13062 12959 13061
8 13142 13144 12962 12960 13143 13063 12961 13062
8 13144 13146 12964 12962 13145 13064 12963 13063
8 13146 13148 12966 12964 13147 13065 12965 13064
8 13148 13150 12968 12966 13149 13066 12967 13065
8 13150 13152 12970 12968 13151 13067 12969 13066
8 13152 13154 12972 12970 13153 13068 12971 13067
8 13154 13156 12974 12972 13155 13069 12973 13068
8 13156 13158 12976 12974 13157 13070 12975 13069
8 13158 13160 12978 12976 13159 13071 12977 13070
8 13160 13162 12980 12978 13161 13072 12979 13071
8 13162 13164 12982 12980 13163 13073 12981 13072
8 13164 13166 12984 12982 13165 13074 12983 13073
8 13166 13168 12986 12984 13167 13075 12985 13074
8 13168 13170 12988 12986 13169 13076 12987 13075
8 13170 13172 12990 12988 13171 13077 12989 13076
8 13172 13174 12992 12990 13173 13078 12991 13077
8 13174 13176 12994 12992 13175 13079 12993 13078
8 13176 13178 12996 12994 13177 13080 12995 13079
8 13178 13180 12998 12996 13179 13081 12997 13080
8 13180 13182 13000 12998 13181 13082 12999 13081
8 13182 13184 13002 13000 13183 13083 13001 13082
8 13184 13186 13004 13002 13185 13084 13003 13083
8 13186 13188 13006 13004 13187 13085 13005 13084
8 13188 13190 13008 13006 13189 13086 13007 13085
8 13190 13192 13010 13008 13191 13087 13009 13086
8 13192 13194 13012 13010 13193 13088 13011 13087
8 13194 13196 13014 13012 13195 13089 13013 13088
8 13196 13198 13016 13014 13197 13090 13015 13089
8 13198 13200 13018 13016 13199 13091 13017 13090
8 13200 13202 13020 13018 13201 13092 13019 13091
8 13202 13204 13022 13020 13203 13093 13021 13092
8 13204 13206 13024 13022 13205 13094 13023 13093
8 13206 13208 13026 13024 13207 13095 13025 13094
8 13208 13210 13028 13026 13209 13096 13027 13095
8 13210 13212 13030 13028 13211 13097 13029 13096
8 13212 13214 13032 13030 13213 13098 13031 13097
8 13214 13216 13034 13032 13215 13099 13033 13098
8 13216 13218 13036 13034 13217 13100 13035 13099
8 13218 13220 13038 13036 13219 13101 13037 13100
8 13220 13222 13040 13038 13221 13102 13039 13101
8 13222 13224 13042 13040 13223 13103 13041 13102
8 13286 13288 13106 13104 13287 13226 13105 13225
8 13288 13290 13108 13106 13289 13227 13107 13226
8 13290 13292 13110 13108 13291 13228 13109 13227
8 13292 13294 13112 13110 13293 13229 13111 13228
8 13294 13296 13114 13112 13295 13230 13113 13229
8 13296 13298 13116 13114 13297 13231 13115 13230
8 13298 13300 13118 13116 13299 13232 13117 13231
8 13300 13302 13120 13118 13301 13233 13119 13232
8 13302 13304 13122 13120 13303 13234 13121 13233
8 13304 13306 13124 13122 13305 13235 13123 13234
8 13306 13308 13126 13124 13307 13236 13125 13235
8 13308 13310 13128 13126 13309 13237 13127 13236
8 13310 13312 13130 13128 13311 13238 13129 13237
8 13312 13314 13132 13130 13313 13239 13131 13238
8 13314 13316 13134 13132 13315 13240 13133 13239
8 13316 13318 13136 13134 13317 13241 13135 13240
8 13318 13320 13138 13136 13319 13242 13137 13241
8 13320 13322 13140 13138 13321 13243 13139 13242
8 13322 13324 13142 13140 13323 13244 13141 13243
8 13324 13326 13144 13142 13325 13245 13143 13244
8 13326 13328 13146 13144 13327 13246 13145 13245
8 13328 13330 13148 13146 13329 13247 13147 13246
8 13330 13332 13150 13148 13331 13248 13149 13247
8 13332 13334 13152 13150 13333 13249 13151 13248
8 13334 13336 13154 13152 13335 13250 13153 13249
8 13336 13338 13156 13154 13337 13251 13155 13250
8 13338 13340 13158 13156 13339 13252 13157 13251
8 13340 13342 13160 13158 13341 13253 13159 13252
8 13342 13344 13162 13160 13343 13254 13161 13253
8 13344 13346 13164 13162 13345 13255 13163 13254
8 13346 13348 13166 13164 13347 13256 13165 13255
8 13348 13350 13168 13166 13349 13257 13167 13256
8 13350 13352 13170 13168 13351 13258 13169 13257
8 13352 13354 13172 13170 13353 13259 13171 13258
8 13354 13356 13174 13172 13355 13260 13173 13259
8 13356 13358 13176 13174 13357 13261 13175 13260
8 13358 13360 13178 13176 13359 13262 13177 13261
8 13360 13362 13180 13178 13361 13263 13179 13262
8 13362 13364 13182 13180 13363 13264 13181 13263
8 13364 13366 13184 13182 13365 13265 13183 13264
8 13366 13368 13186 13184 13367 13266 13185 13265
8 13368 13370 13188 13186 13369 13267 13187 13266
8 13370 13372 13190 13188 13371 13268 13189 13267
8 13372 13374 13192 13190 13373 13269 13191 13268
8 13374 13376 13194 13192 13375 13270 13193 13269
8 13376 13378 13196 13194 13377 13271 13195 13270
8 13378 13380 13198 13196 13379 13272 13197 13271
8 13380 13382 13200 13198 13381 13273 13199 13272
8 13382 13384 13202 13200 13383 13274 13201 13273
8 13384 13386 13204 13202 13385 13275 13203 13274
8 13386 13388 13206 13204 13387 13276 13205 13275
8 13388 13390 13208 13206 13389 13277 13207 13276
8 13390 13392 13210 13208 13391 13278 13209 13277
8 13392 13394 13212 13210 13393 13279 13211 13278
8 13394 13396 13214 13212 13395 13280 13213 13279
8 13396 13398 13216 13214 13397 13281 13215 13280
8 13398 13400 13218 13216 13399 13282 13217 13281
8 13400 13402 13220 13218 13401 13283 13219 13282
8 13402 13404 13222 13220 13403 13284 13221 13283
8 13404 13406 13224 13222 13405 13285 13223 13284
8 13468 13470 13288 13286 13469 13408 13287 13407
8 13470 13472 13290 13288 13471 13409 13289 13408
8 13472 13474 13292 13290 13473 13410 13291 13409
8 13474 13476 13294 13292 13475 13411 13293 13410
8 13476 13478 13296 13294 13477 13412 13295 13411
8 13478 13480 13298 13296 13479 13413 13297 13412
8 13480 13482 13300 13298 13481 13414 13299 13413
8 13482 13484 13302 13300 13483 13415 13301 13414
8 13484 13486 13304 13302 13485 13416 13303 13415
8 13486 13488 13306 13304 13487 13417 13305 13416
8 13488 13490 13308 13306 13489 13418 13307 13417
8 13490 13492 13310 13308 13491 13419 13309 13418
8 13492 13494 13312 13310 13493 13420 13311 13419
8 13494 13496 13314 13312 13495 13421 13313 13420
8 13496 13498 13316 13314 13497 13422 13315 13421
8 13498 13500 13318 13316 13499 13423 13317 13422
8 13500 13502 13320 13318 13501 13424 13319 13423
8 13502 13504 13322 13320 13503 13425 13321 13424
8 13504 13506 13324 13322 13505 13426 13323 13425
8 13506 13508 13326 13324 13507 13427 13325 13426
8 13508 13510 13328 13326 13509 13428 13327 13427
8 13510 13512 13330 13328 13511 13429 13329 13428
8 13512 13514 13332 13330 13513 13430 13331 13429
8 13514 13516 13334 13332 13515 13431 13333 13430
8 13516 13518 13336 13334 13517 13432 13335 13431
8 13518 13520 13338 13336 13519 13433 13337 13432
8 13520 13522 13340 13338 13521 13434 13339 13433
8 13522 13524 13342 13340 13523 13435 13341 13434
8 13524 13526 13344 13342 13525 13436 13343 13435
8 13526 13528 13346 13344 13527 13437 13345 13436
8 13528 13530 13348 13346 13529 13438 13347 13437
8 13530 13532 13350 13348 13531 13439 13349 13438
8 13532 13534 13352 13350 13533 13440 13351 13439
8 13534 13536 13354 13352 13535 13441 13353 13440
8 13536 13538 13356 13354 13537 13442 13355 13441
8 13538 13540 13358 13356 13539 13443 13357 13442
8 13540 13542 13360 13358 13541 13444 13359 13443
8 13542 13544 13362 13360 13543 13445 13361 13444
8 13544 13546 13364 13362 13545 13446 13363 13445
8 13546 13548 13366 13364 13547 13447 13365 13446
8 13548 13550 13368 13366 13549 13448 13367 13447
8 13550 13552 13370 13368 13551 13449 13369 13448
8 13552 13554 13372 13370 13553 13450 13371 13449
8 13554 13556 13374 13372 13555 13451 13373 13450
8 13556 13558 13376 13374 13557 13452 13375 13451
8 13558 13560 13378 13376 13559 13453 13377 13452
8 13560 13562 13380 13378 13561 13454 13379 13453
8 13562 13564 13382 13380 13563 13455 13381 13454
8 13564 13566 13384 13382 13565 13456 13383 13455
8 13566 13568 13386 13384 13567 13457 13385 13456
8 13568 13570 13388 13386 13569 13458 13387 13457
8 13570 13572 13390 13388 13571 13459 13389 13458
8 13572 13574 13392 13390 13573 13460 13391 13459
8 13574 13576 13394 13392 13575 13461 13393 13460
8 13576 13578 13396 13394 13577 13462 13395 13461
8 13578 13580 13398 13396 13579 13463 13397 13462
8 13580 13582 13400 13398 13581 13464 13399 13463
8 13582 13584 13402 13400 13583 13465 13401 13464
8 13584 13586 13404 13402 13585 13466 13403 13465
8 13586 13588 13406 13404 13587 13467 13405 13466
8 13650 13652 13470 13468 13651 13590 13469 13589
8 13652 13654 13472 13470 13653 13591 13471 13590
8 13654 13656 13474 13472 13655 13592 13473 13591
8 13656 13658 13476 13474 13657 13593 13475 13592
8 13658 13660 13478 13476 13659 13594 13477 13593
8 13660 13662 13480 13478 13661 13595 13479 13594
8 13662 13664 13482 13480 13663 13596 13481 13595
8 13664 13666 13484 13482 13665 13597 13483 13596
8 13666 13668 13486 13484 13667 13598 13485 13597
8 13668 13670 13488 13486 13669 13599 13487 13598
8 13670 13672 13490 13488 13671 13600 13489 13599
8 13672 13674 13492 13490 13673 13601 13491 13600
8 13674 13676 13494 13492 13675 13602 13493 13601
8 13676 13678 13496 13494 13677 13603 13495 13602
8 13678 13680 13498 13496 13679 13604 13497 13603
8 13680 13682 13500 13498 13681 13605 13499 13604
8 13682 13684 13502 13500 13683 13606 13501 13605
8 13684 13686 13504 13502 13685 13607 13503 13606
8 13686 13688 13506 13504 13687 13608 13505 13607
8 13688 13690 13508 13506 13689 13609 13507 13608
8 13690 13692 13510 13508 13691 13610 13509 13609
8 13692 13694 13512 13510 13693 13611 13511 13610
8 13694 13696 13514 13512 13695 13612 13513 13611
8 13696 13698 13516 13514 13697 13613 13515 13612
8 13698 13700 13518 13516 13699 13614 13517 13613
8 13700 13702 13520 13518 13701 13615 13519 13614
8 13702 13704 13522 13520 13703 13616 13521 13615
8 13704 13706 13524 13522 13705 13617 13523 13616
8 13706 13708 13526 13524 13707 13618 13525 13617
8 13708 13710 13528 13526 13709 13619 13527 13618
8 13710 13712 13530 13528 13711 13620 13529 13619
8 13712 13714 13532 13530 13713 13621 13531 13620
8 13714 13716 13534 13532 13715 13622 13533 13621
8 13716 13718 13536 13534 13717 13623 13535 13622
8 13718 13720 13538 13536 13719 13624 13537 13623
8 13720 13722 13540 13538 13721 13625 13539 13624
8 13722 13724 13542 13540 13723 13626 13541 13625
8 13724 13726 13544 13542 13725 13627 13543 13626
8 13726 13728 13546 13544 13727 13628 13545 13627
8 13728 13730 13548 13546 13729 13629 13547 13628
8 13730 13732 13550 13548 13731 13630 13549 13629
8 13732 13734 13552 13550 13733 13631 13551 13630
8 13734 13736 13554 13552 13735 13632 13553 13631
8 13736 13738 13556 13554 13737 13633 13555 13632
8 13738 13740 13558 13556 13739 13634 13557 13633
8 13740 13742 13560 13558 13741 13635 13559 13634
8 13742 13744 13562 13560 13743 13636 13561 13635
8 13744 13746 13564 13562 13745 13637 13563 13636
8 13746 13748 13566 13564 13747 13638 13565 13637
8 13748 13750 13568 13566 13749 13639 13567 13638
8 13750 13752 13570 13568 13751 13640 13569 13639
8 13752 13754 13572 13570 13753 13641 13571 13640
8 13754 13756 13574 13572 13755 13642 13573 13641
8 13756 13758 13576 13574 13757 13643 13575 13642
8 13758 13760 13578 13576 13759 13644 13577 13643
8 13760 13762 13580 13578 13761 13645 13579 13644
8 13762 13764 13582 13580 13763 13646 13581 13645
8 13764 13766 13584 13582 13765 13647 13583 13646
8 13766 13768 13586 13584 13767 13648 13585 13647
8 13768 13770 13588 13586 13769 13649 13587 13648
8 13832 13834 13652 13650 13833 13772 13651 13771
8 13834 13836 13654 13652 13835 13773 13653 13772
8 13836 13838 13656 13654 13837 13774 13655 13773
8 13838 13840 13658 13656 13839 13775 13657 13774
8 13840 13842 13660 13658 13841 13776 13659 13775
8 13842 13844 13662 13660 13843 13777 13661 13776
8 13844 13846 13664 13662 13845 13778 13663 13777
8 13846 13848 13666 13664 13847 13779 13665 13778
8 13848 13850 13668 13666 13849 13780 13667 13779
8 13850 13852 13670 13668 13851 13781 13669 13780
8 13852 13854 13672 13670 13853 13782 13671 13781
8 13854 13856 13674 13672 13855 13783 13673 13782
8 13856 13858 13676 13674 13857 13784 13675 13783
8 13858 13860 13678 13676 13859 13785 13677 13784
8 13860 13862 13680 13678 13861 13786 13679 13785
8 13862 13864 13682 13680 13863 13787 13681 13786
8 13864 13866 13684 13682 13865 13788 13683 13787
8 13866 13868 13686 13684 13867 13789 13685 13788
8 13868 13870 13688 13686 13869 13790 13687 13789
8 13870 13872 13690 13688 13871 13791 13689 13790
8 13872 13874 13692 13690 13873 13792 13691 13791
8 13874 13876 13694 13692 13875 13793 13693 13792
8 13876 13878 13696 13694 13877 13794 13695 13793
8 13878 13880 13698 13696 13879 13795 13697 13794
8 13880 13882 13700 13698 13881 13796 13699 13795
8 13882 13884 13702 13700 13883 13797 13701 13796
8 13884 13886 13704 13702 13885 13798 13703 13797
8 13886 13888 13706 13704 13887 13799 13705 13798
8 13888 13890 13708 13706 13889 13800 13707 13799
8 13890 13892 13710 13708 13891 13801 13709 13800
8 13892 13894 13712 13710 13893 13802 13711 13801
8 13894 13896 13714 13712 13895 13803 13713 13802
8 13896 13898 13716 13714 13897 13804 13715 13803
8 13898 13900 13718 13716 13899 13805 13717 13804
8 13900 13902 13720 13718 13901 13806 13719 13805
8 13902 13904 13722 13720 13903 13807 13721 13806
8 13904 13906 13724 13722 13905 13808 13723 13807
8 13906 13908 13726 13724 13907 13809 13725 13808
8 13908 13910 13728 13726 13909 13810 13727 13809
8 13910 13912 13730 13728 13911 13811 13729 13810
8 13912 13914 13732 13730 13913 13812 13731 13811
8 13914 13916 13734 13732 13915 13813 13733 13812
8 13916 13918 13736 13734 13917 13814 13735 13813
8 13918 13920 13738 13736 13919 13815 13737 13814
8 13920 13922 13740 13738 13921 13816 13739 13815
8 13922 13924 13742 13740 13923 13817 13741 13816
8 13924 13926 13744 13742 13925 13818 13743 13817
8 13926 13928 13746 13744 13927 13819 13745 13818
8 13928 13930 13748 13746 13929 13820 13747 13819
8 13930 13932 13750 13748 13931 13821 13749 13820
8 13932 13934 13752 13750 13933 13822 13751 13821
8 13934 13936 13754 13752 13935 13823 13753 13822
8 13936 13938 13756 13754 13937 13824 13755 13823
8 13938 13940 13758 13756 13939 13825 13757 13824
8 13940 13942 13760 13758 13941 13826 13759 13825
8 13942 13944 13762 13760 13943 13827 13761 13826
8 13944 13946 13764 13762 13945 13828 13763 13827
8 13946 13948 13766 13764 13947 13829 13765 13828
8 13948 13950 13768 13766 13949 13830 13767 13829
8 13950 13952 13770 13768 13951 13831 13769 13830
8 14014 14016 13834 13832 14015 13954 13833 13953
8 14016 14018 13836 13834 14017 13955 13835 13954
8 14018 14020 13838 13836 14019 13956 13837 13955
8 14020 14022 13840 13838 14021 13957 13839 13956
8 14022 14024 13842 13840 14023 13958 13841 13957
8 14024 14026 13844 13842 14025 13959 13843 13958
8 14026 14028 13846 13844 14027 13960 13845 13959
8 14028 14030 13848 13846 14029 13961 13847 13960
8 14030 14032 13850 13848 14031 13962 13849 13961
8 14032 14034 13852 13850 14033 13963 13851 13962
8 14034 14036 13854 13852 14035 13964 13853 13963
8 14036 14038 13856 13854 14037 13965 13855 13964
8 14038 14040 13858 13856 14039 13966 13857 13965
8 14040 14042 13860 13858 14041 13967 13859 13966
8 14042 14044 13862 13860 14043 13968 13861 13967
8 14044 14046 13864 13862 14045 13969 13863 13968
8 14046 14048 13866 13864 14047 13970 13865 13969
8 14048 14050 13868 13866 14049 13971 13867 13970
8 14050 14052 13870 13868 14051 13972 13869 13971
8 14052 14054 13872 13870 14053 13973 13871 13972
8 14054 14056 13874 13872 14055 13974 13873 13973
8 14056 14058 13876 13874 14057 13975 13875 13974
8 14058 14060 13878 13876 14059 13976 13877 13975
8 14060 14062 13880 13878 14061 13977 13879 13976
8 14062 14064 13882 13880 14063 13978 13881 13977
8 14064 14066 13884 13882 14065 13979 13883 13978
8 14066 14068 13886 13884 14067 13980 13885 13979
8 14068 14070 13888 13886 14069 13981 13887 13980
8 14070 14072 13890 13888 14071 13982 13889 13981
8 14072 14074 13892 13890 14073 13983 13891 13982
8 14074 14076 13894 13892 14075 13984 13893 13983
8 14076 14078 13896 13894 14077 13985 13895 13984
8 14078 14080 13898 13896 14079 13986 13897 13985
8 14080 14082 13900 13898 14081 13987 13899 13986
8 14082 14084 13902 13900 14083 13988 13901 13987
8 14084 14086 13904 13902 14085 13989 13903 13988
8 14086 14088 13906 13904 14087 13990 13905 13989
8 14088 14090 13908 13906 14089 13991 13907 13990
8 14090 14092 13910 13908 14091 13992 13909 13991
8 14092 14094 13912 13910 14093 13993 13911 13992
8 14094 14096 13914 13912 14095 13994 13913 13993
8 14096 14098 13916 13914 14097 13995 13915 13994
8 14098 14100 13918 13916 14099 13996 13917 13995
8 14100 14102 13920 13918 14101 13997 13919 13996
8 14102 14104 13922 13920 14103 13998 13921 13997
8 14104 14106 13924 13922 14105 13999 13923 13998
8 14106 14108 13926 13924 14107 14000 13925 13999
8 14108 14110 13928 13926 14109 14001 13927 14000
8 14110 14112 13930 13928 14111 14002 13929 14001
8 14112 14114 13932 13930 14113 14003 13931 14002
8 14114 14116 13934 13932 14115 14004 13933 14003
8 14116 14118 13936 13934 14117 14005 13935 14004
8 14118 14120 13938 13936 14119 14006 13937 14005
8 14120 14122 13940 13938 14121 14007 13939 14006
8 14122 14124 13942 13940 14123 14008 13941 14007
8 14124 14126 13944 13942 14125 14009 13943 14008
8 14126 14128 13946 13944 14127 14010 13945 14009
8 14128 14130 13948 13946 14129 14011 13947 14010
8 14130 14132 13950 13948 14131 14012 13949 14011
8 14132 14134 13952 13950 14133 14013 13951 14012
8 14196 14198 14016 14014 14197 14136 14015 14135
8 14198 14200 14018 14016 14199 14137 14017 14136
8 14200 14202 14020 14018 14201 14138 14019 14137
8 14202 14204 14022 14020 14203 14139 14021 14138
8 14204 14206 14024 14022 14205 14140 14023 14139
8 14206 14208 14026 14024 14207 14141 14025 14140
8 14208 14210 14028 14026 14209 14142 14027 14141
8 14210 14212 14030 14028 14211 14143 14029 14142
8 14212 14214 14032 14030 14213 14144 14031 14143
8 14214 14216 14034 14032 14215 14145 14033 14144
8 14216 14218 14036 14034 14217 14146 14035 14145
8 14218 14220 14038 14036 14219 14147 14037 14146
8 14220 14222 14040 14038 14221 14148 14039 14147
8 14222 14224 14042 14040 14223 14149 14041 14148
8 14224 14226 14044 14042 14225 14150 14043 14149
8 14226 14228 14046 14044 14227 14151 14045 14150
8 14228 14230 14048 14046 14229 14152 14047 14151
8 14230 14232 14050 14048 14231 14153 14049 14152
8 14232 14234 14052 14050 14233 14154 14051 14153
8 14234 14236 14054 14052 14235 14155 14053 14154
8 14236 14238 14056 14054 14237 14156 14055 14155
8 14238 14240 14058 14056 14239 14157 14057 14156
8 14240 14242 14060 14058 14241 14158 14059 14157
8 14242 14244 14062 14060 14243 14159 14061 14158
8 14244 14246 14064 14062 14245 14160 14063 14159
8 14246 14248 14066 14064 14247 14161 14065 14160
8 14248 14250 14068 14066 14249 14162 14067 14161
8 14250 14252 14070 14068 14251 14163 14069 14162
8 14252 14254 14072 14070 14253 14164 14071 14163
8 14254 14256 14074 14072 14255 14165 14073 14164
8 14256 14258 14076 14074 14257 14166 14075 14165
8 14258 14260 14078 14076 14259 14167 14077 14166
8 14260 14262 14080 14078 14261 14168 14079 14167
8 14262 14264 14082 14080 14263 14169 14081 14168
8 14264 14266 14084 14082 14265 14170 14083 14169
8 14266 14268 14086 14084 14267 14171 14085 14170
8 14268 14270 14088 14086 14269 14172 14087 14171
8 14270 14272 14090 14088 14271 14173 14089 14172
8 14272 14274 14092 14090 14273 14174 14091 14173
8 14274 14276 14094 14092 14275 14175 14093 14174
8 14276 14278 14096 14094 14277 14176 14095 14175
8 14278 14280 14098 14096 14279 14177 14097 14176
8 14280 14282 14100 14098 14281 14178 14099 14177
8 14282 14284 14102 14100 14283 14179 14101 14178
8 14284 14286 14104 14102 14285 14180 14103 14179
8 14286 14288 14106 14104 14287 14181 14105 14180
8 14288 14290 14108 14106 14289 14182 14107 14181
8 14290 14292 14110 14108 14291 14183 14109 14182
8 14292 14294 14112 14110 14293 14184 14111 14183
8 14294 14296 14114 14112 14295 14185 14113 14184
8 14296 14298 14116 14114 14297 14186 14115 14185
8 14298 14300 14118 14116 14299 14187 14117 14186
8 14300 14302 14120 14118 14301 14188 14119 14187
8 14302 14304 14122 14120 14303 14189 14121 14188
8 14304 14306 14124 14122 14305 14190 14123 14189
8 14306 14308 14126 14124 14307 14191 14125 14190
8 14308 14310 14128 14126 14309 14192 14127 14191
8 14310 14312 14130 14128 14311 14193 14129 14192
8 14312 14314 14132 14130 14313 14194 14131 14193
8 14314 14316 14134 14132 14315 14195 14133 14194
8 14378 14380 14198 14196 14379 14318 14197 14317
8 14380 14382 14200 14198 14381 14319 14199 14318
8 14382 14384 14202 14200 14383 14320 14201 14319
8 14384 14386 14204 14202 14385 14321 14203 14320
8 14386 14388 14206 14204 14387 14322 14205 14321
8 14388 14390 14208 14206 14389 14323 14207 14322
8 14390 14392 14210 14208 14391 14324 14209 14323
8 14392 14394 14212 14210 14393 14325 14211 14324
8 14394 14396 14214 14212 14395 14326 14213 14325
8 14396 14398 14216 14214 14397 14327 14215 14326
8 14398 14400 14218 14216 14399 14328 14217 14327
8 14400 14402 14220 14218 14401 14329 14219 14328
8 14402 14404 14222 14220 14403 14330 14221 14329
8 14404 14406 14224 14222 14405 14331 14223 14330
8 14406 14408 14226 14224 14407 14332 14225 14331
8 14408 14410 14228 14226 14409 14333 14227 14332
8 14410 14412 14230 14228 14411 14334 14229 14333
8 14412 14414 14232 14230 14413 14335 14231 14334
8 14414 14416 14234 14232 14415 14336 14233 14335
8 14416 14418 14236 14234 14417 14337 14235 14336
8 14418 14420 14238 14236 14419 14338 14237 14337
8 14420 14422 14240 14238 14421 14339 14239 14338
8 14422 14424 14242 14240 14423 14340 14241 14339
8 14424 14426 14244 14242 14425 14341 14243 14340
8 14426 14428 14246 14244 14427 14342 14245 14341
8 14428 14430 14248 14246 14429 14343 14247 14342
8 14430 14432 14250 14248 14431 14344 14249 14343
8 14432 14434 14252 14250 14433 14345 14251 14344
8 14434 14436 14254 14252 14435 14346 14253 14345
8 14436 14438 14256 14254 14437 14347 14255 14346
8 14438 14440 14258 14256 14439 14348 14257 14347
8 14440 14442 14260 14258 14441 14349 14259 14348
8 14442 14444 14262 14260 14443 14350 14261 14349
8 14444 14446 14264 14262 14445 14351 14263 14350
8 14446 14448 14266 14264 14447 14352 14265 14351
8 14448 14450 14268 14266 14449 14353 14267 14352
8 14450 14452 14270 14268 14451 14354 14269 14353
8 14452 14454 14272 14270 14453 14355 14271 14354
8 14454 14456 14274 14272 14455 14356 14273 14355
8 14456 14458 14276 14274 14457 14357 14275 14356
8 14458 14460 14278 14276 14459 14358 14277 14357
8 14460 14462 14280 14278 14461 14359 14279 14358
8 14462 14464 14282 14280 14463 14360 14281 14359
8 14464 14466 14284 14282 14465 14361 14283 14360
8 14466 14468 14286 14284 14467 14362 14285 14361
8 14468 14470 14288 14286 14469 14363 14287 14362
8 14470 14472 14290 14288 14471 14364 14289 14363
8 14472 14474 14292 14290 14473 14365 14291 14364
8 14474 14476 14294 14292 14475 14366 14293 14365
8 14476 14478 14296 14294 14477 14367 14295 14366
8 14478 14480 14298 14296 14479 14368 14297 14367
8 14480 14482 14300 14298 14481 14369 14299 14368
8 14482 14484 14302 14300 14483 14370 14301 14369
8 14484 14486 14304 14302 14485 14371 14303 14370
8 14486 14488 14306 14304 14487 14372 14305 14371
8 14488 14490 14308 14306 14489 14373 14307 14372
8 14490 14492 14310 14308 14491 14374 14309 14373
8 14492 14494 14312 14310 14493 14375 14311 14374
8 14494 14496 14314 14312 14495 14376 14313 14375
8 14496 14498 14316 14314 14497 14377 14315 14376
8 14560 14562 14380 14378 14561 14500 14379 14499
8 14562 14564 14382 14380 14563 14501 14381 14500
8 14564 14566 14384 14382 14565 14502 14383 14501
8 14566 14568 14386 14384 14567 14503 14385 14502
8 14568 14570 14388 14386 14569 14504 14387 14503
8 14570 14572 14390 14388 14571 14505 14389 14504
8 14572 14574 14392 14390 14573 14506 14391 14505
8 14574 14576 14394 14392 14575 14507 14393 14506
8 14576 14578 14396 14394 14577 14508 14395 14507
8 14578 14580 14398 14396 14579 14509 14397 14508
8 14580 14582 14400 14398 14581 14510 14399 14509
8 14582 14584 14402 14400 14583 14511 14401 14510
8 14584 14586 14404 14402 14585 14512 14403 14511
8 14586 14588 14406 14404 14587 14513 14405 14512
8 14588 14590 14408 14406 14589 14514 14407 14513
8 14590 14592 14410 14408 14591 14515 14409 14514
8 14592 14594 14412 14410 14593 14516 14411 14515
8 14594 14596 14414 14412 14595 14517 14413 14516
8 14596 14598 14416 14414 14597 14518 14415 14517
8 14598 14600 14418 14416 14599 14519 14417 14518
8 14600 14602 14420 14418 14601 14520 14419 14519
8 14602 14604 14422 14420 14603 14521 14421 14520
8 14604 14606 14424 14422 14605 14522 14423 14521
8 14606 14608 14426 14424 14607 14523 14425 14522
8 14608 14610 14428 14426 14609 14524 14427 14523
8 14610 14612 14430 14428 14611 14525 14429 14524
8 14612 14614 14432 14430 14613 14526 14431 14525
8 14614 14616 14434 14432 14615 14527 14433 14526
8 14616 14618 14436 14434 14617 14528 14435 14527
8 14618 14620 14438 14436 14619 14529 14437 14528
8 14620 14622 14440 14438 14621 14530 14439 14529
8 14622 14624 14442 14440 14623 14531 14441 14530
8 14624 14626 14444 14442 14625 14532 14443 14531
8 14626 14628 14446 14444 14627 14533 14445 14532
8 14628 14630 14448 14446 14629 14534 14447 14533
8 14630 14632 14450 14448 14631 14535 14449 14534
8 14632 14634 14452 14450 14633 14536 14451 14535
8 14634 14636 14454 14452 14635 14537 14453 14536
8 14636 14638 14456 14454 14637 14538 14455 14537
8 14638 14640 14458 14456 14639 14539 14457 14538
8 14640 14642 14460 14458 14641 14540 14459 14539
8 14642 14644 14462 14460 14643 14541 14461 14540
8 14644 14646 14464 14462 14645 14542 14463 14541
8 14646 14648 14466 14464 14647 14543 14465 14542
8 14648 14650 14468 14466 14649 14544 14467 14543
8 14650 14652 14470 14468 14651 14545 14469 14544
8 14652 14654 14472 14470 14653 14546 14471 14545
8 14654 14656 14474 14472 14655 14547 14473 14546
8 14656 14658 14476 14474 14657 14548 14475 14547
8 14658 14660 14478 14476 14659 14549 14477 14548
8 14660 14662 14480 14478 14661 14550 14479 14549
8 14662 14664 14482 14480 14663 14551 14481 14550
8 14664 14666 14484 14482 14665 14552 14483 14551
8 14666 14668 14486 14484 14667 14553 14485 14552
8 14668 14670 14488 14486 14669 14554 14487 14553
8 14670 14672 14490 14488 14671 14555 14489 14554
8 14672 14674 14492 14490 14673 14556 14491 14555
8 14674 14676 14494 14492 14675 14557 14493 14556
8 14676 14678 14496 14494 14677 14558 14495 14557
8 14678 14680 14498 14496 14679 14559 14497 14558
8 14742 14744 14562 14560 14743 14682 14561 14681
8 14744 14746 14564 14562 14745 14683 14563 14682
8 14746 14748 14566 14564 14747 14684 14565 14683
8 14748 14750 14568 14566 14749 14685 14567 14684
8 14750 14752 14570 14568 14751 14686 14569 14685
8 14752 14754 14572 14570 14753 14687 14571 14686
8 14754 14756 14574 14572 14755 14688 14573 14687
8 14756 14758 14576 14574 14757 14689 14575 14688
8 14758 14760 14578 14576 14759 14690 14577 14689
8 14760 14762 14580 14578 14761 14691 14579 14690
8 14762 14764 14582 14580 14763 14692 14581 14691
8 14764 14766 14584 14582 14765 14693 14583 14692
8 14766 14768 14586 14584 14767 14694 14585 14693
8 14768 14770 14588 14586 14769 14695 14587 14694
8 14770 14772 14590 14588 14771 14696 14589 14695
8 14772 14774 14592 14590 14773 14697 14591 14696
8 14774 14776 14594 14592 14775 14698 14593 14697
8 14776 14778 14596 14594 14777 14699 14595 14698
8 14778 14780 14598 14596 14779 14700 14597 14699
8 14780 14782 14600 14598 14781 14701 14599 14700
8 14782 14784 14602 14600 14783 14702 14601 14701
8 14784 14786 14604 14602 14785 14703 14603 14702
8 14786 14788 14606 14604 14787 14704 14605 14703
8 14788 14790 14608 14606 14789 14705 14607 14704
8 14790 14792 14610 14608 14791 14706 14609 14705
8 14792 14794 14612 14610 14793 14707 14611 14706
8 14794 14796 14614 14612 14795 14708 14613 14707
8 14796 14798 14616 14614 14797 14709 14615 14708
8 14798 14800 14618 14616 14799 14710 14617 14709
8 14800 14802 14620 14618 14801 14711 14619 14710
8 14802 14804 14622 14620 14803 14712 14621 14711
8 14804 14806 14624 14622 14805 14713 14623 14712
8 14806 14808 14626 14624 14807 14714 14625 14713
8 14808 14810 14628 14626 14809 14715 14627 14714
8 14810 14812 14630 14628 14811 14716 14629 14715
8 14812 14814 14632 14630 14813 14717 14631 14716
8 14814 14816 14634 14632 14815 14718 14633 14717
8 14816 14818 14636 14634 14817 14719 14635 14718
8 14818 14820 14638 14636 14819 14720 14637 14719
8 14820 14822 14640 14638 14821 14721 14639 14720
8 14822 14824 14642 14640 14823 14722 14641 14721
8 14824 14826 14644 14642 14825 14723 14643 14722
8 14826 14828 14646 14644 14827 14724 14645 14723
8 14828 14830 14648 14646 14829 14725 14647 14724
8 14830 14832 14650 14648 14831 14726 14649 14725
8 14832 14834 14652 14650 14833 14727 14651 14726
8 14834 14836 14654 14652 14835 14728 14653 14727
8 14836 14838 14656 14654 14837 14729 14655 14728
8 14838 14840 14658 14656 14839 14730 14657 14729
8 14840 14842 14660 14658 14841 14731 14659 14730
8 14842 14844 14662 14660 14843 14732 14661 14731
8 14844 14846 14664 14662 14845 14733 14663 14732
8 14846 14848 14666 14664 14847 14734 14665 14733
8 14848 14850 14668 14666 14849 14735 14667 14734
8 14850 14852 14670 14668 14851 14736 14669 14735
8 14852 14854 14672 14670 14853 14737 14671 14736
8 14854 14856 14674 14672 14855 14738 14673 14737
8 14856 14858 14676 14674 14857 14739 14675 14738
8 14858 14860 14678 14676 14859 14740 14677 14739
8 14860 14862 14680 14678 14861 14741 14679 14740
8 14924 14926 14744 14742 14925 14864 14743 14863
8 14926 14928 14746 14744 14927 14865 14745 14864
8 14928 14930 14748 14746 14929 14866 14747 14865
8 14930 14932 14750 14748 14931 14867 14749 14866
8 14932 14934 14752 14750 14933 14868 14751 14867
8 14934 14936 14754 14752 14935 14869 14753 14868
8 14936 14938 14756 14754 14937 14870 14755 14869
8 14938 14940 14758 14756 14939 14871 14757 14870
8 14940 14942 14760 14758 14941 14872 14759 14871
8 14942 14944 14762 14760 14943 14873 14761 14872
8 14944 14946 14764 14762 14945 14874 14763 14873
8 14946 14948 14766 14764 14947 14875 14765 14874
8 14948 14950 14768 14766 14949 14876 14767 14875
8 14950 14952 14770 14768 14951 14877 14769 14876
8 14952 14954 14772 14770 14953 14878 14771 14877
8 14954 14956 14774 14772 14955 14879 14773 14878
8 14956 14958 14776 14774 14957 14880 14775 14879
8 14958 14960 14778 14776 14959 14881 14777 14880
8 14960 14962 14780 14778 14961 14882 14779 14881
8 14962 14964 14782 14780 14963 14883 14781 14882
8 14964 14966 14784 14782 14965 14884 14783 14883
8 14966 14968 14786 14784 14967 14885 14785 14884
8 14968 14970 14788 14786 14969 14886 14787 14885
8 14970 14972 14790 14788 14971 14887 14789 14886
8 14972 14974 14792 14790 14973 14888 14791 14887
8 14974 14976 14794 14792 14975 14889 14793 14888
8 14976 14978 14796 14794 14977 14890 14795 14889
8 14978 14980 14798 14796 14979 14891 14797 14890
8 14980 14982 14800 14798 14981 14892 14799 14891
8 14982 14984 14802 14800 14983 14893 14801 14892
8 14984 14986 14804 14802 14985 14894 14803 14893
8 14986 14988 14806 14804 14987 14895 14805 14894
8 14988 14990 14808 14806 14989 14896 14807 14895
8 14990 14992 14810 14808 14991 14897 14809 14896
8 14992 14994 14812 14810 14993 14898 14811 14897
8 14994 14996 14814 14812 14995 14899 14813 14898
8 14996 14998 14816 14814 14997 14900 14815 14899
8 14998 15000 14818 14816 14999 14901 14817 14900
8 15000 15002 14820 14818 15001 14902 14819 14901
8 15002 15004 14822 14820 15003 14903 14821 14902
8 15004 15006 14824 14822 15005 14904 14823 14903
8 15006 15008 14826 14824 15007 14905 14825 14904
8 15008 15010 14828 14826 15009 14906 14827 14905
8 15010 15012 14830 14828 15011 14907 14829 14906
8 15012 15014 14832 14830 15013 14908 14831 14907
8 15014 15016 14834 14832 15015 14909 14833 14908
8 15016 15018 14836 14834 15017 14910 14835 14909
8 15018 15020 14838 14836 15019 14911 14837 14910
8 15020 15022 14840 14838 15021 14912 14839 14911
8 15022 15024 14842 14840 15023 14913 14841 14912
8 15024 15026 14844 14842 15025 14914 14843 14913
8 15026 15028 14846 14844 15027 14915 14845 14914
8 15028 15030 14848 14846 15029 14916 14847 14915
8 15030 15032 14850 14848 15031 14917 14849 14916
8 15032 15034 14852 14850 15033 14918 14851 14917
8 15034 15036 14854 14852 15035 14919 14853 14918
8 15036 15038 14856 14854 15037 14920 14855 14919
8 15038 15040 14858 14856 15039 14921 14857 14920
8 15040 15042 14860 14858 15041 14922 14859 14921
8 15042 15044 14862 14860 15043 14923 14861 14922
8 15106 15108 14926 14924 15107 15046 14925 15045
8 15108 15110 14928 14926 15109 15047 14927 15046
8 15110 15112 14930 14928 15111 15048 14929 15047
8 15112 15114 14932 14930 15113 15049 14931 15048
8 15114 15116 14934 14932 15115 15050 14933 15049
8 15116 15118 14936 14934 15117 15051 14935 15050
8 15118 15120 14938 14936 15119 15052 14937 15051
8 15120 15122 14940 14938 15121 15053 14939 15052
8 15122 15124 14942 14940 15123 15054 14941 15053
8 15124 15126 14944 14942 15125 15055 14943 15054
8 15126 15128 14946 14944 15127 15056 14945 15055
8 15128 15130 14948 14946 15129 15057 14947 15056
8 15130 15132 14950 14948 15131 15058 14949 15057
8 15132 15134 14952 14950 15133 15059 14951 15058
8 15134 15136 14954 14952 15135 15060 14953 15059
8 15136 15138 14956 14954 15137 15061 14955 15060
8 15138 15140 14958 14956 15139 15062 14957 15061
8 15140 15142 14960 14958 15141 15063 14959 15062
8 15142 15144 14962 14960 15143 15064 14961 15063
8 15144 15146 14964 14962 15145 15065 14963 15064
8 15146 15148 14966 14964 15147 15066 14965 15065
8 15148 15150 14968 14966 15149 15067 14967 15066
8 15150 15152 14970 14968 15151 15068 14969 15067
8 15152 15154 14972 14970 15153 15069 14971 15068
8 15154 15156 14974 14972 15155 15070 14973 15069
8 15156 15158 14976 14974 15157 15071 14975 15070
8 15158 15160 14978 14976 15159 15072 14977 15071
8 15160 15162 14980 14978 15161 15073 14979 15072
8 15162 15164 14982 14980 15163 15074 14981 15073
8 15164 15166 14984 14982 15165 15075 14983 15074
8 15166 15168 14986 14984 15167 15076 14985 15075
8 15168 15170 14988 14986 15169 15077 14987 15076
8 15170 15172 14990 14988 15171 15078 14989 15077
8 15172 15174 14992 14990 15173 15079 14991 15078
8 15174 15176 14994 14992 15175 15080 14993 15079
8 15176 15178 14996 14994 15177 15081 14995 15080
8 15178 15180 14998 14996 15179 15082 14997 15081
8 15180 15182 15000 14998 15181 15083 14999 15082
8 15182 15184 15002 15000 15183 15084 15001 15083
8 15184 15186 15004 15002 15185 15085 15003 15084
8 15186 15188 15006 15004 15187 15086 15005 15085
8 15188 15190 15008 15006 15189 15087 15007 15086
8 15190 15192 15010 15008 15191 15088 15009 15087
8 15192 15194 15012 15010 15193 15089 15011 15088
8 15194 15196 15014 15012 15195 15090 15013 15089
8 15196 15198 15016 15014 15197 15091 15015 15090
8 15198 15200 15018 15016 15199 15092 15017 15091
8 15200 15202 15020 15018 15201 15093 15019 15092
8 15202 15204 15022 15020 15203 15094 15021 15093
8 15204 15206 15024 15022 15205 15095 15023 15094
8 15206 15208 15026 15024 15207 15096 15025 15095
8 15208 15210 15028 15026 15209 15097 15027 15096
8 15210 15212 15030 15028 15211 15098 15029 15097
8 15212 15214 15032 15030 15213 15099 15031 15098
8 15214 15216 15034 15032 15215 15100 15033 15099
8 15216 15218 15036 15034 15217 15101 15035 15100
8 15218 15220 15038 15036 15219 15102 15037 15101
8 15220 15222 15040 15038 15221 15103 15039 15102
8 15222 15224 15042 15040 15223 15104 15041 15103
8 15224 15226 15044 15042 15225 15105 15043 15104
8 15288 15290 15108 15106 15289 15228 15107 15227
8 15290 15292 15110 15108 15291 15229 15109 15228
8 15292 15294 15112 15110 15293 15230 15111 15229
8 15294 15296 15114 15112 15295 15231 15113 15230
8 15296 15298 15116 15114 15297 15232 15115 15231
8 15298 15300 15118 15116 15299 15233 15117 15232
8 15300 15302 15120 15118 15301 15234 15119 15233
8 15302 15304 15122 15120 15303 15235 15121 15234
8 15304 15306 15124 15122 15305 15236 15123 15235
8 15306 15308 15126 15124 15307 15237 15125 15236
8 15308 15310 15128 15126 15309 15238 15127 15237
8 15310 15312 15130 15128 15311 15239 15129 15238
8 15312 15314 15132 15130 15313 15240 15131 15239
8 15314 15316 15134 15132 15315 15241 15133 15240
8 15316 15318 15136 15134 15317 15242 15135 15241
8 15318 15320 15138 15136 15319 15243 15137 15242
8 15320 15322 15140 15138 15321 15244 15139 15243
8 15322 15324 15142 15140 15323 15245 15141 15244
8 15324 15326 15144 15142 15325 15246 15143 15245
8 15326 15328 15146 15144 15327 15247 15145 15246
8 15328 15330 15148 15146 15329 15248 15147 15247
8 15330 15332 15150 15148 15331 15249 15149 15248
8 15332 15334 15152 15150 15333 15250 15151 15249
8 15334 15336 15154 15152 15335 15251 15153 15250
8 15336 15338 15156 15154 15337 15252 15155 15251
8 15338 15340 15158 15156 15339 15253 15157 15252
8 15340 15342 15160 15158 15341 15254 15159 15253
8 15342 15344 15162 15160 15343 15255 15161 15254
8 15344 15346 15164 15162 15345 15256 15163 15255
8 15346 15348 15166 15164 15347 15257 15165 15256
8 15348 15350 15168 15166 15349 15258 15167 15257
8 15350 15352 15170 15168 15351 15259 15169 15258
8 15352 15354 15172 15170 15353 15260 15171 15259
8 15354 15356 15174 15172 15355 15261 15173 15260
8 15356 15358 15176 15174 15357 15262 15175 15261
8 15358 15360 15178 15176 15359 15263 15177 15262
8 15360 15362 15180 15178 15361 15264 15179 15263
8 15362 15364 15182 15180 15363 15265 15181 15264
8 15364 15366 15184 15182 15365 15266 15183 15265
8 15366 15368 15186 15184 15367 15267 15185 15266
8 15368 15370 15188 15186 15369 15268 15187 15267
8 15370 15372 15190 15188 15371 15269 15189 15268
8 15372 15374 15192 15190 15373 15270 15191 15269
8 15374 15376 15194 15192 15375 15271 15193 15270
8 15376 15378 15196 15194 15377 15272 15195 15271
8 15378 15380 15198 15196 15379 15273 15197 15272
8 15380 15382 15200 15198 15381 15274 15199 15273
8 15382 15384 15202 15200 15383 15275 15201 15274
8 15384 15386 15204 15202 15385 15276 15203 15275
8 15386 15388 15206 15204 15387 15277 15205 15276
8 15388 15390 15208 15206 15389 15278 15207 15277
8 15390 15392 15210 15208 15391 15279 15209 15278
8 15392 15394 15212 15210 15393 15280 15211 15279
8 15394 15396 15214 15212 15395 15281 15213 15280
8 15396 15398 15216 15214 15397 15282 15215 15281
8 15398 15400 15218 15216 15399 15283 15217 15282
8 15400 15402 15220 15218 15401 15284 15219 15283
8 15402 15404 15222 15220 15403 15285 15221 15284
8 15404 15406 15224 15222 15405 15286 15223 15285
8 15406 15408 15226 15224 15407 15287 15225 15286
8 15470 15472 15290 15288 15471 15410 15289 15409
8 15472 15474 15292 15290 15473 15411 15291 15410
8 15474 15476 15294 15292 15475 15412 15293 15411
8 15476 15478 15296 15294 15477 15413 15295 15412
8 15478 15480 15298 15296 15479 15414 15297 15413
8 15480 15482 15300 15298 15481 15415 15299 15414
8 15482 15484 15302 15300 15483 15416 15301 15415
8 15484 15486 15304 15302 15485 15417 15303 15416
8 15486 15488 15306 15304 15487 15418 15305 15417
8 15488 15490 15308 15306 15489 15419 15307 15418
8 15490 15492 15310 15308 15491 15420 15309 15419
8 15492 15494 15312 15310 15493 15421 15311 15420
8 15494 15496 15314 15312 15495 15422 15313 15421
8 15496 15498 15316 15314 15497 15423 15315 15422
8 15498 15500 15318 15316 15499 15424 15317 15423
8 15500 15502 15320 15318 15501 15425 15319 15424
8 15502 15504 15322 15320 15503 15426 15321 15425
8 15504 15506 15324 15322 15505 15427 15323 15426
8 15506 15508 15326 15324 15507 15428 15325 15427
8 15508 15510 15328 15326 15509 15429 15327 15428
8 15510 15512 15330 15328 15511 15430 15329 15429
8 15512 15514 15332 15330 15513 15431 15331 15430
8 15514 15516 15334 15332 15515 15432 15333 15431
8 15516 15518 15336 15334 15517 15433 15335 15432
8 15518 15520 15338 15336 15519 15434 15337 15433
8 15520 15522 15340 15338 15521 15435 15339 15434
8 15522 15524 15342 15340 15523 15436 15341 15435
8 15524 15526 15344 15342 15525 15437 15343 15436
8 15526 15528 15346 15344 15527 15438 15345 15437
8 15528 15530 15348 15346 15529 15439 15347 15438
8 15530 15532 15350 15348 15531 15440 15349 15439
8 15532 15534 15352 15350 15533 15441 15351 15440
8 15534 15536 15354 15352 15535 15442 15353 15441
8 15536 15538 15356 15354 15537 15443 15355 15442
8 15538 15540 15358 15356 15539 15444 15357 15443
8 15540 15542 15360 15358 15541 15445 15359 15444
8 15542 15544 15362 15360 15543 15446 15361 15445
8 15544 15546 15364 15362 15545 15447 15363 15446
8 15546 15548 15366 15364 15547 15448 15365 15447
8 15548 15550 15368 15366 15549 15449 15367 15448
8 15550 15552 15370 15368 15551 15450 15369 15449
8 15552 15554 15372 15370 15553 15451 15371 15450
8 15554 15556 15374 15372 15555 15452 15373 15451
8 15556 15558 15376 15374 15557 15453 15375 15452
8 15558 15560 15378 15376 15559 15454 15377 15453
8 15560 15562 15380 15378 15561 15455 15379 15454
8 15562 15564 15382 15380 15563 15456 15381 15455
8 15564 15566 15384 15382 15565 15457 15383 15456
8 15566 15568 15386 15384 15567 15458 15385 15457
8 15568 15570 15388 15386 15569 15459 15387 15458
8 15570 15572 15390 15388 15571 15460 15389 15459
8 15572 15574 15392 15390 15573 15461 15391 15460
8 15574 15576 15394 15392 15575 15462 15393 15461
8 15576 15578 15396 15394 15577 15463 15395 15462
8 15578 15580 15398 15396 15579 15464 15397 15463
8 15580 15582 15400 15398 15581 15465 15399 15464
8 15582 15584 15402 15400 15583 15466 15401 15465
8 15584 15586 15404 15402 15585 15467 15403 15466
8 15586 15588 15406 15404 15587 15468 15405 15467
8 15588 15590 15408 15406 15589 15469 15407 15468
8 15652 15654 15472 15470 15653 15592 15471 15591
8 15654 15656 15474 15472 15655 15593 15473 15592
8 15656 15658 15476 15474 15657 15594 15475 15593
8 15658 15660 15478 15476 15659 15595 15477 15594
8 15660 15662 15480 15478 15661 15596 15479 15595
8 15662 15664 15482 15480 15663 15597 15481 15596
8 15664 15666 15484 15482 15665 15598 15483 15597
8 15666 15668 15486 15484 15667 15599 15485 15598
8 15668 15670 15488 15486 15669 15600 15487 15599
8 15670 15672 15490 15488 15671 15601 15489 15600
8 15672 15674 15492 15490 15673 15602 15491 15601
8 15674 15676 15494 15492 15675 15603 15493 15602
8 15676 15678 15496 15494 15677 15604 15495 15603
8 15678 15680 15498 15496 15679 15605 15497 15604
8 15680 15682 15500 15498 15681 15606 15499 15605
8 15682 15684 15502 15500 15683 15607 15501 15606
8 15684 15686 15504 15502 15685 15608 15503 15607
8 15686 15688 15506 15504 15687 15609 15505 15608
8 15688 15690 15508 15506 15689 15610 15507 15609
8 15690 15692 15510 15508 15691 15611 15509 15610
8 15692 15694 15512 15510 15693 15612 15511 15611
8 15694 15696 15514 15512 15695 15613 15513 15612
8 15696 15698 15516 15514 15697 15614 15515 15613
8 15698 15700 15518 15516 15699 15615 15517 15614
8 15700 15702 15520 15518 15701 15616 15519 15615
8 15702 15704 15522 15520 15703 15617 15521 15616
8 15704 15706 15524 15522 15705 15618 15523 15617
8 15706 15708 15526 15524 15707 15619 15525 15618
8 15708 15710 15528 15526 15709 15620 15527 15619
8 15710 15712 15530 15528 15711 15621 15529 15620
8 15712 15714 15532 15530 15713 15622 15531 15621
8 15714 15716 15534 15532 15715 15623 15533 15622
8 15716 15718 15536 15534 15717 15624 15535 15623
8 15718 15720 15538 15536 15719 15625 15537 15624
8 15720 15722 15540 15538 15721 15626 15539 15625
8 15722 15724 15542 15540 15723 15627 15541 15626
8 15724 15726 15544 15542 15725 15628 15543 15627
8 15726 15728 15546 15544 15727 15629 15545 15628
8 15728 15730 15548 15546 15729 15630 15547 15629
8 15730 15732 15550 15548 15731 15631 15549 15630
8 15732 15734 15552 15550 15733 15632 15551 15631
8 15734 15736 15554 15552 15735 15633 15553 15632
8 15736 15738 15556 15554 15737 15634 15555 15633
8 15738 15740 15558 15556 15739 15635 15557 15634
8 15740 15742 15560 15558 15741 15636 15559 15635
8 15742 15744 15562 15560 15743 15637 15561 15636
8 15744 15746 15564 15562 15745 15638 15563 15637
8 15746 15748 15566 15564 15747 15639 15565 15638
8 15748 15750 15568 15566 15749 15640 15567 15639
8 15750 15752 15570 15568 15751 15641 15569 15640
8 15752 15754 15572 15570 15753 15642 15571 15641
8 15754 15756 15574 15572 15755 15643 15573 15642
8 15756 15758 15576 15574 15757 15644 15575 15643
8 15758 15760 15578 15576 15759 15645 15577 15644
8 15760 15762 15580 15578 15761 15646 15579 15645
8 15762 15764 15582 15580 15763 15647 15581 15646
8 15764 15766 15584 15582 15765 15648 15583 15647
8 15766 15768 15586 15584 15767 15649 15585 15648
8 15768 15770 15588 15586 15769 15650 15587 15649
8 15770 15772 15590 15588 15771 15651 15589 15650
8 15834 15836 15654 15652 15835 15774 15653 15773
8 15836 15838 15656 15654 15837 15775 15655 15774
8 15838 15840 15658 15656 15839 15776 15657 15775
8 15840 15842 15660 15658 15841 15777 15659 15776
8 15842 15844 15662 15660 15843 15778 15661 15777
8 15844 15846 15664 15662 15845 15779 15663 15778
8 15846 15848 15666 15664 15847 15780 15665 15779
8 15848 15850 15668 15666 15849 15781 15667 15780
8 15850 15852 15670 15668 15851 15782 15669 15781
8 15852 15854 15672 15670 15853 15783 15671 15782
8 15854 15856 15674 15672 15855 15784 15673 15783
8 15856 15858 15676 15674 15857 15785 15675 15784
8 15858 15860 15678 15676 15859 15786 15677 15785
8 15860 15862 15680 15678 15861 15787 15679 15786
8 15862 15864 15682 15680 15863 15788 15681 15787
8 15864 15866 15684 15682 15865 15789 15683 15788
8 15866 15868 15686 15684 15867 15790 15685 15789
8 15868 15870 15688 15686 15869 15791 15687 15790
8 15870 15872 15690 15688 15871 15792 15689 15791
8 15872 15874 15692 15690 15873 15793 15691 15792
8 15874 15876 15694 15692 15875 15794 15693 15793
8 15876 15878 15696 15694 15877 15795 15695 15794
8 15878 15880 15698 15696 15879 15796 15697 15795
8 15880 15882 15700 15698 15881 15797 15699 15796
8 15882 15884 15702 15700 15883 15798 15701 15797
8 15884 15886 15704 15702 15885 15799 15703 15798
8 15886 15888 15706 15704 15887 15800 15705 15799
8 15888 15890 15708 15706 15889 15801 15707 15800
8 15890 15892 15710 15708 15891 15802 15709 15801
8 15892 15894 15712 15710 15893 15803 15711 15802
8 15894 15896 15714 15712 15895 15804 15713 15803
8 15896 15898 15716 15714 15897 15805 15715 15804
8 15898 15900 15718 15716 15899 15806 15717 15805
8 15900 15902 15720 15718 15901 15807 15719 15806
8 15902 15904 15722 15720 15903 15808 15721 15807
8 15904 15906 15724 15722 15905 15809 15723 15808
8 15906 15908 15726 15724 15907 15810 15725 15809
8 15908 15910 15728 15726 15909 15811 15727 15810
8 15910 15912 15730 15728 15911 15812 15729 15811
8 15912 15914 15732 15730 15913 15813 15731 15812
8 15914 15916 15734 15732 15915 15814 15733 15813
8 15916 15918 15736 15734 15917 15815 15735 15814
8 15918 15920 15738 15736 15919 15816 15737 15815
8 15920 15922 15740 15738 15921 15817 15739 15816
8 15922 15924 15742 15740 15923 15818 15741 15817
8 15924 15926 15744 15742 15925 15819 15743 15818
8 15926 15928 15746 15744 15927 15820 15745 15819
8 15928 15930 15748 15746 15929 15821 15747 15820
8 15930 15932 15750 15748 15931 15822 15749 15821
8 15932 15934 15752 15750 15933 15823 15751 15822
8 15934 15936 15754 15752 15935 15824 15753 15823
8 15936 15938 15756 15754 15937 15825 15755 15824
8 15938 15940 15758 15756 15939 15826 15757 15825
8 15940 15942 15760 15758 15941 15827 15759 15826
8 15942 15944 15762 15760 15943 15828 15761 15827
8 15944 15946 15764 15762 15945 15829 15763 15828
8 15946 15948 15766 15764 15947 15830 15765 15829
8 15948 15950 15768 15766 15949 15831 15767 15830
8 15950 15952 15770 15768 15951 15832 15769 15831
8 15952 15954 15772 15770 15953 15833 15771 15832
8 16016 16018 15836 15834 16017 15956 15835 15955
8 16018 16020 15838 15836 16019 15957 15837 15956
8 16020 16022 15840 15838 16021 15958 15839 15957
8 16022 16024 15842 15840 16023 15959 15841 15958
8 16024 16026 15844 15842 16025 15960 15843 15959
8 16026 16028 15846 15844 16027 15961 15845 15960
8 16028 16030 15848 15846 16029 15962 15847 15961
8 16030 16032 15850 15848 16031 15963 15849 15962
8 16032 16034 15852 15850 16033 15964 15851 15963
8 16034 16036 15854 15852 16035 15965 15853 15964
8 16036 16038 15856 15854 16037 15966 15855 15965
8 16038 16040 15858 15856 16039 15967 15857 15966
8 16040 16042 15860 15858 16041 15968 15859 15967
8 16042 16044 15862 15860 16043 15969 15861 15968
8 16044 16046 15864 15862 16045 15970 15863 15969
8 16046 16048 15866 15864 16047 15971 15865 15970
8 16048 16050 15868 15866 16049 15972 15867 15971
8 16050 16052 15870 15868 16051 15973 15869 15972
8 16052 16054 15872 15870 16053 15974 15871 15973
8 16054 16056 15874 15872 16055 15975 15873 15974
8 16056 16058 15876 15874 16057 15976 15875 15975
8 16058 16060 15878 15876 16059 15977 15877 15976
8 16060 16062 15880 15878 16061 15978 15879 15977
8 16062 16064 15882 15880 16063 15979 15881 15978
8 16064 16066 15884 15882 16065 15980 15883 15979
8 16066 16068 15886 15884 16067 15981 15885 15980
8 16068 16070 15888 15886 16069 15982 15887 15981
8 16070 16072 15890 15888 16071 15983 15889 15982
8 16072 16074 15892 15890 16073 15984 15891 15983
8 16074 16076 15894 15892 16075 15985 15893 15984
8 16076 16078 15896 15894 16077 15986 15895 15985
8 16078 16080 15898 15896 16079 15987 15897 15986
8 16080 16082 15900 15898 16081 15988 15899 15987
8 16082 16084 15902 15900 16083 15989 15901 15988
8 16084 16086 15904 15902 16085 15990 15903 15989
8 16086 16088 15906 15904 16087 15991 15905 15990
8 16088 16090 15908 15906 16089 15992 15907 15991
8 16090 16092 15910 15908 16091 15993 15909 15992
8 16092 16094 15912 15910 16093 15994 15911 15993
8 16094 16096 15914 15912 16095 15995 15913 15994
8 16096 16098 15916 15914 16097 15996 15915 15995
8 16098 16100 15918 15916 16099 15997 15917 15996
8 16100 16102 15920 15918 16101 15998 15919 15997
8 16102 16104 15922 15920 16103 15999 15921 15998
8 16104 16106 15924 15922 16105 16000 15923 15999
8 16106 16108 15926 15924 16107 16001 15925 16000
8 16108 16110 15928 15926 16109 16002 15927 16001
8 16110 16112 15930 15928 16111 16003 15929 16002
8 16112 16114 15932 15930 16113 16004 15931 16003
8 16114 16116 15934 15932 16115 16005 15933 16004
8 16116 16118 15936 15934 16117 16006 15935 16005
8 16118 16120 15938 15936 16119 16007 15937 16006
8 16120 16122 15940 15938 16121 16008 15939 16007
8 16122 16124 15942 15940 16123 16009 15941 16008
8 16124 16126 15944 15942 16125 16010 15943 16009
8 16126 16128 15946 15944 16127 16011 15945 16010
8 16128 16130 15948 15946 16129 16012 15947 16011
8 16130 16132 15950 15948 16131 16013 15949 16012
8 16132 16134 15952 15950 16133 16014 15951 16013
8 16134 16136 15954 15952 16135 16015 15953 16014
8 16198 16200 16018 16016 16199 16138 16017 16137
8 16200 16202 16020 16018 16201 16139 16019 16138
8 16202 16204 16022 16020 16203 16140 16021 16139
8 16204 16206 16024 16022 16205 16141 16023 16140
8 16206 16208 16026 16024 16207 16142 16025 16141
8 16208 16210 16028 16026 16209 16143 16027 16142
8 16210 16212 16030 16028 16211 16144 16029 16143
8 16212 16214 16032 16030 16213 16145 16031 16144
8 16214 16216 16034 16032 16215 16146 16033 16145
8 16216 16218 16036 16034 16217 16147 16035 16146
8 16218 16220 16038 16036 16219 16148 16037 16147
8 16220 16222 16040 16038 16221 16149 16039 16148
8 16222 16224 16042 16040 16223 16150 16041 16149
8 16224 16226 16044 16042 16225 16151 16043 16150
8 16226 16228 16046 16044 16227 16152 16045 16151
8 16228 16230 16048 16046 16229 16153 16047 16152
8 16230 16232 16050 16048 16231 16154 16049 16153
8 16232 16234 16052 16050 16233 16155 16051 16154
8 16234 16236 16054 16052 16235 16156 16053 16155
8 16236 16238 16056 16054 16237 16157 16055 16156
8 16238 16240 16058 16056 16239 16158 16057 16157
8 16240 16242 16060 16058 16241 16159 16059 16158
8 16242 16244 16062 16060 16243 16160 16061 16159
8 16244 16246 16064 16062 16245 16161 16063 16160
8 16246 16248 16066 16064 16247 16162 16065 16161
8 16248 16250 16068 16066 16249 16163 16067 16162
8 16250 16252 16070 16068 16251 16164 16069 16163
8 16252 16254 16072 16070 16253 16165 16071 16164
8 16254 16256 16074 16072 16255 16166 16073 16165
8 16256 16258 16076 16074 16257 16167 16075 16166
8 16258 16260 16078 16076 16259 16168 16077 16167
8 16260 16262 16080 16078 16261 16169 16079 16168
8 16262 16264 16082 16080 16263 16170 16081 16169
8 16264 16266 16084 16082 16265 16171 16083 16170
8 16266 16268 16086 16084 16267 16172 16085 16171
8 16268 16270 16088 16086 16269 16173 16087 16172
8 16270 16272 16090 16088 16271 16174 16089 16173
8 16272 16274 16092 16090 16273 16175 16091 16174
8 16274 16276 16094 16092 16275 16176 16093 16175
8 16276 16278 16096 16094 16277 16177 16095 16176
8 16278 16280 16098 16096 16279 16178 16097 16177
8 16280 16282 16100 16098 16281 16179 16099 16178
8 16282 16284 16102 16100 16283 16180 16101 16179
8 16284 16286 16104 16102 16285 16181 16103 16180
8 16286 16288 16106 16104 16287 16182 16105 16181
8 16288 16290 16108 16106 16289 16183 16107 16182
8 16290 16292 16110 16108 16291 16184 16109 16183
8 16292 16294 16112 16110 16293 16185 16111 16184
8 16294 16296 16114 16112 16295 16186 16113 16185
8 16296 16298 16116 16114 16297 16187 16115 16186
8 16298 16300 16118 16116 16299 16188 16117 16187
8 16300 16302 16120 16118 16301 16189 16119 16188
8 16302 16304 16122 16120 16303 16190 16121 16189
8 16304 16306 16124 16122 16305 16191 16123 16190
8 16306 16308 16126 16124 16307 16192 16125 16191
8 16308 16310 16128 16126 16309 16193 16127 16192
8 16310 16312 16130 16128 16311 16194 16129 16193
8 16312 16314 16132 16130 16313 16195 16131 16194
8 16314 16316 16134 16132 16315 16196 16133 16195
8 16316 16318 16136 16134 16317 16197 16135 16196
8 16380 16382 16200 16198 16381 16320 16199 16319
8 16382 16384 16202 16200 16383 16321 16201 16320
8 16384 16386 16204 16202 16385 16322 16203 16321
8 16386 16388 16206 16204 16387 16323 16205 16322
8 16388 16390 16208 16206 16389 16324 16207 16323
8 16390 16392 16210 16208 16391 16325 16209 16324
8 16392 16394 16212 16210 16393 16326 16211 16325
8 16394 16396 16214 16212 16395 16327 16213 16326
8 16396 16398 16216 16214 16397 16328 16215 16327
8 16398 16400 16218 16216 16399 16329 16217 16328
8 16400 16402 16220 16218 16401 16330 16219 16329
8 16402 16404 16222 16220 16403 16331 16221 16330
8 16404 16406 16224 16222 16405 16332 16223 16331
8 16406 16408 16226 16224 16407 16333 16225 16332
8 16408 16410 16228 16226 16409 16334 16227 16333
8 16410 16412 16230 16228 16411 16335 16229 16334
8 16412 16414 16232 16230 16413 16336 16231 16335
8 16414 16416 16234 16232 16415 16337 16233 16336
8 16416 16418 16236 16234 16417 16338 16235 16337
8 16418 16420 16238 16236 16419 16339 16237 16338
8 16420 16422 16240 16238 16421 16340 16239 16339
8 16422 16424 16242 16240 16423 16341 16241 16340
8 16424 16426 16244 16242 16425 16342 16243 16341
8 16426 16428 16246 16244 16427 16343 16245 16342
8 16428 16430 16248 16246 16429 16344 16247 16343
8 16430 16432 16250 16248 16431 16345 16249 16344
8 16432 16434 16252 16250 16433 16346 16251 16345
8 16434 16436 16254 16252 16435 16347 16253 16346
8 16436 16438 16256 16254 16437 16348 16255 16347
8 16438 16440 16258 16256 16439 16349 16257 16348
8 16440 16442 16260 16258 16441 16350 16259 16349
8 16442 16444 16262 16260 16443 16351 16261 16350
8 16444 16446 16264 16262 16445 16352 16263 16351
8 16446 16448 16266 16264 16447 16353 16265 16352
8 16448 16450 16268 16266 16449 16354 16267 16353
8 16450 16452 16270 16268 16451 16355 16269 16354
8 16452 16454 16272 16270 16453 16356 16271 16355
8 16454 16456 16274 16272 16455 16357 16273 16356
8 16456 16458 16276 16274 16457 16358 16275 16357
8 16458 16460 16278 16276 16459 16359 16277 16358
8 16460 16462 16280 16278 16461 16360 16279 16359
8 16462 16464 16282 16280 16463 16361 16281 16360
8 16464 16466 16284 16282 16465 16362 16283 16361
8 16466 16468 16286 16284 16467 16363 16285 16362
8 16468 16470 16288 16286 16469 16364 16287 16363
8 16470 16472 16290 16288 16471 16365 16289 16364
8 16472 16474 16292 16290 16473 16366 16291 16365
8 16474 16476 16294 16292 16475 16367 16293 16366
8 16476 16478 16296 16294 16477 16368 16295 16367
8 16478 16480 16298 16296 16479 16369 16297 16368
8 16480 16482 16300 16298 16481 16370 16299 16369
8 16482 16484 16302 16300 16483 16371 16301 16370
8 16484 16486 16304 16302 16485 16372 16303 16371
8 16486 16488 16306 16304 16487 16373 16305 16372
8 16488 16490 16308 16306 16489 16374 16307 16373
8 16490 16492 16310 16308 16491 16375 16309 16374
8 16492 16494 16312 16310 16493 16376 16311 16375
8 16494 16496 16314 16312 16495 16377 16313 16376
8 16496 16498 16316 16314 16497 16378 16315 16377
8 16498 16500 16318 16316 16499 16379 16317 16378
8 16562 16564 16382 16380 16563 16502 16381 16501
8 16564 16566 16384 16382 16565 16503 16383 16502
8 16566 16568 16386 16384 16567 16504 16385 16503
8 16568 16570 16388 16386 16569 16505 16387 16504
8 16570 16572 16390 16388 16571 16506 16389 16505
8 16572 16574 16392 16390 16573 16507 16391 16506
8 16574 16576 16394 16392 16575 16508 16393 16507
8 16576 16578 16396 16394 16577 16509 16395 16508
8 16578 16580 16398 16396 16579 16510 16397 16509
8 16580 16582 16400 16398 16581 16511 16399 16510
8 16582 16584 16402 16400 16583 16512 16401 16511
8 16584 16586 16404 16402 16585 16513 16403 16512
8 16586 16588 16406 16404 16587 16514 16405 16513
8 16588 16590 16408 16406 16589 16515 16407 16514
8 16590 16592 16410 16408 16591 16516 16409 16515
8 16592 16594 16412 16410 16593 16517 16411 16516
8 16594 16596 16414 16412 16595 16518 16413 16517
8 16596 16598 16416 16414 16597 16519 16415 16518
8 16598 16600 16418 16416 16599 16520 16417 16519
8 16600 16602 16420 16418 16601 16521 16419 16520
8 16602 16604 16422 16420 16603 16522 16421 16521
8 16604 16606 16424 16422 16605 16523 16423 16522
8 16606 16608 16426 16424 16607 16524 16425 16523
8 16608 16610 16428 16426 16609 16525 16427 16524
8 16610 16612 16430 16428 16611 16526 16429 16525
8 16612 16614 16432 16430 16613 16527 16431 16526
8 16614 16616 16434 16432 16615 16528 16433 16527
8 16616 16618 16436 16434 16617 16529 16435 16528
8 16618 16620 16438 16436 16619 16530 16437 16529
8 16620 16622 16440 16438 16621 16531 16439 16530
8 16622 16624 16442 16440 16623 16532 16441 16531
8 16624 16626 16444 16442 16625 16533 16443 16532
8 16626 16628 16446 16444 16627 16534 16445 16533
8 16628 16630 16448 16446 16629 16535 16447 16534
8 16630 16632 16450 16448 16631 16536 16449 16535
8 16632 16634 16452 16450 16633 16537 16451 16536
8 16634 16636 16454 16452 16635 16538 16453 16537
8 16636 16638 16456 16454 16637 16539 16455 16538
8 16638 16640 16458 16456 16639 16540 16457 16539
8 16640 16642 16460 16458 16641 16541 16459 16540
8 16642 16644 16462 16460 16643 16542 16461 16541
8 16644 16646 16464 16462 16645 16543 16463 16542
8 16646 16648 16466 16464 16647 16544 16465 16543
8 16648 16650 16468 16466 16649 16545 16467 16544
8 16650 16652 16470 16468 16651 16546 16469 16545
8 16652 16654 16472 16470 16653 16547 16471 16546
8 16654 16656 16474 16472 16655 16548 16473 16547
8 16656 16658 16476 16474 16657 16549 16475 16548
8 16658 16660 16478 16476 16659 16550 16477 16549
8 16660 16662 16480 16478 16661 16551 16479 16550
8 16662 16664 16482 16480 16663 16552 16481 16551
8 16664 16666 16484 16482 16665 16553 16483 16552
8 16666 16668 16486 16484 16667 16554 16485 16553
8 16668 16670 16488 16486 16669 16555 16487 16554
8 16670 16672 16490 16488 16671 16556 16489 16555
8 16672 16674 16492 16490 16673 16557 16491 16556
8 16674 16676 16494 16492 16675 16558 16493 16557
8 16676 16678 16496 16494 16677 16559 16495 16558
8 16678 16680 16498 16496 16679 16560 16497 16559
8 16680 16682 16500 16498 16681 16561 16499 16560
8 16744 16746 16564 16562 16745 16684 16563 16683
8 16746 16748 16566 16564 16747 16685 16565 16684
8 16748 16750 16568 16566 16749 16686 16567 16685
8 16750 16752 16570 16568 16751 16687 16569 16686
8 16752 16754 16572 16570 16753 16688 16571 16687
8 16754 16756 16574 16572 16755 16689 16573 16688
8 16756 16758 16576 16574 16757 16690 16575 16689
8 16758 16760 16578 16576 16759 16691 16577 16690
8 16760 16762 16580 16578 16761 16692 16579 16691
8 16762 16764 16582 16580 16763 16693 16581 16692
8 16764 16766 16584 16582 16765 16694 16583 16693
8 16766 16768 16586 16584 16767 16695 16585 16694
8 16768 16770 16588 16586 16769 16696 16587 16695
8 16770 16772 16590 16588 16771 16697 16589 16696
8 16772 16774 16592 16590 16773 16698 16591 16697
8 16774 16776 16594 16592 16775 16699 16593 16698
8 16776 16778 16596 16594 16777 16700 16595 16699
8 16778 16780 16598 16596 16779 16701 16597 16700
8 16780 16782 16600 16598 16781 16702 16599 16701
8 16782 16784 16602 16600 16783 16703 16601 16702
8 16784 16786 16604 16602 16785 16704 16603 16703
8 16786 16788 16606 16604 16787 16705 16605 16704
8 16788 16790 16608 16606 16789 16706 16607 16705
8 16790 16792 16610 16608 16791 16707 16609 16706
8 16792 16794 16612 16610 16793 16708 16611 16707
8 16794 16796 16614 16612 16795 16709 16613 16708
8 16796 16798 16616 16614 16797 16710 16615 16709
8 16798 16800 16618 16616 16799 16711 16617 16710
8 16800 16802 16620 16618 16801 16712 16619 16711
8 16802 16804 16622 16620 16803 16713 16621 16712
8 16804 16806 16624 16622 16805 16714 16623 16713
8 16806 16808 16626 16624 16807 16715 16625 16714
8 16808 16810 16628 16626 16809 16716 16627 16715
8 16810 16812 16630 16628 16811 16717 16629 16716
8 16812 16814 16632 16630 16813 16718 16631 16717
8 16814 16816 16634 16632 16815 16719 16633 16718
8 16816 16818 16636 16634 16817 16720 16635 16719
8 16818 16820 16638 16636 16819 16721 16637 16720
8 16820 16822 16640 16638 16821 16722 16639 16721
8 16822 16824 16642 16640 16823 16723 16641 16722
8 16824 16826 16644 16642 16825 16724 16643 16723
8 16826 16828 16646 16644 16827 16725 16645 16724
8 16828 16830 16648 16646 16829 16726 16647 16725
8 16830 16832 16650 16648 16831 16727 16649 16726
8 16832 16834 16652 16650 16833 16728 16651 16727
8 16834 16836 16654 16652 16835 16729 16653 16728
8 16836 16838 16656 16654 16837 16730 16655 16729
8 16838 16840 16658 16656 16839 16731 16657 16730
8 16840 16842 16660 16658 16841 16732 16659 16731
8 16842 16844 16662 16660 16843 16733 16661 16732
8 16844 16846 16664 16662 16845 16734 16663 16733
8 16846 16848 16666 16664 16847 16735 16665 16734
8 16848 16850 16668 16666 16849 16736 16667 16735
8 16850 16852 16670 16668 16851 16737 16669 16736
8 16852 16854 16672 16670 16853 16738 16671 16737
8 16854 16856 16674 16672 16855 16739 16673 16738
8 16856 16858 16676 16674 16857 16740 16675 16739
8 16858 16860 16678 16676 16859 16741 16677 16740
8 16860 16862 16680 16678 16861 16742 16679 16741
8 16862 16864 16682 16680 16863 16743 16681 16742

CELL_TYPES 5520
23
23
23
23
23
23
23
23
23
23
23
23
23
23
23
23
23
23
23
23
23
23
23
23
23
23
23
23
23
23
23
23
23
23
23
23
23
23
23
23
23
23
23
23
23
23
23
23
23
23
23
23
23
23
23
23
23
23
23
23
23
23
23
23
23
23
23
23
23
23
23
23
23
23
23
23
23
23
23
23
23
23
23
23
23
23
23
23
23
23
23
23
23
23
23
23
23
23
23
23
23
23
23
23
23
23
23
23
23
23
23
23
23
23
23
23
23
23
23
23
23
23
23
23
23
23
23
23
23
23
23
23
23
23
23
23
23
23
23
23
23
23
23
23
23
23
23
23
23
23
23
23
23
23
23
23
23
23
23
23
23
23
23
23
23
23
23
23
23
23
23
23
23
23
23
23
23
23
23
23
23
23
23
23
23
23
23
23
23
23
23
23
23
23
23
23
23
23
23
23
23
23
23
23
23
23
23
23
23
23
23
23
23
23
23
23
23
23
23
23
23
23
23
23
23
23
23
23
23
23
23
23
23
23
23
23
23
23
23
23
23
23
23
23
23
23
23
23
23
23
23
23
23
23
23
23
23
23
23
23
23
23
23
23
23
23
23
23
23
23
23
23
23
23
23
23
23
23
23
23
23
23
23
23
23
23
23
23
23
23
23
23
23
23
23
23
23
23
23
23
23
23
23
23
23
23
23
23
23
23
23
23
23
23
23
23
23
23
23
23
23
23
23
23
23
23
23
23
23
23
23
23
23
23
23
23
23
23
23
23
23
23
23
23
23
23
23
23
23
23
23
23
23
23
23
23
23
23
23
23
23
23
23
23
23
23
23
23
23
23
23
23
23
23
23
23
23
23
23
23
23
23
23
23
23
23
23
23
23
23
23
23
23
23
23
23
23
23
23
23
23
23
23
23
23
23
23
23
23
23
23
23
23
23
23
23
23
23
23
23
23
23
23
23
23
23
23
23
23
23
23
23
23
23
23
23
23
23
23
23
23
23
23
23
23
23
23
23
23
23
23
23
23
23
23
23
23
23
23
23
23
23
23
23
23
23
23
23
23
23
23
23
23
23
23
23
23
23
23
23
23
23
23
23
23
23
23
23
23
23
23
23
23
23
23
23
23
23
23
23
23
23
23
23
23
23
23
23
23
23
23
23
23
23
23
23
23
23
23
23
23
23
23
23
23
23
23
23
23
23
23
23
23
23
23
23
23
23
23
23
23
23
23
23
23
23
23
23
23
23
23
23
23
23
23
23
23
23
23
23
23
23
23
23
23
23
23
23
23
23
23
23
23
23
23
23
23
23
23
23
23
23
23
23
23
23
23
23
23
23
23
23
23
23
23
23
23
23
23
23
23
23
23
23
23
23
23
23
23
23
23
23
23
23
23
23
23
23
23
23
23
23
23
23
23
23
23
23
23
23
23
23
23
23
23
23
23
23
23
23
23
23
23
23
23
23
23
23
23
23
23
23
23
23
23
23
23
23
23
23
23
23
23
23
23
23
23
23
23
23
23
23
23
23
23
23
23
23
23
23
23
23
23
23
23
23
23
23
23
23
23
23
23
23
23
23
23
23
23
23
23
23
23
23
23
23
23
23
23
23
23
23
23
23
23
23
23
23
23
23
23
23
23
23
23
23
23
23
23
23
23
23
23
23
23
23
23
23
23
23
23
23
23
23
23
23
23
23
23
23
23
23
23
23
23
23
23
23
23
23
23
23
23
23
23
23
23
23
23
23
23
23
23
23
23
23
23
23
23
23
23
23
23
23
23
23
23
23
23
23
23
23
23
23
23
23
23
23
23
23
23
23
23
23
23
23
23
23
23
23
23
23
23
23
23
23
23
23
23
23
23
23
23
23
23
23
23
23
23
23
23
23
23
23
23
23
23
23
23
23
23
23
23
23
23
23
23
23
23
23
23
23
23
23
23
23
23
23
23
23
23
23
23
23
23
23
23
23
23
23
23
23
23
23
23
23
23
23
23
23
23
23
23
23
23
23
23
23
23
23
23
23
23
23
23
23
23
23
23
23
23
23
23
23
23
23
23
23
23
23
23
23
23
23
23
23
23
23
23
23
23
23
23
23
23
23
23
23
23
23
23
23
23
23
23
23
23
23
23
23
23
23
23
23
23
23
23
23
23
23
23
23
23
23
23
23
23
23
23
23
23
23
23
23
23
23
23
23
23
23
23
23
23
23
23
23
23
23
23
23
23
23
23
23
23
23
23
23
23
23
23
23
23
23
23
23
23
23
23
23
23
23
23
23
23
23
23
23
23
23
23
23
23
23
23
23
23
23
23
23
23
23
23
23
23
23
23
23
23
23
23
23
23
23
23
23
23
23
23
23
23
23
23
23
23
23
23
23
23
23
23
23
23
23
23
23
23
23
23
23
23
23
23
23
23
23
23
23
23
23
23
23
23
23
23
23
23
23
23
23
23
23
23
23
23
23
23
23
23
23
23
23
23
23
23
23
23
23
23
23
23
23
23
23
23
23
23
23
23
23
23
23
23
23
23
23
23
23
23
23
23
23
23
23
23
23
23
23
23
23
23
23
23
23
23
23
23
23
23
23
23
23
23
23
23
23
23
23
23
23
23
23
23
23
23
23
23
23
23
23
23
23
23
23
23
23
23
23
23
23
23
23
23
23
23
23
23
23
23
23
23
23
23
23
23
23
23
23
23
23
23
23
23
23
23
23
23
23
23
23
23
23
23
23
23
23
23
23
23
23
23
23
23
23
23
23
23
23
23
23
23
23
23
23
23
23
23
23
23
23
23
23
23
23
23
23
23
23
23
23
23
23
23
23
23
23
23
23
23
23
23
23
23
23
23
23
23
23
23
23
23
23
23
23
23
23
23
23
23
23
23
23
23
23
23
23
23
23
23
23
23
23
23
23
23
23
23
23
23
23
23
23
23
23
23
23
23
23
23
23
23
23
23
23
23
23
23
23
23
23
23
23
23
23
23
23
23
23
23
23
23
23
23
23
23
23
23
23
23
23
23
23
23
23
23
23
23
23
23
23
23
23
23
23
23
23
23
23
23
23
23
23
23
23
23
23
23
23
23
23
23
23
23
23
23
23
23
23
23
23
23
23
23
23
23
23
23
23
23
23
23
23
23
23
23
23
23
23
23
23
23
23
23
23
23
23
23
23
23
23
23
23
23
23
23
23
23
23
23
23
23
23
23
23
23
23
23
23
23
23
23
23
23
23
23
23
23
23
23
23
23
23
23
23
23
23
23
23
23
23
23
23
23
23
23
23
23
23
23
23
23
23
23
23
23
23
23
23
23
23
23
23
23
23
23
23
23
23
23
23
23
23
23
23
23
23
23
23
23
23
23
23
23
23
23
23
23
23
23
23
23
23
23
23
23
23
23
23
23
23
23
23
23
23
23
23
23
23
23
23
23
23
23
23
23
23
23
23
23
23
23
23
23
23
23
23
23
23
23
23
23
23
23
23
23
23
23
23
23
23
23
23
23
23
23
23
23
23
23
23
23
23
23
23
23
23
23
23
23
23
23
23
23
23
23
23
23
23
23
23
23
23
23
23
23
23
23
23
23
23
23
23
23
23
23
23
23
23
23
23
23
23
23
23
23
23
23
23
23
23
23
23
23
23
23
23
23
23
23
23
23
23
23
23
23
23
23
23
23
23
23
23
23
23
23
23
23
23
23
23
23
23
23
23
23
23
23
23
23
23
23
23
23
23
23
23
23
23
23
23
23
23
23
23
23
23
23
23
23
23
23
23
23
23
23
23
23
23
23
23
23
23
23
23
23
23
23
23
23
23
23
23
23
23
23
23
23
23
23
23
23
23
23
23
23
23
23
23
23
23
23
23
23
23
23
23
23
23
23
23
23
23
23
23
23
23
23
23
23
23
23
23
23
23
23
23
23
23
23
23
23
23
23
23
23
23
23
23
23
23
23
23
23
23
23
23
23
23
23
23
23
23
23
23
23
23
23
23
23
23
23
23
23
23
23
23
23
23
23
23
23
23
23
23
23
23
23
23
23
23
23
23
23
23
23
23
23
23
23
23
23
23
23
23
23
23
23
23
23
23
23
23
23
23
23
23
23
23
23
23
23
23
23
23
23
23
23
23
23
23
23
23
23
23
23
23
23
23
23
23
23
23
23
23
23
23
23
23
23
23
23
23
23
23
23
23
23
23
23
23
23
23
23
23
23
23
23
23
23
23
23
23
23
23
23
23
23
23
23
23
23
23
23
23
23
23
23
23
23
23
23
23
23
23
23
23
23
23
23
23
23
23
23
23
23
23
23
23
23
23
23
23
23
23
23
23
23
23
23
23
23
23
23
23
23
23
23
23
23
23
23
23
23
23
23
23
23
23
23
23
23
23
23
23
23
23
23
23
23
23
23
23
23
23
23
23
23
23
23
23
23
23
23
23
23
23
23
23
23
23
23
23
23
23
23
23
23
23
23
23
23
23
23
23
23
23
23
23
23
23
23
23
23
23
23
23
23
23
23
23
23
23
23
23
23
23
23
23
23
23
23
23
23
23
23
23
23
23
23
23
23
23
23
23
23
23
23
23
23
23
23
23
23
23
23
23
23
23
23
23
23
23
23
23
23
23
23
23
23
23
23
23
23
23
23
23
23
23
23
23
23
23
23
23
23
23
23
23
23
23
23
23
23
23
23
23
23
23
23
23
23
23
23
23
23
23
23
23
23
23
23
23
23
23
23
23
23
23
23
23
23
23
23
23
23
23
23
23
23
23
23
23
23
23
23
23
23
23
23
23
23
23
23
23
23
23
23
23
23
23
23
23
23
23
23
23
23
23
23
23
23
23
23
23
23
23
23
23
23
23
23
23
23
23
23
23
23
23
23
23
23
23
23
23
23
23
23
23
23
23
23
23
23
23
23
23
23
23
23
23
23
23
23
23
23
23
23
23
23
23
23
23
23
23
23
23
23
23
23
23
23
23
23
23
23
23
23
23
23
23
23
23
23
23
23
23
23
23
23
23
23
23
23
23
23
23
23
23
23
23
23
23
23
23
23
23
23
23
23
23
23
23
23
23
23
23
23
23
23
23
23
23
23
23
23
23
23
23
23
23
23
23
23
23
23
23
23
23
23
23
23
23
23
23
23
23
23
23
23
23
23
23
23
23
23
23
23
23
23
23
23
23
23
23
23
23
23
23
23
23
23
23
23
23
23
23
23
23
23
23
23
23
23
23
23
23
23
23
23
23
23
23
23
23
23
23
23
23
23
23
23
23
23
23
23
23
23
23
23
23
23
23
23
23
23
23
23
23
23
23
23
23
23
23
23
23
23
23
23
23
23
23
23
23
23
23
23
23
23
23
23
23
23
23
23
23
23
23
23
23
23
23
23
23
23
23
23
23
23
23
23
23
23
23
23
23
23
23
23
23
23
23
23
23
23
23
23
23
23
23
23
23
23
23
23
23
23
23
23
23
23
23
23
23
23
23
23
23
23
23
23
23
23
23
23
23
23
23
23
23
23
23
23
23
23
23
23
23
23
23
23
23
23
23
23
23
23
23
23
23
23
23
23
23
23
23
23
23
23
23
23
23
23
23
23
23
23
23
23
23
23
23
23
23
23
23
23
23
23
23
23
23
23
23
23
23
23
23
23
23
23
23
23
23
23
23
23
23
23
23
23
23
23
23
23
23
23
23
23
23
23
23
23
23
23
23
23
23
23
23
23
23
23
23
23
23
23
23
23
23
23
23
23
23
23
23
23
23
23
23
23
23
23
23
23
23
23
23
23
23
23
23
23
23
23
23
23
23
23
23
23
23
23
23
23
23
23
23
23
23
23
23
23
23
23
23
23
23
23
23
23
23
23
23
23
23
23
23
23
23
23
23
23
23
23
23
23
23
23
23
23
23
23
23
23
23
23
23
23
23
23
23
23
23
23
23
23
23
23
23
23
23
23
23
23
23
23
23
23
23
23
23
23
23
23
23
23
23
23
23
23
23
23
23
23
23
23
23
23
23
23
23
23
23
23
23
23
23
23
23
23
23
23
23
23
23
23
23
23
23
23
23
23
23
23
23
23
23
23
23
23
23
23
23
23
23
23
23
23
23
23
23
23
23
23
23
23
23
23
23
23
23
23
23
23
23
23
23
23
23
23
23
23
23
23
23
23
23
23
23
23
23
23
23
23
23
23
23
23
23
23
23
23
23
23
23
23
23
23
23
23
23
23
23
23
23
23
23
23
23
23
23
23
23
23
23
23
23
23
23
23
23
23
23
23
23
23
23
23
23
23
23
23
23
23
23
23
23
23
23
23
23
23
23
23
23
23
23
23
23
23
23
23
23
23
23
23
23
23
23
23
23
23
23
23
23
23
23
23
23
23
23
23
23
23
23
23
23
23
23
23
23
23
23
23
23
23
23
23
23
23
23
23
23
23
23
23
23
23
23
23
23
23
23
23
23
23
23
23
23
23
23
23
23
23
23
23
23
23
23
23
23
23
23
23
23
23
23
23
23
23
23
23
23
23
23
23
23
23
23
23
23
23
23
23
23
23
23
23
23
23
23
23
23
23
23
23
23
23
23
23
23
23
23
23
23
23
23
23
23
23
23
23
23
23
23
23
23
23
23
23
23
23
23
23
23
23
23
23
23
23
23
23
23
23
23
23
23
23
23
23
23
23
23
23
23
23
23
23
23
23
23
23
23
23
23
23
23
23
23
23
23
23
23
23
23
23
23
23
23
23
23
23
23
23
23
23
23
23
23
23
23
23
23
23
23
23
23
23
23
23
23
23
23
23
23
23
23
23
23
23
23
23
23
23
23
23
23
23
23
23
23
23
23
23
23
23
23
23
23
23
23
23
23
23
23
23
23
23
23
23
23
23
23
23
23
23
23
23
23
23
23
23
23
23
23
23
23
23
23
23
23
23
23
23
23
23
23
23
23
23
23
23
23
23
23
23
23
23
23
23
23
23
23
23
23
23
23
23
23
23
23
23
23
23
23
23
23
23
23
23
23
23
23
23
23
23
23
23
23
23
23
23
23
23
23
23
23
23
23
23
23
23
23
23
23
23
23
23
23
23
23
23
23
23
23
23
23
23
23
23
23
23
23
23
23
23
23
23
23
23
23
23
23
23
23
23
23
23
23
23
23
23
23
23
23
23
23
23
23
23
23
23
23
23
23
23
23
23
23
23
23
23
23
23
23
23
23
23
23
23
23
23
23
23
23
23
23
23
23
23
23
23
23
23
23
23
23
23
23
23
23
23
23
23
23
23
23
23
23
23
23
23
23
23
23
23
23
23
23
23
23
23
23
23
23
23
23
23
23
23
23
23
23
23
23
23
23
23
23
23
23
23
23
23
23
23
23
23
23
23
23
23
23
23
23
23
23
23
23
23
23
23
23
23
23
23
23
23
23
23
23
23
23
23
23
23
23
23
23
23
23
23
23
23
23
23
23
23
23
23
23
23
23
23
23
23
23
23
23
23
23
23
23
23
23
23
23
23
23
23
23
23
23
23
23
23
23
23
23
23
23
23
23
23
23
23
23
23
23
23
23
23
23
23
23
23
23
23
23
23
23
23
23
23
23
23
23
23
23
23
23
23
23
23
23
23
23
23
23
23
23
23
23
23
23
23
23
23
23
23
23
23
23
23
23
23
23
23
23
23
23
23
23
23
23
23
23
23
23
23
23
23
23
23
23
23
23
23
23
23
23
23
23
23
23
23
23
23
23
23
23
23
23
23
23
23
23
23
23
23
23
23
23
23
23
23
23
23
23
23
23
23
23
23
23
23
23
23
23
23
23
23
23
23
23
23
23
23
23
23
23
23
23
23
23
23
23
23
23
23
23
23
23
23
23
23
23
23
23
23
23
23
23
23
23
23
23
23
23
23
23
23
23
23
23
23
23
23
23
23
23
23
23
23
23
23
23
23
23
23
23
23
23
23
23
23
23
23
23
23
23
23
23
23
23
23
23
23
23
23
23
23
23
23
23
23
23
23
23
23
23
23
23
23
23
23
23
23
23
23
23
23
23
23
23
23
23
23
23
23
23
23
23
23
23
23
23
23
23
23
23
23
23
23
23
23
23
23
23
23
23
23
23
23
23
23
23
23
23
23
23
23
23
23
23
23
23
23
23
23
23
23
23
23
23
23
23
23
23
23
23
23
23
23
23
23
23
23
23
23
23
23
23
23
23
23
23
23
23
23
23
23
23
23
23
23
23
23
23
23
23
23
23
23
23
23
23
23
23
23
23
23
23
23
23
23
23
23
23
23
23
23
23
23
23
23
23
23
23
23
23
23
23
23
23
23
23
23
23
23
23
23
23
23
23
23
23
23
23
23
23
23
23
23
23
23
23
23
23
23
23
23
23
23
23
23
23
23
23
23
23
23
23
23
23
23
23
23
23
23
23
23
23
23
23
23
23
23
23
23
23
23
23
23
23
23
23
23
23
23
23
23
23
23
23
23
23
23
23
23
23
23
23
23
23
23
23
23
23
23
23
23
23
23
23
23
23
23
23
23
23
23
23
23
23
23
23
23
23
23
23
23
23
23
23
23
23
23
23
23
23
23
23
23
23
23
23
23
23
23
23
23
23
23
23
23
23
23
23
23
23
23
23
23
23
23
23
23
23
23
23
23
23
23
23
23
23
23
23
23
23
23
23
23
23
23
23
23
23
23
23
23
23
23
23
23
23
23
23
23
23
23
23
23
23
23
23
23
23
23
23
23
23
23
23
23
23
23
23
23
23
23
23
23
23
23
23
23
23
23
23
23
23
23
23
23
23
23
23
23
23
23
23
23
23
23
23
23
23
23
23
23
23
23
23
23
23
23
23
23
23
23
23
23
23
23
23
23
23
23
23
23
23
23
23
23
23
23
23
23
23
23
23
23
23
23
23
23
23
23
23
23
23
23
23
23
23
23
23
23
23
23
23
23
23
23
23
23
23
23
23
23
23
23
23
23
23
23
23
23
23
23
23
23
23
23
23
23
23
23
23
23
23
23
23
23
23
23
23
23
23
23
23
23
23
23
23
23
23
23
23
23
23
23
23
23
23
23
23
23
23
23
23
23
23
23
23
23
23
23
23
23
23
23
23
23
23
23
23
23
23
23
23
23
23
23
23
23
23
23
23
23
23
23
23
23
23
23
23
23
23
23
23
23
23
23
23
23
23
23
23
23
23
23
23
23
23
23
23
23
23
23
23
23
23
23
23
23
23
23
23
23
23
23
23
23
23
23
23
23
23
23
23
23
23
23
23
23
23
23
23
23
23
23
23
23
23
23
23
23
23
23
23
23
23
23
23
23
23
23
23
23
23
23
23
23
23
23
23
23
23
23
23
23
23
23
23
23
23
23
23
23
23
23
23
23
23
23
23
23
23
23
23
23
23
23
23
23
23
23
23
23
23
23
23
23
23
23
23
23
23
23
23
23
23
23
23
23
23
23
23
23
23
23
23
23
23
23
23
23
23
23
23
23
23
23
23
23
23
23
23
23
23
23
23
23
23
23
23
23
23
23
23
23
23
23
23
23
23
23
23
23
23
23
23
23
23
23
23
23
23
23
23
23
23
23
23
23
23
23
23
23
23
23
23
23
23
23
23
23
23
23
23
23
23
23
23
23
23
23
23
23
23
23
23
23
23
23
23
23
23
23
23
23
23
23
23
23
23
23
23
23
23
23
23
23
23
23
23
23
23
23
23
23
23
23
23
23
23
23
23
23
23
23
23
23
23
23
23
23
23
23
23
23
23
23
23
23
23
23
23
23
23
23
23
23
23
23
23
23
23
23
23
23
23
23
23
23
23
23
23
23
23
23
23
23
23
23
23
23
23
23
23
23
23
23
23
23
23
23
23
23
23
23
23
23
23
23
23
23
23
23
23
23
23
23
23
23
23
23
23
23
23
23
23
23
23
23
23
23
23
23
23
23
23
23
23
23
23
23
23
23
23
23
23
23
23
23
23
23
23
23
23
23
23
23
23
23
23
23
23
23
23
23
23
23
23
23
23
23
23
23
23
23
23
23
23
23
23
23
23
23
23
23
23
23
23
23
23
23
23
23
23
23
23
23
23
23
23
23
23
23
23
23
23
23
23
23
23
23
23
23
23
23
23
23
23
23
23
23
23
23
23
23
23
23
23
23
23
23
23
23
23
23
23
23
23
23
23
23
23
23
23
23
23
23
23
23
23
23
23
23
23
23
23
23
23
23
23
23
23
23
23
23
23
23
23
23
23
23
23
23
23
23
23
23
23
23
23
23
23
23
23
23
23
23
23
23
23
23
23
23
23
23
23
23
23
23
23
23
23
23
23
23
23
23
23
23
23
23
23
23
23
23
23
23
23
23
23
23
23
23
23
23
23
23
23
23
23
23
23
23
23
23
23
23
23
23
23
23
23
23
23
23
23
23
23
23
23
23
23
23
23
23
23
23
23
23
23
23
23
23
23
23
23
23
23
23
23
23
23
23
23
23
23
23
23
23
23
23
23
23
23
23
23
23
23
23
23
23
23
23
23
23
23
23
23
23
23
23
23
23
23
23
23
23
23
23
23
23
23
23
23
23
23
23
23
23
23
23
23
23
23
23
23
23
23
23
23
23
23
23
23
23
23
23
23
23
23
23
23
23
23
23
23
23
23
23
23
23
23
23
23
23
23
23
23
23
23
23
23
23
23
23
23
23
23
23
23
23
23
23
23
23
23
23
23
23
23
23
23
23
23
23
23
23
23
23
23
23
23
23
23
23
23
23
23
23
23
23
23
23
23
23
23
23
23
23
23
23
23
23
23
23
23
23
23
23
23
23
23
23
23
23
23
23
23
23
23
23
23
23
23
23
23
23
23
23
23
23
23
23
23
23
23
23
23
23
23
23
23
23
23
23
23
23
23
23
23
23
23
23
23
23
23
23
23
23
23
23
23
23
23
23
23
23
23
23
23
23
23
23
23
23
23
23
23
23
23
23
23
23
23
23
23
23
23
23
23
23
23
23
23
23
23
23
23
23
23
23
23
23
23
23
23
23
23
23
23
23
23
23
23
23
23
23
23
23
23
23
23
23
23
23
23
23
23
23
23
23
23
23
23
23
23
23
23
23
23
23
23
23
23
23
23
23
23
23
23
23
23
23
23
23
23
23
23
23
23
23
23
23
23
23
23
23
23
23
23
23
23
23
23
23
23
23
23
23
23
23
23
23
23
23
23
23
23
23
23
23
23
23
23
23
23
23
23
23
23
23
23
23
23
23
23
23
23
23
23
23
23
23
23
23
23
23
23
23
23
23
23
23
23
23
23
23
23
23
23
23
23
23
23
23
23
23
23
23
23
23
23
23
23
23
23
23
23
23
23
23
23
23
23
23
23
23
23
23
23
23
23
23
23
23
23
23
23
23
23
23
23
23
23
23
23
23
23
23
23
23
23
23
23
23
23
23
23
23
23
23
23
23
23
23
23
23
23
23
23
23
23
23
23
23
23
23
23
23
23
23
23
23
23
23
23
23
23
23
23
23
23
23
23
23
23
23
23
23
23
23
23
23
23
23
23
23
23
23
23
23
23
23
23
23
23
23
23
23
23
23
23
23
23
23
23
23
23
23
23
23
23
23
23
23
23
23
23
23
23
23
23
23
23
23
23
23
23
23
23
23
23
23
23
23
23
23
23
23
23
23
23
23
23
23
23
23
23
23
23
23
23
23
23
23
23
23
23
23
23
23
23
23
23
23
23
23
23
23
23
23
23
23
23
23
23
23
23
23
23
23
23
23
23
23
23
23
23
23
23
23
23
23
23
23
23
23
23
23
23
23
23
23
23
23
23
23
23
23
23
23
23
23
23
23
23
23
23
23
23
23
23
23
23
23
23
23
23
23
23
23
23
23
23
23
23
23
23
23
23
23
23
23
23
23
23
23
23
23
23
23
23
23
23
23
23
23
23
23
23
23
23
23
23
23
23
23
23
23
23
23
23
23
23
23
23
23
23
23
23
23
23
23
23
23
23
23
23
23
23
23
23
23
23
23
23
23
23
23
23
23
23
23
23
23
23
23
23
23
23
23
23
23
23
23
23
23
23
23
23
23
23
23
23
23
23
23
23
23
23
23
23
23
23
23
23
23
23
23
23
23
23
23
23
23
23
23
23
23
23
23
23
23
23
23
23
23
23
23
23
23
23
23
23
23
23
23
23
23
23
23
23
23
23
23
23
23
23
23
23
23
23
23
23
23
23
23
23
23
23
23
23
23
23
23
23
23
23
23
23
23
23
23
23
23
23
23
23
23
23
23
23
23
23
23
23
23
23
23
23
23
23
23
23
23
23
23
23
23
23
23
23
23
23
23
23
23
23
23
23
23
23
23
23
23
23
23
23
23
23
23
23
23
23
23
23
23
23
23
23
23
23
23
23
23
23
23
23
23
23
23
23
23
23
23
23
23
23
23
23
23
23
23
23
23
23
23
23
23
23
23
23
23
23
23
23
23
23
23
23
23
23
23
23
23
23
23
23
23
23

POINT_DATA 16865
SCALARS Displacement_R double 1
LOOKUP_TABLE default
0
0.000601442
0.00119877
0.00178807
0.0023649
0.00292339
0.0034585
0.00396134
0.00442524
0.00483818
0.00519063
0.00548445
0.00568712
0.00572091
0.00568086
0.00560605
0.00549606
0.00536457
0.00521924
0.00506788
0.00491366
0.00476107
0.00461055
0.00446478
0.00432298
0.00418681
0.00405508
0.00392887
0.00380697
0.00369011
0.00357719
0.00346876
0.00336385
0.00326292
0.00316514
0.0030709
0.00297949
0.00289125
0.00280559
0.00272279
0.00264237
0.00256457
0.00248896
0.00241576
0.0023446
0.00227569
0.00220867
0.00214373
0.00208057
0.00201936
0.0019598
0.00190206
0.00184587
0.00179138
0.00173834
0.00168688
0.00163678
0.00158816
0.00154081
0.00149483
0.00145004
0.00140653
0.00136414
0.00132293
0.00128277
0.00124371
0.00120562
0.00116857
0.00113241
0.00109722
0.00106287
0.00102942
0.000996748
0.000964909
0.000933802
0.000903467
0.000873814
0.000844879
0.000816578
0.000788945
0.000761902
0.000735481
0.000709608
0.000684313
0.000659528
0.000635279
0.000611506
0.00058823
0.000565397
0.000543025
0.000521065
0.000499533
0.000478383
0.000457631
0.000437234
0.000417206
0.000397507
0.000378151
0.0003591
0.000340366
0.000321915
0.000303758
0.000285863
0.00026824
0.00025086
0.00023373
0.000216826
0.000200152
0.000183686
0.000167433
0.000151372
0.000135506
0.000119816
0.000104307
8.89586e-05
7.37749e-05
5.87395e-05
4.3854e-05
2.91039e-05
1.44901e-05
0
0
0.00114951
0.00226718
0.00331442
0.00423852
0.00496928
0.00542057
0.00544992
0.00528391
0.00502738
0.00474064
0.0044544
0.00418165
0.00392671
0.00368997
0.00347022
0.0032658
0.00307506
0.00289657
0.00272916
0.00257184
0.0024238
0.00228436
0.00215292
0.00202896
0.00191199
0.00180156
0.00169725
0.00159866
0.00150544
0.00141722
0.00133367
0.00125448
0.00117937
0.00110805
0.00104027
0.000975783
0.000914367
0.000855811
0.000799917
0.0007465
0.000695388
0.00064642
0.000599448
0.00055433
0.000510936
0.000469144
0.000428841
0.000389919
0.00035228
0.00031583
0.000280483
0.000246156
0.000212773
0.000180263
0.000148558
0.000117594
8.73109e-05
5.76529e-05
2.8566e-05
0
0
0.00055219
0.00110042
0.00164117
0.00216989
0.00268167
0.00317095
0.00363044
0.00405331
0.00442762
0.00474855
0.00499886
0.00516064
0.005228
0.00521948
0.00516154
0.00507287
0.00496098
0.00483591
0.00470344
0.00456785
0.00443228
0.00429835
0.00416758
0.00404035
0.00391732
0.00379834
0.00368367
0.00357295
0.00346627
0.00336323
0.00326382
0.0031677
0.00307484
0.00298493
0.00289794
0.00281361
0.00273193
0.00265268
0.00257585
0.00250125
0.00242889
0.00235859
0.00229036
0.00222406
0.00215969
0.00209713
0.00203637
0.0019773
0.00191992
0.00186413
0.00180991
0.00175719
0.00170595
0.00165611
0.00160765
0.0015605
0.00151466
0.00147003
0.00142662
0.00138435
0.00134322
0.00130317
0.00126417
0.00122617
0.00118916
0.00115309
0.00111794
0.00108366
0.00105024
0.00101764
0.000985835
0.000954792
0.000924497
0.000894909
0.000866019
0.000837787
0.000810204
0.000783235
0.000756871
0.000731078
0.000705847
0.00068115
0.000656975
0.000633297
0.000610105
0.000587375
0.000565097
0.000543249
0.000521823
0.000500795
0.000480159
0.000459894
0.000439993
0.000420437
0.000401219
0.000382321
0.000363738
0.000345451
0.000327456
0.000309737
0.000292288
0.000275095
0.000258152
0.000241446
0.000224971
0.000208716
0.000192674
0.000176836
0.000161195
0.00014574
0.000130468
0.000115368
0.000100435
8.56611e-05
7.10405e-05
5.65649e-05
4.22299e-05
2.80275e-05
1.39534e-05
0
0
0.00105163
0.00207321
0.00302859
0.00386914
0.00452973
0.00490946
0.0049907
0.00486261
0.00464523
0.00439556
0.00414266
0.00389932
0.00367018
0.00345611
0.00325638
0.00306974
0.00289492
0.00273076
0.0025763
0.00243076
0.00229346
0.00216383
0.00204139
0.00192569
0.00181631
0.00171287
0.00161501
0.00152238
0.00143465
0.00135152
0.00127269
0.00119788
0.00112683
0.00105928
0.000995021
0.000933817
0.000875466
0.000819775
0.000766565
0.000715667
0.000666921
0.000620182
0.00057531
0.000532176
0.00049066
0.00045065
0.000412039
0.000374729
0.000338627
0.000303648
0.000269711
0.000236739
0.000204661
0.00017341
0.000142924
0.000113144
8.40122e-05
5.54773e-05
2.7489e-05
0
0
0.000503365
0.001003
0.00149564
0.00197692
0.0024425
0.00288683
0.0033038
0.00368619
0.00402405
0.00431207
0.00452552
0.00466341
0.00474669
0.00476287
0.00472299
0.00465326
0.00456084
0.00445493
0.00434112
0.00422348
0.00410486
0.00398705
0.00387132
0.00375831
0.0036485
0.00354202
0.00343896
0.00333925
0.00324281
0.0031495
0.0030592
0.00297174
0.00288702
0.00280486
0.00272519
0.00264786
0.00257279
0.00249988
0.00242905
0.00236021
0.00229331
0.00222827
0.00216505
0.00210356
0.00204377
0.00198561
0.00192905
0.00187404
0.00182052
0.00176845
0.0017178
0.00166851
0.00162055
0.00157387
0.00152844
0.00148421
0.00144116
0.00139924
0.00135841
0.00131865
0.00127992
0.00124218
0.0012054
0.00116955
0.00113461
0.00110053
0.0010673
0.00103488
0.00100325
0.00097238
0.000942244
0.000912817
0.000884077
0.000855999
0.000828562
0.000801742
0.000775521
0.000749875
0.000724788
0.000700237
0.000676206
0.000652676
0.00062963
0.000607051
0.000584923
0.00056323
0.000541957
0.000521089
0.000500613
0.000480513
0.000460778
0.000441394
0.000422349
0.00040363
0.000385227
0.000367126
0.00034932
0.000331795
0.000314542
0.000297552
0.000280814
0.00026432
0.00024806
0.000232026
0.000216209
0.000200601
0.000185194
0.000169981
0.000154954
0.000140105
0.000125428
0.000110916
9.65631e-05
8.23612e-05
6.83052e-05
5.43884e-05
4.06053e-05
2.69499e-05
1.34168e-05
0
0
0.000954637
0.0018812
0.00274609
0.00350457
0.00409616
0.00442293
0.00453667
0.00444502
0.00426548
0.00405195
0.00383185
0.00361762
0.0034141
0.00322259
0.0030428
0.0028739
0.00271495
0.00256508
0.00242356
0.00228976
0.00216318
0.00204336
0.0019299
0.00182244
0.00172065
0.00162419
0.00153277
0.00144609
0.00136386
0.00128581
0.00121169
0.00114126
0.00107427
0.0010105
0.000949759
0.000891836
0.000836549
0.000783725
0.0007332
0.00068482
0.000638442
0.000593931
0.00055116
0.000510012
0.000470375
0.000432146
0.000395228
0.00035953
0.000324968
0.00029146
0.000258933
0.000227316
0.000196544
0.000166554
0.000137288
0.000108691
8.07115e-05
5.33003e-05
2.64111e-05
0
0
0.000454978
0.000906478
0.00135149
0.00178593
0.00220585
0.00260608
0.00298123
0.00332415
0.0036268
0.00388189
0.00406482
0.00418675
0.00427723
0.00431186
0.00428984
0.00423775
0.00416402
0.00407659
0.00398093
0.0038808
0.00377886
0.0036769
0.00357606
0.00347709
0.00338044
0.00328632
0.00319485
0.00310603
0.00301984
0.00293618
0.00285498
0.00277612
0.00269953
0.00262509
0.00255272
0.00248235
0.00241389
0.00234728
0.00228245
0.00221934
0.00215792
0.00209811
0.00203988
0.00198318
0.00192797
0.0018742
0.00182185
0.00177086
0.00172121
0.00167285
0.00162576
0.00157989
0.00153521
0.00149168
0.00144928
0.00140797
0.00136771
0.00132848
0.00129025
0.00125298
0.00121664
0.00118121
0.00114666
0.00111296
0.00108008
0.001048
0.00101669
0.000986123
0.00095628
0.000927136
0.000898668
0.000870853
0.00084367
0.000817098
0.000791116
0.000765706
0.000740848
0.000716522
0.000692713
0.000669402
0.000646572
0.000624207
0.000602291
0.000580809
0.000559746
0.000539088
0.000518822
0.000498932
0.000479407
0.000460234
0.000441401
0.000422896
0.000404708
0.000386825
0.000369237
0.000351933
0.000334904
0.000318139
0.00030163
0.000285367
0.000269342
0.000253546
0.00023797
0.000222606
0.000207448
0.000192486
0.000177715
0.000163126
0.000148714
0.00013447
0.00012039
0.000106465
9.26912e-05
7.90615e-05
6.55703e-05
5.2212e-05
3.89811e-05
2.58722e-05
1.28803e-05
0
0
0.00085847
0.00169099
0.0024667
0.00314476
0.00366899
0.00395408
0.00408828
0.00403123
0.00388811
0.00370983
0.00352202
0.0033366
0.00315853
0.00298945
0.00282953
0.0026783
0.00253518
0.00239957
0.00227095
0.00214888
0.00203299
0.00192295
0.00181846
0.00171924
0.00162502
0.00153554
0.00145055
0.00136981
0.00129307
0.00122011
0.0011507
0.00108463
0.0010217
0.000961715
0.000904488
0.000849846
0.000797623
0.000747665
0.000699825
0.000653965
0.000609954
0.000567671
0.000527002
0.000487839
0.000450082
0.000413635
0.000378411
0.000344326
0.000311303
0.000279267
0.000248151
0.00021789
0.000188424
0.000159695
0.000131649
0.000104237
7.74094e-05
5.11223e-05
2.53327e-05
0
0
0.000406952
0.0008107
0.00120848
0.00159655
0.00197134
0.00232815
0.00266213
0.0029666
0.00323484
0.00345802
0.00361532
0.00372517
0.00381818
0.00386638
0.00386112
0.00382578
0.00376988
0.00370036
0.00362237
0.0035394
0.0034539
0.00336755
0.00328148
0.00319641
0.00311283
0.00303099
0.00295106
0.00287309
0.0027971
0.00272306
0.00265093
0.00258065
0.00251217
0.00244542
0.00238036
0.00231692
0.00225506
0.00219473
0.0021359
0.00207851
0.00202255
0.00196796
0.00191472
0.0018628
0.00181217
0.00176279
0.00171463
0.00166768
0.00162189
0.00157724
0.0015337
0.00149124
0.00144984
0.00140946
0.00137009
0.00133169
0.00129423
0.00125769
0.00122205
0.00118727
0.00115333
0.00112022
0.00108789
0.00105633
0.00102552
0.000995431
0.000966042
0.000937331
0.000909278
0.000881862
0.000855062
0.000828859
0.000803234
0.000778168
0.000753643
0.000729642
0.000706148
0.000683144
0.000660614
0.000638542
0.000616914
0.000595715
0.00057493
0.000554546
0.000534549
0.000514927
0.000495667
0.000476757
0.000458184
0.000439938
0.000422008
0.000404383
0.000387052
0.000370005
0.000353233
0.000336726
0.000320476
0.000304472
0.000288707
0.000273172
0.00025786
0.000242762
0.000227871
0.000213179
0.000198679
0.000184365
0.000170229
0.000156266
0.000142468
0.000128831
0.000115346
0.00010201
8.8816e-05
7.57588e-05
6.2833e-05
5.00336e-05
3.73554e-05
2.47936e-05
1.23433e-05
0
0
0.000763114
0.00150252
0.00219028
0.0027896
0.00324866
0.00349914
0.00364596
0.00362126
0.00351316
0.00336931
0.00321331
0.0030564
0.00290358
0.00275683
0.00261668
0.00248306
0.00235571
0.00223431
0.00211855
0.00200818
0.00190296
0.00180268
0.00170713
0.00161613
0.00152947
0.00144695
0.00136839
0.00129357
0.00122232
0.00115444
0.00108973
0.00102803
0.00096916
0.000912947
0.000859235
0.000807871
0.000758711
0.000711618
0.000666461
0.000623118
0.000581474
0.000541419
0.000502851
0.000465672
0.000429794
0.000395129
0.000361598
0.000329125
0.00029764
0.000267077
0.000237372
0.000208466
0.000180305
0.000152837
0.000126011
9.97831e-05
7.41079e-05
4.89447e-05
2.42544e-05
0
0
0.000359286
0.000715654
0.00106661
0.00140876
0.00173892
0.00205291
0.00234637
0.00261335
0.00284791
0.00304073
0.00317596
0.00327574
0.0033686
0.00342673
0.00343667
0.0034173
0.00337843
0.00332628
0.00326553
0.00319938
0.00313007
0.00305914
0.00298768
0.0029164
0.0028458
0.00277617
0.00270771
0.00264054
0.00257472
0.00251026
0.00244717
0.00238544
0.00232504
0.00226596
0.00220818
0.00215166
0.00209638
0.00204233
0.00198947
0.0019378
0.00188728
0.00183791
0.00178966
0.0017425
0.00169644
0.00165143
0.00160747
0.00156454
0.0015226
0.00148165
0.00144167
0.00140262
0.0013645
0.00132727
0.00129092
0.00125542
0.00122076
0.00118691
0.00115386
0.00112157
0.00109003
0.00105922
0.00102912
0.000999705
0.000970959
0.000942861
0.000915393
0.000888537
0.000862273
0.000836583
0.000811452
0.00078686
0.000762793
0.000739233
0.000716164
0.000693573
0.000671442
0.000649759
0.000628508
0.000607676
0.00058725
0.000567217
0.000547563
0.000528277
0.000509346
0.00049076
0.000472507
0.000454575
0.000436956
0.000419637
0.00040261
0.000385864
0.000369391
0.000353181
0.000337225
0.000321515
0.000306043
0.000290801
0.00027578
0.000260974
0.000246374
0.000231975
0.000217768
0.000203748
0.000189908
0.000176241
0.000162742
0.000149403
0.000136221
0.000123189
0.000110302
9.75534e-05
8.49396e-05
7.2455e-05
6.00949e-05
4.78545e-05
3.57292e-05
2.37146e-05
1.18063e-05
0
0
0.000668412
0.00131547
0.00191628
0.00243832
0.00283458
0.00305488
0.00320913
0.00321441
0.00314008
0.00302996
0.00290536
0.00277672
0.00264901
0.00252447
0.00240403
0.00228798
0.00217636
0.00206914
0.00196622
0.00186752
0.00177295
0.00168241
0.00159581
0.00151301
0.0014339
0.00135835
0.0012862
0.00121732
0.00115155
0.00108874
0.00102874
0.000971407
0.00091659
0.000864151
0.000813955
0.00076587
0.000719774
0.000675546
0.000633074
0.00059225
0.000552973
0.000515147
0.000478681
0.000443489
0.00040949
0.000376608
0.000344771
0.000313912
0.000283967
0.000254877
0.000226583
0.000199035
0.00017218
0.000145973
0.000120369
9.53258e-05
7.08037e-05
4.67653e-05
2.31753e-05
0
0
0.000311949
0.000621281
0.000925772
0.00122241
0.0015084
0.0017801
0.00203366
0.00226394
0.00246559
0.00262973
0.00274543
0.00283616
0.00292726
0.00299263
0.00301616
0.00301199
0.00298944
0.00295417
0.00291029
0.00286067
0.00280732
0.00275164
0.00269465
0.00263705
0.00257934
0.00252184
0.0024648
0.00240838
0.00235268
0.00229776
0.00224369
0.00219048
0.00213815
0.00208672
0.00203619
0.00198657
0.00193787
0.00189007
0.00184318
0.0017972
0.00175212
0.00170795
0.00166467
0.00162228
0.00158077
0.00154014
0.00150037
0.00146144
0.00142336
0.00138611
0.00134967
0.00131403
0.00127918
0.0012451
0.00121177
0.00117918
0.00114731
0.00111615
0.00108568
0.00105588
0.00102673
0.000998232
0.000970353
0.00094308
0.000916399
0.000890292
0.000864745
0.000839741
0.000815265
0.000791303
0.000767838
0.000744858
0.000722348
0.000700294
0.000678682
0.000657499
0.000636733
0.00061637
0.000596398
0.000576806
0.000557582
0.000538714
0.000520191
0.000502003
0.000484139
0.000466588
0.000449342
0.00043239
0.000415723
0.000399331
0.000383207
0.000367341
0.000351726
0.000336353
0.000321213
0.000306301
0.000291608
0.000277126
0.00026285
0.000248772
0.000234886
0.000221185
0.000207664
0.000194315
0.000181134
0.000168115
0.000155252
0.000142539
0.000129972
0.000117546
0.000105255
9.30956e-05
8.10621e-05
6.91504e-05
5.73561e-05
4.56749e-05
3.41026e-05
2.26353e-05
1.1269e-05
0
0
0.000574353
0.00112979
0.00164459
0.00209067
0.00242653
0.00261953
0.00277764
0.00281055
0.0027689
0.00269188
0.0025983
0.00249769
0.00239493
0.00229251
0.00219169
0.00209314
0.00199722
0.00190414
0.00181403
0.00172698
0.00164304
0.00156223
0.00148454
0.00140995
0.00133838
0.00126977
0.00120404
0.00114108
0.00108079
0.00102305
0.000967756
0.000914785
0.000864023
0.000815356
0.000768674
0.000723868
0.000680834
0.000639471
0.000599683
0.000561378
0.000524469
0.000488871
0.000454507
0.000421301
0.000389183
0.000358084
0.000327942
0.000298696
0.000270292
0.000242674
0.000215793
0.000189601
0.000164053
0.000139108
0.000114726
9.08675e-05
6.74987e-05
4.45854e-05
2.20959e-05
0
0
0.000264938
0.000527569
0.000785953
0.00103747
0.00127971
0.0015096
0.00172385
0.00191813
0.00208766
0.00222469
0.00232266
0.00240484
0.0024932
0.00256386
0.00259945
0.00260972
0.0026029
0.00258406
0.00255672
0.00252337
0.00248576
0.00244516
0.00240251
0.00235848
0.00231357
0.00226814
0.00222246
0.00217673
0.0021311
0.0020857
0.0020406
0.00199588
0.00195159
0.00190778
0.00186449
0.00182175
0.00177959
0.00173803
0.00169709
0.00165679
0.00161715
0.00157816
0.00153984
0.0015022
0.00146524
0.00142897
0.00139337
0.00135846
0.00132422
0.00129066
0.00125776
0.00122552
0.00119394
0.00116299
0.00113268
0.00110299
0.00107391
0.00104543
0.00101754
0.000990231
0.000963481
0.000937283
0.000911624
0.000886491
0.000861872
0.000837754
0.000814125
0.000790972
0.000768283
0.000746046
0.000724248
0.000702878
0.000681923
0.000661373
0.000641217
0.000621442
0.000602038
0.000582995
0.000564302
0.000545949
0.000527926
0.000510223
0.00049283
0.000475739
0.000458941
0.000442426
0.000426186
0.000410212
0.000394497
0.000379033
0.000363812
0.000348825
0.000334067
0.00031953
0.000305207
0.000291092
0.000277177
0.000263456
0.000249924
0.000236575
0.000223402
0.000210399
0.000197562
0.000184886
0.000172364
0.000159991
0.000147764
0.000135677
0.000123725
0.000111905
0.000100211
8.86392e-05
7.71859e-05
6.58468e-05
5.46181e-05
4.34959e-05
3.24765e-05
2.15564e-05
1.0732e-05
0
0
0.000480875
0.000945346
0.00137494
0.0017462
0.0020239
0.00219145
0.00235098
0.00240936
0.00239944
0.00235497
0.00229208
0.00221929
0.00214133
0.00206093
0.00197967
0.00189857
0.0018183
0.00173932
0.00166199
0.00158656
0.00151323
0.00144213
0.00137335
0.00130693
0.0012429
0.00118124
0.00112191
0.00106487
0.00101005
0.000957378
0.00090678
0.00085817
0.00081146
0.000766564
0.000723394
0.000681866
0.000641893
0.000603394
0.00056629
0.000530504
0.000495961
0.000462593
0.000430331
0.000399111
0.000368872
0.000339557
0.000311109
0.000283478
0.000256613
0.000230469
0.000205
0.000180165
0.000155925
0.000132242
0.000109081
8.64084e-05
6.41931e-05
4.24051e-05
2.10163e-05
0
0
0.000218172
0.000434359
0.000646904
0.000853588
0.00105242
0.00124087
0.00141626
0.0015751
0.00171324
0.00182452
0.00190597
0.00197983
0.00206484
0.00213938
0.00218573
0.00220975
0.00221818
0.0022154
0.00220432
0.00218702
0.00216499
0.00213935
0.00211093
0.00208038
0.00204821
0.00201478
0.00198041
0.00194534
0.00190976
0.00187383
0.00183769
0.00180143
0.00176516
0.00172896
0.00169289
0.00165702
0.00162139
0.00158606
0.00155107
0.00151644
0.00148221
0.0014484
0.00141504
0.00138215
0.00134973
0.00131781
0.00128639
0.00125548
0.00122508
0.0011952
0.00116584
0.001137
0.00110868
0.00108087
0.00105358
0.00102679
0.0010005
0.000974701
0.000949393
0.000924564
0.000900207
0.000876313
0.000852873
0.00082988
0.000807324
0.000785195
0.000763484
0.000742182
0.00072128
0.000700768
0.000680636
0.000660876
0.000641478
0.000622433
0.000603732
0.000585365
0.000567325
0.000549602
0.000532188
0.000515074
0.000498252
0.000481715
0.000465453
0.00044946
0.000433728
0.000418248
0.000403015
0.000388021
0.000373259
0.000358722
0.000344404
0.000330297
0.000316397
0.000302697
0.000289191
0.000275872
0.000262736
0.000249777
0.00023699
0.000224369
0.000211909
0.000199606
0.000187454
0.000175449
0.000163587
0.000151862
0.000140271
0.00012881
0.000117474
0.00010626
9.51627e-05
8.41797e-05
7.3307e-05
6.25409e-05
5.18782e-05
4.13154e-05
3.08493e-05
2.04767e-05
1.01946e-05
0
0
0.000387964
0.00076209
0.00110721
0.00140467
0.0016262
0.00176945
0.00192875
0.00201072
0.00203172
0.00201933
0.00198682
0.00194163
0.00188835
0.00182985
0.00176807
0.00170436
0.00163968
0.00157476
0.00151018
0.00144634
0.00138359
0.00132218
0.00126228
0.00120404
0.00114752
0.00109278
0.00103985
0.000988715
0.000939362
0.000891754
0.000845848
0.000801593
0.000758932
0.000717802
0.000678142
0.000639887
0.000602974
0.000567337
0.000532914
0.000499645
0.000467468
0.000436327
0.000406166
0.000376931
0.000348571
0.000321038
0.000294284
0.000268266
0.000242941
0.000218269
0.000194212
0.000170733
0.0001478
0.000125378
0.000103438
8.1951e-05
6.08887e-05
4.02256e-05
1.99371e-05
0
0
0.000171645
0.000341634
0.000508596
0.000670728
0.000826452
0.000973799
0.00111073
0.0012346
0.00134204
0.00142866
0.00149444
0.00156006
0.00164133
0.00171878
0.00177481
0.00181195
0.00183523
0.0018482
0.00185315
0.00185172
0.00184512
0.00183431
0.00182003
0.00180288
0.00178337
0.00176189
0.00173879
0.00171433
0.00168876
0.00166228
0.00163506
0.00160724
0.00157897
0.00155035
0.00152149
0.00149247
0.00146336
0.00143425
0.00140518
0.00137621
0.00134738
0.00131875
0.00129033
0.00126217
0.0012343
0.00120672
0.00117947
0.00115255
0.00112599
0.0010998
0.00107397
0.00104853
0.00102346
0.00099879
0.000974505
0.000950611
0.000927106
0.00090399
0.000881261
0.000858914
0.000836948
0.000815356
0.000794135
0.00077328
0.000752785
0.000732643
0.00071285
0.000693398
0.000674282
0.000655494
0.000637029
0.000618878
0.000601036
0.000583495
0.000566249
0.00054929
0.000532613
0.00051621
0.000500074
0.000484199
0.000468579
0.000453207
0.000438076
0.00042318
0.000408514
0.00039407
0.000379844
0.000365829
0.000352019
0.000338409
0.000324994
0.000311768
0.000298726
0.000285862
0.000273173
0.000260652
0.000248295
0.000236097
0.000224054
0.000212162
0.000200416
0.000188811
0.000177345
0.000166012
0.000154809
0.000143732
0.000132778
0.000121942
0.000111222
0.000100614
9.01141e-05
7.97197e-05
6.94276e-05
5.92347e-05
4.9138e-05
3.91346e-05
2.92219e-05
1.93969e-05
9.65712e-06
0
0
0.000295458
0.000579683
0.000840869
0.00106526
0.0012322
0.00135184
0.00150983
0.00161388
0.0016652
0.00168452
0.00168215
0.00166443
0.00163569
0.00159903
0.00155667
0.0015103
0.00146118
0.0014103
0.00135843
0.00130617
0.00125399
0.00120225
0.00115123
0.00110114
0.00105214
0.00100433
0.000957782
0.000912554
0.000868662
0.000826114
0.0007849
0.000745
0.000706385
0.000669022
0.000632872
0.000597892
0.000564037
0.000531263
0.000499523
0.00046877
0.00043896
0.000410047
0.000381987
0.000354738
0.000328258
0.000302508
0.000277449
0.000253045
0.00022926
0.000206061
0.000183417
0.000161296
0.000139669
0.00011851
9.77923e-05
7.74908e-05
5.75823e-05
3.80448e-05
1.88572e-05
0
0
0.000125327
0.00024933
0.000370928
0.000488739
0.000601597
0.000708115
0.000806903
0.000896182
0.000973494
0.00103633
0.00108695
0.00114432
0.00122166
0.00130136
0.00136625
0.001416
0.0014538
0.0014823
0.00150309
0.00151738
0.00152609
0.00153001
0.00152977
0.00152596
0.00151905
0.00150947
0.00149758
0.0014837
0.0014681
0.00145104
0.00143271
0.00141332
0.00139302
0.00137197
0.00135029
0.0013281
0.0013055
0.00128258
0.00125942
0.0012361
0.00121267
0.0011892
0.00116572
0.00114229
0.00111894
0.00109571
0.00107262
0.00104969
0.00102696
0.00100444
0.000982146
0.00096009
0.000938285
0.000916741
0.000895465
0.000874464
0.000853743
0.000833304
0.000813151
0.000793285
0.000773707
0.000754416
0.000735412
0.000716693
0.000698258
0.000680103
0.000662226
0.000644623
0.000627292
0.000610228
0.000593427
0.000576885
0.000560598
0.000544561
0.000528769
0.000513218
0.000497903
0.000482819
0.000467962
0.000453326
0.000438907
0.000424699
0.000410699
0.000396901
0.0003833
0.000369892
0.000356672
0.000343636
0.000330779
0.000318097
0.000305585
0.000293238
0.000281054
0.000269027
0.000257154
0.00024543
0.000233852
0.000222416
0.000211118
0.000199954
0.000188922
0.000178016
0.000167235
0.000156574
0.000146031
0.000135602
0.000125284
0.000115074
0.00010497
9.49677e-05
8.50651e-05
7.52594e-05
6.55479e-05
5.59282e-05
4.63976e-05
3.69537e-05
2.75943e-05
1.8317e-05
9.11961e-06
0
0
0.000203339
0.000398073
0.000575779
0.000727706
0.000841321
0.000937703
0.00109373
0.00121871
0.00129987
0.00135063
0.0013782
0.00138778
0.0013835
0.00136858
0.00134559
0.0013165
0.0012829
0.00124602
0.00120684
0.00116613
0.0011245
0.00108242
0.00104026
0.000998316
0.00095681
0.000915913
0.000875753
0.000836423
0.00079799
0.000760496
0.000723969
0.000688421
0.000653851
0.000620253
0.00058761
0.000555903
0.000525106
0.000495193
0.000466135
0.000437899
0.000410454
0.000383769
0.00035781
0.000332546
0.000307946
0.000283979
0.000260614
0.000237824
0.000215579
0.000193854
0.000172622
0.000151858
0.000131539
0.000111642
9.2146e-05
7.30304e-05
5.42757e-05
3.58638e-05
1.77773e-05
0
0
7.92089e-05
0.000157429
0.000233867
0.000307567
0.000377774
0.000443689
0.00050458
0.000559566
0.000607222
0.00064689
0.000682652
0.000731716
0.000805055
0.000886632
0.000959779
0.00102175
0.00107385
0.0011177
0.00115419
0.00118408
0.001208
0.00122655
0.00124029
0.00124974
0.00125538
0.00125764
0.00125691
0.00125356
0.0012479
0.00124021
0.00123075
0.00121975
0.0012074
0.00119389
0.00117937
0.00116399
0.00114788
0.00113115
0.00111389
0.0010962
0.00107816
0.00105983
0.00104128
0.00102257
0.00100374
0.000984831
0.000965893
0.000946954
0.000928045
0.000909193
0.00089042
0.000871748
0.000853195
0.000834775
0.000816503
0.000798391
0.000780448
0.000762683
0.000745103
0.000727714
0.000710521
0.000693528
0.000676738
0.000660153
0.000643774
0.000627603
0.00061164
0.000595885
0.000580337
0.000564994
0.000549857
0.000534922
0.000520188
0.000505653
0.000491315
0.00047717
0.000463216
0.000449451
0.00043587
0.000422472
0.000409253
0.00039621
0.000383339
0.000370637
0.000358101
0.000345728
0.000333514
0.000321457
0.000309551
0.000297796
0.000286186
0.000274719
0.000263392
0.000252201
0.000241144
0.000230217
0.000219418
0.000208743
0.000198189
0.000187753
0.000177434
0.000167227
0.00015713
0.000147141
0.000137257
0.000127476
0.000117794
0.00010821
9.87206e-05
8.93244e-05
8.00187e-05
7.08013e-05
6.16702e-05
5.26233e-05
4.36585e-05
3.47739e-05
2.59676e-05
1.72376e-05
8.58237e-06
0
0
0.000111542
0.00021711
0.000311672
0.000391549
0.000452714
0.000525958
0.000679752
0.000824872
0.000935564
0.00101756
0.00107491
0.00111169
0.00113175
0.00113851
0.00113481
0.00112296
0.00110484
0.00108192
0.00105541
0.00102623
0.000995118
0.000962676
0.000929365
0.000895555
0.00086154
0.00082755
0.000793765
0.000760328
0.000727346
0.000694903
0.00066306
0.00063186
0.000601332
0.000571495
0.000542358
0.000513922
0.000486182
0.000459129
0.000432751
0.000407031
0.000381951
0.000357493
0.000333635
0.000310356
0.000287635
0.00026545
0.00024378
0.000222603
0.000201899
0.000181647
0.000161827
0.00014242
0.000123408
0.000104774
8.64998e-05
6.857e-05
5.09692e-05
3.36829e-05
1.66974e-05
0
0
3.32119e-05
6.57688e-05
9.71673e-05
0.000126874
0.000154544
0.000179972
0.000203087
0.000223938
0.00024223
0.000259105
0.000280099
0.000320769
0.00039013
0.000473438
0.0005545
0.000628444
0.000694724
0.000753835
0.000805961
0.000851391
0.000890453
0.000923587
0.000951242
0.000973908
0.000992045
0.00100611
0.00101652
0.00102367
0.00102792
0.00102959
0.00102897
0.00102634
0.00102192
0.00101593
0.00100857
0.000999988
0.000990351
0.000979789
0.000968422
0.000956357
0.000943689
0.000930503
0.000916875
0.000902872
0.000888555
0.000873977
0.000859188
0.000844229
0.000829139
0.000813953
0.000798701
0.00078341
0.000768106
0.000752809
0.000737539
0.000722314
0.000707148
0.000692055
0.000677047
0.000662134
0.000647326
0.00063263
0.000618053
0.000603601
0.00058928
0.000575092
0.000561043
0.000547135
0.000533369
0.000519749
0.000506274
0.000492946
0.000479766
0.000466734
0.000453848
0.00044111
0.000428517
0.00041607
0.000403767
0.000391607
0.000379588
0.000367709
0.000355968
0.000344363
0.000332893
0.000321554
0.000310347
0.000299268
0.000288315
0.000277486
0.000266779
0.000256191
0.000245722
0.000235368
0.000225127
0.000214997
0.000204977
0.000195063
0.000185253
0.000175546
0.00016594
0.000156432
0.000147021
0.000137704
0.000128479
0.000119345
0.0001103
0.000101342
9.24683e-05
8.36782e-05
7.49697e-05
6.6341e-05
5.77906e-05
4.93168e-05
4.09181e-05
3.2593e-05
2.434e-05
1.61577e-05
8.04486e-06
0
0
2.00022e-05
3.66464e-05
4.82763e-05
5.63265e-05
6.55431e-05
0.000115569
0.000267161
0.000432014
0.000572103
0.000685219
0.000772252
0.000836113
0.000880446
0.000908807
0.000924338
0.00092968
0.000926992
0.000918013
0.00090413
0.000886449
0.000865849
0.00084303
0.000818553
0.000792866
0.000766331
0.000739238
0.000711821
0.00068427
0.000656735
0.000629338
0.000602174
0.000575318
0.00054883
0.000522753
0.000497119
0.000471952
0.000447267
0.000423073
0.000399374
0.000376169
0.000353453
0.000331221
0.000309463
0.000288168
0.000267326
0.000246924
0.000226947
0.000207384
0.000188219
0.00016944
0.000151032
0.000132983
0.000115278
9.79061e-05
8.08538e-05
6.41098e-05
4.76627e-05
3.1502e-05
1.56175e-05
0
0
-1.26719e-05
-2.5668e-05
-3.92043e-05
-5.33966e-05
-6.81798e-05
-8.317e-05
-9.77754e-05
-0.000110992
-0.000121912
-0.000127668
-0.000121503
-8.93301e-05
-2.38266e-05
6.12681e-05
0.000150123
0.000235946
0.000316375
0.000390728
0.000458455
0.000519383
0.000573548
0.000621219
0.00066275
0.000698588
0.000729187
0.00075502
0.00077653
0.000794151
0.000808275
0.000819273
0.000827476
0.000833187
0.00083668
0.000838199
0.000837963
0.000836169
0.000832993
0.00082859
0.000823101
0.000816649
0.000809346
0.000801292
0.000792576
0.000783276
0.000773466
0.000763208
0.000752561
0.000741576
0.000730299
0.000718774
0.000707038
0.000695125
0.000683066
0.000670888
0.000658618
0.000646276
0.000633885
0.000621461
0.000609023
0.000596584
0.000584158
0.000571757
0.000559391
0.000547071
0.000534805
0.0005226
0.000510463
0.0004984
0.000486417
0.000474516
0.000462704
0.000450983
0.000439355
0.000427824
0.000416391
0.000405058
0.000393827
0.000382697
0.000371671
0.000360748
0.000349929
0.000339214
0.000328602
0.000318093
0.000307688
0.000297385
0.000287183
0.000277082
0.000267081
0.000257178
0.000247374
0.000237666
0.000228054
0.000218536
0.000209112
0.000199779
0.000190537
0.000181384
0.000172319
0.000163341
0.000154448
0.000145639
0.000136912
0.000128267
0.000119702
0.000111216
0.000102807
9.44743e-05
8.62165e-05
7.80326e-05
6.99211e-05
6.18811e-05
5.39112e-05
4.60105e-05
3.81779e-05
3.04122e-05
2.27126e-05
1.50779e-05
7.50738e-06
0
0
-7.12995e-05
-0.000143373
-0.000214542
-0.000278258
-0.000320835
-0.000294259
-0.000144552
3.99883e-05
0.000209494
0.000353694
0.000470325
0.000561186
0.0006297
0.000679585
0.000714285
0.00073676
0.00074946
0.000754373
0.00075309
0.000746883
0.000736764
0.000723547
0.000707885
0.000690304
0.000671235
0.000651027
0.000629968
0.000608293
0.000586197
0.000563837
0.000541346
0.00051883
0.000496375
0.000474053
0.000451918
0.000430017
0.000408384
0.000387046
0.000366023
0.00034533
0.000324976
0.000304968
0.000285308
0.000265996
0.000247032
0.00022841
0.000210126
0.000192175
0.000174549
0.000157242
0.000140245
0.000123552
0.000107154
9.10427e-05
7.52114e-05
5.96524e-05
4.43584e-05
2.93225e-05
1.45383e-05
0
0
-5.8474e-05
-0.000116947
-0.000175351
-0.000233391
-0.000290599
-0.000346008
-0.000398365
-0.000445698
-0.000485844
-0.000514275
-0.000523146
-0.000499583
-0.000437734
-0.000350604
-0.000253864
-0.000156103
-6.14505e-05
2.81932e-05
0.000111544
0.00018797
0.000257222
0.000319407
0.000374782
0.000423761
0.000466787
0.000504353
0.00053693
0.00056499
0.000588964
0.000609263
0.00062626
0.000640296
0.000651678
0.000660684
0.000667563
0.000672538
0.000675807
0.000677551
0.000677927
0.000677077
0.00067513
0.000672199
0.000668385
0.000663782
0.00065847
0.000652526
0.000646015
0.000638998
0.00063153
0.000623662
0.000615437
0.000606897
0.000598079
0.000589017
0.000579742
0.000570281
0.000560661
0.000550904
0.000541033
0.000531065
0.00052102
0.000510911
0.000500756
0.000490565
0.000480353
0.000470129
0.000459903
0.000449684
0.000439481
0.0004293
0.000419149
0.000409033
0.000398957
0.000388926
0.000378945
0.000369017
0.000359145
0.000349333
0.000339583
0.000329897
0.000320277
0.000310725
0.000301242
0.00029183
0.000282489
0.00027322
0.000264024
0.000254901
0.000245851
0.000236875
0.000227973
0.000219144
0.000210389
0.000201708
0.000193099
0.000184563
0.000176099
0.000167707
0.000159387
0.000151137
0.000142957
0.000134847
0.000126805
0.000118832
0.000110926
0.000103087
9.53147e-05
8.76077e-05
7.99655e-05
7.23876e-05
6.48732e-05
5.74216e-05
5.00323e-05
4.27046e-05
3.5438e-05
2.82317e-05
2.10853e-05
1.39982e-05
6.96997e-06
0
0
-0.000162524
-0.000323286
-0.00047733
-0.000613032
-0.000707674
-0.000704959
-0.000556548
-0.000351972
-0.000152822
2.25439e-05
0.000168773
0.000286596
0.000379242
0.000450603
0.000504428
0.000543998
0.000572056
0.000590835
0.000602131
0.00060738
0.000607731
0.000604104
0.000597247
0.000587765
0.000576156
0.000562828
0.000548122
0.000532321
0.000515659
0.000498336
0.000480516
0.000462337
0.000443915
0.000425346
0.000406711
0.000388075
0.000369493
0.00035101
0.000332664
0.000314483
0.000296491
0.000278708
0.000261146
0.000243818
0.000226731
0.00020989
0.000193299
0.00017696
0.000160874
0.000145039
0.000129454
0.000114117
9.90257e-05
8.41766e-05
6.95669e-05
5.51934e-05
4.10528e-05
2.71422e-05
1.34587e-05
0
0
-0.000104202
-0.000208085
-0.000311303
-0.000413163
-0.000512797
-0.000608674
-0.00069888
-0.000780478
-0.000850018
-0.000901358
-0.000925603
-0.000910776
-0.000852288
-0.000762691
-0.000657765
-0.000547852
-0.000438805
-0.000333757
-0.000234717
-0.000142765
-5.84211e-05
1.82623e-05
8.74589e-05
0.000149547
0.000204968
0.000254232
0.000297842
0.000336306
0.000370097
0.000399669
0.000425431
0.000447765
0.000467012
0.000483483
0.000497456
0.00050918
0.000518879
0.000526752
0.000532979
0.000537718
0.000541113
0.000543293
0.000544372
0.000544454
0.000543632
0.000541992
0.000539609
0.000536553
0.000532886
0.000528667
0.000523947
0.000518775
0.000513192
0.000507241
0.000500956
0.000494372
0.000487519
0.000480425
0.000473116
0.000465616
0.000457947
0.000450129
0.00044218
0.000434116
0.000425955
0.000417708
0.000409391
0.000401014
0.000392589
0.000384126
0.000375634
0.000367121
0.000358595
0.000350063
0.000341532
0.000333007
0.000324494
0.000315997
0.000307522
0.000299072
0.00029065
0.00028226
0.000273905
0.000265587
0.00025731
0.000249074
0.000240882
0.000232736
0.000224638
0.000216587
0.000208587
0.000200636
0.000192738
0.000184892
0.000177098
0.000169359
0.000161673
0.000154041
0.000146464
0.000138942
0.000131474
0.000124062
0.000116705
0.000109403
0.000102156
9.49645e-05
8.78278e-05
8.07459e-05
7.37189e-05
6.67465e-05
5.98287e-05
5.29653e-05
4.61561e-05
3.94011e-05
3.27e-05
2.60527e-05
1.94592e-05
1.29193e-05
6.43292e-06
0
0
-0.000253687
-0.000503143
-0.000740218
-0.000948295
-0.00109562
-0.00111732
-0.000969341
-0.000744017
-0.000514832
-0.000308146
-0.000132291
1.2466e-05
0.000129193
0.000221977
0.000294876
0.000351496
0.000394873
0.000427487
0.000451335
0.000468018
0.000478818
0.000484767
0.000486702
0.000485307
0.000481147
0.000474691
0.00046633
0.000456395
0.000445164
0.000432872
0.000419718
0.000405873
0.00039148
0.000376662
0.000361522
0.000346149
0.000330617
0.000314988
0.000299317
0.000283647
0.000268016
0.000252455
0.000236991
0.000221645
0.000206435
0.000191375
0.000176476
0.00016175
0.000147202
0.000132839
0.000118665
0.000104685
9.08995e-05
7.7312e-05
6.39235e-05
5.07351e-05
3.77478e-05
2.49623e-05
1.23793e-05
0
0
-0.000149934
-0.000299241
-0.000447303
-0.000593045
-0.000735205
-0.000871708
-0.000999988
-0.00111616
-0.00121546
-0.00129017
-0.00133028
-0.00132435
-0.00126884
-0.00117615
-0.00106252
-0.000940069
-0.000816332
-0.000695679
-0.000580816
-0.000473257
-0.000373777
-0.000282574
-0.000199552
-0.000124361
-5.65602e-05
4.38477e-06
5.90066e-05
0.000107855
0.000151443
0.000190268
0.000224777
0.000255393
0.000282489
0.000306411
0.000327464
0.000345927
0.000362044
0.000376038
0.000388107
0.000398427
0.000407158
0.000414442
0.000420407
0.00042517
0.000428834
0.000431493
0.000433235
0.000434136
0.000434267
0.000433695
0.000432477
0.000430669
0.000428321
0.000425477
0.000422181
0.000418471
0.000414384
0.000409951
0.000405204
0.000400171
0.000394878
0.000389348
0.000383604
0.000377667
0.000371555
0.000365287
0.000358877
0.000352342
0.000345695
0.000338948
0.000332115
0.000325205
0.000318228
0.000311195
0.000304114
0.000296992
0.000289837
0.000282657
0.000275456
0.000268241
0.000261017
0.000253789
0.000246562
0.000239339
0.000232125
0.000224923
0.000217736
0.000210567
0.000203419
0.000196295
0.000189196
0.000182124
0.000175082
0.000168071
0.000161093
0.00015415
0.000147242
0.000140371
0.000133538
0.000126743
0.000119989
0.000113275
0.000106602
9.99717e-05
9.33839e-05
8.68393e-05
8.03386e-05
7.38821e-05
6.74704e-05
6.11038e-05
5.47827e-05
4.85076e-05
4.22787e-05
3.60965e-05
2.99611e-05
2.38731e-05
1.78326e-05
1.184e-05
5.8957e-06
0
0
-0.000344853
-0.000683087
-0.00100347
-0.00128452
-0.00148551
-0.00153236
-0.00138366
-0.0011365
-0.000876711
-0.000638463
-0.000432911
-0.000261226
-0.000120456
-6.29865e-06
8.5626e-05
0.000159253
0.000217912
0.000264329
0.000300704
0.000328799
0.00035003
0.000365538
0.000376251
0.000382932
0.000386212
0.000386618
0.000384596
0.000380521
0.000374713
0.000367446
0.000358955
0.00034944
0.000339073
0.000328002
0.000316356
0.000304243
0.000291758
0.000278981
0.000265983
0.000252822
0.000239551
0.000226212
0.000212845
0.00019948
0.000186146
0.000172865
0.000159659
0.000146543
0.000133534
0.000120642
0.000107879
9.52544e-05
8.27754e-05
7.04491e-05
5.82815e-05
4.6278e-05
3.44436e-05
2.27829e-05
1.13002e-05
0
0
-0.000195676
-0.000390431
-0.00058338
-0.000773085
-0.000957899
-0.00113524
-0.00130188
-0.00145304
-0.00158264
-0.00168136
-0.00173798
-0.00174112
-0.0016881
-0.00159151
-0.00146844
-0.0013329
-0.00119408
-0.00105755
-0.000926692
-0.00080342
-0.00068874
-0.000582987
-0.000486131
-0.000397841
-0.000317674
-0.000245067
-0.000179456
-0.000120246
-6.68849e-05
-1.88309e-05
2.44036e-05
6.32797e-05
9.8206e-05
0.000129561
0.000157679
0.000182865
0.000205386
0.000225489
0.000243388
0.00025928
0.000273336
0.000285717
0.00029656
0.000305996
0.000314138
0.000321091
0.000326951
0.000331804
0.000335728
0.000338798
0.000341078
0.00034263
0.000343511
0.000343772
0.000343461
0.000342623
0.000341298
0.000339524
0.000337336
0.000334767
0.000331847
0.000328603
0.000325063
0.00032125
0.000317187
0.000312894
0.00030839
0.000303695
0.000298824
0.000293793
0.000288617
0.000283309
0.000277881
0.000272345
0.000266713
0.000260993
0.000255196
0.00024933
0.000243403
0.000237423
0.000231396
0.00022533
0.00021923
0.000213102
0.00020695
0.000200781
0.000194598
0.000188406
0.000182208
0.000176009
0.000169811
0.000163618
0.000157432
0.000151256
0.000145094
0.000138946
0.000132816
0.000126705
0.000120615
0.000114548
0.000108506
0.00010249
9.65021e-05
9.05429e-05
8.46139e-05
7.87164e-05
7.28514e-05
6.70202e-05
6.12235e-05
5.54626e-05
4.97381e-05
4.40511e-05
3.84024e-05
3.27927e-05
2.7223e-05
2.1694e-05
1.62064e-05
1.0761e-05
5.35861e-06
0
0
-0.000436034
-0.000863164
-0.0012672
-0.00162199
-0.001878
-0.00195091
-0.00180001
-0.00152956
-0.00123844
-0.000968321
-0.00073297
-0.000534355
-0.000369582
-0.000234107
-0.000123212
-3.26288e-05
4.1267e-05
0.000101449
0.000150317
0.000189797
0.000221435
0.000246482
0.000265956
0.000280697
0.000291403
0.00029866
0.000302964
0.000304739
0.000304347
0.000302098
0.000298262
0.000293069
0.000286722
0.000279394
0.000271237
0.00026238
0.000252938
0.00024301
0.000232681
0.000222027
0.000211112
0.000199994
0.00018872
0.000177335
0.000165874
0.000154372
0.000142856
0.00013135
0.000119877
0.000108456
9.71023e-05
8.58321e-05
7.4658e-05
6.35918e-05
5.26441e-05
4.18245e-05
3.11421e-05
2.06052e-05
1.02219e-05
0
0
-0.000241459
-0.000481715
-0.000719627
-0.000953422
-0.00118107
-0.00139951
-0.00160489
-0.00179157
-0.00195219
-0.00207578
-0.00214969
-0.00216219
-0.002111
-0.00200949
-0.00187602
-0.00172668
-0.00157228
-0.00141955
-0.00127247
-0.00113334
-0.00100337
-0.000883018
-0.000772306
-0.000670912
-0.000578387
-0.000494133
-0.000417552
-0.000348001
-0.000284891
-0.000227628
-0.000175691
-0.000128573
-8.58366e-05
-4.70644e-05
-1.18991e-05
1.99958e-05
4.89081e-05
7.51078e-05
9.88255e-05
0.000120278
0.000139651
0.000157119
0.000172833
0.000186935
0.000199547
0.000210789
0.00022076
0.00022956
0.000237272
0.000243979
0.000249752
0.000254661
0.000258767
0.00026213
0.0002648
0.00026683
0.000268264
0.000269146
0.000269514
0.000269406
0.000268857
0.000267898
0.000266559
0.000264868
0.000262851
0.000260532
0.000257933
0.000255076
0.000251979
0.000248663
0.000245142
0.000241435
0.000237554
0.000233515
0.00022933
0.000225012
0.000220571
0.000216019
0.000211365
0.000206619
0.000201789
0.000196883
0.000191909
0.000186875
0.000181786
0.000176649
0.00017147
0.000166254
0.000161006
0.000155731
0.000150434
0.000145118
0.000139788
0.000134448
0.000129099
0.000123748
0.000118394
0.000113043
0.000107697
0.000102358
9.70277e-05
9.17097e-05
8.64054e-05
8.11172e-05
7.58468e-05
7.05961e-05
6.53667e-05
6.01604e-05
5.49787e-05
4.98231e-05
4.46951e-05
3.9596e-05
3.45272e-05
2.949e-05
2.44857e-05
1.95155e-05
1.45807e-05
9.68231e-06
4.82167e-06
0
0
-0.000527388
-0.0010437
-0.00153194
-0.00196152
-0.00227438
-0.00237456
-0.00221959
-0.00192394
-0.00160055
-0.00129814
-0.00103282
-0.000807227
-0.000618456
-0.000461689
-0.000331858
-0.000224351
-0.000135246
-6.13223e-05
2.05419e-08
5.08698e-05
9.29033e-05
0.000127479
0.000155705
0.000178499
0.000196625
0.000210727
0.000221354
0.000228975
0.000233995
0.000236761
0.000237577
0.000236706
0.000234377
0.00023079
0.00022612
0.000220518
0.000214118
0.000207038
0.000199379
0.000191231
0.000182672
0.000173773
0.000164594
0.000155187
0.000145601
0.000135876
0.00012605
0.000116155
0.000106218
9.62672e-05
8.63237e-05
7.64082e-05
6.65392e-05
5.67333e-05
4.70057e-05
3.73702e-05
2.784e-05
1.84272e-05
9.14342e-06
0
0
-0.000287287
-0.000573104
-0.000856066
-0.00113409
-0.00140477
-0.00166463
-0.00190919
-0.00213203
-0.00232453
-0.00247413
-0.00256621
-0.00258851
-0.00253827
-0.00243062
-0.00228558
-0.00212154
-0.00195097
-0.00178163
-0.00161807
-0.00146291
-0.00131757
-0.00118255
-0.00105796
-0.000943446
-0.000838579
-0.000742686
-0.000655165
-0.000575293
-0.000502464
-0.000436014
-0.000375403
-0.000320064
-0.000269543
-0.000223372
-0.000181181
-0.000142592
-0.000107308
-7.50245e-05
-4.55043e-05
-1.85013e-05
6.17352e-06
2.87204e-05
4.92919e-05
6.80521e-05
8.51253e-05
0.000100648
0.000114722
0.000127462
0.000138953
0.000149292
0.00015855
0.000166811
0.000174136
0.000180595
0.000186241
0.000191136
0.000195323
0.000198857
0.000201776
0.000204127
0.000205944
0.000207267
0.000208125
0.000208554
0.000208579
0.000208231
0.000207533
0.000206513
0.000205188
0.000203584
0.000201716
0.000199607
0.000197271
0.000194727
0.000191988
0.000189069
0.000185983
0.000182743
0.00017936
0.000175847
0.000172211
0.000168465
0.000164617
0.000160675
0.000156647
0.000152541
0.000148364
0.000144123
0.000139824
0.000135473
0.000131075
0.000126637
0.000122161
0.000117655
0.00011312
0.000108563
0.000103987
9.93949e-05
9.47907e-05
9.01782e-05
8.55596e-05
8.09388e-05
7.63179e-05
7.17002e-05
6.70876e-05
6.24832e-05
5.78887e-05
5.33069e-05
4.87394e-05
4.41888e-05
3.96565e-05
3.51449e-05
3.06554e-05
2.61903e-05
2.17508e-05
1.73391e-05
1.29564e-05
8.60463e-06
4.28517e-06
0
0
-0.000618925
-0.00122474
-0.0017978
-0.00230341
-0.00267542
-0.00280442
-0.00264296
-0.00231977
-0.00196301
-0.00162783
-0.00133234
-0.00107971
-0.000866945
-0.000688923
-0.000540197
-0.000415807
-0.000311529
-0.000223894
-0.000150102
-8.79046e-05
-3.54939e-05
8.59503e-06
4.55609e-05
7.63962e-05
0.000101932
0.000122871
0.000139812
0.000153273
0.000163698
0.000171473
0.000176937
0.000180383
0.000182068
0.000182218
0.000181032
0.000178682
0.000175322
0.000171087
0.000166095
0.000160451
0.000154248
0.000147566
0.000140479
0.000133051
0.000125337
0.00011739
0.000109253
0.000100966
9.2566e-05
8.40842e-05
7.55497e-05
6.69884e-05
5.84239e-05
4.98777e-05
4.13696e-05
3.29178e-05
2.45393e-05
1.62501e-05
8.06546e-06
0
0
-0.000333234
-0.000664755
-0.000992926
-0.00131543
-0.00162942
-0.00193115
-0.0022154
-0.00247527
-0.00270061
-0.00287785
-0.00298892
-0.003022
-0.00297123
-0.00285619
-0.002698
-0.0025182
-0.00233078
-0.00214431
-0.001964
-0.00179255
-0.00163172
-0.0014819
-0.00134343
-0.00121573
-0.00109854
-0.000990982
-0.000892557
-0.000802349
-0.000719841
-0.000644197
-0.000574949
-0.000511385
-0.00045311
-0.000399537
-0.000350348
-0.000305062
-0.000263429
-0.000225058
-0.000189754
-0.000157197
-0.000127236
-9.96074e-05
-7.41915e-05
-5.07698e-05
-2.9248e-05
-9.44145e-06
8.72487e-06
2.54082e-05
4.06692e-05
5.46431e-05
6.73792e-05
7.89951e-05
8.9531e-05
9.90897e-05
0.000107704
0.000115466
0.000122401
0.000128589
0.000134054
0.000138866
0.000143044
0.00014665
0.000149701
0.000152252
0.000154315
0.000155942
0.000157141
0.000157958
0.000158402
0.000158511
0.000158294
0.000157786
0.000156992
0.000155944
0.000154647
0.00015313
0.000151396
0.00014947
0.000147356
0.000145077
0.000142634
0.000140049
0.000137323
0.000134475
0.000131507
0.000128434
0.000125257
0.000121993
0.000118641
0.000115215
0.000111716
0.000108155
0.000104533
0.000100861
9.714e-05
9.33786e-05
8.95776e-05
8.57458e-05
8.18832e-05
7.79981e-05
7.40904e-05
7.01674e-05
6.62292e-05
6.22825e-05
5.83274e-05
5.43697e-05
5.04097e-05
4.64529e-05
4.24993e-05
3.8554e-05
3.46172e-05
3.06935e-05
2.67831e-05
2.28903e-05
1.90155e-05
1.51625e-05
1.13318e-05
7.52698e-06
3.74854e-06
0
0
-0.000710726
-0.00140645
-0.00206512
-0.00264832
-0.00308245
-0.00324234
-0.00307116
-0.00271739
-0.00232592
-0.00195739
-0.0016315
-0.00135176
-0.00111501
-0.000915774
-0.0007482
-0.000606971
-0.000487559
-0.000386246
-0.000300033
-0.00022651
-0.000163741
-0.000110155
-6.44639e-05
-2.55994e-05
7.33537e-06
3.51011e-05
5.83491e-05
7.76411e-05
9.34644e-05
0.000106243
0.000116349
0.000124106
0.000129801
0.000133685
0.000135979
0.000136878
0.000136555
0.000135162
0.000132835
0.000129693
0.000125842
0.000121376
0.00011638
0.000110928
0.000105086
9.89138e-05
9.24647e-05
8.57862e-05
7.89211e-05
7.19079e-05
6.47815e-05
5.75736e-05
5.03129e-05
4.30258e-05
3.57366e-05
2.84678e-05
2.12405e-05
1.40744e-05
6.9883e-06
0
0
-0.000379289
-0.000756718
-0.00113019
-0.00149756
-0.00185499
-0.00219933
-0.00252352
-0.00282193
-0.00308055
-0.00328841
-0.00341821
-0.0034647
-0.00341032
-0.0032872
-0.00311344
-0.00291685
-0.00271175
-0.00250748
-0.00231022
-0.00212205
-0.00194577
-0.00178087
-0.00162863
-0.00148755
-0.0013582
-0.00123883
-0.00112964
-0.001029
-0.000936937
-0.00085202
-0.000774246
-0.000702393
-0.00063646
-0.000575433
-0.000519325
-0.000467297
-0.000419383
-0.000374885
-0.000333857
-0.000295712
-0.000260516
-0.000227774
-0.00019756
-0.000169448
-0.000143518
-0.000119401
-9.71792e-05
-7.65287e-05
-5.75307e-05
-3.99004e-05
-2.37166e-05
-8.72668e-06
4.99364e-06
1.76695e-05
2.92288e-05
3.98729e-05
4.95335e-05
5.83913e-05
6.63821e-05
7.36681e-05
8.01891e-05
8.60913e-05
9.13181e-05
9.60014e-05
0.000100088
0.000103698
0.000106782
0.000109446
0.000111645
0.000113477
0.000114899
0.000115999
0.000116736
0.000117192
0.000117329
0.000117219
0.000116828
0.000116222
0.00011537
0.00011433
0.000113073
0.000111654
0.000110044
0.000108295
0.000106379
0.000104343
0.000102162
9.98775e-05
9.7468e-05
9.49703e-05
9.23648e-05
8.96851e-05
8.6913e-05
8.40791e-05
8.11667e-05
7.82037e-05
7.51748e-05
7.21053e-05
6.89813e-05
6.58257e-05
6.26259e-05
5.94027e-05
5.61447e-05
5.28708e-05
4.95706e-05
4.62613e-05
4.29337e-05
3.96031e-05
3.62615e-05
3.29228e-05
2.95798e-05
2.6245e-05
2.29122e-05
1.95927e-05
1.62811e-05
1.29876e-05
9.70767e-06
6.45032e-06
3.21196e-06
0
0
-0.000781391
-0.00154605
-0.00226988
-0.00291177
-0.00339359
-0.00357969
-0.00340563
-0.00303443
-0.00262188
-0.00223199
-0.00188573
-0.00158711
-0.00133307
-0.00111806
-0.000936074
-0.000781637
-0.000650073
-0.000537537
-0.000440931
-0.000357763
-0.000286029
-0.000224102
-0.000170646
-0.000124549
-8.48777e-05
-5.08341e-05
-2.17343e-05
3.0143e-06
2.39276e-05
4.1457e-05
5.59987e-05
6.79015e-05
7.74728e-05
8.49843e-05
9.06763e-05
9.47617e-05
9.74294e-05
9.88471e-05
9.91638e-05
9.85121e-05
9.70103e-05
9.47639e-05
9.18669e-05
8.84036e-05
8.44495e-05
8.00721e-05
7.53325e-05
7.02852e-05
6.49797e-05
5.94608e-05
5.3769e-05
4.79414e-05
4.20118e-05
3.60112e-05
2.99685e-05
2.39101e-05
1.78613e-05
1.18453e-05
5.88456e-06
0
0
-0.000404067
-0.00080593
-0.00120364
-0.00159427
-0.00197451
-0.00233996
-0.00268464
-0.00300092
-0.00327664
-0.00349776
-0.00363957
-0.00369345
-0.00364469
-0.00352316
-0.00334997
-0.00315147
-0.00294386
-0.00273592
-0.0025345
-0.00234171
-0.00216043
-0.00199045
-0.00183286
-0.00168657
-0.00155182
-0.00142726
-0.00131278
-0.00120708
-0.0011099
-0.0010201
-0.00093741
-0.00086086
-0.000790224
-0.000724695
-0.000664096
-0.000607764
-0.000555568
-0.000506963
-0.000461859
-0.000419802
-0.000380734
-0.000344274
-0.000310385
-0.000278747
-0.000249338
-0.000221882
-0.000196371
-0.000172563
-0.000150459
-0.000129849
-0.000110736
-9.2936e-05
-7.64567e-05
-6.11332e-05
-4.69767e-05
-3.384e-05
-2.17358e-05
-1.05324e-05
-2.43358e-07
9.24925e-06
1.79314e-05
2.59092e-05
3.31684e-05
3.98042e-05
4.58027e-05
5.12497e-05
5.61312e-05
6.05247e-05
6.44167e-05
6.78771e-05
7.08926e-05
7.35264e-05
7.5766e-05
7.76683e-05
7.92213e-05
8.04766e-05
8.14227e-05
8.21063e-05
8.25165e-05
8.26956e-05
8.26333e-05
8.2368e-05
8.18898e-05
8.12337e-05
8.03904e-05
7.93917e-05
7.82287e-05
7.69303e-05
7.54884e-05
7.39292e-05
7.2245e-05
7.04597e-05
6.85663e-05
6.65863e-05
6.45133e-05
6.2367e-05
6.01414e-05
5.78544e-05
5.55006e-05
5.30962e-05
5.06362e-05
4.81356e-05
4.55898e-05
4.30123e-05
4.03991e-05
3.77624e-05
3.50989e-05
3.24195e-05
2.97212e-05
2.70142e-05
2.42959e-05
2.15754e-05
1.88506e-05
1.61299e-05
1.34115e-05
1.0703e-05
8.00317e-06
5.31882e-06
2.64905e-06
0
0
-0.000830357
-0.00164224
-0.00240965
-0.00308946
-0.00360105
-0.00380616
-0.00363991
-0.00326799
-0.00284964
-0.0024512
-0.00209501
-0.00178592
-0.00152137
-0.00129605
-0.00110408
-0.000940052
-0.000799293
-0.000677969
-0.000572978
-0.000481827
-0.000402505
-0.00033338
-0.000273108
-0.000220567
-0.000174811
-0.00013503
-0.000100525
-7.0688e-05
-4.49867e-05
-2.29535e-05
-4.17585e-06
1.1711e-05
2.50302e-05
3.60684e-05
4.50807e-05
5.22938e-05
5.79095e-05
6.21083e-05
6.50508e-05
6.68809e-05
6.77272e-05
6.7705e-05
6.69177e-05
6.54581e-05
6.34099e-05
6.08482e-05
5.7841e-05
5.44496e-05
5.07298e-05
4.67321e-05
4.25027e-05
3.80835e-05
3.35135e-05
2.8828e-05
2.40603e-05
1.92409e-05
1.43987e-05
9.56089e-06
4.75317e-06
0
0
-0.000428566
-0.000854652
-0.00127624
-0.00168993
-0.00209252
-0.00247888
-0.00284342
-0.00317732
-0.00346928
-0.00370335
-0.00385642
-0.00391773
-0.00387484
-0.0037558
-0.00358364
-0.00338397
-0.00317419
-0.00296301
-0.00275765
-0.00256048
-0.00237437
-0.00219944
-0.00203665
-0.00188519
-0.00174515
-0.00161542
-0.00149574
-0.00138497
-0.00128274
-0.00118804
-0.00110048
-0.00101922
-0.000943915
-0.000873873
-0.000808808
-0.00074816
-0.000691703
-0.000638981
-0.000589818
-0.00054384
-0.000500913
-0.000460727
-0.000423178
-0.000388004
-0.000355128
-0.000324325
-0.000295535
-0.000268564
-0.000243364
-0.000219767
-0.000197735
-0.000177119
-0.000157888
-0.000139912
-0.000123165
-0.000107532
-9.29901e-05
-7.94371e-05
-6.68556e-05
-5.51527e-05
-4.43145e-05
-3.42577e-05
-2.4971e-05
-1.63795e-05
-8.47381e-06
-1.18685e-06
5.48906e-06
1.16144e-05
1.71953e-05
2.22864e-05
2.68925e-05
3.10629e-05
3.48013e-05
3.81524e-05
4.1119e-05
4.37413e-05
4.60217e-05
4.79965e-05
4.96674e-05
5.10672e-05
5.21973e-05
5.30874e-05
5.37383e-05
5.41771e-05
5.44044e-05
5.44445e-05
5.42979e-05
5.39867e-05
5.35111e-05
5.28912e-05
5.21272e-05
5.12372e-05
5.02213e-05
4.90961e-05
4.78615e-05
4.65326e-05
4.51094e-05
4.36056e-05
4.20211e-05
4.03684e-05
3.86476e-05
3.687e-05
3.50357e-05
3.31551e-05
3.12283e-05
2.92647e-05
2.72647e-05
2.52368e-05
2.31814e-05
2.11065e-05
1.90124e-05
1.69065e-05
1.47894e-05
1.26676e-05
1.05421e-05
8.41881e-06
6.29874e-06
4.18754e-06
2.08616e-06
0
0
-0.000878824
-0.00173737
-0.0025477
-0.00326456
-0.00380479
-0.0040283
-0.0038709
-0.00349944
-0.00307603
-0.00266952
-0.00230371
-0.00198435
-0.00170941
-0.00147385
-0.00127196
-0.00109836
-0.000948431
-0.000818333
-0.000704968
-0.000605839
-0.000518936
-0.000442618
-0.000375533
-0.000316552
-0.000264716
-0.0002192
-0.000179293
-0.00014437
-0.000113882
-8.73474e-05
-6.43356e-05
-4.44663e-05
-2.74006e-05
-1.28367e-05
-5.05318e-07
9.8343e-06
1.83973e-05
2.53763e-05
3.09439e-05
3.52551e-05
3.84489e-05
4.06505e-05
4.19724e-05
4.25162e-05
4.23735e-05
4.16271e-05
4.0352e-05
3.86163e-05
3.64819e-05
3.40052e-05
3.12378e-05
2.8227e-05
2.50163e-05
2.16458e-05
1.81529e-05
1.45723e-05
1.09367e-05
7.27685e-06
3.62199e-06
0
0
-0.000452799
-0.000902868
-0.00134803
-0.00178453
-0.00220908
-0.00261608
-0.00299995
-0.00335115
-0.00365863
-0.00390529
-0.00406902
-0.00413779
-0.00410099
-0.00398518
-0.00381455
-0.00361438
-0.00340278
-0.00318873
-0.00297971
-0.00277835
-0.00258761
-0.00240784
-0.00223998
-0.00208342
-0.00193818
-0.00180333
-0.00167849
-0.00156269
-0.00145544
-0.00135585
-0.00126345
-0.00117748
-0.00109753
-0.00102297
-0.000953459
-0.000888491
-0.000827787
-0.000770941
-0.000717732
-0.000667828
-0.000621053
-0.000577135
-0.000535934
-0.000497222
-0.000460886
-0.000426733
-0.000394671
-0.000364533
-0.000336243
-0.000309657
-0.00028471
-0.000261276
-0.000239299
-0.000218668
-0.000199336
-0.000181203
-0.000164228
-0.000148324
-0.000133453
-0.000119538
-0.000106548
-9.44102e-05
-8.30988e-05
-7.25501e-05
-6.27401e-05
-5.36117e-05
-4.5144e-05
-3.72855e-05
-3.00179e-05
-2.32949e-05
-1.71003e-05
-1.13924e-05
-6.15683e-06
-1.35611e-06
3.02245e-06
7.01273e-06
1.06259e-05
1.38927e-05
1.68229e-05
1.94442e-05
2.17654e-05
2.38116e-05
2.55905e-05
2.71249e-05
2.84216e-05
2.95012e-05
3.037e-05
3.10465e-05
3.15364e-05
3.18564e-05
3.20117e-05
3.20175e-05
3.18784e-05
3.16084e-05
3.12115e-05
3.07004e-05
3.00789e-05
2.93586e-05
2.85429e-05
2.76424e-05
2.66602e-05
2.5606e-05
2.44827e-05
2.32992e-05
2.20583e-05
2.07681e-05
1.94312e-05
1.8055e-05
1.66422e-05
1.51995e-05
1.37294e-05
1.22382e-05
1.07284e-05
9.20586e-06
7.67288e-06
6.13494e-06
4.59443e-06
3.05646e-06
1.5233e-06
0
0
-0.000926786
-0.00183143
-0.00268403
-0.00343711
-0.00400493
-0.00424633
-0.00409869
-0.00372879
-0.00330108
-0.00288696
-0.00251183
-0.00218239
-0.00189718
-0.00165148
-0.00143971
-0.00125658
-0.00109749
-0.000958632
-0.000836901
-0.000729803
-0.000635323
-0.000551816
-0.000477924
-0.000412506
-0.000354592
-0.000303345
-0.000258038
-0.000218031
-0.00018276
-0.000151725
-0.000124481
-0.000100631
-7.98198e-05
-6.17316e-05
-4.60821e-05
-3.26168e-05
-2.11075e-05
-1.1349e-05
-3.15692e-06
3.63474e-06
9.17555e-06
1.36004e-05
1.70311e-05
1.95778e-05
2.13402e-05
2.24087e-05
2.28654e-05
2.27851e-05
2.22359e-05
2.128e-05
1.99745e-05
1.83718e-05
1.65202e-05
1.44645e-05
1.22463e-05
9.90433e-06
7.47515e-06
4.99314e-06
2.49099e-06
0
0
-0.000476775
-0.000950577
-0.00141902
-0.00187807
-0.00232423
-0.00275155
-0.0031543
-0.00352243
-0.00384482
-0.00410368
-0.0042776
-0.00435385
-0.00432336
-0.00421142
-0.00404281
-0.0038427
-0.00362968
-0.0034131
-0.00320068
-0.00299535
-0.00280016
-0.00261567
-0.00244286
-0.00228127
-0.00213092
-0.00199098
-0.00186104
-0.00174023
-0.001628
-0.00152353
-0.00142632
-0.00133565
-0.00125107
-0.00117199
-0.00109805
-0.00102876
-0.000963816
-0.000902847
-0.000845598
-0.000791767
-0.00074115
-0.0006935
-0.000648653
-0.000606401
-0.000566611
-0.000529106
-0.000493777
-0.000460471
-0.000429096
-0.000399519
-0.000371662
-0.000345408
-0.000320689
-0.000297402
-0.000275487
-0.000254854
-0.000235449
-0.000217192
-0.000200036
-0.000183908
-0.000168767
-0.000154548
-0.000141214
-0.000128708
-0.000116995
-0.000106025
-9.57672e-05
-8.61751e-05
-7.72224e-05
-6.8867e-05
-6.10852e-05
-5.38393e-05
-4.7108e-05
-4.08571e-05
-3.50678e-05
-2.97092e-05
-2.47642e-05
-2.02051e-05
-1.60166e-05
-1.21734e-05
-8.66197e-06
-5.45935e-06
-2.55328e-06
7.69437e-08
2.44239e-06
4.56186e-06
6.44532e-06
8.10985e-06
9.56446e-06
1.08247e-05
1.18987e-05
1.28005e-05
1.35377e-05
1.41231e-05
1.45634e-05
1.48704e-05
1.50502e-05
1.51136e-05
1.50663e-05
1.4918e-05
1.46741e-05
1.43434e-05
1.39308e-05
1.34446e-05
1.28893e-05
1.22726e-05
1.15985e-05
1.08742e-05
1.01036e-05
9.29323e-06
8.44687e-06
7.57056e-06
6.66791e-06
5.74454e-06
4.80395e-06
3.85139e-06
2.89028e-06
1.92556e-06
9.60486e-07
0
0
-0.000974242
-0.00192444
-0.00281865
-0.00360713
-0.00420161
-0.00446047
-0.00432341
-0.0039561
-0.00352479
-0.00310353
-0.00271938
-0.00238006
-0.00208471
-0.00182893
-0.00160733
-0.0014147
-0.00124648
-0.00109887
-0.000968779
-0.000853718
-0.000751667
-0.000660976
-0.00058028
-0.000508428
-0.00044444
-0.000387465
-0.00033676
-0.000291672
-0.00025162
-0.000216087
-0.000184612
-0.000156782
-0.000132227
-0.000110616
-9.16494e-05
-7.50595e-05
-6.06048e-05
-4.80675e-05
-3.72517e-05
-2.79802e-05
-2.0093e-05
-1.34454e-05
-7.90634e-06
-3.35716e-06
3.09994e-07
3.19311e-06
5.38139e-06
6.9562e-06
7.99188e-06
8.55652e-06
8.71265e-06
8.51782e-06
8.02521e-06
7.28412e-06
6.3404e-06
5.23695e-06
4.01405e-06
2.70974e-06
1.36017e-06
0
0
-0.000500501
-0.000997783
-0.00148924
-0.00197055
-0.002438
-0.00288533
-0.00330654
-0.00369122
-0.00402798
-0.00429868
-0.00448239
-0.00456614
-0.00454218
-0.00443464
-0.00426853
-0.004069
-0.00385493
-0.00363616
-0.00342059
-0.00321149
-0.00301201
-0.00282294
-0.00264529
-0.00247876
-0.00232336
-0.00217838
-0.0020434
-0.00191759
-0.00180042
-0.00169109
-0.00158908
-0.00149372
-0.00140452
-0.00132094
-0.00124257
-0.00116896
-0.00109979
-0.0010347
-0.000973416
-0.000915657
-0.000861205
-0.000809822
-0.000761333
-0.000715541
-0.0006723
-0.000631445
-0.000592851
-0.000556378
-0.00052192
-0.000489353
-0.000458588
-0.000429515
-0.000402055
-0.000376113
-0.000351618
-0.000328485
-0.000306652
-0.000286043
-0.000266602
-0.000248261
-0.000230972
-0.000214672
-0.000199317
-0.000184853
-0.000171239
-0.000158427
-0.00014638
-0.000135054
-0.000124418
-0.00011443
-0.000105062
-9.62777e-05
-8.80516e-05
-8.03505e-05
-7.31513e-05
-6.64242e-05
-6.01484e-05
-5.42968e-05
-4.88507e-05
-4.37856e-05
-3.90845e-05
-3.47254e-05
-3.06927e-05
-2.69666e-05
-2.35329e-05
-2.03736e-05
-1.74759e-05
-1.48233e-05
-1.24043e-05
-1.02039e-05
-8.21158e-06
-6.41362e-06
-4.8005e-06
-3.35969e-06
-2.08249e-06
-9.57441e-07
2.34265e-08
8.70592e-07
1.59138e-06
2.19541e-06
2.68944e-06
3.08228e-06
3.3802e-06
3.59132e-06
3.72146e-06
3.77813e-06
3.76675e-06
3.69427e-06
3.56578e-06
3.38775e-06
3.16497e-06
2.90348e-06
2.60783e-06
2.28366e-06
1.93533e-06
1.56815e-06
1.1863e-06
7.9482e-07
3.97719e-07
0
0
-0.0010212
-0.00201641
-0.0029516
-0.00377469
-0.00439496
-0.00467095
-0.00454515
-0.0041814
-0.0037472
-0.00331924
-0.00292636
-0.00257736
-0.00227199
-0.00200621
-0.00177483
-0.00157272
-0.00139538
-0.00123904
-0.0011006
-0.000977585
-0.000867967
-0.000770097
-0.000682601
-0.000604319
-0.00053426
-0.000471559
-0.00041546
-0.000365293
-0.000320461
-0.000280432
-0.000244728
-0.00021292
-0.000184623
-0.00015949
-0.000137207
-0.000117494
-0.000100094
-8.47791e-05
-7.13403e-05
-5.95895e-05
-4.93565e-05
-4.04866e-05
-3.28398e-05
-2.62885e-05
-2.0717e-05
-1.60196e-05
-1.21001e-05
-8.87049e-06
-6.25017e-06
-4.16523e-06
-2.54768e-06
-1.33482e-06
-4.68651e-07
1.04674e-07
4.35308e-07
5.70179e-07
5.534e-07
4.26644e-07
2.29514e-07
0
0
-0.000523983
-0.0010445
-0.0015587
-0.00206201
-0.00255044
-0.00301745
-0.00345674
-0.00385757
-0.00420824
-0.00449042
-0.0046836
-0.00477488
-0.00475762
-0.00465495
-0.0044918
-0.00429332
-0.00407859
-0.00385792
-0.00363945
-0.00342679
-0.00322318
-0.00302965
-0.00284727
-0.00267587
-0.00251551
-0.00236553
-0.00222555
-0.00209479
-0.00197269
-0.00185853
-0.00175175
-0.0016517
-0.0015579
-0.00146981
-0.00138702
-0.0013091
-0.00123571
-0.00116649
-0.00110118
-0.0010395
-0.000981215
-0.000926102
-0.000873974
-0.000824643
-0.000777955
-0.000733748
-0.000691894
-0.000652253
-0.000614715
-0.000579159
-0.000545488
-0.000513597
-0.000483399
-0.000454801
-0.000427728
-0.000402095
-0.000377836
-0.000354875
-0.000333151
-0.000312598
-0.000293161
-0.00027478
-0.000257406
-0.000240984
-0.000225471
-0.000210816
-0.000196982
-0.000183922
-0.000171603
-0.000159983
-0.00014903
-0.000138707
-0.000128987
-0.000119836
-0.000111228
-0.000103132
-9.55261e-05
-8.83822e-05
-8.16789e-05
-7.5392e-05
-6.95019e-05
-6.39863e-05
-5.88275e-05
-5.40055e-05
-4.95041e-05
-4.53049e-05
-4.13934e-05
-3.77528e-05
-3.43698e-05
-3.12292e-05
-2.83188e-05
-2.56248e-05
-2.31361e-05
-2.08399e-05
-1.8726e-05
-1.6783e-05
-1.50013e-05
-1.33704e-05
-1.18817e-05
-1.05254e-05
-9.29361e-06
-8.17726e-06
-7.16904e-06
-6.26064e-06
-5.44524e-06
-4.71515e-06
-4.06402e-06
-3.48469e-06
-2.97122e-06
-2.51694e-06
-2.11628e-06
-1.76298e-06
-1.45176e-06
-1.17675e-06
-9.32944e-07
-7.14787e-07
-5.17476e-07
-3.35756e-07
-1.64988e-07
0
0
-0.00106767
-0.00210735
-0.0030829
-0.00393986
-0.00458513
-0.00487799
-0.00476407
-0.00440476
-0.00396832
-0.00353412
-0.0031328
-0.00277429
-0.00245902
-0.00218332
-0.0019422
-0.00173065
-0.00154422
-0.00137915
-0.00123237
-0.0011014
-0.000984225
-0.000879179
-0.000784887
-0.000700179
-0.000624051
-0.000555628
-0.000494137
-0.000438893
-0.000389284
-0.00034476
-0.000304829
-0.000269045
-0.000237007
-0.000208352
-0.000182755
-0.000159919
-0.000139576
-0.000121484
-0.000105422
-9.11931e-05
-7.86148e-05
-6.75232e-05
-5.7769e-05
-4.92161e-05
-4.17406e-05
-3.52293e-05
-2.95789e-05
-2.46948e-05
-2.04901e-05
-1.68852e-05
-1.38064e-05
-1.11861e-05
-8.96134e-06
-7.07379e-06
-5.46899e-06
-4.09596e-06
-2.90678e-06
-1.85614e-06
-9.00981e-07
0
0
-0.000547225
-0.00109072
-0.00162742
-0.00215245
-0.00266157
-0.00314795
-0.00360496
-0.00402157
-0.00438572
-0.00467906
-0.00488144
-0.00498027
-0.0049699
-0.0048725
-0.00471273
-0.00451572
-0.00430068
-0.00407842
-0.0038573
-0.00364124
-0.00343369
-0.00323581
-0.00304881
-0.00287262
-0.00270736
-0.00255244
-0.0024075
-0.00227181
-0.00214483
-0.00202584
-0.0019143
-0.00180958
-0.00171119
-0.00161861
-0.00153141
-0.00144918
-0.00137157
-0.00129824
-0.0012289
-0.00116329
-0.00110118
-0.00104234
-0.000986575
-0.000933706
-0.000883572
-0.000836016
-0.000790903
-0.000748096
-0.00070748
-0.000668936
-0.000632362
-0.000597652
-0.000564718
-0.000533466
-0.000503816
-0.000475685
-0.000449
-0.000423688
-0.000399683
-0.000376918
-0.000355335
-0.000334874
-0.000315481
-0.000297102
-0.000279689
-0.000263194
-0.000247572
-0.00023278
-0.000218778
-0.000205525
-0.000192988
-0.000181128
-0.000169915
-0.000159314
-0.000149297
-0.000139833
-0.000130897
-0.000122461
-0.000114501
-0.000106993
-9.99138e-05
-9.32419e-05
-8.69574e-05
-8.10397e-05
-7.54708e-05
-7.0232e-05
-6.53069e-05
-6.06784e-05
-5.63317e-05
-5.22511e-05
-4.8423e-05
-4.4833e-05
-4.14689e-05
-3.83173e-05
-3.53671e-05
-3.26061e-05
-3.00238e-05
-2.76093e-05
-2.53529e-05
-2.32444e-05
-2.1275e-05
-1.94352e-05
-1.77168e-05
-1.61112e-05
-1.46107e-05
-1.32072e-05
-1.18937e-05
-1.06626e-05
-9.50734e-06
-8.42082e-06
-7.39683e-06
-6.42879e-06
-5.51081e-06
-4.63669e-06
-3.80084e-06
-2.99741e-06
-2.22103e-06
-1.46617e-06
-7.2763e-07
0
0
-0.00111366
-0.0021973
-0.00321261
-0.00410271
-0.00477227
-0.00508179
-0.00498027
-0.00462622
-0.0041882
-0.00374817
-0.00333869
-0.00297086
-0.0026458
-0.00236026
-0.00210945
-0.00188849
-0.00169298
-0.00151919
-0.00136409
-0.00122517
-0.00110044
-0.000988222
-0.000887137
-0.000796006
-0.000713813
-0.00063967
-0.00057279
-0.000512472
-0.000458087
-0.000409071
-0.000364914
-0.000325155
-0.000289377
-0.000257204
-0.000228293
-0.000202335
-0.000179049
-0.000158181
-0.000139498
-0.000122791
-0.000107868
-9.45549e-05
-8.26938e-05
-7.21398e-05
-6.27607e-05
-5.44359e-05
-4.7055e-05
-4.05167e-05
-3.47279e-05
-2.96032e-05
-2.50635e-05
-2.10359e-05
-1.74528e-05
-1.42512e-05
-1.13724e-05
-8.76145e-06
-6.36648e-06
-4.13859e-06
-2.03131e-06
0
0
-0.000570234
-0.00113648
-0.00169542
-0.00224191
-0.00277144
-0.00327688
-0.00375127
-0.0041833
-0.00456056
-0.00486474
-0.00507612
-0.00518253
-0.00517919
-0.0050874
-0.00493141
-0.00473627
-0.00452126
-0.00429768
-0.00407414
-0.00385489
-0.00364352
-0.00344143
-0.00324991
-0.00306901
-0.00289891
-0.00273911
-0.00258926
-0.00244867
-0.00231682
-0.00219303
-0.00207675
-0.00196737
-0.0018644
-0.00176733
-0.00167573
-0.00158919
-0.00150737
-0.00142992
-0.00135657
-0.00128704
-0.0012211
-0.00115853
-0.00109913
-0.00104273
-0.000989153
-0.000938248
-0.000889879
-0.000843907
-0.000800215
-0.000758684
-0.000719207
-0.000681681
-0.000646013
-0.000612107
-0.000579882
-0.000549253
-0.000520145
-0.000492482
-0.000466196
-0.00044122
-0.000417493
-0.000394951
-0.000373541
-0.000353205
-0.000333895
-0.000315558
-0.00029815
-0.000281625
-0.000265942
-0.000251058
-0.000236937
-0.00022354
-0.000210833
-0.000198783
-0.000187357
-0.000176526
-0.000166261
-0.000156533
-0.000147317
-0.000138587
-0.00013032
-0.000122492
-0.000115082
-0.000108069
-0.000101433
-9.51546e-05
-8.92163e-05
-8.36001e-05
-7.82899e-05
-7.32694e-05
-6.85237e-05
-6.4038e-05
-5.97986e-05
-5.57919e-05
-5.20055e-05
-4.84266e-05
-4.5044e-05
-4.1846e-05
-3.8822e-05
-3.59614e-05
-3.32545e-05
-3.06914e-05
-2.8263e-05
-2.59603e-05
-2.37748e-05
-2.16981e-05
-1.97223e-05
-1.78395e-05
-1.60425e-05
-1.43238e-05
-1.26766e-05
-1.10939e-05
-9.56929e-06
-8.09614e-06
-6.66835e-06
-5.2797e-06
-3.92436e-06
-2.59641e-06
-1.2902e-06
0
0
-0.00115918
-0.00228628
-0.00334077
-0.00426333
-0.00495653
-0.00528255
-0.0051939
-0.00484586
-0.00440685
-0.00396141
-0.00354404
-0.00316707
-0.00283235
-0.00253703
-0.00227658
-0.00204623
-0.00184166
-0.00165918
-0.00149574
-0.00134889
-0.00121661
-0.00109722
-0.000989351
-0.0008918
-0.000803546
-0.000723686
-0.000651419
-0.000586028
-0.000526871
-0.000473365
-0.000424984
-0.000381251
-0.000341735
-0.000306044
-0.00027382
-0.000244742
-0.000218514
-0.00019487
-0.000173566
-0.000154382
-0.000137115
-0.000121582
-0.000107614
-9.50593e-05
-8.37771e-05
-7.36392e-05
-6.45281e-05
-5.63359e-05
-4.89634e-05
-4.23192e-05
-3.63188e-05
-3.08843e-05
-2.5943e-05
-2.14276e-05
-1.7275e-05
-1.34262e-05
-9.82566e-06
-6.42071e-06
-3.16147e-06
0
0
-0.000593015
-0.00118177
-0.00176272
-0.00233042
-0.00288008
-0.00340429
-0.00389573
-0.00434283
-0.00473286
-0.00504763
-0.00526783
-0.00538184
-0.00538568
-0.00529979
-0.00514793
-0.00495501
-0.00474037
-0.00451574
-0.00429001
-0.00406773
-0.00385271
-0.00364652
-0.00345057
-0.00326504
-0.00309017
-0.00292553
-0.00277081
-0.00262535
-0.00248868
-0.0023601
-0.0022391
-0.00212507
-0.00201753
-0.00191597
-0.00181998
-0.00172914
-0.00164311
-0.00156155
-0.00148418
-0.00141074
-0.00134097
-0.00127468
-0.00121165
-0.00115171
-0.00109469
-0.00104044
-0.00098882
-0.000939685
-0.000892919
-0.000848401
-0.000806025
-0.000765683
-0.000727281
-0.000690724
-0.000655925
-0.000622799
-0.000591268
-0.000561255
-0.000532691
-0.000505505
-0.000479633
-0.000455012
-0.000431585
-0.000409294
-0.000388086
-0.000367909
-0.000348716
-0.000330459
-0.000313095
-0.00029658
-0.000280875
-0.000265941
-0.000251742
-0.000238243
-0.00022541
-0.000213211
-0.000201617
-0.000190598
-0.000180126
-0.000170175
-0.00016072
-0.000151736
-0.000143201
-0.000135093
-0.00012739
-0.000120072
-0.000113121
-0.000106518
-0.000100244
-9.42839e-05
-8.8621e-05
-8.32396e-05
-7.81253e-05
-7.32636e-05
-6.86411e-05
-6.42446e-05
-6.00617e-05
-5.60803e-05
-5.22889e-05
-4.86764e-05
-4.52322e-05
-4.19458e-05
-3.88076e-05
-3.58078e-05
-3.29375e-05
-3.01876e-05
-2.75497e-05
-2.50154e-05
-2.25767e-05
-2.0226e-05
-1.79557e-05
-1.57584e-05
-1.36272e-05
-1.15551e-05
-9.53542e-06
-7.56164e-06
-5.62743e-06
-3.72648e-06
-1.85269e-06
0
0
-0.00120424
-0.00237431
-0.00346743
-0.00442181
-0.00513807
-0.00548046
-0.00540509
-0.00506373
-0.00462432
-0.00417386
-0.00374887
-0.00336293
-0.00301865
-0.00271363
-0.00244359
-0.00220388
-0.00199027
-0.00179909
-0.00162735
-0.00147256
-0.00133273
-0.00120619
-0.00109153
-0.000987561
-0.000893248
-0.000807674
-0.000730023
-0.000659563
-0.000595635
-0.00053764
-0.000485037
-0.000437333
-0.00039408
-0.000354871
-0.000319337
-0.000287138
-0.00025797
-0.000231551
-0.000207627
-0.000185967
-0.000166356
-0.000148603
-0.00013253
-0.000117975
-0.00010479
-9.28391e-05
-8.19982e-05
-7.21525e-05
-6.31965e-05
-5.50331e-05
-4.75723e-05
-4.0731e-05
-3.44318e-05
-2.86028e-05
-2.31767e-05
-1.80903e-05
-1.32843e-05
-8.70248e-06
-4.29145e-06
0
0
-0.000615572
-0.0012266
-0.00182932
-0.00241798
-0.00298752
-0.00353021
-0.00403841
-0.00450027
-0.00490275
-0.00522786
-0.00545675
-0.0055784
-0.00558953
-0.00550981
-0.0053624
-0.00517203
-0.00495806
-0.00473263
-0.00450491
-0.00427979
-0.00406126
-0.00385108
-0.00365081
-0.00346072
-0.00328115
-0.00311171
-0.00295216
-0.00280187
-0.00266038
-0.00252704
-0.00240134
-0.00228267
-0.00217057
-0.00206454
-0.00196416
-0.00186903
-0.00177879
-0.00169313
-0.00161175
-0.00153438
-0.0014608
-0.00139078
-0.00132412
-0.00126065
-0.0012002
-0.0011426
-0.00108773
-0.00103543
-0.00098559
-0.000938088
-0.000892813
-0.000849658
-0.000808524
-0.000769315
-0.000731944
-0.000696322
-0.00066237
-0.000630009
-0.000599166
-0.000569771
-0.000541756
-0.000515057
-0.000489614
-0.000465368
-0.000442263
-0.000420247
-0.000399269
-0.000379281
-0.000360236
-0.00034209
-0.000324803
-0.000308333
-0.000292642
-0.000277694
-0.000263454
-0.000249889
-0.000236966
-0.000224655
-0.000212928
-0.000201756
-0.000191114
-0.000180975
-0.000171315
-0.000162112
-0.000153342
-0.000144986
-0.000137022
-0.000129431
-0.000122194
-0.000115295
-0.000108715
-0.000102438
-9.64487e-05
-9.07321e-05
-8.52738e-05
-8.00597e-05
-7.50768e-05
-7.03121e-05
-6.57536e-05
-6.13892e-05
-5.72078e-05
-5.31983e-05
-4.93504e-05
-4.56537e-05
-4.20987e-05
-3.86757e-05
-3.53758e-05
-3.219e-05
-2.91099e-05
-2.61272e-05
-2.32338e-05
-2.04221e-05
-1.76844e-05
-1.50134e-05
-1.24021e-05
-9.84323e-06
-7.33024e-06
-4.85637e-06
-2.4151e-06
0
0
-0.00124886
-0.00246143
-0.00359264
-0.00457823
-0.00531704
-0.00567571
-0.00561397
-0.00527992
-0.00484064
-0.00438553
-0.00395317
-0.00355843
-0.00320471
-0.00289007
-0.00261047
-0.00236144
-0.0021388
-0.00193895
-0.00175889
-0.00159619
-0.00144881
-0.00131511
-0.00119367
-0.00108329
-0.00098292
-0.000891634
-0.000808601
-0.000733074
-0.000664377
-0.000601896
-0.000545073
-0.000493399
-0.000446411
-0.000403686
-0.000364841
-0.000329525
-0.000297416
-0.000268224
-0.000241681
-0.000217544
-0.000195591
-0.000175619
-0.00015744
-0.000140885
-0.000125798
-0.000112035
-9.94651e-05
-8.79662e-05
-7.74271e-05
-6.77448e-05
-5.88239e-05
-5.05761e-05
-4.29192e-05
-3.57769e-05
-2.90774e-05
-2.27536e-05
-1.67424e-05
-1.09839e-05
-5.42124e-06
0
0
-0.000637913
-0.001271
-0.00189526
-0.00250465
-0.00309381
-0.00365471
-0.00417937
-0.0046557
-0.00507036
-0.0054056
-0.00564306
-0.00577239
-0.00579092
-0.00571758
-0.00557491
-0.00538739
-0.00517437
-0.00494838
-0.00471889
-0.00449108
-0.00426917
-0.00405513
-0.00385062
-0.00365606
-0.00347183
-0.00329766
-0.00313331
-0.00297822
-0.00283195
-0.00269387
-0.00256347
-0.00244018
-0.00232353
-0.00221303
-0.00210827
-0.00200885
-0.00191442
-0.00182465
-0.00173926
-0.00165798
-0.00158058
-0.00150683
-0.00143656
-0.00136955
-0.00130566
-0.00124472
-0.0011866
-0.00113114
-0.00107823
-0.00102774
-0.000979572
-0.000933603
-0.000889739
-0.000847881
-0.000807938
-0.000769821
-0.000733449
-0.000698741
-0.000665621
-0.000634017
-0.000603861
-0.000575084
-0.000547626
-0.000521426
-0.000496426
-0.000472571
-0.000449809
-0.000428089
-0.000407365
-0.00038759
-0.00036872
-0.000350714
-0.000333532
-0.000317136
-0.000301489
-0.000286557
-0.000272306
-0.000258705
-0.000245723
-0.000233331
-0.000221501
-0.000210207
-0.000199423
-0.000189124
-0.000179289
-0.000169894
-0.000160917
-0.000152339
-0.00014414
-0.000136301
-0.000128804
-0.000121632
-0.000114769
-0.000108197
-0.000101903
-9.5872e-05
-9.00892e-05
-8.45414e-05
-7.92158e-05
-7.40997e-05
-6.91813e-05
-6.44489e-05
-5.98914e-05
-5.5498e-05
-5.12583e-05
-4.71624e-05
-4.32006e-05
-3.93634e-05
-3.5642e-05
-3.20273e-05
-2.85111e-05
-2.5085e-05
-2.1741e-05
-1.84712e-05
-1.52682e-05
-1.21244e-05
-9.03277e-06
-5.98607e-06
-2.97742e-06
0
0
-0.00129304
-0.00254765
-0.00371644
-0.00473268
-0.00549359
-0.00586848
-0.00582067
-0.00549447
-0.00505584
-0.00459644
-0.00415696
-0.00375359
-0.00339054
-0.00306634
-0.00277723
-0.0025189
-0.00228725
-0.00207873
-0.00189038
-0.00171975
-0.00156485
-0.00142399
-0.00129577
-0.00117898
-0.00107256
-0.000975565
-0.000887154
-0.000806562
-0.000733099
-0.000666133
-0.000605091
-0.000549449
-0.000498727
-0.000452489
-0.000410335
-0.000371901
-0.000336853
-0.000304888
-0.000275727
-0.000249115
-0.00022482
-0.000202629
-0.000182346
-0.000163792
-0.000146803
-0.000131228
-0.000116929
-0.000103777
-9.16551e-05
-8.04541e-05
-7.00734e-05
-6.04194e-05
-5.14052e-05
-4.29497e-05
-3.49771e-05
-2.74162e-05
-2.01999e-05
-1.32649e-05
-6.55084e-06
0
0
-0.000660041
-0.00131498
-0.00196056
-0.00259043
-0.00319897
-0.00377783
-0.00431869
-0.0048092
-0.00523581
-0.005581
-0.00582695
-0.00596398
-0.00599
-0.00592324
-0.00578556
-0.00560117
-0.00538935
-0.00516303
-0.00493195
-0.00470162
-0.00447647
-0.00425867
-0.00405001
-0.00385104
-0.00366224
-0.00348336
-0.00331426
-0.00315441
-0.00300338
-0.00286056
-0.00272549
-0.00259759
-0.00247641
-0.00236145
-0.00225232
-0.0021486
-0.00204998
-0.00195611
-0.00186671
-0.00178152
-0.00170031
-0.00162284
-0.00154894
-0.00147841
-0.00141108
-0.00134681
-0.00128543
-0.00122681
-0.00117083
-0.00111737
-0.0010663
-0.00101752
-0.000970927
-0.00092642
-0.000883907
-0.000843297
-0.000804506
-0.000767451
-0.000732056
-0.000698244
-0.000665947
-0.000635094
-0.000605622
-0.000577468
-0.000550573
-0.000524879
-0.000500334
-0.000476885
-0.000454482
-0.000433077
-0.000412626
-0.000393084
-0.000374412
-0.000356568
-0.000339515
-0.000323217
-0.000307639
-0.000292747
-0.00027851
-0.000264898
-0.000251881
-0.000239432
-0.000227524
-0.000216131
-0.00020523
-0.000194796
-0.000184808
-0.000175243
-0.000166081
-0.000157303
-0.00014889
-0.000140823
-0.000133085
-0.000125659
-0.00011853
-0.000111681
-0.000105099
-9.8768e-05
-9.26755e-05
-8.68079e-05
-8.11527e-05
-7.56974e-05
-7.04305e-05
-6.53404e-05
-6.04163e-05
-5.56476e-05
-5.1024e-05
-4.65356e-05
-4.21729e-05
-3.79265e-05
-3.37875e-05
-2.97471e-05
-2.57969e-05
-2.19284e-05
-1.81339e-05
-1.44053e-05
-1.0735e-05
-7.11557e-06
-3.53965e-06
0
0
-0.00133681
-0.002633
-0.00383889
-0.00488527
-0.00566787
-0.00605894
-0.00602532
-0.00570748
-0.00526995
-0.00480661
-0.00436025
-0.00394841
-0.00357613
-0.00324244
-0.00294387
-0.00267626
-0.00243563
-0.00221846
-0.00202181
-0.00184327
-0.00168083
-0.00153282
-0.00139783
-0.00127464
-0.00116217
-0.00105947
-0.00096568
-0.000880026
-0.000801798
-0.00073035
-0.000665092
-0.000605482
-0.000551028
-0.000501277
-0.000455816
-0.000414265
-0.00037628
-0.000341543
-0.000309764
-0.000280679
-0.000254042
-0.000229633
-0.000207245
-0.000186693
-0.000167803
-0.000150417
-0.000134389
-0.000119585
-0.00010588
-9.31611e-05
-8.13208e-05
-7.02609e-05
-5.98896e-05
-5.01212e-05
-4.08757e-05
-3.20778e-05
-2.36568e-05
-1.55455e-05
-7.68024e-06
0
0
-0.000681964
-0.00135853
-0.00202522
-0.00267537
-0.00330305
-0.00389963
-0.00445643
-0.00496089
-0.00539921
-0.0057542
-0.00600857
-0.00615336
-0.00618694
-0.00612692
-0.00599444
-0.00581342
-0.00560305
-0.00537662
-0.00514413
-0.00491143
-0.00468317
-0.0044617
-0.00424899
-0.00404569
-0.00385236
-0.00366883
-0.00349502
-0.00333042
-0.00317466
-0.00302714
-0.00288741
-0.00275491
-0.0026292
-0.00250979
-0.00239629
-0.00228829
-0.00218548
-0.00208751
-0.00199411
-0.00190501
-0.00181999
-0.00173881
-0.00166128
-0.00158722
-0.00151647
-0.00144885
-0.00138422
-0.00132245
-0.00126341
-0.00120696
-0.001153
-0.00110141
-0.00105209
-0.00100493
-0.000959851
-0.000916748
-0.00087554
-0.000836139
-0.000798469
-0.000762451
-0.000728014
-0.000695085
-0.0006636
-0.000633493
-0.000604704
-0.000577173
-0.000550846
-0.000525666
-0.000501585
-0.000478551
-0.00045652
-0.000435444
-0.000415281
-0.00039599
-0.000377531
-0.000359867
-0.000342962
-0.00032678
-0.000311289
-0.000296457
-0.000282255
-0.000268651
-0.000255619
-0.000243132
-0.000231165
-0.000219693
-0.000208693
-0.000198142
-0.000188018
-0.000178301
-0.000168971
-0.000160009
-0.000151397
-0.000143117
-0.000135153
-0.000127487
-0.000120105
-0.000112992
-0.000106133
-9.95136e-05
-9.31217e-05
-8.69437e-05
-8.09676e-05
-7.5181e-05
-6.95726e-05
-6.41311e-05
-5.8846e-05
-5.37064e-05
-4.87026e-05
-4.38246e-05
-3.9063e-05
-3.44084e-05
-2.9852e-05
-2.5385e-05
-2.0999e-05
-1.66857e-05
-1.24369e-05
-8.24486e-06
-4.10178e-06
0
0
-0.00138016
-0.00271753
-0.00396005
-0.00503608
-0.00584003
-0.00624727
-0.00622805
-0.005919
-0.00548302
-0.00501606
-0.00456304
-0.00414288
-0.00376148
-0.00341837
-0.00311038
-0.00283353
-0.00258393
-0.00235811
-0.00215319
-0.00196674
-0.00179677
-0.00164162
-0.00149985
-0.00137026
-0.00125174
-0.00114334
-0.00104418
-0.000953464
-0.000870475
-0.000794547
-0.000725073
-0.000661499
-0.000603314
-0.000550052
-0.000501284
-0.000456619
-0.000415697
-0.000378189
-0.000343794
-0.000312234
-0.000283257
-0.00025663
-0.00023214
-0.000209589
-0.000188798
-0.000169601
-0.000151845
-0.000135389
-0.000120103
-0.000105866
-9.25661e-05
-8.01005e-05
-6.83723e-05
-5.72913e-05
-4.67732e-05
-3.67387e-05
-2.7113e-05
-1.78257e-05
-8.80943e-06
0
0
-0.000703688
-0.00140169
-0.00208927
-0.00275948
-0.00340609
-0.00402016
-0.00459267
-0.00511085
-0.00556068
-0.00592536
-0.0061881
-0.00634068
-0.00638189
-0.00632874
-0.00620166
-0.00602422
-0.00581552
-0.00558917
-0.00535545
-0.00512052
-0.00488927
-0.00466425
-0.00444757
-0.00424
-0.0040422
-0.00385407
-0.00367558
-0.00350627
-0.0033458
-0.00319359
-0.00304922
-0.00291213
-0.0027819
-0.00265805
-0.00254019
-0.00242792
-0.00232092
-0.00221885
-0.00212145
-0.00202845
-0.00193962
-0.00185472
-0.00177358
-0.001696
-0.00162181
-0.00155085
-0.00148298
-0.00141805
-0.00135594
-0.00129652
-0.00123966
-0.00118526
-0.00113322
-0.00108342
-0.00103577
-0.000990174
-0.00094655
-0.000904804
-0.000864861
-0.000826637
-0.000790061
-0.000755057
-0.00072156
-0.000689501
-0.000658819
-0.000629451
-0.000601342
-0.000574434
-0.000548675
-0.000524013
-0.000500402
-0.000477791
-0.000456139
-0.000435401
-0.000415538
-0.000396508
-0.000378276
-0.000360805
-0.000344061
-0.000328009
-0.00031262
-0.000297862
-0.000283708
-0.000270127
-0.000257095
-0.000244585
-0.000232573
-0.000221035
-0.00020995
-0.000199294
-0.000189048
-0.000179192
-0.000169706
-0.000160572
-0.000151772
-0.00014329
-0.000135109
-0.000127213
-0.000119587
-0.000112217
-0.000105088
-9.81878e-05
-9.15026e-05
-8.50196e-05
-7.87271e-05
-7.2613e-05
-6.66664e-05
-6.08759e-05
-5.52311e-05
-4.97215e-05
-4.43374e-05
-3.90687e-05
-3.39064e-05
-2.88409e-05
-2.38636e-05
-1.89656e-05
-1.41385e-05
-9.37394e-06
-4.66381e-06
0
0
-0.00142312
-0.00280124
-0.00407997
-0.00518521
-0.00601022
-0.00643363
-0.00642899
-0.00612911
-0.00569507
-0.0052248
-0.00476534
-0.00433702
-0.0039466
-0.00359414
-0.00327677
-0.00299071
-0.00273215
-0.0024977
-0.0022845
-0.00209015
-0.00191266
-0.00175036
-0.00160184
-0.00146584
-0.00134128
-0.00122718
-0.00112265
-0.00102688
-0.000939128
-0.000858722
-0.000785036
-0.000717498
-0.000655584
-0.000598812
-0.000546739
-0.00049896
-0.000455103
-0.000414825
-0.000377814
-0.000343782
-0.000312465
-0.000283622
-0.000257028
-0.00023248
-0.000209789
-0.000188781
-0.000169298
-0.00015119
-0.000134322
-0.000118567
-0.000103809
-8.99381e-05
-7.68534e-05
-6.446e-05
-5.26695e-05
-4.13985e-05
-3.05686e-05
-2.01054e-05
-9.93839e-06
0
0
-0.000725218
-0.00144446
-0.00215274
-0.00284281
-0.00350812
-0.00413948
-0.00472747
-0.00525917
-0.00572035
-0.00609462
-0.00636569
-0.00652612
-0.00657499
-0.00652883
-0.0064073
-0.00623365
-0.00602681
-0.00580073
-0.00556593
-0.00532892
-0.00509479
-0.00486632
-0.00464575
-0.00443397
-0.00423176
-0.00403908
-0.00385595
-0.00368196
-0.0035168
-0.00335992
-0.00321092
-0.00306926
-0.00293452
-0.00280623
-0.00268401
-0.00256747
-0.00245629
-0.00235014
-0.00224874
-0.00215184
-0.00205919
-0.00197059
-0.00188583
-0.00180472
-0.00172711
-0.00165281
-0.0015817
-0.00151362
-0.00144844
-0.00138604
-0.0013263
-0.00126909
-0.00121432
-0.00116187
-0.00111166
-0.00106357
-0.00101753
-0.000973446
-0.00093123
-0.000890801
-0.000852088
-0.00081501
-0.000779502
-0.000745491
-0.000712918
-0.000681713
-0.000651824
-0.000623187
-0.000595752
-0.000569462
-0.000544271
-0.000520126
-0.000496986
-0.000474801
-0.000453534
-0.000433139
-0.000413581
-0.000394821
-0.000376823
-0.000359553
-0.000342979
-0.000327067
-0.000311789
-0.000297115
-0.000283018
-0.00026947
-0.000256447
-0.000243923
-0.000231876
-0.000220282
-0.000209121
-0.00019837
-0.000188011
-0.000178022
-0.000168388
-0.000159089
-0.000150109
-0.00014143
-0.000133039
-0.000124917
-0.000117053
-0.00010943
-0.000102035
-9.48561e-05
-8.78797e-05
-8.10932e-05
-7.44853e-05
-6.80438e-05
-6.17583e-05
-5.56172e-05
-4.96108e-05
-4.37281e-05
-3.796e-05
-3.22961e-05
-2.67277e-05
-2.12451e-05
-1.58398e-05
-1.05028e-05
-5.22573e-06
0
0
-0.0014657
-0.00288419
-0.00419871
-0.00533276
-0.00617859
-0.00661818
-0.00662827
-0.00633788
-0.00590614
-0.00543286
-0.00496717
-0.00453084
-0.00413149
-0.00376974
-0.00344304
-0.00314778
-0.00288029
-0.00263722
-0.00241575
-0.00221351
-0.0020285
-0.00185907
-0.00170378
-0.00156139
-0.00143079
-0.00131099
-0.00120109
-0.00110026
-0.00100776
-0.000922875
-0.000844979
-0.00077348
-0.000707838
-0.000647558
-0.000592181
-0.000541289
-0.000494497
-0.000451451
-0.000411825
-0.000375322
-0.000341666
-0.000310606
-0.00028191
-0.000255365
-0.000230775
-0.000207957
-0.000186746
-0.000166987
-0.000148538
-0.000131266
-0.000115049
-9.97736e-05
-8.53326e-05
-7.16273e-05
-5.85646e-05
-4.60575e-05
-3.40235e-05
-2.23847e-05
-1.10671e-05
0
0
-0.000746561
-0.00148685
-0.00221564
-0.00292538
-0.00360919
-0.00425765
-0.0048609
-0.00540597
-0.00587834
-0.00626214
-0.0065415
-0.00670983
-0.00676639
-0.00672733
-0.00661147
-0.00644178
-0.00623697
-0.00601133
-0.00577561
-0.00553663
-0.00529975
-0.00506791
-0.00484354
-0.00462762
-0.00442105
-0.00422385
-0.00403613
-0.00385748
-0.00368766
-0.00352613
-0.00337252
-0.00322629
-0.00308705
-0.00295433
-0.00282777
-0.00270696
-0.0025916
-0.00248136
-0.00237598
-0.00227517
-0.00217872
-0.0020864
-0.00199803
-0.0019134
-0.00183236
-0.00175473
-0.00168038
-0.00160914
-0.00154091
-0.00147553
-0.00141289
-0.00135288
-0.00129539
-0.0012403
-0.00118752
-0.00113695
-0.00108849
-0.00104206
-0.000997577
-0.000954944
-0.000914094
-0.000874942
-0.000837425
-0.000801463
-0.000766999
-0.000733959
-0.00070229
-0.000671925
-0.000642814
-0.000614897
-0.000588127
-0.000562449
-0.000537821
-0.00051419
-0.000491519
-0.00046976
-0.000448877
-0.000428827
-0.000409577
-0.000391088
-0.000373329
-0.000356263
-0.000339863
-0.000324096
-0.000308935
-0.000294349
-0.000280316
-0.000266806
-0.000253798
-0.000241266
-0.000229189
-0.000217543
-0.000206311
-0.000195469
-0.000185
-0.000174885
-0.000165106
-0.000155645
-0.000146487
-0.000137615
-0.000129014
-0.000120669
-0.000112566
-0.000104691
-9.70305e-05
-8.95716e-05
-8.23025e-05
-7.52103e-05
-6.82841e-05
-6.15117e-05
-5.48831e-05
-4.83866e-05
-4.20127e-05
-3.57506e-05
-2.95912e-05
-2.35241e-05
-1.75408e-05
-1.16314e-05
-5.78755e-06
0
0
-0.00150791
-0.00296639
-0.00431632
-0.00547884
-0.0063453
-0.00680109
-0.00682602
-0.00654539
-0.00611628
-0.00564025
-0.00516853
-0.00472432
-0.00431615
-0.00394517
-0.00360918
-0.00330476
-0.00302835
-0.00277667
-0.00254695
-0.00233681
-0.00214429
-0.00196772
-0.00180568
-0.00165689
-0.00152026
-0.00139477
-0.0012795
-0.00117362
-0.00107636
-0.000987006
-0.000904901
-0.000829442
-0.000760075
-0.000696288
-0.000637609
-0.000583606
-0.00053388
-0.000488066
-0.000445827
-0.000406852
-0.000370859
-0.000337584
-0.000306786
-0.000278245
-0.000251755
-0.000227129
-0.000204191
-0.000182781
-0.000162751
-0.000143962
-0.000126287
-0.000109607
-9.381e-05
-7.87929e-05
-6.44585e-05
-5.07154e-05
-3.74776e-05
-2.46635e-05
-1.21956e-05
0
0
-0.000767723
-0.00152889
-0.00227798
-0.00300722
-0.00370934
-0.00437472
-0.00499305
-0.00555135
-0.00603475
-0.00642807
-0.00671568
-0.00689198
-0.00695623
-0.00692435
-0.00681425
-0.00664869
-0.00644605
-0.00622101
-0.0059845
-0.00574369
-0.00550416
-0.00526904
-0.00504094
-0.00482094
-0.00461008
-0.0044084
-0.00421611
-0.00403283
-0.00385838
-0.00369221
-0.00353401
-0.00338322
-0.0032395
-0.00310235
-0.00297145
-0.00284637
-0.00272685
-0.00261252
-0.00250315
-0.00239844
-0.0022982
-0.00220217
-0.00211019
-0.00202203
-0.00193757
-0.00185661
-0.00177902
-0.00170463
-0.00163334
-0.00156498
-0.00149946
-0.00143664
-0.00137643
-0.0013187
-0.00126336
-0.00121029
-0.00115943
-0.00111066
-0.0010639
-0.00101906
-0.000976079
-0.000934854
-0.000895328
-0.000857417
-0.000821062
-0.000786187
-0.000752739
-0.000720647
-0.000689862
-0.000660318
-0.00063197
-0.000604759
-0.000578644
-0.000553568
-0.000529494
-0.00050637
-0.000484163
-0.000462824
-0.000442322
-0.000422615
-0.000403671
-0.000385452
-0.00036793
-0.00035107
-0.000334845
-0.000319222
-0.000304178
-0.000289683
-0.000275714
-0.000262244
-0.000249252
-0.000236712
-0.000224607
-0.000212911
-0.000201609
-0.000190677
-0.000180099
-0.000169856
-0.000159933
-0.000150309
-0.000140973
-0.000131905
-0.000123094
-0.000114523
-0.000106179
-9.8048e-05
-9.01181e-05
-8.23751e-05
-7.48085e-05
-6.74049e-05
-6.01542e-05
-5.3044e-05
-4.60646e-05
-3.92043e-05
-3.24541e-05
-2.58027e-05
-1.92414e-05
-1.27597e-05
-6.34926e-06
0
0
-0.00154978
-0.00304788
-0.00443287
-0.00562354
-0.00651049
-0.00698253
-0.00702237
-0.00675171
-0.00632552
-0.00584698
-0.00536943
-0.00491749
-0.00450058
-0.00412044
-0.0037752
-0.00346164
-0.00317632
-0.00291606
-0.00267808
-0.00246006
-0.00226003
-0.00207633
-0.00190753
-0.00175236
-0.00160969
-0.00147851
-0.00135788
-0.00124696
-0.00114494
-0.00105111
-0.000964802
-0.000885386
-0.000812294
-0.000745002
-0.000683022
-0.000625909
-0.000573252
-0.000524671
-0.000479819
-0.000438374
-0.000400043
-0.000364554
-0.000331656
-0.000301119
-0.00027273
-0.000246295
-0.000221631
-0.000198571
-0.000176961
-0.000156656
-0.000137523
-0.000119438
-0.000102285
-8.59569e-05
-7.0351e-05
-5.53723e-05
-4.09309e-05
-2.69417e-05
-1.33238e-05
0
0
-0.00078871
-0.00157058
-0.0023398
-0.00308837
-0.0038086
-0.00449076
-0.00512397
-0.00569541
-0.00618971
-0.00659255
-0.00688837
-0.00707273
-0.00714464
-0.00712005
-0.00701574
-0.00685445
-0.0066541
-0.00642982
-0.00619264
-0.00595012
-0.00570803
-0.00546971
-0.00523796
-0.00501395
-0.00479884
-0.00459272
-0.00439591
-0.00420802
-0.00402896
-0.00385817
-0.00369539
-0.00354005
-0.00339186
-0.00325028
-0.00311506
-0.00298572
-0.00286204
-0.00274362
-0.00263027
-0.00252166
-0.00241762
-0.00231788
-0.00222229
-0.00213062
-0.00204274
-0.00195844
-0.00187762
-0.00180008
-0.00172573
-0.00165439
-0.00158599
-0.00152037
-0.00145744
-0.00139706
-0.00133916
-0.00128361
-0.00123034
-0.00117922
-0.0011302
-0.00108316
-0.00103804
-0.000994744
-0.000953212
-0.00091335
-0.000875108
-0.000838397
-0.000803173
-0.000769353
-0.000736894
-0.000705723
-0.0006758
-0.000647056
-0.000619454
-0.000592933
-0.000567457
-0.000542969
-0.000519438
-0.000496811
-0.000475058
-0.000454132
-0.000434005
-0.000414632
-0.00039599
-0.000378036
-0.000360748
-0.000344088
-0.000328035
-0.000312553
-0.000297625
-0.000283216
-0.00026931
-0.000255876
-0.000242898
-0.000230349
-0.000218213
-0.000206465
-0.000195089
-0.000184064
-0.000173375
-0.000163001
-0.000152929
-0.000143139
-0.00013362
-0.000124353
-0.000115326
-0.000106522
-9.79319e-05
-8.95383e-05
-8.13315e-05
-7.32967e-05
-6.54243e-05
-5.77003e-05
-5.01157e-05
-4.26573e-05
-3.53163e-05
-2.80806e-05
-2.09416e-05
-1.38878e-05
-6.91087e-06
0
0
-0.00159131
-0.00312871
-0.00454843
-0.00576699
-0.00667432
-0.00716265
-0.00721745
-0.00695694
-0.00653391
-0.00605309
-0.00556988
-0.00511033
-0.00468479
-0.00429555
-0.00394109
-0.00361842
-0.00332422
-0.00305536
-0.00280914
-0.00258324
-0.00237571
-0.00218489
-0.00200934
-0.00184778
-0.00169909
-0.00156222
-0.00143623
-0.00132026
-0.00121349
-0.0011152
-0.00102468
-0.000941309
-0.000864495
-0.000793699
-0.00072842
-0.000668199
-0.00061261
-0.000561264
-0.0005138
-0.000469887
-0.000429219
-0.000391516
-0.000356518
-0.000323986
-0.0002937
-0.000265456
-0.000239066
-0.000214357
-0.000191166
-0.000169346
-0.000148755
-0.000129267
-0.000110759
-9.31192e-05
-7.62421e-05
-6.0028e-05
-4.43834e-05
-2.92194e-05
-1.44517e-05
0
0
-0.000809524
-0.00161195
-0.00240111
-0.00316888
-0.00390701
-0.00460585
-0.00525372
-0.00583827
-0.0063433
-0.00675577
-0.00705969
-0.00725226
-0.00733174
-0.00731455
-0.00721603
-0.00705916
-0.00686118
-0.00663779
-0.00640005
-0.00615592
-0.00591138
-0.00566994
-0.00543462
-0.00520663
-0.00498734
-0.00477681
-0.00457552
-0.00438304
-0.00419941
-0.00402399
-0.00385667
-0.00369678
-0.00354413
-0.00339814
-0.0032586
-0.00312499
-0.00299716
-0.00287465
-0.00275733
-0.00264482
-0.00253699
-0.00243354
-0.00233435
-0.00223916
-0.00214787
-0.00206023
-0.00197618
-0.00189548
-0.00181808
-0.00174377
-0.00167249
-0.00160406
-0.00153842
-0.00147539
-0.00141494
-0.0013569
-0.00130122
-0.00124776
-0.00119647
-0.00114723
-0.00109998
-0.00105461
-0.00101108
-0.000969263
-0.000929135
-0.000890589
-0.00085359
-0.000818041
-0.000783912
-0.000751114
-0.000719616
-0.000689338
-0.000660253
-0.000632285
-0.000605409
-0.000579556
-0.000554703
-0.000530787
-0.000507785
-0.000485639
-0.00046433
-0.000443804
-0.000424042
-0.000404994
-0.000386644
-0.000368946
-0.000351885
-0.000335417
-0.000319529
-0.000304183
-0.000289363
-0.000275035
-0.000261185
-0.000247782
-0.000234813
-0.000222248
-0.000210076
-0.000198268
-0.000186814
-0.000175689
-0.000164882
-0.000154371
-0.000144144
-0.00013418
-0.00012447
-0.000114995
-0.000105744
-9.66997e-05
-8.78531e-05
-7.9187e-05
-7.06932e-05
-6.23555e-05
-5.41658e-05
-4.61093e-05
-3.8178e-05
-3.0358e-05
-2.26415e-05
-1.50155e-05
-7.47236e-06
0
0
-0.00163253
-0.00320892
-0.00466308
-0.00590931
-0.00683697
-0.00734164
-0.00741141
-0.00716115
-0.00674148
-0.0062586
-0.00576989
-0.00530286
-0.00486877
-0.00447048
-0.00410686
-0.0037751
-0.00347203
-0.0031946
-0.00294014
-0.00270637
-0.00249134
-0.0022934
-0.0021111
-0.00194316
-0.00178844
-0.00164589
-0.00151455
-0.00139353
-0.00128202
-0.00117926
-0.00108454
-0.000997211
-0.000916677
-0.000842379
-0.000773802
-0.000710474
-0.000651955
-0.000597845
-0.00054777
-0.000501389
-0.000458386
-0.00041847
-0.000381373
-0.000346847
-0.000314663
-0.000284612
-0.000256497
-0.000230138
-0.000205368
-0.000182032
-0.000159985
-0.000139093
-0.00011923
-0.00010028
-8.21316e-05
-6.46825e-05
-4.78349e-05
-3.14964e-05
-1.55792e-05
0
0
-0.000830169
-0.00165303
-0.00246192
-0.0032488
-0.00400461
-0.00472008
-0.00538238
-0.00598007
-0.00649565
-0.00691789
-0.00722978
-0.00743074
-0.00751765
-0.007508
-0.00741519
-0.00726289
-0.00706732
-0.00684498
-0.00660675
-0.00636113
-0.00611422
-0.00586974
-0.00563092
-0.00539901
-0.00517559
-0.00496067
-0.00475496
-0.00455789
-0.00436972
-0.00418969
-0.00401784
-0.0038534
-0.00369633
-0.0035459
-0.00340206
-0.00326419
-0.00313222
-0.00300562
-0.00288434
-0.00276791
-0.00265632
-0.00254914
-0.00244637
-0.00234764
-0.00225295
-0.00216197
-0.00207469
-0.00199084
-0.0019104
-0.0018331
-0.00175895
-0.00168771
-0.00161936
-0.00155369
-0.00149069
-0.00143015
-0.00137208
-0.00131627
-0.00126273
-0.00121127
-0.0011619
-0.00111446
-0.00106892
-0.00102515
-0.000983144
-0.000942761
-0.00090399
-0.000866712
-0.000830914
-0.000796487
-0.000763418
-0.000731605
-0.000701038
-0.000671623
-0.000643349
-0.000616131
-0.000589958
-0.000564751
-0.000540502
-0.000517137
-0.000494647
-0.000472966
-0.000452085
-0.000431944
-0.000412533
-0.000393797
-0.000375728
-0.000358275
-0.000341428
-0.000325143
-0.00030941
-0.000294188
-0.000279468
-0.000265211
-0.000251409
-0.000238027
-0.000225058
-0.000212468
-0.00020025
-0.000188374
-0.000176833
-0.000165599
-0.000154665
-0.000144005
-0.000133613
-0.000123465
-0.000113554
-0.000103859
-9.43732e-05
-8.50757e-05
-7.59609e-05
-6.70093e-05
-5.82151e-05
-4.95603e-05
-4.1039e-05
-3.26347e-05
-2.4341e-05
-1.61429e-05
-8.03376e-06
0
0
-0.00164824
-0.00323806
-0.00470145
-0.00595224
-0.00688393
-0.00740231
-0.00749998
-0.00728157
-0.00688748
-0.00642168
-0.00594293
-0.00548049
-0.00504715
-0.00464689
-0.00427941
-0.00394251
-0.00363344
-0.00334948
-0.00308818
-0.00284743
-0.0026254
-0.00242053
-0.00223144
-0.00205689
-0.00189577
-0.00174706
-0.00160981
-0.00148314
-0.00136624
-0.00125834
-0.00115873
-0.00106676
-0.000981814
-0.000903332
-0.000830785
-0.000763691
-0.000701601
-0.000644101
-0.000590809
-0.000541372
-0.000495465
-0.000452786
-0.000413059
-0.000376026
-0.000341451
-0.000309114
-0.000278812
-0.000250358
-0.000223578
-0.000198309
-0.000174401
-0.000151713
-0.000130115
-0.000109484
-8.97043e-05
-7.06688e-05
-5.2275e-05
-3.44261e-05
-1.70302e-05
0
0
-0.000825628
-0.00164348
-0.00244711
-0.00322747
-0.00397641
-0.0046833
-0.00533737
-0.00592561
-0.00643479
-0.00685224
-0.00716731
-0.0073766
-0.00748159
-0.00749382
-0.00742755
-0.007301
-0.00713044
-0.00693011
-0.00671127
-0.00648211
-0.00624894
-0.00601592
-0.00578625
-0.00556179
-0.00534398
-0.00513346
-0.00493071
-0.00473575
-0.0045486
-0.004369
-0.00419675
-0.0040315
-0.00387299
-0.00372087
-0.00357487
-0.00343467
-0.00330002
-0.00317065
-0.00304634
-0.00292685
-0.00281199
-0.00270157
-0.00259541
-0.00249333
-0.00239518
-0.00230081
-0.00221008
-0.00212285
-0.00203898
-0.00195835
-0.00188084
-0.00180632
-0.0017347
-0.00166585
-0.00159967
-0.00153605
-0.0014749
-0.00141613
-0.00135963
-0.00130532
-0.00125312
-0.00120293
-0.00115469
-0.0011083
-0.0010637
-0.00102081
-0.000979567
-0.000939898
-0.000901742
-0.000865034
-0.000829717
-0.000795731
-0.000763023
-0.000731536
-0.000701224
-0.000672032
-0.000643917
-0.000616831
-0.000590731
-0.000565575
-0.000541322
-0.000517933
-0.000495372
-0.000473601
-0.000452587
-0.000432295
-0.000412695
-0.000393754
-0.000375445
-0.000357737
-0.000340605
-0.000324021
-0.00030796
-0.000292397
-0.00027731
-0.000262674
-0.00024847
-0.000234674
-0.000221269
-0.000208232
-0.000195546
-0.000183192
-0.000171153
-0.000159412
-0.000147952
-0.000136757
-0.000125812
-0.000115101
-0.000104611
-9.43275e-05
-8.42363e-05
-7.43241e-05
-6.45785e-05
-5.49865e-05
-4.55362e-05
-3.62154e-05
-2.70128e-05
-1.79166e-05
-8.91612e-06
0
0
-0.00163884
-0.00321721
-0.00466593
-0.00590055
-0.00682303
-0.00735365
-0.00748971
-0.00732143
-0.00697305
-0.00654251
-0.00608877
-0.0056429
-0.0052196
-0.00482446
-0.00445845
-0.00412037
-0.00380819
-0.00351974
-0.003253
-0.00300615
-0.00277762
-0.00256601
-0.00237008
-0.0021887
-0.00202082
-0.00186549
-0.00172179
-0.00158887
-0.00146594
-0.00135224
-0.00124707
-0.00114978
-0.00105974
-0.000976406
-0.000899229
-0.000827721
-0.000761426
-0.000699921
-0.000642814
-0.000589741
-0.000540369
-0.000494385
-0.000451504
-0.000411458
-0.000374002
-0.000338907
-0.000305963
-0.000274973
-0.000245756
-0.000218141
-0.000191972
-0.000167101
-0.00014339
-0.000120712
-9.89446e-05
-7.79745e-05
-5.76944e-05
-3.80023e-05
-1.88016e-05
0
0
-0.000821156
-0.00163428
-0.00243271
-0.0032072
-0.00394956
-0.00464917
-0.0052957
-0.0058768
-0.00638062
-0.00679603
-0.00711445
-0.00733325
-0.00745434
-0.00748743
-0.00744498
-0.00734273
-0.00719542
-0.00701626
-0.00681604
-0.00660293
-0.00638329
-0.00616152
-0.00594101
-0.00572391
-0.00551182
-0.00530563
-0.00510597
-0.00491307
-0.00472705
-0.00454782
-0.00437526
-0.00420915
-0.00404929
-0.00389542
-0.00374731
-0.00360473
-0.00346745
-0.00333526
-0.00320796
-0.00308536
-0.00296729
-0.00285357
-0.00274406
-0.0026386
-0.00253704
-0.00243925
-0.0023451
-0.00225445
-0.0021672
-0.00208321
-0.00200237
-0.00192457
-0.0018497
-0.00177765
-0.00170832
-0.00164161
-0.00157743
-0.00151567
-0.00145625
-0.00139908
-0.00134407
-0.00129114
-0.0012402
-0.00119119
-0.00114402
-0.00109862
-0.00105492
-0.00101286
-0.000972364
-0.000933373
-0.000895826
-0.000859665
-0.000824832
-0.000791273
-0.000758936
-0.00072777
-0.000697727
-0.00066876
-0.000640823
-0.000613874
-0.000587871
-0.000562773
-0.000538543
-0.000515141
-0.000492534
-0.000470686
-0.000449565
-0.000429137
-0.000409374
-0.000390244
-0.00037172
-0.000353774
-0.00033638
-0.000319512
-0.000303145
-0.000287257
-0.000271824
-0.000256823
-0.000242235
-0.000228039
-0.000214214
-0.000200741
-0.000187603
-0.00017478
-0.000162257
-0.000150016
-0.000138041
-0.000126316
-0.000114826
-0.000103556
-9.24923e-05
-8.16205e-05
-7.09272e-05
-6.0399e-05
-5.00231e-05
-3.9787e-05
-2.96785e-05
-1.96856e-05
-9.7966e-06
0
0
-0.00162985
-0.00319753
-0.00463316
-0.00585445
-0.00677115
-0.0073152
-0.00748696
-0.00736502
-0.00705987
-0.00666343
-0.00623425
-0.00580484
-0.00539158
-0.00500161
-0.00463711
-0.00429786
-0.00398257
-0.00368963
-0.00341743
-0.00316448
-0.00292944
-0.00271109
-0.00250833
-0.00232012
-0.0021455
-0.00198356
-0.00183342
-0.00169427
-0.00156533
-0.00144585
-0.00133514
-0.00123254
-0.00113744
-0.00104926
-0.000967466
-0.00089156
-0.000821075
-0.000755578
-0.000694668
-0.000637973
-0.000585146
-0.000535868
-0.000489842
-0.000446793
-0.000406465
-0.000368621
-0.000333042
-0.000299524
-0.000267877
-0.000237923
-0.000209499
-0.00018245
-0.000156633
-0.000131912
-0.000108162
-8.5262e-05
-6.31002e-05
-4.15695e-05
-2.05684e-05
0
0
-0.000816894
-0.00162554
-0.0024191
-0.0031882
-0.00392461
-0.00461789
-0.00525804
-0.00583351
-0.00633353
-0.00674845
-0.00707108
-0.00729956
-0.00743582
-0.00748832
-0.00746786
-0.0073883
-0.00726289
-0.00710389
-0.00692161
-0.00672408
-0.00651768
-0.00630699
-0.00609555
-0.00588574
-0.00567935
-0.00547748
-0.00528093
-0.00509009
-0.00490522
-0.00472636
-0.0045535
-0.00438652
-0.0042253
-0.00406967
-0.00391945
-0.00377447
-0.00363456
-0.00349953
-0.00336924
-0.00324352
-0.00312223
-0.00300522
-0.00289235
-0.0027835
-0.00267853
-0.00257731
-0.00247974
-0.00238569
-0.00229505
-0.0022077
-0.00212354
-0.00204246
-0.00196435
-0.00188911
-0.00181665
-0.00174686
-0.00167964
-0.00161491
-0.00155258
-0.00149255
-0.00143474
-0.00137907
-0.00132546
-0.00127382
-0.00122409
-0.00117619
-0.00113005
-0.0010856
-0.00104278
-0.00100151
-0.000961739
-0.000923408
-0.000886458
-0.000850833
-0.000816479
-0.000783345
-0.000751381
-0.000720539
-0.000690772
-0.000662036
-0.000634288
-0.000607487
-0.000581592
-0.000556566
-0.000532371
-0.000508972
-0.000486334
-0.000464424
-0.000443211
-0.000422663
-0.000402752
-0.000383448
-0.000364724
-0.000346555
-0.000328913
-0.000311775
-0.000295116
-0.000278915
-0.000263148
-0.000247794
-0.000232833
-0.000218245
-0.00020401
-0.00019011
-0.000176526
-0.000163241
-0.000150239
-0.000137502
-0.000125014
-0.000112762
-0.000100728
-8.88988e-05
-7.72601e-05
-6.5798e-05
-5.44989e-05
-4.33497e-05
-3.23377e-05
-2.14502e-05
-1.06749e-05
0
0
-0.0016214
-0.00317929
-0.00460346
-0.00581401
-0.0067278
-0.00728617
-0.00749147
-0.00741265
-0.00714844
-0.00678493
-0.0063798
-0.00596665
-0.00556337
-0.00517855
-0.00481556
-0.00447513
-0.00415671
-0.00385925
-0.00358156
-0.00332248
-0.00308091
-0.00285581
-0.00264621
-0.00245118
-0.00226982
-0.00210128
-0.00194472
-0.00179936
-0.00166442
-0.00153917
-0.00142294
-0.00131505
-0.00121489
-0.00112189
-0.0010355
-0.000955207
-0.000880546
-0.000811071
-0.000746371
-0.000686064
-0.000629795
-0.000577234
-0.000528073
-0.00048203
-0.000438839
-0.000398254
-0.000360048
-0.000324009
-0.000289938
-0.000257652
-0.00022698
-0.000197759
-0.000169841
-0.000143084
-0.000117355
-9.25309e-05
-6.84922e-05
-4.51277e-05
-2.23307e-05
0
0
-0.000812937
-0.00161745
-0.00240656
-0.00317082
-0.003902
-0.00458987
-0.00522479
-0.00579597
-0.00629362
-0.00670929
-0.00703689
-0.00727511
-0.00742581
-0.00749644
-0.00749644
-0.00743809
-0.00733332
-0.00719354
-0.00702849
-0.00684604
-0.00665256
-0.00645271
-0.00625021
-0.0060476
-0.00584686
-0.00564928
-0.00545581
-0.00526701
-0.00508327
-0.00490476
-0.00473158
-0.00456372
-0.00440113
-0.00424371
-0.00409137
-0.00394397
-0.0038014
-0.00366353
-0.00353023
-0.00340138
-0.00327685
-0.00315653
-0.0030403
-0.00292805
-0.00281966
-0.00271503
-0.00261403
-0.00251658
-0.00242255
-0.00233185
-0.00224437
-0.00216001
-0.00207867
-0.00200025
-0.00192465
-0.00185178
-0.00178154
-0.00171385
-0.00164861
-0.00158573
-0.00152513
-0.00146673
-0.00141045
-0.0013562
-0.00130392
-0.00125353
-0.00120495
-0.00115812
-0.00111297
-0.00106943
-0.00102745
-0.000986958
-0.000947898
-0.000910213
-0.00087385
-0.000838754
-0.000804875
-0.000772164
-0.000740573
-0.000710056
-0.000680569
-0.00065207
-0.000624517
-0.000597871
-0.000572093
-0.000547147
-0.000522998
-0.00049961
-0.000476952
-0.000454991
-0.000433697
-0.000413039
-0.000392991
-0.000373523
-0.00035461
-0.000336226
-0.000318346
-0.000300946
-0.000284004
-0.000267497
-0.000251403
-0.000235702
-0.000220374
-0.000205398
-0.000190757
-0.000176432
-0.000162404
-0.000148658
-0.000135177
-0.000121943
-0.000108942
-9.61581e-05
-8.35766e-05
-7.1183e-05
-5.89631e-05
-4.69032e-05
-3.499e-05
-2.32102e-05
-1.1551e-05
0
0
-0.0016137
-0.00316284
-0.00457721
-0.00577944
-0.00669281
-0.00726623
-0.0075032
-0.00746468
-0.00723927
-0.00690748
-0.0065258
-0.00612864
-0.00573523
-0.00535549
-0.00499396
-0.00465229
-0.00433069
-0.00402865
-0.00374544
-0.0034802
-0.00323207
-0.0030002
-0.00278375
-0.00258189
-0.0023938
-0.00221866
-0.0020557
-0.00190412
-0.0017632
-0.00163221
-0.00151046
-0.0013973
-0.0012921
-0.00119429
-0.00110332
-0.00101866
-0.000939835
-0.000866395
-0.000797918
-0.000734012
-0.000674312
-0.000618477
-0.000566193
-0.000517165
-0.00047112
-0.000427803
-0.000386978
-0.000348426
-0.000311939
-0.000277328
-0.000244413
-0.000213027
-0.000183013
-0.000154225
-0.000126524
-9.97805e-05
-7.38701e-05
-4.86764e-05
-2.40884e-05
0
0
-0.000809377
-0.00161018
-0.00239535
-0.00315539
-0.0038821
-0.00456549
-0.0051963
-0.00576445
-0.00626098
-0.00667844
-0.00701163
-0.0072596
-0.00742412
-0.00751179
-0.00753091
-0.00749243
-0.00740715
-0.00728564
-0.00713713
-0.00696925
-0.00678831
-0.00659905
-0.00640529
-0.00620975
-0.00601458
-0.0058212
-0.00563077
-0.00544396
-0.00526131
-0.00508312
-0.0049096
-0.00474081
-0.00457682
-0.00441759
-0.00426309
-0.00411325
-0.003968
-0.00382725
-0.00369092
-0.00355891
-0.00343114
-0.0033075
-0.0031879
-0.00307224
-0.00296042
-0.00285236
-0.00274794
-0.00264708
-0.00254967
-0.00245562
-0.00236483
-0.00227719
-0.00219262
-0.00211102
-0.0020323
-0.00195636
-0.0018831
-0.00181245
-0.00174431
-0.00167859
-0.00161521
-0.00155409
-0.00149515
-0.0014383
-0.00138347
-0.0013306
-0.00127959
-0.00123039
-0.00118292
-0.00113713
-0.00109294
-0.00105029
-0.00100913
-0.000969391
-0.000931025
-0.000893975
-0.000858189
-0.000823615
-0.000790207
-0.000757915
-0.000726696
-0.000696505
-0.0006673
-0.00063904
-0.000611685
-0.000585198
-0.000559543
-0.000534683
-0.000510584
-0.000487215
-0.000464542
-0.000442536
-0.000421167
-0.000400406
-0.000380226
-0.0003606
-0.000341503
-0.000322909
-0.000304796
-0.000287139
-0.000269916
-0.000253106
-0.000236687
-0.00022064
-0.000204945
-0.000189582
-0.000174533
-0.000159781
-0.000145308
-0.000131097
-0.000117131
-0.000103396
-8.98741e-05
-7.65518e-05
-6.34139e-05
-5.04461e-05
-3.76343e-05
-2.49649e-05
-1.24245e-05
0
0
-0.00160692
-0.0031485
-0.00455478
-0.00575099
-0.00666609
-0.00725511
-0.00752218
-0.00752144
-0.0073328
-0.0070315
-0.00667261
-0.00629108
-0.00590734
-0.00553256
-0.00517239
-0.00482941
-0.00450454
-0.00419787
-0.00390907
-0.00363762
-0.0033829
-0.00314424
-0.00292093
-0.00271223
-0.0025174
-0.00233568
-0.00216631
-0.00200854
-0.00186165
-0.00172493
-0.00159768
-0.00147926
-0.00136905
-0.00126645
-0.0011709
-0.00108189
-0.000998919
-0.000921529
-0.000849289
-0.000781797
-0.000718678
-0.000659583
-0.000604186
-0.000552185
-0.000503296
-0.000457256
-0.000413822
-0.000372764
-0.00033387
-0.000296941
-0.000261791
-0.000228247
-0.000196145
-0.000165333
-0.000135665
-0.000107008
-7.92315e-05
-5.22144e-05
-2.58407e-05
0
0
-0.000806295
-0.00160391
-0.00238571
-0.0031422
-0.00386524
-0.00454509
-0.00517286
-0.00573912
-0.00623564
-0.00665582
-0.00699511
-0.00725284
-0.00743064
-0.00753441
-0.0075715
-0.00755172
-0.00748486
-0.00738073
-0.00724805
-0.00709422
-0.00692543
-0.00674646
-0.00656124
-0.00637261
-0.00618287
-0.00599362
-0.00580614
-0.00562125
-0.00543964
-0.00526171
-0.00508779
-0.00491803
-0.00475259
-0.0045915
-0.0044348
-0.00428247
-0.00413451
-0.00399085
-0.00385147
-0.00371628
-0.00358523
-0.00345825
-0.00333525
-0.00321617
-0.00310092
-0.00298942
-0.00288157
-0.0027773
-0.0026765
-0.00257909
-0.00248498
-0.00239408
-0.00230628
-0.00222151
-0.00213966
-0.00206065
-0.00198439
-0.00191078
-0.00183974
-0.00177119
-0.00170504
-0.0016412
-0.0015796
-0.00152016
-0.0014628
-0.00140744
-0.00135401
-0.00130245
-0.00125267
-0.00120462
-0.00115823
-0.00111344
-0.00107018
-0.0010284
-0.000988037
-0.000949039
-0.000911351
-0.000874921
-0.000839701
-0.00080564
-0.000772694
-0.000740816
-0.000709964
-0.000680095
-0.000651168
-0.000623145
-0.000595988
-0.00056966
-0.000544126
-0.000519352
-0.000495305
-0.000471954
-0.000449268
-0.000427218
-0.000405774
-0.00038491
-0.000364599
-0.000344815
-0.000325533
-0.000306729
-0.000288381
-0.000270465
-0.000252959
-0.000235843
-0.000219096
-0.000202699
-0.000186632
-0.000170876
-0.000155414
-0.000140228
-0.0001253
-0.000110615
-9.6156e-05
-8.19073e-05
-6.78537e-05
-5.39801e-05
-4.02721e-05
-2.67153e-05
-1.32958e-05
0
0
-0.0016012
-0.00313654
-0.00453649
-0.00572884
-0.00664757
-0.00725267
-0.00754846
-0.00758331
-0.00742953
-0.00715749
-0.00682068
-0.00645439
-0.00608007
-0.00571007
-0.00535112
-0.00500671
-0.00467847
-0.00436707
-0.00407261
-0.00379489
-0.00353353
-0.00328804
-0.00305784
-0.00284229
-0.00264071
-0.0024524
-0.00227663
-0.00211268
-0.00195983
-0.00181738
-0.00168466
-0.00156099
-0.00144577
-0.00133839
-0.00123829
-0.00114494
-0.00105783
-0.000976504
-0.000900512
-0.000829446
-0.000762919
-0.000700574
-0.000642074
-0.000587108
-0.000535383
-0.00048663
-0.000440593
-0.000397038
-0.000355743
-0.000316503
-0.000279125
-0.000243428
-0.000209243
-0.000176411
-0.000144783
-0.000114217
-8.45792e-05
-5.57433e-05
-2.75886e-05
0
0
-0.000803772
-0.00159879
-0.00237787
-0.00313153
-0.00385172
-0.00452898
-0.00515474
-0.00572018
-0.00621771
-0.00664139
-0.00698722
-0.00725469
-0.00744532
-0.00756437
-0.0076184
-0.00761624
-0.00756681
-0.00747922
-0.00736168
-0.00722135
-0.00706428
-0.00689529
-0.00671836
-0.00653644
-0.00635199
-0.00616673
-0.00598208
-0.00579903
-0.00561837
-0.00544063
-0.00526623
-0.00509544
-0.00492848
-0.00476548
-0.00460653
-0.00445167
-0.00430095
-0.00415434
-0.00401186
-0.00387346
-0.00373911
-0.00360876
-0.00348236
-0.00335984
-0.00324114
-0.00312618
-0.0030149
-0.0029072
-0.00280301
-0.00270225
-0.00260482
-0.00251064
-0.00241962
-0.00233167
-0.0022467
-0.00216463
-0.00208536
-0.00200881
-0.00193488
-0.0018635
-0.00179458
-0.00172804
-0.00166379
-0.00160176
-0.00154187
-0.00148404
-0.0014282
-0.00137427
-0.0013222
-0.0012719
-0.00122332
-0.00117638
-0.00113104
-0.00108722
-0.00104486
-0.00100392
-0.00096434
-0.000926061
-0.000889035
-0.000853212
-0.000818545
-0.000784986
-0.000752492
-0.00072102
-0.000690526
-0.000660972
-0.000632319
-0.000604528
-0.000577563
-0.000551389
-0.000525973
-0.000501282
-0.000477284
-0.000453948
-0.000431245
-0.000409147
-0.000387626
-0.000366655
-0.000346208
-0.000326262
-0.000306791
-0.000287772
-0.000269182
-0.000251001
-0.000233206
-0.000215777
-0.000198694
-0.000181938
-0.00016549
-0.000149332
-0.000133445
-0.000117813
-0.00010242
-8.72472e-05
-7.22805e-05
-5.75039e-05
-4.29022e-05
-2.84606e-05
-1.41646e-05
0
0
-0.00159671
-0.00312722
-0.00452262
-0.00571316
-0.00663723
-0.00725882
-0.00758213
-0.00765057
-0.00752988
-0.00728586
-0.00697036
-0.00661882
-0.00625361
-0.00588816
-0.00553026
-0.00518425
-0.00485252
-0.00453628
-0.00423606
-0.003952
-0.00368394
-0.00343158
-0.00319446
-0.00297204
-0.0027637
-0.0025688
-0.00238663
-0.0022165
-0.00205771
-0.00190955
-0.00177135
-0.00164246
-0.00152224
-0.0014101
-0.00130545
-0.00120778
-0.00111655
-0.0010313
-0.000951568
-0.000876939
-0.000807017
-0.000741432
-0.00067984
-0.00062192
-0.00056737
-0.000515911
-0.000467281
-0.000421237
-0.000377549
-0.000336005
-0.000296405
-0.000258563
-0.000222302
-0.000187457
-0.000153873
-0.000121404
-8.99112e-05
-5.92619e-05
-2.93313e-05
0
0
-0.000801881
-0.00159496
-0.00237202
-0.00312363
-0.00384183
-0.00451743
-0.00514219
-0.00570781
-0.00620725
-0.00663515
-0.0069879
-0.00726511
-0.00746816
-0.00760177
-0.00767183
-0.00768633
-0.0076534
-0.00758153
-0.00747845
-0.00735106
-0.00720528
-0.00704591
-0.00687698
-0.00670156
-0.00652219
-0.00634076
-0.00615883
-0.00597749
-0.00579768
-0.00562002
-0.00544506
-0.00527316
-0.00510461
-0.00493962
-0.00477835
-0.00462091
-0.00446737
-0.00431777
-0.00417215
-0.0040305
-0.00389282
-0.00375907
-0.00362923
-0.00350325
-0.00338108
-0.00326266
-0.00314792
-0.0030368
-0.00292921
-0.00282508
-0.00272434
-0.00262688
-0.00253264
-0.00244152
-0.00235343
-0.0022683
-0.00218603
-0.00210653
-0.00202972
-0.00195552
-0.00188384
-0.00181459
-0.0017477
-0.00168309
-0.00162067
-0.00156038
-0.00150213
-0.00144586
-0.00139149
-0.00133895
-0.00128818
-0.00123912
-0.00119169
-0.00114584
-0.0011015
-0.00105863
-0.00101715
-0.000977032
-0.000938206
-0.000900627
-0.000864244
-0.000829011
-0.000794881
-0.000761811
-0.000729757
-0.000698677
-0.000668532
-0.000639283
-0.000610893
-0.000583324
-0.000556543
-0.000530516
-0.00050521
-0.000480593
-0.000456635
-0.000433307
-0.00041058
-0.000388426
-0.000366819
-0.000345733
-0.000325143
-0.000305025
-0.000285356
-0.000266113
-0.000247273
-0.000228816
-0.00021072
-0.000192967
-0.000175536
-0.000158408
-0.000141566
-0.00012499
-0.000108664
-9.2571e-05
-7.66941e-05
-6.10171e-05
-4.55245e-05
-3.02007e-05
-1.50308e-05
0
0
-0.00159357
-0.00312079
-0.00451345
-0.00570414
-0.00663509
-0.0072735
-0.0076233
-0.00772356
-0.00763425
-0.00741702
-0.00712201
-0.00678469
-0.00642821
-0.00606704
-0.00570995
-0.00536217
-0.00502678
-0.00470557
-0.00439948
-0.00410898
-0.00383416
-0.00357487
-0.0033308
-0.00310149
-0.00288639
-0.00268488
-0.00249632
-0.00232001
-0.00215528
-0.00200142
-0.00185776
-0.00172365
-0.00159845
-0.00148156
-0.00137239
-0.0012704
-0.00117507
-0.00108591
-0.00100245
-0.000924274
-0.000850968
-0.000782155
-0.000717482
-0.000656617
-0.000599252
-0.000545097
-0.000493883
-0.000445358
-0.000399286
-0.000355446
-0.000313632
-0.00027365
-0.000235319
-0.000198468
-0.000162936
-0.00012857
-9.52267e-05
-6.27696e-05
-3.10687e-05
0
0
-0.000800692
-0.00159255
-0.00236835
-0.00311873
-0.00383583
-0.0045107
-0.00513543
-0.00570218
-0.00620438
-0.00663711
-0.00699713
-0.00728406
-0.00749919
-0.00764674
-0.00773202
-0.00776229
-0.00774501
-0.00768807
-0.00759878
-0.00748377
-0.00734881
-0.00719869
-0.00703745
-0.00686826
-0.00669377
-0.00651599
-0.0063366
-0.00615683
-0.00597773
-0.00580005
-0.00562442
-0.0054513
-0.00528107
-0.00511402
-0.00495036
-0.00479026
-0.00463384
-0.0044812
-0.00433239
-0.00418744
-0.00404638
-0.00390921
-0.0037759
-0.00364644
-0.00352078
-0.00339888
-0.00328067
-0.00316611
-0.00305511
-0.00294762
-0.00284354
-0.00274281
-0.00264534
-0.00255105
-0.00245985
-0.00237165
-0.00228638
-0.00220395
-0.00212426
-0.00204724
-0.0019728
-0.00190086
-0.00183134
-0.00176415
-0.00169922
-0.00163646
-0.00157582
-0.0015172
-0.00146055
-0.00140578
-0.00135283
-0.00130164
-0.00125213
-0.00120426
-0.00115795
-0.00111314
-0.00106979
-0.00102783
-0.00098721
-0.00094788
-0.000909789
-0.000872887
-0.000837127
-0.000802465
-0.000768855
-0.000736255
-0.000704624
-0.000673923
-0.000644111
-0.000615153
-0.000587013
-0.000559654
-0.000533045
-0.000507152
-0.000481943
-0.000457389
-0.00043346
-0.000410127
-0.000387364
-0.000365142
-0.000343438
-0.000322224
-0.000301478
-0.000281176
-0.000261295
-0.000241813
-0.000222708
-0.000203961
-0.00018555
-0.000167456
-0.000149661
-0.000132144
-0.000114889
-9.78782e-05
-8.10938e-05
-6.45194e-05
-4.81385e-05
-3.19354e-05
-1.58943e-05
0
0
-0.00159192
-0.00311748
-0.00450922
-0.00570194
-0.00664118
-0.00729674
-0.0076721
-0.00780257
-0.00774306
-0.00755138
-0.007276
-0.0069523
-0.00660413
-0.0062469
-0.00589035
-0.00554057
-0.00520134
-0.004875
-0.00456292
-0.00426589
-0.00398422
-0.00371796
-0.00346689
-0.00323066
-0.00300877
-0.00280066
-0.00260569
-0.00242322
-0.00225254
-0.00209299
-0.00194389
-0.00180458
-0.00167441
-0.00155278
-0.0014391
-0.00133281
-0.00123339
-0.00114033
-0.00105316
-0.000971445
-0.000894768
-0.000822739
-0.000754996
-0.000691198
-0.000631028
-0.000574187
-0.000520397
-0.0004694
-0.000420951
-0.000374823
-0.000330802
-0.000288689
-0.000248296
-0.000209445
-0.000171969
-0.000135713
-0.000100525
-6.62663e-05
-3.28006e-05
0
0
-0.000800268
-0.00159169
-0.00236705
-0.00311705
-0.00383395
-0.00450904
-0.00513468
-0.00570345
-0.00620918
-0.00664734
-0.00701492
-0.0073116
-0.00753849
-0.00769942
-0.00779919
-0.00784443
-0.00784199
-0.00779924
-0.00772308
-0.00761988
-0.00749527
-0.00735399
-0.0072001
-0.00703686
-0.006867
-0.00669265
-0.00651562
-0.00633725
-0.00615871
-0.00598086
-0.00580444
-0.00562999
-0.00545798
-0.00528876
-0.00512263
-0.00495979
-0.00480043
-0.00464467
-0.00449261
-0.00434432
-0.00419985
-0.0040592
-0.0039224
-0.00378942
-0.00366025
-0.00353484
-0.00341316
-0.00329514
-0.00318072
-0.00306985
-0.00296244
-0.00285843
-0.00275773
-0.00266026
-0.00256595
-0.0024747
-0.00238643
-0.00230106
-0.0022185
-0.00213867
-0.00206148
-0.00198685
-0.00191469
-0.00184493
-0.00177749
-0.00171229
-0.00164925
-0.0015883
-0.00152936
-0.00147237
-0.00141725
-0.00136394
-0.00131237
-0.00126247
-0.00121419
-0.00116747
-0.00112224
-0.00107845
-0.00103604
-0.000994969
-0.000955175
-0.00091661
-0.000879227
-0.000842978
-0.000807818
-0.000773704
-0.000740593
-0.000708444
-0.000677217
-0.000646874
-0.000617378
-0.000588694
-0.000560786
-0.00053362
-0.000507166
-0.00048139
-0.000456264
-0.000431756
-0.00040784
-0.000384487
-0.000361671
-0.000339366
-0.000317547
-0.00029619
-0.000275271
-0.000254768
-0.000234657
-0.000214919
-0.000195532
-0.000176475
-0.000157729
-0.000139275
-0.000121094
-0.000103168
-8.54794e-05
-6.80103e-05
-5.07442e-05
-3.36644e-05
-1.6755e-05
0
0
-0.00159188
-0.00311749
-0.00451017
-0.00570672
-0.00665557
-0.00732859
-0.00772871
-0.00788792
-0.00785669
-0.00768934
-0.0074327
-0.00712197
-0.0067816
-0.00642793
-0.00607161
-0.00571957
-0.00537629
-0.00504464
-0.00472643
-0.00442275
-0.00413416
-0.00386085
-0.00360274
-0.00335955
-0.00313085
-0.00291612
-0.00271476
-0.00252611
-0.0023495
-0.00218427
-0.00202973
-0.00188522
-0.00175011
-0.00162376
-0.00150558
-0.00139501
-0.0012915
-0.00119456
-0.00110369
-0.00101845
-0.000938413
-0.000863181
-0.000792379
-0.000725659
-0.000662693
-0.000603176
-0.00054682
-0.00049336
-0.000442543
-0.000394135
-0.000347915
-0.000303678
-0.000261229
-0.000220384
-0.000180973
-0.000142832
-0.000105807
-6.97514e-05
-3.45268e-05
0
0
-0.000800672
-0.0015925
-0.00236828
-0.0031188
-0.00383642
-0.00451265
-0.00514013
-0.00571179
-0.0062218
-0.00666592
-0.00704136
-0.00734778
-0.00758617
-0.00776
-0.0078736
-0.00793307
-0.00794471
-0.00791543
-0.00785175
-0.00775979
-0.00764503
-0.00751217
-0.00736528
-0.00720766
-0.00704216
-0.006871
-0.00669611
-0.00651895
-0.00634079
-0.00616262
-0.00598525
-0.00580934
-0.00563543
-0.00546394
-0.00529523
-0.00512957
-0.00496718
-0.00480823
-0.00465287
-0.00450118
-0.00435324
-0.00420909
-0.00406875
-0.00393223
-0.00379951
-0.00367058
-0.00354539
-0.0034239
-0.00330605
-0.00319179
-0.00308105
-0.00297374
-0.00286981
-0.00276917
-0.00267174
-0.00257744
-0.00248617
-0.00239787
-0.00231244
-0.0022298
-0.00214986
-0.00207254
-0.00199777
-0.00192544
-0.0018555
-0.00178785
-0.00172243
-0.00165915
-0.00159794
-0.00153873
-0.00148144
-0.00142602
-0.00137238
-0.00132048
-0.00127024
-0.0012216
-0.0011745
-0.00112889
-0.0010847
-0.00104189
-0.0010004
-0.000960177
-0.000921176
-0.000883347
-0.000846643
-0.00081102
-0.000776434
-0.000742843
-0.000710206
-0.000678483
-0.000647638
-0.000617632
-0.00058843
-0.000559997
-0.000532301
-0.000505308
-0.000478988
-0.000453311
-0.000428246
-0.000403766
-0.000379842
-0.00035645
-0.000333562
-0.000311153
-0.0002892
-0.000267679
-0.000246566
-0.00022584
-0.00020548
-0.000185463
-0.000165771
-0.000146382
-0.000127279
-0.000108441
-8.98503e-05
-7.14896e-05
-5.33411e-05
-3.53877e-05
-1.76128e-05
0
0
-0.00159356
-0.00312102
-0.00451651
-0.00571866
-0.00667836
-0.00736913
-0.0077933
-0.00797992
-0.00797554
-0.0078313
-0.00759246
-0.00729399
-0.00696089
-0.00661034
-0.0062539
-0.00589931
-0.00555173
-0.00521457
-0.00489007
-0.00457962
-0.004284
-0.00400357
-0.00373836
-0.00348818
-0.00325265
-0.00303129
-0.00282351
-0.00262869
-0.00244616
-0.00227525
-0.00211528
-0.0019656
-0.00182554
-0.00169448
-0.00157181
-0.00145697
-0.0013494
-0.00124859
-0.00115404
-0.00106528
-0.000981901
-0.000903476
-0.000829627
-0.000759996
-0.000694245
-0.000632062
-0.00057315
-0.000517236
-0.000464059
-0.00041338
-0.000364969
-0.000318615
-0.000274117
-0.000231287
-0.000189946
-0.000149927
-0.00011107
-7.32248e-05
-3.62472e-05
0
0
-0.000801961
-0.00159509
-0.0023722
-0.00312417
-0.00384345
-0.00452178
-0.00515201
-0.00572738
-0.00624236
-0.00669296
-0.00707653
-0.00739272
-0.00764238
-0.00782866
-0.0079555
-0.00802851
-0.00805353
-0.00803704
-0.00798519
-0.0079039
-0.00779849
-0.0076736
-0.00753331
-0.00738098
-0.00721953
-0.00705129
-0.00687829
-0.00670212
-0.00652416
-0.00634547
-0.00616701
-0.00598948
-0.00581354
-0.00563965
-0.00546825
-0.00529966
-0.00513416
-0.00497195
-0.00481321
-0.00465806
-0.0045066
-0.00435889
-0.00421497
-0.00407487
-0.00393858
-0.00380609
-0.00367738
-0.0035524
-0.00343111
-0.00331345
-0.00319936
-0.00308876
-0.00298159
-0.00287777
-0.00277722
-0.00267986
-0.00258561
-0.00249437
-0.00240607
-0.00232063
-0.00223795
-0.00215795
-0.00208055
-0.00200568
-0.00193323
-0.00186315
-0.00179534
-0.00172974
-0.00166626
-0.00160484
-0.0015454
-0.00148787
-0.00143218
-0.00137827
-0.00132608
-0.00127553
-0.00122657
-0.00117914
-0.00113318
-0.00108864
-0.00104546
-0.00100358
-0.000962972
-0.000923568
-0.000885326
-0.0008482
-0.000812145
-0.000777117
-0.000743075
-0.000709978
-0.000677788
-0.000646465
-0.000615974
-0.00058628
-0.000557346
-0.000529141
-0.000501633
-0.000474789
-0.00044858
-0.000422976
-0.00039795
-0.000373473
-0.00034952
-0.000326064
-0.00030308
-0.000280544
-0.000258433
-0.000236724
-0.000215393
-0.000194421
-0.000173785
-0.000153465
-0.000133442
-0.000113695
-9.42062e-05
-7.49569e-05
-5.59291e-05
-3.71051e-05
-1.84677e-05
0
0
-0.00159709
-0.00312827
-0.00452847
-0.00573794
-0.00670968
-0.0074185
-0.00786608
-0.00807888
-0.00809999
-0.00797765
-0.00775565
-0.00746868
-0.00714224
-0.00679433
-0.00643736
-0.00607989
-0.00572773
-0.00538485
-0.00505389
-0.00473652
-0.00443376
-0.00414613
-0.00387377
-0.00361656
-0.00337417
-0.00314616
-0.00293196
-0.00273096
-0.00254251
-0.00236593
-0.00220054
-0.00204569
-0.0019007
-0.00176494
-0.00163781
-0.00151871
-0.00140709
-0.00130242
-0.00120419
-0.00111194
-0.00102523
-0.000943622
-0.000866738
-0.000794206
-0.000725682
-0.000660842
-0.000599385
-0.000541025
-0.000485498
-0.000432555
-0.000381962
-0.000333499
-0.00028696
-0.000242151
-0.000198887
-0.000156997
-0.000116315
-7.6686e-05
-3.79615e-05
0
0
-0.000804192
-0.00159957
-0.00237897
-0.00313335
-0.00385526
-0.00453662
-0.0051705
-0.0057504
-0.00627103
-0.0067286
-0.00712057
-0.00744656
-0.00770729
-0.00790563
-0.00804517
-0.00813108
-0.00816881
-0.00816443
-0.00812379
-0.0080526
-0.00795601
-0.00783863
-0.00770452
-0.00755712
-0.00739938
-0.00723377
-0.0070624
-0.00688697
-0.00670897
-0.00652958
-0.00634983
-0.00617053
-0.00599239
-0.00581598
-0.00564177
-0.00547015
-0.00530143
-0.00513587
-0.00497368
-0.00481499
-0.00465995
-0.00450863
-0.00436109
-0.00421737
-0.00407748
-0.00394141
-0.00380915
-0.00368066
-0.0035559
-0.00343483
-0.00331738
-0.00320348
-0.00309307
-0.00298607
-0.0028824
-0.00278198
-0.00268473
-0.00259057
-0.0024994
-0.00241115
-0.00232574
-0.00224306
-0.00216305
-0.00208562
-0.00201069
-0.00193818
-0.001868
-0.00180008
-0.00173434
-0.00167071
-0.00160912
-0.00154949
-0.00149176
-0.00143585
-0.00138171
-0.00132926
-0.00127844
-0.0012292
-0.00118148
-0.00113521
-0.00109034
-0.00104683
-0.00100461
-0.000963638
-0.000923864
-0.00088524
-0.000847722
-0.000811263
-0.000775822
-0.000741356
-0.000707826
-0.000675192
-0.000643417
-0.000612465
-0.000582299
-0.000552887
-0.000524194
-0.000496188
-0.000468839
-0.000442117
-0.000415991
-0.000390435
-0.00036542
-0.000340921
-0.00031691
-0.000293364
-0.000270258
-0.000247568
-0.000225271
-0.000203346
-0.00018177
-0.000160522
-0.000139582
-0.00011893
-9.85466e-05
-7.84119e-05
-5.85079e-05
-3.88164e-05
-1.93195e-05
0
0
-0.00160255
-0.00313943
-0.00454626
-0.00576475
-0.00674968
-0.00747686
-0.0079473
-0.00818515
-0.00823042
-0.00812879
-0.00792261
-0.00764634
-0.00732591
-0.00698009
-0.00662215
-0.00626143
-0.0059044
-0.00555556
-0.00521792
-0.0048935
-0.00458349
-0.00428857
-0.00400899
-0.0037447
-0.00349542
-0.00326073
-0.0030401
-0.00283292
-0.00263855
-0.0024563
-0.00228551
-0.00212549
-0.00197559
-0.00183515
-0.00170356
-0.00158022
-0.00146456
-0.00135604
-0.00125416
-0.00115843
-0.00106839
-0.000983615
-0.000903707
-0.000828287
-0.000757
-0.000689515
-0.00062552
-0.000564726
-0.000506858
-0.00045166
-0.000398892
-0.000348329
-0.000299756
-0.000252975
-0.000207796
-0.000164041
-0.000121541
-8.01347e-05
-3.96697e-05
0
0
-0.000807418
-0.00160604
-0.00238874
-0.00314653
-0.00387206
-0.00455741
-0.00519582
-0.00578105
-0.00630799
-0.006773
-0.00717364
-0.00750947
-0.00778111
-0.00799115
-0.00814289
-0.00824112
-0.00829091
-0.008298
-0.00826796
-0.00820627
-0.00811797
-0.00800762
-0.00787926
-0.00773637
-0.007582
-0.00741869
-0.00724865
-0.0070737
-0.00689542
-0.0067151
-0.00653385
-0.00635259
-0.0061721
-0.00599301
-0.00581586
-0.00564109
-0.00546905
-0.00530004
-0.00513431
-0.00497202
-0.00481333
-0.00465835
-0.00450714
-0.00435975
-0.00421621
-0.00407653
-0.0039407
-0.00380868
-0.00368045
-0.00355594
-0.00343512
-0.00331791
-0.00320425
-0.00309406
-0.00298727
-0.00288379
-0.00278355
-0.00268645
-0.00259243
-0.00250138
-0.00241322
-0.00232788
-0.00224526
-0.00216529
-0.00208787
-0.00201293
-0.00194038
-0.00187015
-0.00180216
-0.00173634
-0.0016726
-0.00161088
-0.00155111
-0.00149321
-0.00143712
-0.00138278
-0.00133011
-0.00127907
-0.00122959
-0.0011816
-0.00113506
-0.0010899
-0.00104609
-0.00100355
-0.000962253
-0.000922138
-0.000883162
-0.000845278
-0.000808443
-0.000772614
-0.000737749
-0.00070381
-0.000670756
-0.000638551
-0.000607158
-0.000576542
-0.00054667
-0.000517507
-0.000489023
-0.000461185
-0.000433965
-0.000407334
-0.000381262
-0.000355722
-0.000330689
-0.000306136
-0.000282039
-0.000258372
-0.000235113
-0.000212238
-0.000189726
-0.000167554
-0.000145701
-0.000124147
-0.000102871
-8.18543e-05
-6.10773e-05
-4.05214e-05
-2.01683e-05
0
0
-0.00161006
-0.00315466
-0.00457008
-0.00579928
-0.00679851
-0.00754436
-0.00803716
-0.008299
-0.00836718
-0.00828504
-0.00809366
-0.00782721
-0.00751208
-0.00716776
-0.00680837
-0.00644399
-0.00608177
-0.00572669
-0.00538219
-0.00505053
-0.00473315
-0.00443086
-0.00414399
-0.00387257
-0.00361636
-0.00337498
-0.00314791
-0.00293455
-0.00273425
-0.00254635
-0.00237015
-0.00220499
-0.00205017
-0.00190507
-0.00176903
-0.00164147
-0.00152179
-0.00140944
-0.00130392
-0.00120471
-0.00111137
-0.00102344
-0.000940521
-0.000862225
-0.000788187
-0.000718067
-0.000651548
-0.000588328
-0.000528129
-0.000470686
-0.000415753
-0.000363097
-0.0003125
-0.000263755
-0.000216669
-0.000171057
-0.000126746
-8.35695e-05
-4.1371e-05
0
0
-0.000811692
-0.00161461
-0.00240165
-0.00316388
-0.00389403
-0.00458433
-0.00522819
-0.00581952
-0.00635341
-0.00682633
-0.00723591
-0.00758164
-0.00786404
-0.00808545
-0.00824893
-0.00835891
-0.00842015
-0.00843809
-0.00841802
-0.00836525
-0.0082847
-0.00818087
-0.00805779
-0.007919
-0.00776761
-0.00760624
-0.0074372
-0.00726243
-0.00708361
-0.00690211
-0.00671916
-0.00653574
-0.00635272
-0.00617078
-0.00599055
-0.00581249
-0.00563702
-0.00546447
-0.0052951
-0.00512913
-0.00496673
-0.00480801
-0.00465308
-0.00450199
-0.00435477
-0.00421144
-0.00407201
-0.00393643
-0.0038047
-0.00367675
-0.00355255
-0.00343202
-0.0033151
-0.00320172
-0.0030918
-0.00298526
-0.00288202
-0.002782
-0.00268511
-0.00259127
-0.00250038
-0.00241237
-0.00232715
-0.00224464
-0.00216474
-0.00208738
-0.00201247
-0.00193994
-0.0018697
-0.00180169
-0.00173581
-0.00167201
-0.0016102
-0.00155032
-0.0014923
-0.00143607
-0.00138157
-0.00132873
-0.00127749
-0.00122779
-0.00117958
-0.0011328
-0.00108739
-0.0010433
-0.00100048
-0.000958879
-0.000918451
-0.000879148
-0.000840925
-0.000803738
-0.000767546
-0.000732306
-0.000697979
-0.000664527
-0.000631912
-0.000600099
-0.000569051
-0.000538737
-0.000509122
-0.000480175
-0.000451865
-0.000424162
-0.000397037
-0.000370463
-0.000344411
-0.000318856
-0.000293771
-0.000269132
-0.000244914
-0.000221094
-0.000197649
-0.000174556
-0.000151794
-0.000129342
-0.000107178
-8.52825e-05
-6.36362e-05
-4.22194e-05
-2.10135e-05
0
0
-0.00161971
-0.00317418
-0.00460017
-0.00584176
-0.00685642
-0.00762128
-0.00813601
-0.00842086
-0.00851073
-0.0084469
-0.00826925
-0.00801173
-0.00770112
-0.00735767
-0.00699628
-0.00662781
-0.00626002
-0.00589843
-0.00554683
-0.00520777
-0.00488288
-0.00457309
-0.00427886
-0.00400025
-0.00373708
-0.00348898
-0.00325545
-0.00303589
-0.00282967
-0.00263611
-0.00245452
-0.00228421
-0.00212451
-0.00197474
-0.00183428
-0.00170249
-0.0015788
-0.00146265
-0.00135349
-0.00125083
-0.00115419
-0.00106312
-0.000977199
-0.000896037
-0.000819259
-0.000746516
-0.00067748
-0.000611845
-0.000549323
-0.000489644
-0.000432554
-0.000377814
-0.000325199
-0.000274498
-0.000225511
-0.000178048
-0.000131932
-8.69922e-05
-4.30662e-05
0
0
-0.000817069
-0.00162538
-0.00241785
-0.0031856
-0.00392141
-0.00461764
-0.00526783
-0.00586606
-0.00640755
-0.00688885
-0.00730764
-0.00766335
-0.00795639
-0.0081889
-0.00836368
-0.0084849
-0.008557
-0.00858517
-0.00857447
-0.00853003
-0.00845667
-0.00835883
-0.00824056
-0.00810542
-0.00795659
-0.00779678
-0.00762841
-0.00745349
-0.00727383
-0.0070909
-0.00690599
-0.0067202
-0.00653444
-0.00634949
-0.00616601
-0.00598453
-0.0058055
-0.00562929
-0.00545619
-0.00528645
-0.00512026
-0.00495775
-0.00479904
-0.00464418
-0.00449324
-0.00434624
-0.00420316
-0.00406401
-0.00392875
-0.00379735
-0.00366974
-0.00354588
-0.00342569
-0.00330911
-0.00319605
-0.00308645
-0.00298022
-0.00287727
-0.00277752
-0.00268088
-0.00258727
-0.00249659
-0.00240877
-0.00232372
-0.00224134
-0.00216157
-0.00208431
-0.00200948
-0.001937
-0.0018668
-0.0017988
-0.00173292
-0.00166908
-0.00160723
-0.00154728
-0.00148917
-0.00143283
-0.0013782
-0.00132521
-0.00127381
-0.00122394
-0.00117553
-0.00112853
-0.00108289
-0.00103856
-0.000995482
-0.000953608
-0.000912892
-0.000873286
-0.000834747
-0.000797231
-0.000760696
-0.000725101
-0.000690407
-0.000656575
-0.000623568
-0.000591351
-0.000559889
-0.000529147
-0.000499095
-0.000469699
-0.000440929
-0.000412755
-0.00038515
-0.000358083
-0.000331529
-0.000305461
-0.000279853
-0.00025468
-0.000229918
-0.000205544
-0.000181534
-0.000157866
-0.000134518
-0.000111469
-8.86985e-05
-6.61859e-05
-4.39114e-05
-2.18557e-05
0
0
-0.00163163
-0.00319815
-0.00463676
-0.00589242
-0.00692361
-0.00770784
-0.00824412
-0.00855105
-0.00866144
-0.00861471
-0.00844968
-0.00820013
-0.00789323
-0.00754994
-0.00718598
-0.00681293
-0.00643921
-0.00607079
-0.00571184
-0.00536519
-0.00503264
-0.00471526
-0.00441358
-0.00412772
-0.00385755
-0.0036027
-0.00336269
-0.00313693
-0.00292479
-0.00272557
-0.00253859
-0.00236315
-0.00219856
-0.00204415
-0.00189926
-0.00176328
-0.00163559
-0.00151563
-0.00140286
-0.00129675
-0.00119683
-0.00110263
-0.00101373
-0.000929711
-0.000850204
-0.000774848
-0.000703307
-0.000635267
-0.000570432
-0.000508526
-0.000449287
-0.000392471
-0.000337847
-0.000285197
-0.000234317
-0.000185012
-0.000137098
-9.04014e-05
-4.47548e-05
0
0
-0.000823597
-0.00163846
-0.0024375
-0.00321187
-0.0039544
-0.00465756
-0.00531499
-0.0059209
-0.00647063
-0.00696078
-0.00738906
-0.00775483
-0.00805842
-0.00830175
-0.00848745
-0.00861939
-0.0087018
-0.0087396
-0.00873765
-0.00870096
-0.00863421
-0.00854183
-0.00842784
-0.00829588
-0.00814916
-0.00799051
-0.00782242
-0.00764702
-0.0074662
-0.00728154
-0.00709443
-0.00690602
-0.00671733
-0.00652917
-0.00634227
-0.00615721
-0.00597449
-0.0057945
-0.00561758
-0.00544398
-0.00527391
-0.00510754
-0.00494498
-0.00478632
-0.00463161
-0.00448088
-0.00433414
-0.00419138
-0.00405258
-0.00391769
-0.00378667
-0.00365945
-0.00353599
-0.0034162
-0.00330001
-0.00318734
-0.0030781
-0.00297222
-0.00286961
-0.00277018
-0.00267384
-0.00258051
-0.00249009
-0.0024025
-0.00231766
-0.00223548
-0.00215586
-0.00207875
-0.00200404
-0.00193166
-0.00186153
-0.00179358
-0.00172772
-0.0016639
-0.00160203
-0.00154204
-0.00148388
-0.00142747
-0.00137274
-0.00131964
-0.00126811
-0.00121808
-0.00116951
-0.00112233
-0.00107648
-0.00103193
-0.000988619
-0.000946495
-0.000905513
-0.000865628
-0.000826794
-0.000788969
-0.000752111
-0.00071618
-0.000681136
-0.000646941
-0.000613559
-0.000580954
-0.000549091
-0.000517937
-0.00048746
-0.000457628
-0.00042841
-0.000399777
-0.0003717
-0.000344151
-0.000317104
-0.000290531
-0.000264407
-0.000238707
-0.000213407
-0.000188483
-0.000163913
-0.000139674
-0.000115743
-9.21008e-05
-6.87254e-05
-4.55966e-05
-2.26946e-05
0
0
-0.0016459
-0.00322676
-0.00468006
-0.0059515
-0.00700033
-0.00780432
-0.0083618
-0.00868994
-0.00881968
-0.00878884
-0.00863532
-0.00839271
-0.00808864
-0.00774477
-0.00737762
-0.00699949
-0.0066194
-0.00624382
-0.00587727
-0.00552282
-0.00518246
-0.00485737
-0.00454815
-0.00425499
-0.00397776
-0.00371614
-0.00346963
-0.00323766
-0.00301959
-0.00281471
-0.00262235
-0.00244178
-0.00227232
-0.00211328
-0.00196399
-0.00182381
-0.00169215
-0.0015684
-0.00145202
-0.00134248
-0.00123929
-0.00114198
-0.0010501
-0.000963243
-0.000881019
-0.000803061
-0.000729026
-0.000658591
-0.000591453
-0.000527329
-0.000465951
-0.000407068
-0.000350443
-0.000295853
-0.000243088
-0.000191947
-0.000142244
-9.37968e-05
-4.64366e-05
0
0
-0.000831329
-0.00165395
-0.00246075
-0.00324287
-0.00399324
-0.00470431
-0.00536993
-0.00598428
-0.00654292
-0.00704236
-0.00748046
-0.00785637
-0.00817045
-0.00842434
-0.00862059
-0.00876276
-0.00885495
-0.00890176
-0.00890798
-0.00887841
-0.00881769
-0.00873019
-0.00861997
-0.00849067
-0.0083456
-0.00818767
-0.00801946
-0.00784321
-0.0076609
-0.00747421
-0.0072846
-0.00709333
-0.00690146
-0.0067099
-0.0065194
-0.00633061
-0.00614405
-0.00596016
-0.00577929
-0.00560173
-0.00542771
-0.0052574
-0.00509094
-0.00492841
-0.00476988
-0.00461539
-0.00446495
-0.00431855
-0.00417617
-0.00403778
-0.00390333
-0.00377275
-0.003646
-0.00352299
-0.00340366
-0.00328791
-0.00317568
-0.00306687
-0.00296139
-0.00285917
-0.00276011
-0.00266411
-0.0025711
-0.00248099
-0.00239368
-0.00230909
-0.00222714
-0.00214774
-0.0020708
-0.00199625
-0.001924
-0.00185399
-0.00178612
-0.00172033
-0.00165655
-0.0015947
-0.00153471
-0.00147652
-0.00142007
-0.00136528
-0.00131209
-0.00126046
-0.00121031
-0.00116159
-0.00111425
-0.00106823
-0.00102348
-0.000979955
-0.000937603
-0.000896377
-0.000856231
-0.000817123
-0.000779007
-0.000741844
-0.000705593
-0.000670216
-0.000635673
-0.00060193
-0.000568951
-0.000536701
-0.000505147
-0.000474257
-0.000443999
-0.000414343
-0.00038526
-0.000356721
-0.000328698
-0.000301164
-0.000274093
-0.000247459
-0.000221237
-0.000195404
-0.000169935
-0.000144808
-0.00012
-9.54892e-05
-7.12544e-05
-4.72749e-05
-2.35299e-05
0
0
-0.00166258
-0.00326013
-0.00473021
-0.00601914
-0.00708673
-0.00791087
-0.00848927
-0.0088378
-0.0089858
-0.00896966
-0.00882648
-0.00858978
-0.00828762
-0.00794237
-0.00757135
-0.00718758
-0.00680069
-0.0064176
-0.00604317
-0.00568072
-0.00533238
-0.00499945
-0.00468261
-0.00438207
-0.00409774
-0.00382931
-0.00357628
-0.00333809
-0.00311408
-0.00290355
-0.00270581
-0.00252012
-0.0023458
-0.00218213
-0.00202845
-0.0018841
-0.00174846
-0.00162094
-0.00150097
-0.00138802
-0.00128157
-0.00118116
-0.00108632
-0.000996632
-0.000911703
-0.000831154
-0.000754636
-0.000681816
-0.000612386
-0.000546054
-0.000482546
-0.000421604
-0.000362987
-0.000306465
-0.000251822
-0.000198854
-0.000147368
-9.71783e-05
-4.81116e-05
0
0
-0.00084035
-0.00167185
-0.00248782
-0.00327866
-0.00403823
-0.00475794
-0.00543301
-0.00605625
-0.00662484
-0.00713365
-0.00758227
-0.00796803
-0.00829293
-0.00855679
-0.0087636
-0.00891522
-0.00901692
-0.00907193
-0.00908592
-0.00906269
-0.00900755
-0.00892424
-0.0088173
-0.00869009
-0.0085462
-0.00838851
-0.00821975
-0.00804227
-0.00785807
-0.00766905
-0.00747662
-0.00728225
-0.00708693
-0.00689178
-0.00669745
-0.00650479
-0.0063142
-0.00612632
-0.00594135
-0.00575977
-0.00558167
-0.00540738
-0.00523691
-0.00507049
-0.00490806
-0.00474979
-0.00459558
-0.00444554
-0.00429954
-0.00415765
-0.00401972
-0.00388579
-0.00375571
-0.0036295
-0.00350699
-0.00338819
-0.00327293
-0.00316121
-0.00305285
-0.00294785
-0.00284605
-0.00274742
-0.00265181
-0.00255918
-0.0024694
-0.00238243
-0.00229812
-0.00221645
-0.00213728
-0.00206058
-0.00198621
-0.00191415
-0.00184427
-0.00177653
-0.00171083
-0.00164713
-0.00158532
-0.00152537
-0.00146718
-0.00141072
-0.00135588
-0.00130265
-0.00125092
-0.00120068
-0.00115184
-0.00110437
-0.00105819
-0.00101327
-0.000969551
-0.000926995
-0.000885539
-0.000845155
-0.000805784
-0.000767399
-0.000729943
-0.000693391
-0.000657691
-0.000622818
-0.000588724
-0.000555386
-0.000522757
-0.000490816
-0.000459521
-0.000428849
-0.000398762
-0.000369239
-0.000340243
-0.000311754
-0.000283738
-0.000256175
-0.000229034
-0.000202297
-0.000175932
-0.000149922
-0.000124238
-9.88639e-05
-7.37724e-05
-4.89466e-05
-2.43615e-05
0
0
-0.00169317
-0.00332038
-0.00481834
-0.00613304
-0.00722418
-0.00806942
-0.00866615
-0.00902968
-0.00918882
-0.00917963
-0.00903928
-0.00880173
-0.00849572
-0.00814441
-0.0077658
-0.00737351
-0.00697763
-0.0065854
-0.0062019
-0.00583059
-0.0054737
-0.00513257
-0.0048079
-0.00449991
-0.00420851
-0.00393336
-0.00367399
-0.00342979
-0.00320009
-0.00298419
-0.00278136
-0.00259088
-0.00241201
-0.00224405
-0.00208631
-0.00193812
-0.00179885
-0.00166789
-0.00154465
-0.0014286
-0.00131921
-0.00121599
-0.00111849
-0.00102627
-0.000938913
-0.000856049
-0.000777314
-0.000702371
-0.000630901
-0.000562608
-0.00049721
-0.000434445
-0.000374064
-0.000315833
-0.000259531
-0.000204949
-0.000151889
-0.000100162
-4.95892e-05
0
0
-0.000861757
-0.00171451
-0.00255113
-0.00336214
-0.00414076
-0.00487881
-0.00557071
-0.00620992
-0.00679272
-0.0073148
-0.00777479
-0.00817093
-0.00850431
-0.00877562
-0.00898805
-0.00914427
-0.00924889
-0.00930584
-0.00932033
-0.00929671
-0.00924003
-0.00915445
-0.0090444
-0.0089135
-0.00876538
-0.00860305
-0.00842934
-0.00824665
-0.00805712
-0.00786263
-0.00766473
-0.00746486
-0.00726411
-0.00706355
-0.00686394
-0.00666606
-0.00647041
-0.00627754
-0.00608776
-0.00590146
-0.00571881
-0.00554007
-0.0053653
-0.0051947
-0.00502824
-0.00486604
-0.00470804
-0.00455431
-0.00440475
-0.0042594
-0.00411814
-0.00398096
-0.00384776
-0.0037185
-0.00359306
-0.0034714
-0.0033534
-0.00323899
-0.00312806
-0.00302054
-0.00291632
-0.00281532
-0.00271744
-0.00262259
-0.00253067
-0.00244161
-0.0023553
-0.00227167
-0.00219061
-0.00211206
-0.00203591
-0.00196211
-0.00189055
-0.00182118
-0.0017539
-0.00168865
-0.00162535
-0.00156394
-0.00150434
-0.00144649
-0.00139032
-0.00133578
-0.00128279
-0.00123131
-0.00118127
-0.00113262
-0.0010853
-0.00103926
-0.000994458
-0.000950837
-0.000908347
-0.000866949
-0.00082659
-0.000787235
-0.000748835
-0.000711355
-0.000674751
-0.000638989
-0.000604027
-0.000569834
-0.000536371
-0.000503608
-0.000471508
-0.000440044
-0.000409181
-0.000378892
-0.000349145
-0.000319915
-0.00029117
-0.000262889
-0.00023504
-0.000207603
-0.000180549
-0.000153857
-0.000127501
-0.00010146
-7.57105e-05
-5.02322e-05
-2.50017e-05
0
0
-0.00173582
-0.00340386
-0.00493921
-0.00628672
-0.00740534
-0.00827235
-0.00888501
-0.00925877
-0.00942278
-0.00941371
-0.00926955
-0.00902519
-0.0087103
-0.00834882
-0.0079594
-0.00755613
-0.0071494
-0.00674666
-0.00635311
-0.00597226
-0.00560636
-0.00525675
-0.00492411
-0.00460865
-0.00431023
-0.00402851
-0.00376297
-0.00351298
-0.00327785
-0.00305686
-0.00284925
-0.00265427
-0.00247118
-0.00229925
-0.00213778
-0.00198607
-0.00184349
-0.0017094
-0.00158321
-0.00146436
-0.00135233
-0.00124661
-0.00114673
-0.00105225
-0.000962749
-0.000877836
-0.000797145
-0.00072033
-0.000647067
-0.000577052
-0.000509999
-0.000445638
-0.000383715
-0.000323992
-0.000266243
-0.000210254
-0.000155823
-0.000102757
-5.08745e-05
0
0
-0.000883189
-0.00175717
-0.00261451
-0.00344564
-0.00424338
-0.00499969
-0.00570853
-0.00636363
-0.00696076
-0.007496
-0.00796748
-0.00837391
-0.00871587
-0.00899455
-0.00921269
-0.00937342
-0.00948104
-0.00953987
-0.00955491
-0.00953085
-0.00947267
-0.00938478
-0.00927162
-0.00913702
-0.00898465
-0.00881767
-0.00863899
-0.0084511
-0.00825622
-0.00805626
-0.00785287
-0.00764748
-0.00744128
-0.00723531
-0.00703041
-0.00682731
-0.00662658
-0.00642873
-0.00623412
-0.00604311
-0.00585589
-0.0056727
-0.00549364
-0.00531885
-0.00514836
-0.00498223
-0.00482044
-0.00466302
-0.00450991
-0.0043611
-0.0042165
-0.00407609
-0.00393975
-0.00380746
-0.00367908
-0.00355457
-0.00343381
-0.00331673
-0.00320321
-0.00309319
-0.00298654
-0.00288319
-0.00278302
-0.00268596
-0.00259191
-0.00250077
-0.00241244
-0.00232685
-0.0022439
-0.00216351
-0.00208558
-0.00201005
-0.00193681
-0.0018658
-0.00179694
-0.00173015
-0.00166535
-0.00160249
-0.00154147
-0.00148225
-0.00142474
-0.00136889
-0.00131464
-0.00126192
-0.00121068
-0.00116085
-0.00111239
-0.00106524
-0.00101935
-0.000974666
-0.000931141
-0.000888729
-0.000847383
-0.00080706
-0.000767715
-0.00072931
-0.0006918
-0.00065515
-0.00061932
-0.000584275
-0.000549976
-0.000516393
-0.000483489
-0.000451234
-0.000419594
-0.000388541
-0.000358042
-0.000328072
-0.000298599
-0.000269599
-0.000241043
-0.000212906
-0.000185163
-0.00015779
-0.000130761
-0.000104055
-7.76474e-05
-5.15172e-05
-2.56415e-05
0
0
-0.0017785
-0.00348739
-0.00506015
-0.00644049
-0.00758662
-0.00847542
-0.00910403
-0.00948802
-0.0096569
-0.00964794
-0.00949996
-0.00924878
-0.00892498
-0.0085533
-0.00815304
-0.00773876
-0.00732116
-0.00690789
-0.00650428
-0.00611388
-0.00573897
-0.00538088
-0.00504027
-0.00471733
-0.0044119
-0.00412361
-0.00385189
-0.00359612
-0.00335556
-0.00312948
-0.00291709
-0.00271762
-0.00253032
-0.00235442
-0.00218921
-0.00203399
-0.00188809
-0.00175088
-0.00162174
-0.00150011
-0.00138544
-0.00127721
-0.00117496
-0.00107822
-0.000986571
-0.00089961
-0.000816964
-0.000738279
-0.000663224
-0.000591489
-0.00052278
-0.000456824
-0.000393361
-0.000332147
-0.000272951
-0.000215556
-0.000159755
-0.000105351
-5.21592e-05
0
0
-0.000904654
-0.00179987
-0.00267797
-0.00352922
-0.00434614
-0.0051207
-0.00584653
-0.00651748
-0.00712901
-0.00767738
-0.00816043
-0.00857709
-0.0089277
-0.00921368
-0.00943758
-0.00960278
-0.00971343
-0.00977409
-0.0097897
-0.00976518
-0.0097055
-0.00961528
-0.009499
-0.00936067
-0.00920404
-0.0090324
-0.00884873
-0.00865561
-0.00845536
-0.00824992
-0.00804102
-0.00783012
-0.00761845
-0.00740707
-0.00719685
-0.00698853
-0.00678271
-0.00657988
-0.00638044
-0.00618471
-0.00599292
-0.00580529
-0.00562193
-0.00544295
-0.00526841
-0.00509836
-0.00493278
-0.00477168
-0.00461501
-0.00446274
-0.00431481
-0.00417115
-0.00403169
-0.00389636
-0.00376505
-0.00363769
-0.00351417
-0.00339442
-0.00327832
-0.00316579
-0.00305671
-0.00295101
-0.00284857
-0.0027493
-0.0026531
-0.00255988
-0.00246954
-0.002382
-0.00229716
-0.00221493
-0.00213522
-0.00205795
-0.00198304
-0.0019104
-0.00183995
-0.00177162
-0.00170533
-0.00164101
-0.00157858
-0.00151798
-0.00145914
-0.00140199
-0.00134646
-0.00129251
-0.00124007
-0.00118907
-0.00113947
-0.0010912
-0.00104423
-0.000998481
-0.00095392
-0.000910497
-0.000868163
-0.000826873
-0.000786584
-0.000747253
-0.000708839
-0.000671302
-0.000634604
-0.000598707
-0.000563574
-0.000529171
-0.000495462
-0.000462417
-0.000430001
-0.000398183
-0.000366934
-0.000336224
-0.000306023
-0.000276305
-0.000247042
-0.000218207
-0.000189775
-0.000161721
-0.00013402
-0.000106649
-7.95832e-05
-5.28016e-05
-2.62809e-05
0
0
-0.00182124
-0.00357104
-0.00518124
-0.00659447
-0.00776813
-0.00867874
-0.00932331
-0.00971752
-0.00989125
-0.00988238
-0.00973055
-0.00947251
-0.00913976
-0.00875786
-0.00834673
-0.0079214
-0.00749291
-0.0070691
-0.00665541
-0.00625546
-0.00587153
-0.00550496
-0.00515638
-0.00482596
-0.00451352
-0.00421865
-0.00394077
-0.00367921
-0.00343323
-0.00320205
-0.00298489
-0.00278093
-0.00258941
-0.00240955
-0.00224061
-0.00208188
-0.00193267
-0.00179234
-0.00166025
-0.00153583
-0.00141852
-0.0013078
-0.00120317
-0.00110417
-0.00101038
-0.000921372
-0.000836771
-0.000756217
-0.000679372
-0.000605917
-0.000535554
-0.000468004
-0.000403001
-0.000340296
-0.000279655
-0.000220855
-0.000163685
-0.000107944
-5.34432e-05
0
0
-0.000926163
-0.00184265
-0.00274156
-0.00361294
-0.00444909
-0.0052419
-0.00598479
-0.0066716
-0.00729757
-0.00785905
-0.0083537
-0.00878058
-0.00913986
-0.00943312
-0.0096628
-0.00983244
-0.00994612
-0.0100086
-0.0100248
-0.00999975
-0.00993855
-0.00984597
-0.00972657
-0.00958449
-0.00942358
-0.00924724
-0.00905857
-0.00886021
-0.00865456
-0.00844363
-0.0082292
-0.00801277
-0.00779562
-0.00757882
-0.00736328
-0.00714973
-0.00693881
-0.006731
-0.00652671
-0.00632626
-0.0061299
-0.00593782
-0.00575015
-0.005567
-0.00538842
-0.00521444
-0.00504506
-0.00488028
-0.00472005
-0.00456433
-0.00441306
-0.00426616
-0.00412357
-0.0039852
-0.00385096
-0.00372075
-0.00359448
-0.00347206
-0.00335338
-0.00323834
-0.00312684
-0.00301878
-0.00291407
-0.00281259
-0.00271425
-0.00261896
-0.00252661
-0.00243712
-0.00235038
-0.00226631
-0.00218482
-0.00210583
-0.00202923
-0.00195496
-0.00188293
-0.00181306
-0.00174528
-0.0016795
-0.00161566
-0.00155369
-0.00149351
-0.00143506
-0.00137827
-0.00132309
-0.00126944
-0.00121727
-0.00116653
-0.00111715
-0.00106909
-0.00102228
-0.000976686
-0.000932252
-0.00088893
-0.000846675
-0.000805441
-0.000765186
-0.000725867
-0.000687445
-0.000649878
-0.00061313
-0.000577163
-0.000541941
-0.000507429
-0.000473593
-0.000440401
-0.000407821
-0.000375821
-0.000344371
-0.000313443
-0.000283008
-0.000253037
-0.000223505
-0.000194384
-0.00016565
-0.000137277
-0.000109241
-8.15178e-05
-5.40852e-05
-2.69199e-05
0
0
-0.00186407
-0.00365486
-0.00530258
-0.00674874
-0.00794999
-0.00888243
-0.00954294
-0.00994735
-0.0101259
-0.0101171
-0.00996136
-0.00969641
-0.00935467
-0.0089625
-0.00854046
-0.00810407
-0.00766466
-0.00723029
-0.00680651
-0.00639699
-0.00600404
-0.00562897
-0.00527243
-0.00493453
-0.00461508
-0.00431363
-0.00402959
-0.00376225
-0.00351085
-0.00327458
-0.00305264
-0.0028442
-0.00264847
-0.00246465
-0.00229198
-0.00212974
-0.00197722
-0.00183377
-0.00169873
-0.00157153
-0.00145158
-0.00133836
-0.00123136
-0.00113011
-0.00103417
-0.000943119
-0.000856567
-0.000774145
-0.000695509
-0.000620336
-0.00054832
-0.000479177
-0.000412635
-0.000348442
-0.000286356
-0.000226151
-0.000167613
-0.000110536
-5.47265e-05
0
0
-0.000947732
-0.00188554
-0.00280531
-0.00369687
-0.00455229
-0.00536339
-0.00612338
-0.00682605
-0.00746651
-0.00804112
-0.0085474
-0.00898448
-0.00935245
-0.00965297
-0.00988843
-0.0100625
-0.0101792
-0.0102434
-0.0102601
-0.0102346
-0.0101719
-0.0100769
-0.00995435
-0.00980849
-0.00964328
-0.00946222
-0.00926852
-0.0090649
-0.00885383
-0.00863739
-0.00841742
-0.00819544
-0.0079728
-0.00775056
-0.00752969
-0.00731091
-0.00709487
-0.00688208
-0.00667294
-0.00646777
-0.00626683
-0.0060703
-0.00587832
-0.00569099
-0.00550836
-0.00533045
-0.00515728
-0.00498882
-0.00482503
-0.00466586
-0.00451125
-0.00436112
-0.0042154
-0.00407399
-0.00393682
-0.00380377
-0.00367474
-0.00354965
-0.00342839
-0.00331085
-0.00319692
-0.00308652
-0.00297952
-0.00287584
-0.00277536
-0.00267799
-0.00258364
-0.00249219
-0.00240357
-0.00231766
-0.00223439
-0.00215367
-0.0020754
-0.0019995
-0.00192589
-0.00185448
-0.0017852
-0.00171797
-0.00165272
-0.00158937
-0.00152786
-0.00146811
-0.00141006
-0.00135364
-0.00129879
-0.00124545
-0.00119357
-0.00114308
-0.00109393
-0.00104607
-0.000999437
-0.000953993
-0.000909684
-0.000866464
-0.000824286
-0.000783108
-0.000742885
-0.000703578
-0.000665144
-0.000627545
-0.000590744
-0.000554703
-0.000519388
-0.000484763
-0.000450795
-0.000417452
-0.000384702
-0.000352514
-0.000320858
-0.000289706
-0.000259029
-0.000228799
-0.00019899
-0.000169576
-0.000140532
-0.000111831
-8.34513e-05
-5.53681e-05
-2.75585e-05
0
0
-0.00190702
-0.0037389
-0.00542424
-0.00690341
-0.00813229
-0.00908657
-0.00976303
-0.0101776
-0.0103609
-0.0103521
-0.0101924
-0.00992052
-0.00956973
-0.00916723
-0.00873425
-0.00828675
-0.0078364
-0.00739145
-0.00695757
-0.00653847
-0.00613649
-0.00575294
-0.00538842
-0.00504304
-0.00471658
-0.00440856
-0.00411835
-0.00384523
-0.00358841
-0.00334707
-0.00312035
-0.00290743
-0.00270749
-0.00251971
-0.00234332
-0.00217757
-0.00202175
-0.00187517
-0.00173719
-0.0016072
-0.00148462
-0.0013689
-0.00125953
-0.00115603
-0.00105795
-0.000964853
-0.000876349
-0.000792061
-0.000711637
-0.000634746
-0.000561079
-0.000490343
-0.000422264
-0.000356582
-0.000293052
-0.000231444
-0.000171538
-0.000113126
-5.6009e-05
0
0
-0.000969373
-0.00192855
-0.00286927
-0.00378104
-0.0046558
-0.00548523
-0.00626237
-0.00698095
-0.00763593
-0.00822368
-0.00874161
-0.00918889
-0.00956555
-0.00987332
-0.0101145
-0.010293
-0.0104127
-0.0104787
-0.0104959
-0.0104698
-0.0104055
-0.0103081
-0.0101824
-0.0100327
-0.00986316
-0.00967736
-0.00947859
-0.00926968
-0.00905317
-0.0088312
-0.00860567
-0.00837814
-0.00814998
-0.0079223
-0.00769608
-0.00747206
-0.00725091
-0.00703312
-0.00681912
-0.00660923
-0.0064037
-0.00620272
-0.00600644
-0.00581492
-0.00562824
-0.00544641
-0.00526944
-0.0050973
-0.00492994
-0.00476733
-0.00460938
-0.00445602
-0.00430717
-0.00416273
-0.00402262
-0.00388672
-0.00375495
-0.00362719
-0.00350335
-0.0033833
-0.00326696
-0.0031542
-0.00304493
-0.00293904
-0.00283643
-0.00273699
-0.00264062
-0.00254723
-0.00245671
-0.00236898
-0.00228393
-0.00220148
-0.00212153
-0.002044
-0.00196881
-0.00189587
-0.0018251
-0.00175642
-0.00168976
-0.00162504
-0.00156219
-0.00150114
-0.00144182
-0.00138417
-0.00132812
-0.00127362
-0.00122059
-0.00116899
-0.00111876
-0.00106984
-0.00102217
-0.00097572
-0.000930424
-0.00088624
-0.00084312
-0.000801019
-0.000759893
-0.0007197
-0.000680399
-0.000641951
-0.000604316
-0.000567458
-0.00053134
-0.000495926
-0.000461183
-0.000427078
-0.000393578
-0.000360652
-0.000328269
-0.0002964
-0.000265017
-0.000234091
-0.000203594
-0.000173501
-0.000143784
-0.00011442
-8.53836e-05
-5.66502e-05
-2.81967e-05
0
0
-0.00195011
-0.00382322
-0.00554628
-0.00705855
-0.00831513
-0.00929128
-0.00998366
-0.0104084
-0.0105964
-0.0105875
-0.0104238
-0.0101448
-0.00978494
-0.00937207
-0.00892809
-0.00846945
-0.00800814
-0.00755259
-0.00710859
-0.00667991
-0.00626889
-0.00587684
-0.00550434
-0.00515149
-0.00481802
-0.00450342
-0.00420706
-0.00392817
-0.00366593
-0.0034195
-0.00318801
-0.00297062
-0.00276646
-0.00257472
-0.00239461
-0.00222536
-0.00206623
-0.00191654
-0.00177562
-0.00164285
-0.00151764
-0.00139942
-0.00128769
-0.00118194
-0.00108171
-0.000986573
-0.000896119
-0.000809966
-0.000727754
-0.000649147
-0.000573829
-0.000501503
-0.000431886
-0.000364717
-0.000299745
-0.000236734
-0.000175461
-0.000115714
-5.72907e-05
0
0
-0.000991102
-0.00197173
-0.00293346
-0.00386551
-0.00475968
-0.0056075
-0.00640183
-0.00713636
-0.00780591
-0.00840682
-0.00893642
-0.00939391
-0.00977926
-0.0100942
-0.0103412
-0.010524
-0.0106467
-0.0107144
-0.0107321
-0.0107054
-0.0106395
-0.0105396
-0.0104107
-0.0102571
-0.0100832
-0.00989266
-0.0096888
-0.00947458
-0.00925261
-0.00902508
-0.00879397
-0.00856086
-0.00832717
-0.00809404
-0.00786246
-0.00763319
-0.00740691
-0.00718412
-0.00696526
-0.00675064
-0.00654053
-0.0063351
-0.00613449
-0.00593879
-0.00574806
-0.00556231
-0.00538154
-0.00520572
-0.0050348
-0.00486874
-0.00470745
-0.00455086
-0.00439888
-0.00425141
-0.00410836
-0.00396963
-0.00383511
-0.00370468
-0.00357826
-0.00345571
-0.00333694
-0.00322184
-0.0031103
-0.00300221
-0.00289746
-0.00279595
-0.00269757
-0.00260223
-0.00250983
-0.00242026
-0.00233343
-0.00224925
-0.00216763
-0.00208848
-0.0020117
-0.00193723
-0.00186497
-0.00179484
-0.00172677
-0.00166067
-0.00159649
-0.00153414
-0.00147356
-0.00141468
-0.00135744
-0.00130176
-0.0012476
-0.00119489
-0.00114357
-0.00109359
-0.00104489
-0.000997432
-0.000951151
-0.000906003
-0.000861941
-0.000818917
-0.000776889
-0.000735812
-0.000695645
-0.000656348
-0.00061788
-0.000580204
-0.000543284
-0.000507082
-0.000471564
-0.000436697
-0.000402448
-0.000368784
-0.000335675
-0.000303091
-0.000271001
-0.000239379
-0.000208195
-0.000177422
-0.000147035
-0.000117008
-8.73147e-05
-5.79315e-05
-2.88345e-05
0
0
-0.00199338
-0.00390786
-0.00566878
-0.00721426
-0.0084986
-0.00949663
-0.0102049
-0.0106397
-0.0108324
-0.0108233
-0.0106555
-0.0103694
-0.0100003
-0.00957702
-0.009122
-0.00865219
-0.00817987
-0.00771371
-0.00725957
-0.0068213
-0.00640123
-0.00600068
-0.00562021
-0.00525988
-0.0049194
-0.00459823
-0.00429571
-0.00401104
-0.00374339
-0.00349188
-0.00325563
-0.00303376
-0.0028254
-0.00262971
-0.00244587
-0.00227312
-0.00211069
-0.00195789
-0.00181403
-0.00167848
-0.00155063
-0.00142992
-0.00131582
-0.00120782
-0.00110546
-0.00100828
-0.000915876
-0.000827859
-0.000743861
-0.000663539
-0.000586572
-0.000512655
-0.000441503
-0.000372847
-0.000306433
-0.00024202
-0.000179382
-0.0001183
-5.85716e-05
0
0
-0.00101294
-0.0020151
-0.00299793
-0.00395034
-0.00486399
-0.00573026
-0.00654185
-0.00729239
-0.00797653
-0.00859064
-0.00913192
-0.00959963
-0.00999364
-0.0103159
-0.0105685
-0.0107556
-0.0108813
-0.0109506
-0.0109688
-0.0109414
-0.0108739
-0.0107715
-0.0106393
-0.0104819
-0.0103035
-0.0101081
-0.00989917
-0.00967959
-0.00945214
-0.00921903
-0.00898231
-0.0087436
-0.00850438
-0.00826578
-0.00802882
-0.00779429
-0.00756288
-0.00733508
-0.00711135
-0.006892
-0.0066773
-0.00646741
-0.00626249
-0.00606261
-0.00586783
-0.00567815
-0.00549358
-0.00531408
-0.0051396
-0.00497009
-0.00480546
-0.00464564
-0.00449053
-0.00434003
-0.00419405
-0.00405248
-0.00391521
-0.00378212
-0.00365311
-0.00352807
-0.00340688
-0.00328944
-0.00317562
-0.00306532
-0.00295844
-0.00285486
-0.00275448
-0.00265719
-0.0025629
-0.0024715
-0.0023829
-0.002297
-0.0022137
-0.00213292
-0.00205457
-0.00197856
-0.00190481
-0.00183323
-0.00176375
-0.00169629
-0.00163077
-0.00156713
-0.00150528
-0.00144517
-0.00138673
-0.00132989
-0.00127459
-0.00122076
-0.00116836
-0.00111733
-0.0010676
-0.00101913
-0.000971865
-0.000925754
-0.000880749
-0.000836805
-0.000793874
-0.000751914
-0.000710881
-0.000670735
-0.000631435
-0.000592943
-0.00055522
-0.000518231
-0.000481939
-0.000446311
-0.000411313
-0.000376912
-0.000343077
-0.000309777
-0.000276982
-0.000244663
-0.000212792
-0.000181342
-0.000150284
-0.000119594
-8.92446e-05
-5.9212e-05
-2.94719e-05
0
0
-0.00203684
-0.00399288
-0.00579182
-0.00737062
-0.00868279
-0.00970274
-0.0104269
-0.0108717
-0.0110689
-0.0110596
-0.0108875
-0.0105943
-0.0102159
-0.0097821
-0.00931599
-0.00883495
-0.00835161
-0.0078748
-0.00741052
-0.00696263
-0.00653352
-0.00612447
-0.00573602
-0.00536821
-0.00502071
-0.00469298
-0.0043843
-0.00409386
-0.0038208
-0.00356422
-0.0033232
-0.00309685
-0.00288429
-0.00268465
-0.0024971
-0.00232084
-0.00215512
-0.0019992
-0.00185241
-0.00171408
-0.0015836
-0.0014604
-0.00134394
-0.00123369
-0.00112919
-0.00102997
-0.00093562
-0.00084574
-0.000759957
-0.000677922
-0.000599306
-0.0005238
-0.000451113
-0.000380972
-0.000313117
-0.000247303
-0.0001833
-0.000120885
-5.98517e-05
0
0
-0.00103488
-0.00205865
-0.00306269
-0.00403552
-0.00496872
-0.00585353
-0.00668244
-0.00744904
-0.0081478
-0.00877515
-0.00932811
-0.00980605
-0.0102087
-0.0105381
-0.0107965
-0.0109879
-0.0111164
-0.0111873
-0.0112059
-0.0111778
-0.0111086
-0.0110037
-0.0108681
-0.0107067
-0.010524
-0.0103237
-0.0101096
-0.00988465
-0.00965168
-0.00941297
-0.00917063
-0.00892631
-0.00868153
-0.00843744
-0.00819511
-0.0079553
-0.00771875
-0.00748594
-0.00725735
-0.00703326
-0.00681396
-0.00659962
-0.00639038
-0.00618631
-0.00598748
-0.00579388
-0.00560551
-0.00542233
-0.00524429
-0.00507133
-0.00490337
-0.00474032
-0.00458208
-0.00442856
-0.00427965
-0.00413524
-0.00399522
-0.00385947
-0.00372789
-0.00360035
-0.00347674
-0.00335695
-0.00324087
-0.00312837
-0.00301935
-0.00291371
-0.00281132
-0.00271209
-0.00261591
-0.00252269
-0.00243231
-0.00234468
-0.00225971
-0.00217731
-0.00209738
-0.00201984
-0.0019446
-0.00187158
-0.00180069
-0.00173186
-0.00166501
-0.00160007
-0.00153697
-0.00147563
-0.00141599
-0.00135798
-0.00130154
-0.00124661
-0.00119313
-0.00114104
-0.00109028
-0.0010408
-0.000992555
-0.000945483
-0.000899537
-0.000854672
-0.00081084
-0.000767998
-0.0007261
-0.000685107
-0.000644975
-0.000605667
-0.000567143
-0.000529367
-0.000492303
-0.000455914
-0.000420168
-0.000385031
-0.00035047
-0.000316456
-0.000282956
-0.000249942
-0.000217385
-0.000185257
-0.00015353
-0.000122177
-9.11724e-05
-6.04912e-05
-3.01085e-05
0
0
-0.00208054
-0.00407832
-0.00591545
-0.00752772
-0.0088678
-0.00990968
-0.0106497
-0.0111044
-0.011306
-0.0112963
-0.01112
-0.0108194
-0.0104317
-0.00998732
-0.00951005
-0.00901775
-0.00852334
-0.00803587
-0.00756142
-0.00710392
-0.00666575
-0.00624819
-0.00585176
-0.00547647
-0.00512197
-0.00478767
-0.00447284
-0.00417663
-0.00389816
-0.0036365
-0.00339072
-0.0031599
-0.00294314
-0.00273955
-0.00254829
-0.00236853
-0.00219951
-0.00204049
-0.00189076
-0.00174965
-0.00161655
-0.00149086
-0.00137203
-0.00125954
-0.0011529
-0.00105165
-0.00095535
-0.000863609
-0.000776043
-0.000692295
-0.000612032
-0.000534938
-0.000460717
-0.000389091
-0.000319796
-0.000252583
-0.000187215
-0.000123469
-6.1131e-05
0
0
-0.00105697
-0.00210247
-0.00312782
-0.00412119
-0.00507405
-0.00597749
-0.00682378
-0.00760653
-0.00831995
-0.0089606
-0.00952524
-0.0100134
-0.0104247
-0.0107613
-0.0110253
-0.011221
-0.0113523
-0.0114248
-0.0114437
-0.0114149
-0.0113439
-0.0112363
-0.0110974
-0.010932
-0.0107448
-0.0105396
-0.0103203
-0.0100899
-0.00985143
-0.00960707
-0.0093591
-0.00910912
-0.00885878
-0.00860918
-0.00836146
-0.00811637
-0.00787467
-0.00763683
-0.00740336
-0.00717452
-0.00695063
-0.00673182
-0.00651827
-0.00631
-0.00610712
-0.00590959
-0.00571742
-0.00553056
-0.00534897
-0.00517255
-0.00500126
-0.00483497
-0.00467361
-0.00451706
-0.00436522
-0.00421797
-0.00407521
-0.0039368
-0.00380264
-0.0036726
-0.00354658
-0.00342445
-0.00330609
-0.0031914
-0.00308025
-0.00297253
-0.00286815
-0.00276697
-0.00266891
-0.00257385
-0.0024817
-0.00239236
-0.00230572
-0.00222169
-0.00214018
-0.00206111
-0.00198438
-0.00190991
-0.00183762
-0.00176742
-0.00169924
-0.00163301
-0.00156864
-0.00150608
-0.00144524
-0.00138607
-0.00132849
-0.00127246
-0.00121789
-0.00116474
-0.00111296
-0.00106247
-0.00101324
-0.000965206
-0.00091832
-0.000872535
-0.000827803
-0.000784078
-0.000741316
-0.000699475
-0.000658512
-0.000618389
-0.000579064
-0.000540502
-0.000502663
-0.000465515
-0.000429021
-0.000393147
-0.000357862
-0.000323133
-0.000288929
-0.00025522
-0.000221977
-0.000189171
-0.000156774
-0.000124759
-9.30999e-05
-6.17701e-05
-3.0745e-05
0
0
-0.00212448
-0.00416423
-0.00603976
-0.00768564
-0.00905372
-0.0101176
-0.0108734
-0.0113379
-0.0115439
-0.0115337
-0.0113529
-0.0110449
-0.0106477
-0.0101927
-0.00970419
-0.00920058
-0.00869508
-0.00819692
-0.00771229
-0.00724516
-0.00679793
-0.00637185
-0.00596745
-0.00558467
-0.00522316
-0.0048823
-0.00456131
-0.00425934
-0.00397546
-0.00370873
-0.00345819
-0.00322291
-0.00300194
-0.00279441
-0.00259944
-0.00241619
-0.00224388
-0.00208174
-0.00192908
-0.0017852
-0.00164947
-0.0015213
-0.00140011
-0.00128537
-0.0011766
-0.00107331
-0.000975067
-0.000881466
-0.000792117
-0.000706658
-0.000624749
-0.000546068
-0.000470315
-0.000397206
-0.000326471
-0.000257859
-0.000191128
-0.000126051
-6.24095e-05
0
0
-0.00107922
-0.00214655
-0.00319335
-0.00420736
-0.00517996
-0.00610216
-0.00696589
-0.0077649
-0.00849299
-0.00914701
-0.00972331
-0.0102218
-0.0106417
-0.0109855
-0.011255
-0.0114549
-0.011589
-0.011663
-0.0116821
-0.0116525
-0.0115797
-0.0114694
-0.0113271
-0.0111577
-0.0109659
-0.0107558
-0.0105312
-0.0102954
-0.0100513
-0.00980125
-0.00954763
-0.00929197
-0.00903606
-0.00878092
-0.00852781
-0.0082774
-0.00803056
-0.00778768
-0.00754933
-0.00731573
-0.00708725
-0.00686397
-0.00664609
-0.00643364
-0.0062267
-0.00602524
-0.00582927
-0.00563873
-0.00545358
-0.00527371
-0.00509909
-0.00492957
-0.00476508
-0.00460551
-0.00445074
-0.00430065
-0.00415514
-0.00401407
-0.00387734
-0.00374481
-0.00361637
-0.00349189
-0.00337127
-0.00325438
-0.0031411
-0.00303132
-0.00292493
-0.00282181
-0.00272187
-0.00262498
-0.00253106
-0.00243999
-0.00235168
-0.00226604
-0.00218295
-0.00210235
-0.00202413
-0.00194822
-0.00187452
-0.00180296
-0.00173345
-0.00166592
-0.00160029
-0.0015365
-0.00147447
-0.00141413
-0.00135542
-0.00129828
-0.00124263
-0.00118843
-0.00113562
-0.00108413
-0.00103391
-0.000984916
-0.00093709
-0.000890386
-0.000844753
-0.000800147
-0.000756521
-0.000713833
-0.00067204
-0.000631101
-0.000590976
-0.000551628
-0.000513017
-0.00047511
-0.000437868
-0.000401259
-0.000365249
-0.000329806
-0.000294898
-0.000260495
-0.000226566
-0.000193083
-0.000160017
-0.00012734
-9.5026e-05
-6.30482e-05
-3.1381e-05
0
0
-0.00216871
-0.00425067
-0.00616482
-0.00784447
-0.00924066
-0.0103265
-0.011098
-0.0115723
-0.0117825
-0.0117716
-0.0115862
-0.0112707
-0.010864
-0.0103982
-0.00989842
-0.00938345
-0.00886682
-0.00835795
-0.00786312
-0.00738635
-0.00693004
-0.00649545
-0.00608306
-0.00569281
-0.00532429
-0.00497686
-0.00464972
-0.00434199
-0.0040527
-0.0037809
-0.00352561
-0.00328586
-0.00306071
-0.00284923
-0.00265055
-0.00246381
-0.0022882
-0.00212297
-0.00196737
-0.00182072
-0.00168237
-0.00155171
-0.00142817
-0.00131119
-0.00120028
-0.00109495
-0.00099477
-0.000899311
-0.000808181
-0.000721012
-0.000637457
-0.000557191
-0.000479907
-0.000405315
-0.000333142
-0.000263132
-0.000195039
-0.000128631
-6.36872e-05
0
0
-0.00110163
-0.00219093
-0.00325929
-0.00429408
-0.00528651
-0.00622762
-0.00710882
-0.00792422
-0.00866699
-0.00933449
-0.00992241
-0.0104313
-0.0108596
-0.0112107
-0.0114857
-0.0116898
-0.0118265
-0.011902
-0.0119213
-0.0118908
-0.0118161
-0.011703
-0.0115572
-0.0113837
-0.0111873
-0.0109721
-0.0107424
-0.010501
-0.0102513
-0.00999552
-0.00973624
-0.00947486
-0.00921337
-0.00895266
-0.00869416
-0.00843842
-0.00818643
-0.00793848
-0.00769526
-0.00745689
-0.00722382
-0.00699605
-0.00677386
-0.0065572
-0.00634622
-0.00614082
-0.00594106
-0.00574683
-0.00555812
-0.00537481
-0.00519685
-0.0050241
-0.00485649
-0.00469389
-0.0045362
-0.00438327
-0.00423502
-0.00409129
-0.00395198
-0.00381696
-0.0036861
-0.00355929
-0.0034364
-0.00331731
-0.0032019
-0.00309006
-0.00298167
-0.00287661
-0.00277478
-0.00267608
-0.00258038
-0.00248759
-0.00239761
-0.00231035
-0.00222569
-0.00214356
-0.00206386
-0.0019865
-0.00191139
-0.00183847
-0.00176763
-0.00169881
-0.00163192
-0.00156691
-0.00150368
-0.00144218
-0.00138233
-0.00132408
-0.00126736
-0.0012121
-0.00115826
-0.00110576
-0.00105457
-0.00100461
-0.000955847
-0.000908224
-0.000861691
-0.000816205
-0.000771715
-0.000728182
-0.000685558
-0.000643806
-0.000602881
-0.000562747
-0.000523364
-0.000484698
-0.000446709
-0.000409365
-0.00037263
-0.000336475
-0.000300862
-0.000265766
-0.000231151
-0.000196992
-0.000163257
-0.000129919
-9.69508e-05
-6.43255e-05
-3.20165e-05
0
0
-0.00221326
-0.00433769
-0.00629071
-0.00800433
-0.00942872
-0.0105365
-0.0113238
-0.0118077
-0.0120219
-0.0120102
-0.0118201
-0.0114968
-0.0110805
-0.0106038
-0.0100927
-0.00956635
-0.00903856
-0.00851894
-0.0080139
-0.00752748
-0.0070621
-0.00661899
-0.00619861
-0.00580088
-0.00542535
-0.00507136
-0.00473808
-0.00442458
-0.00412989
-0.00385303
-0.00359298
-0.00334877
-0.00311942
-0.00290401
-0.00270162
-0.00251139
-0.0023325
-0.00216416
-0.00200564
-0.00185622
-0.00171525
-0.00158211
-0.0014562
-0.00133698
-0.00122394
-0.00111658
-0.00101446
-0.000917143
-0.000824233
-0.000735356
-0.000650157
-0.000568307
-0.000489491
-0.000413418
-0.000339809
-0.000268401
-0.000198946
-0.000131209
-6.49641e-05
0
0
-0.00112422
-0.00223566
-0.00332567
-0.00438141
-0.00539376
-0.00635396
-0.00725265
-0.00808462
-0.00884201
-0.00952315
-0.0101226
-0.010642
-0.0110787
-0.011437
-0.0117173
-0.0119257
-0.0120649
-0.0121419
-0.0121612
-0.0121298
-0.012053
-0.0119372
-0.0117878
-0.01161
-0.0114091
-0.0111888
-0.0109537
-0.0107067
-0.0104515
-0.0101899
-0.00992493
-0.00965778
-0.00939071
-0.00912439
-0.00886051
-0.0085994
-0.00834227
-0.00808924
-0.00784116
-0.007598
-0.00736034
-0.00712807
-0.00690158
-0.00668071
-0.00646568
-0.00625634
-0.00605279
-0.00585486
-0.00566261
-0.00547584
-0.00529455
-0.00511857
-0.00494784
-0.00478221
-0.00462159
-0.00446583
-0.00431483
-0.00416845
-0.00402657
-0.00388905
-0.00375579
-0.00362663
-0.00350148
-0.00338019
-0.00326266
-0.00314875
-0.00303836
-0.00293137
-0.00282766
-0.00272713
-0.00262966
-0.00253516
-0.00244351
-0.00235463
-0.0022684
-0.00218474
-0.00210355
-0.00202475
-0.00194824
-0.00187395
-0.00180178
-0.00173167
-0.00166353
-0.00159729
-0.00153287
-0.00147021
-0.00140922
-0.00134987
-0.00129206
-0.00123576
-0.00118088
-0.00112739
-0.00107521
-0.00102429
-0.000974589
-0.00092605
-0.000878617
-0.000832252
-0.000786898
-0.000742521
-0.000699066
-0.000656501
-0.000614776
-0.000573859
-0.000533704
-0.000494279
-0.000455543
-0.000417466
-0.000380007
-0.000343139
-0.000306823
-0.000271033
-0.000235734
-0.000200899
-0.000166495
-0.000132497
-9.88742e-05
-6.5602e-05
-3.26514e-05
0
0
-0.00225819
-0.00442537
-0.00641754
-0.00816532
-0.00961802
-0.0107479
-0.0115507
-0.0120441
-0.0122622
-0.0122496
-0.0120545
-0.0117234
-0.0112972
-0.0108097
-0.0102871
-0.00974929
-0.00921029
-0.00867991
-0.00816463
-0.00766855
-0.00719409
-0.00674245
-0.00631409
-0.00590888
-0.00552635
-0.0051658
-0.00482636
-0.00450711
-0.00420702
-0.0039251
-0.0036603
-0.00341163
-0.0031781
-0.00295874
-0.00275265
-0.00255894
-0.00237676
-0.00220533
-0.00204387
-0.00189169
-0.0017481
-0.00161248
-0.00148422
-0.00136276
-0.00124759
-0.0011382
-0.00103413
-0.000934962
-0.000840275
-0.00074969
-0.000662849
-0.000579414
-0.00049907
-0.000421516
-0.000346471
-0.000273667
-0.000202852
-0.000133786
-6.62403e-05
0
0
-0.00114698
-0.0022808
-0.00339252
-0.00446946
-0.00550173
-0.00648129
-0.00739741
-0.00824622
-0.00901812
-0.00971313
-0.0103239
-0.010854
-0.0112989
-0.0116646
-0.0119501
-0.0121627
-0.0123042
-0.0123827
-0.0124019
-0.0123695
-0.0122906
-0.0121718
-0.0120189
-0.0118368
-0.0116312
-0.0114056
-0.0111653
-0.0109126
-0.0106518
-0.0103843
-0.0101137
-0.00984073
-0.00956811
-0.00929612
-0.00902688
-0.00876034
-0.00849811
-0.00823995
-0.00798702
-0.00773904
-0.00749682
-0.00726003
-0.00702924
-0.00680413
-0.00658508
-0.00637178
-0.00616446
-0.00596283
-0.00576703
-0.0055768
-0.00539219
-0.00521297
-0.00503913
-0.00487046
-0.00470693
-0.00454833
-0.0043946
-0.00424555
-0.0041011
-0.00396109
-0.00382542
-0.00369393
-0.00356651
-0.00344303
-0.00332337
-0.0032074
-0.00309501
-0.00298608
-0.00288049
-0.00277814
-0.0026789
-0.00258269
-0.00248937
-0.00239887
-0.00231107
-0.00222589
-0.00214321
-0.00206297
-0.00198506
-0.00190941
-0.00183591
-0.00176451
-0.00169511
-0.00162765
-0.00156203
-0.00149821
-0.00143609
-0.00137564
-0.00131675
-0.0012594
-0.00120349
-0.00114899
-0.00109583
-0.00104396
-0.000993318
-0.000943864
-0.00089553
-0.000848288
-0.00080207
-0.00075685
-0.000712565
-0.000669188
-0.000626663
-0.000584963
-0.000544035
-0.000503855
-0.000464371
-0.000425561
-0.000387378
-0.000349798
-0.000312779
-0.000276297
-0.000240313
-0.000204803
-0.00016973
-0.000135073
-0.000100796
-6.68778e-05
-3.32859e-05
0
0
-0.00230359
-0.00451382
-0.00654542
-0.00832759
-0.00980873
-0.0109606
-0.011779
-0.0122818
-0.0125035
-0.0124897
-0.0122894
-0.0119503
-0.0115142
-0.0110156
-0.0104816
-0.00993223
-0.00938199
-0.00884082
-0.0083153
-0.00780955
-0.007326
-0.00686584
-0.00642949
-0.0060168
-0.00562727
-0.00526016
-0.00491458
-0.00458957
-0.00428409
-0.00399711
-0.00372757
-0.00347444
-0.00323672
-0.00301344
-0.00280364
-0.00260645
-0.00242099
-0.00224646
-0.00208208
-0.00192713
-0.00178093
-0.00164282
-0.00151221
-0.00138852
-0.00127122
-0.0011598
-0.0010538
-0.00095277
-0.000856305
-0.000764014
-0.000675531
-0.000590515
-0.000508642
-0.000429609
-0.000353128
-0.000278929
-0.000206755
-0.000136361
-6.75158e-05
0
0
-0.0011699
-0.00232647
-0.00345982
-0.00455832
-0.00561044
-0.00660975
-0.00754314
-0.00840918
-0.00919535
-0.00990459
-0.0105265
-0.0110675
-0.0115202
-0.0118936
-0.0121839
-0.012401
-0.0125446
-0.0126245
-0.0126434
-0.0126099
-0.0125289
-0.0124071
-0.0122505
-0.0120639
-0.0118537
-0.0116228
-0.0113772
-0.0111186
-0.0108523
-0.0105788
-0.0103026
-0.0100237
-0.00974557
-0.0094678
-0.00919327
-0.00892123
-0.00865394
-0.00839058
-0.00813286
-0.00788
-0.00763325
-0.0073919
-0.00715686
-0.00692748
-0.00670443
-0.00648714
-0.00627606
-0.00607071
-0.00587139
-0.00567768
-0.00548977
-0.00530729
-0.00513036
-0.00495865
-0.00479221
-0.00463076
-0.0044743
-0.00432259
-0.00417558
-0.00403308
-0.00389499
-0.00376117
-0.00363149
-0.00350582
-0.00338403
-0.00326601
-0.00315162
-0.00304076
-0.00293328
-0.00282912
-0.0027281
-0.00263018
-0.00253519
-0.00244308
-0.0023537
-0.002267
-0.00218284
-0.00210117
-0.00202184
-0.00194484
-0.00187001
-0.00179733
-0.00172666
-0.00165798
-0.00159117
-0.00152619
-0.00146294
-0.00140139
-0.00134142
-0.00128302
-0.00122608
-0.00117059
-0.00111644
-0.00106362
-0.00101203
-0.000961665
-0.000912431
-0.000864313
-0.000817231
-0.000771169
-0.000726053
-0.000681867
-0.000638541
-0.00059606
-0.000554359
-0.000513424
-0.000473193
-0.000433651
-0.000394744
-0.000356454
-0.000318731
-0.000281558
-0.000244888
-0.000208705
-0.000172963
-0.000137647
-0.000102717
-6.81531e-05
-3.39197e-05
0
0
-0.00234961
-0.0046032
-0.00667454
-0.00849132
-0.010001
-0.0111749
-0.0120088
-0.0125207
-0.0127459
-0.0127306
-0.012525
-0.0121777
-0.0117315
-0.0112217
-0.0106761
-0.0101152
-0.00955365
-0.00900166
-0.00846588
-0.00795046
-0.00745782
-0.00698914
-0.0065448
-0.00612464
-0.00572811
-0.00535445
-0.00500274
-0.00467197
-0.0043611
-0.00406906
-0.00379478
-0.00353721
-0.00329531
-0.00306809
-0.0028546
-0.00265392
-0.00246518
-0.00228756
-0.00212026
-0.00196255
-0.00181373
-0.00167315
-0.00154019
-0.00141426
-0.00129483
-0.00118138
-0.00107344
-0.000970566
-0.000872325
-0.000778329
-0.000688206
-0.000601609
-0.000518208
-0.000437697
-0.000359782
-0.000284189
-0.000210656
-0.000138935
-6.87909e-05
0
0
-0.00119291
-0.00237284
-0.00352753
-0.00464821
-0.00571987
-0.00673955
-0.00768984
-0.00857372
-0.00937371
-0.0100977
-0.0107302
-0.0112827
-0.0117428
-0.0121242
-0.0124189
-0.0126406
-0.0127859
-0.0128674
-0.0128858
-0.0128513
-0.0127679
-0.012643
-0.0124827
-0.0122915
-0.0120766
-0.0118401
-0.0115894
-0.0113248
-0.011053
-0.0107733
-0.0104917
-0.0102066
-0.00992312
-0.00963942
-0.00935971
-0.00908203
-0.00880978
-0.00854111
-0.00827869
-0.00802085
-0.00776966
-0.00752366
-0.00728443
-0.00705073
-0.00682373
-0.0066024
-0.00638762
-0.0061785
-0.0059757
-0.00577848
-0.00558729
-0.00540154
-0.00522153
-0.00504677
-0.00487743
-0.00471313
-0.00455394
-0.00439957
-0.00425
-0.004105
-0.00396452
-0.00382835
-0.00369641
-0.00356855
-0.00344464
-0.00332457
-0.00320817
-0.00309539
-0.00298603
-0.00288005
-0.00277726
-0.00267763
-0.00258097
-0.00248726
-0.0023963
-0.00230809
-0.00222243
-0.00213933
-0.0020586
-0.00198024
-0.00190408
-0.00183012
-0.00175819
-0.0016883
-0.00162029
-0.00155416
-0.00148977
-0.00142712
-0.00136607
-0.00130662
-0.00124865
-0.00119217
-0.00113703
-0.00108326
-0.00103073
-0.000979455
-0.000929317
-0.000880328
-0.000832379
-0.00078548
-0.00073953
-0.000694538
-0.000650409
-0.00060715
-0.000564675
-0.000522987
-0.000482007
-0.000441737
-0.000402103
-0.000363106
-0.000324678
-0.000286816
-0.00024946
-0.000212604
-0.000176194
-0.000140221
-0.000104635
-6.94279e-05
-3.45528e-05
0
0
-0.0023965
-0.00469376
-0.00680516
-0.0086568
-0.0101952
-0.0113911
-0.0122403
-0.0127611
-0.0129895
-0.0129724
-0.0127612
-0.0124054
-0.0119489
-0.0114279
-0.0108706
-0.010298
-0.0097252
-0.00916239
-0.00861634
-0.00809124
-0.00758951
-0.00711232
-0.00666001
-0.00623238
-0.00582886
-0.00544865
-0.00509081
-0.0047543
-0.00443805
-0.00414096
-0.00386194
-0.00359992
-0.00335384
-0.0031227
-0.00290552
-0.00270136
-0.00250935
-0.00232863
-0.00215841
-0.00199795
-0.00184652
-0.00170346
-0.00156814
-0.00143998
-0.00131843
-0.00120296
-0.00109308
-0.000988351
-0.000888336
-0.000792636
-0.000700874
-0.000612696
-0.00052777
-0.000445781
-0.000366433
-0.000289446
-0.000214555
-0.000141508
-7.00658e-05
0
0
-0.00121586
-0.00242025
-0.00359552
-0.00473946
-0.00582994
-0.006871
-0.00783744
-0.00874015
-0.00955316
-0.0102929
-0.0109352
-0.0114999
-0.0119666
-0.0123567
-0.012655
-0.0128819
-0.0130283
-0.0131117
-0.0131291
-0.0130936
-0.0130077
-0.0128795
-0.0127154
-0.0125194
-0.0123
-0.0120577
-0.011802
-0.011531
-0.011254
-0.0109678
-0.0106809
-0.0103894
-0.0101008
-0.00981091
-0.00952622
-0.00924268
-0.00896567
-0.00869149
-0.00842454
-0.00816156
-0.00790607
-0.00765529
-0.00741199
-0.00717384
-0.006943
-0.00671755
-0.00649913
-0.00628619
-0.00607995
-0.00587918
-0.00568476
-0.0054957
-0.00531264
-0.0051348
-0.00496259
-0.00479542
-0.00463353
-0.00447648
-0.00432437
-0.00417687
-0.00403399
-0.00389548
-0.00376129
-0.00363124
-0.0035052
-0.00338308
-0.00326469
-0.00314998
-0.00303873
-0.00293095
-0.00282638
-0.00272506
-0.00262672
-0.00253141
-0.00243886
-0.00234915
-0.00226199
-0.00217747
-0.00209532
-0.00201563
-0.00193812
-0.00186289
-0.00178969
-0.0017186
-0.00164938
-0.00158211
-0.00151657
-0.00145284
-0.00139069
-0.00133022
-0.0012712
-0.00121373
-0.0011576
-0.00110289
-0.00104941
-0.000997236
-0.000946188
-0.000896335
-0.000847513
-0.000799783
-0.000752995
-0.000707203
-0.000662267
-0.000618235
-0.000574981
-0.000532546
-0.000490814
-0.000449819
-0.000409456
-0.000369755
-0.000330619
-0.000292072
-0.000254027
-0.000216503
-0.000179421
-0.000142794
-0.000106552
-7.07028e-05
-3.51851e-05
0
0
-0.00140958
-0.00278223
-0.00408155
-0.00527662
-0.00634295
-0.00726346
-0.00802879
-0.00863701
-0.00909271
-0.00940581
-0.00959002
-0.00966131
-0.0096365
-0.00953206
-0.00936332
-0.009144
-0.008886
-0.00859938
-0.00829252
-0.00797227
-0.00764419
-0.00731273
-0.00698142
-0.00665304
-0.00632973
-0.00601316
-0.00570454
-0.00540479
-0.00511452
-0.00483413
-0.00456384
-0.00430373
-0.00405375
-0.00381376
-0.00358357
-0.0033629
-0.00315144
-0.00294886
-0.00275479
-0.00256886
-0.00239068
-0.00221986
-0.00205601
-0.00189875
-0.0017477
-0.00160248
-0.00146274
-0.00132812
-0.00119828
-0.00107289
-0.000951639
-0.000834219
-0.000720336
-0.00060971
-0.00050207
-0.000397159
-0.000294728
-0.000194541
-9.63702e-05
0
0
-0.000423907
-0.000847173
-0.00126672
-0.001684
-0.00209349
-0.00249927
-0.00289359
-0.00328253
-0.00365682
-0.00402381
-0.0043735
-0.00471371
-0.00503465
-0.00534375
-0.00563228
-0.00590666
-0.00615983
-0.00639679
-0.00661252
-0.00681045
-0.00698767
-0.00714615
-0.0072849
-0.00740469
-0.0075061
-0.00758902
-0.00765517
-0.00770386
-0.00773757
-0.00775529
-0.00775988
-0.00775018
-0.0077292
-0.00769574
-0.00765277
-0.00759911
-0.00753759
-0.0074671
-0.00739023
-0.00730597
-0.00721664
-0.00712134
-0.00702212
-0.00691817
-0.0068113
-0.00670078
-0.00658817
-0.00647286
-0.00635616
-0.00623754
-0.00611814
-0.00599749
-0.00587653
-0.00575489
-0.00563335
-0.0055116
-0.00539027
-0.00526911
-0.00514864
-0.00502865
-0.00490956
-0.00479122
-0.00467394
-0.00455759
-0.00444245
-0.0043284
-0.00421564
-0.0041041
-0.00399391
-0.00388503
-0.00377755
-0.00367144
-0.00356675
-0.00346347
-0.00336163
-0.00326121
-0.00316222
-0.00306466
-0.00296852
-0.0028738
-0.00278046
-0.00268854
-0.00259796
-0.00250876
-0.00242088
-0.00233434
-0.00224908
-0.00216511
-0.00208237
-0.00200089
-0.00192059
-0.00184149
-0.00176352
-0.0016867
-0.00161097
-0.00153633
-0.00146272
-0.00139016
-0.00131856
-0.00124797
-0.00117829
-0.00110955
-0.00104168
-0.000974701
-0.000908533
-0.0008432
-0.000778632
-0.000714847
-0.000651777
-0.00058944
-0.000527772
-0.000466786
-0.000406422
-0.000346693
-0.000287543
-0.000228981
-0.000170955
-0.000113472
-5.6486e-05
0
0
-0.000643815
-0.00127952
-0.00190044
-0.00249972
-0.00307092
-0.00360819
-0.00410642
-0.00456136
-0.00496974
-0.00532928
-0.00563879
-0.00589807
-0.0061079
-0.00626992
-0.00638646
-0.00646044
-0.00649517
-0.00649417
-0.00646108
-0.00639952
-0.00631299
-0.00620481
-0.00607808
-0.00593566
-0.00578014
-0.00561388
-0.00543897
-0.00525727
-0.00507042
-0.00487987
-0.00468685
-0.00449246
-0.00429762
-0.00410313
-0.00390964
-0.00371773
-0.00352785
-0.00334038
-0.00315563
-0.00297382
-0.00279513
-0.0026197
-0.00244761
-0.0022789
-0.0021136
-0.00195169
-0.00179314
-0.00163789
-0.00148588
-0.00133703
-0.00119124
-0.00104842
-0.000908471
-0.000771278
-0.000636735
-0.000504732
-0.000375162
-0.000247917
-0.000122896
0
0
-0.000243924
-0.000487007
-0.000729344
-0.000969519
-0.0012079
-0.00144275
-0.00167489
-0.00190228
-0.00212604
-0.00234405
-0.00255747
-0.00276439
-0.00296579
-0.00316015
-0.00334809
-0.00352868
-0.00370202
-0.00386786
-0.00402573
-0.00417605
-0.00431787
-0.00445212
-0.00457751
-0.00469536
-0.00480419
-0.00490549
-0.00499781
-0.00508264
-0.00515867
-0.0052273
-0.00528746
-0.00534035
-0.0053852
-0.00542299
-0.00545322
-0.00547668
-0.00549313
-0.00550315
-0.00550673
-0.00550428
-0.00549597
-0.00548207
-0.00546289
-0.00543858
-0.00540955
-0.00537587
-0.00533801
-0.00529598
-0.00525028
-0.00520085
-0.00514825
-0.00509237
-0.00503374
-0.00497227
-0.00490846
-0.00484218
-0.00477395
-0.00470362
-0.00463166
-0.00455795
-0.00448291
-0.00440641
-0.00432887
-0.00425014
-0.0041706
-0.00409013
-0.00400907
-0.0039273
-0.00384512
-0.00376242
-0.00367948
-0.00359621
-0.00351283
-0.00342927
-0.00334573
-0.00326214
-0.00317868
-0.00309528
-0.0030121
-0.00292909
-0.00284637
-0.0027639
-0.00268179
-0.0026
-0.00251863
-0.00243764
-0.0023571
-0.00227699
-0.00219738
-0.00211823
-0.0020396
-0.00196148
-0.00188389
-0.00180683
-0.00173032
-0.00165436
-0.00157896
-0.00150412
-0.00142985
-0.00135614
-0.00128301
-0.00121045
-0.00113846
-0.00106704
-0.000996189
-0.000925907
-0.000856191
-0.000787039
-0.000718447
-0.000650415
-0.000582936
-0.00051601
-0.000449628
-0.000383795
-0.000318497
-0.000253741
-0.000189512
-0.000125818
-6.26444e-05
0
0
-0.000384241
-0.00076554
-0.00114071
-0.00150676
-0.00186089
-0.00220056
-0.00252347
-0.0028276
-0.00311126
-0.00337306
-0.00361194
-0.00382713
-0.00401815
-0.00418483
-0.00432723
-0.00444568
-0.00454074
-0.00461313
-0.00466378
-0.00469374
-0.00470416
-0.00469628
-0.00467138
-0.00463078
-0.00457578
-0.00450767
-0.00442771
-0.00433712
-0.00423705
-0.0041286
-0.0040128
-0.0038906
-0.00376291
-0.00363054
-0.00349425
-0.00335472
-0.00321259
-0.00306841
-0.00292271
-0.00277593
-0.00262849
-0.00248075
-0.00233303
-0.00218561
-0.00203876
-0.00189267
-0.00174755
-0.00160356
-0.00146084
-0.00131951
-0.00117967
-0.00104143
-0.000904843
-0.000769989
-0.000636922
-0.000505692
-0.000376344
-0.00024892
-0.000123459
0
0
-0.000152013
-0.000303838
-0.000455018
-0.000605578
-0.000754887
-0.000903193
-0.00104967
-0.00119475
-0.00133748
-0.00147839
-0.00161648
-0.00175234
-0.00188498
-0.00201495
-0.0021414
-0.00226475
-0.00238431
-0.00250039
-0.00261248
-0.00272073
-0.00282483
-0.00292483
-0.00302053
-0.00311192
-0.00319892
-0.00328147
-0.00335955
-0.00343311
-0.00350215
-0.00356666
-0.00362664
-0.00368213
-0.00373311
-0.00377966
-0.00382176
-0.00385954
-0.00389296
-0.00392217
-0.00394716
-0.00396809
-0.00398495
-0.00399791
-0.00400698
-0.00401232
-0.00401398
-0.00401209
-0.00400673
-0.00399802
-0.00398606
-0.00397096
-0.00395283
-0.00393176
-0.0039079
-0.00388131
-0.00385215
-0.00382048
-0.00378645
-0.00375012
-0.00371166
-0.00367108
-0.00362858
-0.00358418
-0.00353804
-0.00349018
-0.00344078
-0.00338985
-0.00333755
-0.00328388
-0.00322901
-0.00317294
-0.00311583
-0.00305767
-0.00299861
-0.00293864
-0.00287791
-0.0028164
-0.00275425
-0.00269145
-0.00262812
-0.00256425
-0.00249996
-0.00243524
-0.00237018
-0.00230479
-0.00223916
-0.00217328
-0.00210724
-0.00204102
-0.00197472
-0.00190831
-0.00184189
-0.00177543
-0.001709
-0.00164261
-0.0015763
-0.00151007
-0.00144399
-0.00137803
-0.00131225
-0.00124665
-0.00118127
-0.00111611
-0.0010512
-0.000986553
-0.00092219
-0.000858117
-0.000794362
-0.000730928
-0.000667839
-0.000605101
-0.000542735
-0.000480746
-0.000419153
-0.000357964
-0.000297193
-0.00023685
-0.000176948
-0.000117499
-5.8511e-05
0
0
-0.000245819
-0.000490117
-0.000731462
-0.000968435
-0.00119967
-0.00142388
-0.00163984
-0.00184643
-0.00204264
-0.00222759
-0.00240049
-0.00256072
-0.00270775
-0.00284121
-0.00296084
-0.00306651
-0.00315819
-0.00323597
-0.00330001
-0.00335058
-0.00338801
-0.00341272
-0.00342517
-0.00342586
-0.00341535
-0.00339421
-0.00336304
-0.00332245
-0.00327307
-0.0032155
-0.00315036
-0.00307825
-0.00299976
-0.00291545
-0.00282587
-0.00273154
-0.00263297
-0.00253063
-0.00242497
-0.00231642
-0.00220537
-0.00209221
-0.00197727
-0.0018609
-0.0017434
-0.00162504
-0.00150611
-0.00138684
-0.00126746
-0.00114819
-0.00102923
-0.000910762
-0.000792966
-0.000676005
-0.000560034
-0.000445201
-0.000331648
-0.000219509
-0.000108917
0
0
-9.94446e-05
-0.00019873
-0.000297785
-0.000396414
-0.000494552
-0.000591988
-0.000688685
-0.000784415
-0.000879159
-0.000972693
-0.00106499
-0.00115586
-0.00124526
-0.00133303
-0.00141909
-0.00150335
-0.00158568
-0.00166606
-0.00174431
-0.00182046
-0.00189431
-0.00196594
-0.00203513
-0.00210197
-0.00216625
-0.0022281
-0.00228728
-0.00234394
-0.00239788
-0.00244923
-0.00249781
-0.00254375
-0.00258691
-0.00262739
-0.00266509
-0.00270011
-0.00273234
-0.00276192
-0.00278874
-0.00281292
-0.0028344
-0.00285327
-0.00286951
-0.00288319
-0.0028943
-0.00290293
-0.00290907
-0.0029128
-0.00291413
-0.00291314
-0.00290984
-0.00290432
-0.0028966
-0.00288674
-0.0028748
-0.00286083
-0.00284488
-0.00282701
-0.00280728
-0.00278574
-0.00276245
-0.00273745
-0.00271083
-0.00268261
-0.00265288
-0.00262167
-0.00258906
-0.00255507
-0.00251979
-0.00248324
-0.00244552
-0.00240663
-0.00236667
-0.00232565
-0.00228365
-0.0022407
-0.00219687
-0.00215217
-0.00210669
-0.00206044
-0.00201349
-0.00196587
-0.00191763
-0.0018688
-0.00181944
-0.00176956
-0.00171923
-0.00166846
-0.00161732
-0.0015658
-0.00151398
-0.00146187
-0.00140951
-0.00135692
-0.00130415
-0.00125121
-0.00119815
-0.00114498
-0.00109174
-0.00103845
-0.000985157
-0.000931856
-0.000878596
-0.000825385
-0.000772263
-0.000719237
-0.000666346
-0.000613599
-0.00056103
-0.000508649
-0.000456487
-0.000404557
-0.000352887
-0.000301489
-0.00025039
-0.000199604
-0.000149155
-9.90577e-05
-4.93333e-05
0
0
-0.000162643
-0.000324499
-0.000484766
-0.000642667
-0.000797444
-0.000948371
-0.00109476
-0.00123596
-0.00137138
-0.00150046
-0.0016227
-0.00173767
-0.00184498
-0.00194431
-0.0020354
-0.00211804
-0.00219207
-0.00225742
-0.00231403
-0.00236194
-0.00240118
-0.00243188
-0.00245418
-0.00246826
-0.00247433
-0.00247264
-0.00246345
-0.00244706
-0.00242377
-0.00239389
-0.00235777
-0.00231574
-0.00226814
-0.00221531
-0.0021576
-0.00209536
-0.00202892
-0.00195862
-0.00188478
-0.00180771
-0.00172775
-0.00164517
-0.00156028
-0.00147336
-0.00138468
-0.0012945
-0.00120307
-0.00111064
-0.00101745
-0.000923701
-0.000829625
-0.000735427
-0.000641304
-0.000547451
-0.000454053
-0.000361289
-0.000269334
-0.000178358
-8.85265e-05
0
0
-6.65015e-05
-0.000132931
-0.000199202
-0.000265259
-0.000330997
-0.000396386
-0.000461301
-0.00052573
-0.000589536
-0.000652722
-0.000715143
-0.000776811
-0.000837581
-0.000897468
-0.000956335
-0.00101419
-0.00107092
-0.00112651
-0.00118087
-0.001234
-0.00128578
-0.00133623
-0.00138526
-0.00143287
-0.00147897
-0.00152358
-0.00156662
-0.00160809
-0.00164793
-0.00168615
-0.0017227
-0.00175758
-0.00179075
-0.00182222
-0.00185194
-0.00187995
-0.00190619
-0.00193071
-0.00195345
-0.00197445
-0.00199368
-0.00201118
-0.00202692
-0.00204094
-0.00205321
-0.00206378
-0.00207264
-0.00207982
-0.00208532
-0.00208918
-0.0020914
-0.00209201
-0.00209103
-0.00208849
-0.0020844
-0.0020788
-0.00207171
-0.00206317
-0.00205319
-0.00204181
-0.00202906
-0.00201497
-0.00199958
-0.0019829
-0.00196498
-0.00194586
-0.00192555
-0.0019041
-0.00188153
-0.00185789
-0.00183321
-0.00180752
-0.00178085
-0.00175324
-0.00172473
-0.00169534
-0.00166511
-0.00163407
-0.00160227
-0.00156972
-0.00153647
-0.00150253
-0.00146797
-0.00143278
-0.00139702
-0.00136071
-0.0013239
-0.00128659
-0.00124883
-0.00121064
-0.00117206
-0.0011331
-0.00109382
-0.00105422
-0.00101434
-0.000974209
-0.000933854
-0.000893292
-0.000852563
-0.00081168
-0.000770681
-0.00072958
-0.000688412
-0.000647191
-0.000605952
-0.00056471
-0.000523495
-0.000482324
-0.000441227
-0.000400218
-0.000359328
-0.000318571
-0.000277976
-0.000237558
-0.000197343
-0.000157348
-0.000117597
-7.8108e-05
-3.8903e-05
0
0
-0.000109402
-0.000218337
-0.000326347
-0.000432978
-0.000537786
-0.000640342
-0.000740231
-0.000837058
-0.000930451
-0.00102006
-0.00110556
-0.00118666
-0.00126309
-0.00133461
-0.00140101
-0.00146213
-0.00151781
-0.00156795
-0.00161246
-0.00165128
-0.00168439
-0.00171179
-0.00173351
-0.00174959
-0.00176011
-0.00176518
-0.00176489
-0.00175938
-0.00174881
-0.00173333
-0.00171312
-0.00168836
-0.00165925
-0.00162599
-0.00158879
-0.00154786
-0.00150341
-0.00145568
-0.00140487
-0.00135121
-0.00129492
-0.00123622
-0.00117532
-0.00111245
-0.00104782
-0.000981629
-0.000914091
-0.000845407
-0.000775774
-0.000705389
-0.000634441
-0.000563116
-0.000491597
-0.000420061
-0.000348684
-0.000277635
-0.000207081
-0.000137185
-6.81059e-05
0
0
-4.49618e-05
-8.98748e-05
-0.000134702
-0.000179392
-0.000223905
-0.000268193
-0.000312215
-0.000355925
-0.000399281
-0.000442242
-0.000484762
-0.000526807
-0.000568328
-0.000609296
-0.000649659
-0.000689397
-0.000728453
-0.000766815
-0.000804423
-0.000841271
-0.000877297
-0.000912504
-0.000946827
-0.000980273
-0.00101278
-0.00104436
-0.00107495
-0.00110456
-0.00113314
-0.0011607
-0.00118719
-0.00121263
-0.00123696
-0.00126021
-0.00128233
-0.00130334
-0.00132319
-0.00134192
-0.00135949
-0.00137591
-0.00139115
-0.00140525
-0.00141816
-0.00142992
-0.0014405
-0.00144993
-0.00145819
-0.0014653
-0.00147125
-0.00147606
-0.00147973
-0.00148227
-0.00148369
-0.00148401
-0.00148322
-0.00148135
-0.0014784
-0.00147441
-0.00146936
-0.00146329
-0.0014562
-0.00144812
-0.00143906
-0.00142904
-0.00141808
-0.0014062
-0.00139341
-0.00137975
-0.00136522
-0.00134984
-0.00133365
-0.00131666
-0.00129889
-0.00128036
-0.0012611
-0.00124113
-0.00122047
-0.00119914
-0.00117717
-0.00115458
-0.00113139
-0.00110763
-0.00108332
-0.00105847
-0.00103312
-0.00100729
-0.000981003
-0.000954275
-0.000927136
-0.000899604
-0.000871706
-0.000843461
-0.000814895
-0.000786027
-0.000756883
-0.000727482
-0.000697849
-0.000668001
-0.000637967
-0.000607761
-0.000577411
-0.000546933
-0.000516352
-0.000485685
-0.000454958
-0.000424186
-0.000393394
-0.000362598
-0.000331822
-0.000301082
-0.000270402
-0.000239796
-0.000209289
-0.000178895
-0.000148637
-0.00011853
-8.85958e-05
-5.88498e-05
-2.93128e-05
0
0
-7.41629e-05
-0.000148043
-0.000221358
-0.000293827
-0.000365178
-0.000435142
-0.000503463
-0.000569891
-0.000634187
-0.000696128
-0.000755501
-0.00081211
-0.000865771
-0.00091632
-0.000963606
-0.0010075
-0.00104788
-0.00108465
-0.00111774
-0.00114708
-0.00117262
-0.00119433
-0.00121221
-0.00122625
-0.00123648
-0.00124292
-0.00124562
-0.00124464
-0.00124005
-0.00123193
-0.00122038
-0.00120549
-0.00118738
-0.00116617
-0.00114198
-0.00111495
-0.0010852
-0.00105288
-0.00101815
-0.000981132
-0.000941997
-0.000900891
-0.000857972
-0.000813393
-0.000767313
-0.000719887
-0.000671272
-0.000621623
-0.000571096
-0.000519844
-0.00046802
-0.000415773
-0.000363253
-0.000310606
-0.000257978
-0.000205509
-0.000153341
-0.000101611
-5.04531e-05
0
0
-3.05558e-05
-6.10827e-05
-9.15536e-05
-0.000121941
-0.000152215
-0.000182351
-0.000212317
-0.000242093
-0.000271642
-0.000300949
-0.000329975
-0.000358707
-0.000387106
-0.000415161
-0.000442834
-0.000470113
-0.000496962
-0.000523372
-0.000549305
-0.000574755
-0.000599685
-0.00062409
-0.000647935
-0.000671217
-0.000693901
-0.000715986
-0.000737438
-0.000758258
-0.000778414
-0.000797909
-0.000816711
-0.000834826
-0.000852222
-0.000868908
-0.000884854
-0.000900071
-0.000914529
-0.000928241
-0.000941179
-0.000953358
-0.000964752
-0.000975376
-0.000985208
-0.000994263
-0.00100252
-0.00101
-0.00101668
-0.00102257
-0.00102767
-0.00103199
-0.00103552
-0.00103828
-0.00104024
-0.00104145
-0.00104187
-0.00104154
-0.00104045
-0.00103862
-0.00103604
-0.00103273
-0.00102869
-0.00102394
-0.00101848
-0.00101233
-0.00100549
-0.000997977
-0.000989801
-0.000980979
-0.000971515
-0.00096143
-0.00095073
-0.000939435
-0.000927551
-0.000915101
-0.000902091
-0.000888542
-0.000874464
-0.000859876
-0.00084479
-0.000829225
-0.000813192
-0.000796712
-0.000779797
-0.000762466
-0.000744733
-0.000726615
-0.000708129
-0.000689291
-0.000670118
-0.000650627
-0.000630833
-0.000610755
-0.000590408
-0.000569809
-0.000548976
-0.000527925
-0.000506672
-0.000485235
-0.00046363
-0.000441874
-0.000419983
-0.000397974
-0.000375864
-0.000353668
-0.000331404
-0.000309087
-0.000286735
-0.000264361
-0.000241984
-0.000219618
-0.00019728
-0.000174983
-0.000152747
-0.000130583
-0.00010851
-8.65392e-05
-6.46893e-05
-4.29722e-05
-2.14051e-05
0
0
-5.04672e-05
-0.000100755
-0.000150684
-0.000200077
-0.00024876
-0.000296563
-0.000343319
-0.000388867
-0.000433054
-0.00047573
-0.000516757
-0.000556001
-0.00059334
-0.000628658
-0.000661851
-0.000692824
-0.000721491
-0.000747779
-0.000771624
-0.00079297
-0.000811776
-0.000828008
-0.000841643
-0.000852671
-0.000861087
-0.000866899
-0.000870124
-0.000870787
-0.000868921
-0.000864569
-0.000857782
-0.000848615
-0.000837134
-0.000823408
-0.000807515
-0.000789535
-0.000769556
-0.00074767
-0.000723972
-0.000698561
-0.00067154
-0.000643014
-0.000613091
-0.00058188
-0.000549494
-0.000516045
-0.000481647
-0.000446414
-0.000410462
-0.000373906
-0.00033686
-0.000299438
-0.000261756
-0.000223926
-0.000186059
-0.000148267
-0.000110658
-7.33406e-05
-3.642e-05
0
0
-2.0824e-05
-4.16289e-05
-6.23986e-05
-8.31142e-05
-0.000103757
-0.000124312
-0.000144757
-0.000165079
-0.000185257
-0.000205277
-0.000225118
-0.000244767
-0.000264204
-0.000283416
-0.000302383
-0.000321095
-0.000339529
-0.000357677
-0.000375517
-0.000393043
-0.000410231
-0.000427078
-0.00044356
-0.000459675
-0.000475398
-0.00049073
-0.000505648
-0.000520151
-0.000534217
-0.000547849
-0.000561023
-0.000573744
-0.000585989
-0.000597764
-0.000609048
-0.000619847
-0.00063014
-0.000639934
-0.000649212
-0.00065798
-0.000666221
-0.000673945
-0.000681133
-0.000687797
-0.00069392
-0.000699514
-0.000704564
-0.000709081
-0.000713053
-0.000716492
-0.000719386
-0.000721747
-0.000723566
-0.000724856
-0.000725608
-0.000725835
-0.000725529
-0.000724706
-0.000723358
-0.000721501
-0.000719128
-0.000716256
-0.000712879
-0.000709014
-0.000704658
-0.000699825
-0.000694515
-0.000688743
-0.000682508
-0.000675828
-0.000668701
-0.000661144
-0.00065316
-0.000644763
-0.000635956
-0.000626756
-0.000617166
-0.000607202
-0.000596869
-0.000586182
-0.000575147
-0.000563779
-0.000552086
-0.000540081
-0.000527774
-0.000515178
-0.000502302
-0.00048916
-0.000475762
-0.000462122
-0.000448249
-0.000434158
-0.000419858
-0.000405364
-0.000390686
-0.000375838
-0.000360831
-0.000345678
-0.000330391
-0.000314982
-0.000299464
-0.000283849
-0.000268149
-0.000252376
-0.000236543
-0.000220663
-0.000204746
-0.000188806
-0.000172854
-0.000156902
-0.000140963
-0.000125048
-0.00010917
-9.33383e-05
-7.75671e-05
-6.1866e-05
-4.62482e-05
-3.07232e-05
-1.53041e-05
0
0
-3.44346e-05
-6.87527e-05
-0.000102838
-0.000136575
-0.00016985
-0.000202553
-0.000234573
-0.000265805
-0.000296148
-0.000325503
-0.000353775
-0.000380877
-0.000406725
-0.000431239
-0.000454346
-0.000475982
-0.000496083
-0.000514597
-0.000531475
-0.000546675
-0.000560164
-0.000571913
-0.000581901
-0.000590112
-0.000596538
-0.000601178
-0.000604035
-0.00060512
-0.000604449
-0.000602045
-0.000597935
-0.000592152
-0.000584735
-0.000575726
-0.000565172
-0.000553127
-0.000539645
-0.000524787
-0.000508615
-0.000491196
-0.000472599
-0.000452896
-0.000432161
-0.000410471
-0.000387904
-0.000364539
-0.000340458
-0.000315743
-0.000290476
-0.000264741
-0.000238622
-0.000212203
-0.000185568
-0.0001588
-0.000131983
-0.000105199
-7.85284e-05
-5.20527e-05
-2.58507e-05
0
0
-1.42337e-05
-2.8455e-05
-4.2653e-05
-5.68156e-05
-7.09305e-05
-8.49872e-05
-9.89724e-05
-0.000112877
-0.000126686
-0.000140391
-0.000153979
-0.000167441
-0.000180763
-0.000193938
-0.00020695
-0.000219795
-0.000232456
-0.000244929
-0.000257198
-0.00026926
-0.000281098
-0.00029271
-0.000304081
-0.000315208
-0.000326076
-0.000336683
-0.000347015
-0.00035707
-0.000366835
-0.00037631
-0.00038548
-0.000394346
-0.000402895
-0.000411128
-0.000419031
-0.000426609
-0.000433846
-0.000440748
-0.000447301
-0.000453511
-0.000459364
-0.000464866
-0.000470006
-0.000474789
-0.000479205
-0.00048326
-0.000486944
-0.000490265
-0.000493212
-0.000495794
-0.000498002
-0.000499844
-0.000501313
-0.000502416
-0.000503148
-0.000503517
-0.000503517
-0.000503157
-0.000502433
-0.000501354
-0.000499915
-0.000498127
-0.000495986
-0.000493503
-0.000490674
-0.000487511
-0.00048401
-0.000480184
-0.00047603
-0.000471561
-0.000466774
-0.000461682
-0.000456285
-0.000450594
-0.00044461
-0.000438344
-0.000431799
-0.000424984
-0.000417904
-0.000410568
-0.000402981
-0.000395153
-0.000387089
-0.000378799
-0.000370287
-0.000361566
-0.000352639
-0.000343519
-0.000334209
-0.000324722
-0.000315063
-0.000305243
-0.000295268
-0.000285149
-0.000274892
-0.000264509
-0.000254007
-0.000243394
-0.00023268
-0.000221874
-0.000210985
-0.000200021
-0.000188991
-0.000177904
-0.00016677
-0.000155597
-0.000144393
-0.000133169
-0.000121932
-0.000110692
-9.94571e-05
-8.8236e-05
-7.70379e-05
-6.58706e-05
-5.47437e-05
-4.36646e-05
-3.26429e-05
-2.16856e-05
-1.08024e-05
0
0
-2.3586e-05
-4.70949e-05
-7.04496e-05
-9.35737e-05
-0.000116392
-0.00013883
-0.000160816
-0.000182278
-0.000203149
-0.000223363
-0.000242856
-0.000261567
-0.00027944
-0.000296421
-0.000312459
-0.000327508
-0.000341525
-0.000354471
-0.000366312
-0.000377018
-0.000386561
-0.000394921
-0.000402081
-0.000408025
-0.000412747
-0.000416241
-0.000418508
-0.00041955
-0.000419376
-0.000417999
-0.000415433
-0.000411699
-0.000406821
-0.000400824
-0.00039374
-0.000385602
-0.000376447
-0.000366313
-0.000355243
-0.000343282
-0.000330476
-0.000316875
-0.00030253
-0.000287494
-0.000271821
-0.000255566
-0.000238788
-0.000221544
-0.000203892
-0.000185893
-0.000167607
-0.000149093
-0.000130413
-0.000111626
-9.27927e-05
-7.3973e-05
-5.52258e-05
-3.66097e-05
-1.81823e-05
0
0
-9.7781e-06
-1.95479e-05
-2.93021e-05
-3.90327e-05
-4.87315e-05
-5.83913e-05
-6.80034e-05
-7.75612e-05
-8.70558e-05
-9.64809e-05
-0.000105827
-0.00011509
-0.000124258
-0.000133328
-0.000142289
-0.000151138
-0.000159863
-0.000168463
-0.000176926
-0.000185249
-0.000193423
-0.000201445
-0.000209304
-0.000216999
-0.00022452
-0.000231865
-0.000239025
-0.000245998
-0.000252776
-0.000259357
-0.000265732
-0.000271902
-0.000277857
-0.000283598
-0.000289115
-0.000294412
-0.000299477
-0.000304314
-0.000308914
-0.00031328
-0.000317403
-0.000321287
-0.000324923
-0.000328315
-0.000331456
-0.00033435
-0.000336989
-0.000339379
-0.000341512
-0.000343395
-0.000345019
-0.000346392
-0.000347506
-0.000348369
-0.000348975
-0.000349329
-0.000349428
-0.000349277
-0.000348873
-0.000348222
-0.000347321
-0.000346177
-0.000344786
-0.000343156
-0.000341284
-0.000339178
-0.000336836
-0.000334265
-0.000331465
-0.000328442
-0.000325196
-0.000321734
-0.000318057
-0.000314172
-0.00031008
-0.000305789
-0.000301299
-0.000296618
-0.000291748
-0.000286696
-0.000281465
-0.000276063
-0.000270491
-0.000264758
-0.000258866
-0.000252824
-0.000246635
-0.000240306
-0.000233841
-0.000227248
-0.00022053
-0.000213697
-0.000206751
-0.0001997
-0.00019255
-0.000185308
-0.000177978
-0.000170568
-0.000163084
-0.000155532
-0.000147918
-0.000140249
-0.000132531
-0.000124771
-0.000116975
-0.000109149
-0.0001013
-9.34332e-05
-8.55563e-05
-7.76751e-05
-6.9796e-05
-6.19251e-05
-5.4069e-05
-4.62334e-05
-3.84251e-05
-3.06496e-05
-2.29136e-05
-1.52224e-05
-7.58297e-06
0
0
-1.62585e-05
-3.2465e-05
-4.85676e-05
-6.45149e-05
-8.02561e-05
-9.57411e-05
-0.000110921
-0.000125748
-0.000140175
-0.000154158
-0.000167653
-0.000180619
-0.000193017
-0.00020481
-0.000215962
-0.000226442
-0.000236219
-0.000245266
-0.000253558
-0.000261074
-0.000267795
-0.000273703
-0.000278786
-0.000283034
-0.000286439
-0.000288996
-0.000290703
-0.000291563
-0.000291578
-0.000290756
-0.000289106
-0.000286641
-0.000283375
-0.000279325
-0.000274512
-0.000268958
-0.000262686
-0.000255723
-0.000248099
-0.000239842
-0.000230985
-0.000221563
-0.000211609
-0.000201162
-0.000190258
-0.000178937
-0.000167239
-0.000155205
-0.000142876
-0.000130294
-0.000117502
-0.000104543
-9.14607e-05
-7.8297e-05
-6.50953e-05
-5.18985e-05
-3.87489e-05
-2.56885e-05
-1.27587e-05
0
0
-6.76611e-06
-1.35266e-05
-2.02765e-05
-2.70103e-05
-3.37226e-05
-4.04084e-05
-4.70618e-05
-5.36783e-05
-6.02518e-05
-6.67781e-05
-7.32511e-05
-7.96667e-05
-8.60186e-05
-9.23034e-05
-9.85145e-05
-0.000104649
-0.0001107
-0.000116664
-0.000122536
-0.000128313
-0.000133988
-0.000139559
-0.000145019
-0.000150368
-0.000155597
-0.000160707
-0.00016569
-0.000170546
-0.000175267
-0.000179855
-0.000184301
-0.000188607
-0.000192765
-0.000196777
-0.000200636
-0.000204343
-0.000207891
-0.000211283
-0.000214511
-0.000217579
-0.000220479
-0.000223215
-0.000225779
-0.000228176
-0.0002304
-0.000232452
-0.000234329
-0.000236034
-0.000237561
-0.000238914
-0.000240088
-0.000241088
-0.000241909
-0.000242555
-0.000243022
-0.000243315
-0.00024343
-0.000243371
-0.000243135
-0.000242727
-0.000242145
-0.000241393
-0.000240468
-0.000239376
-0.000238115
-0.00023669
-0.000235099
-0.000233348
-0.000231435
-0.000229366
-0.000227141
-0.000224763
-0.000222234
-0.000219558
-0.000216736
-0.000213773
-0.00021067
-0.000207432
-0.00020406
-0.000200559
-0.000196931
-0.000193182
-0.000189312
-0.000185328
-0.000181231
-0.000177027
-0.000172718
-0.000168309
-0.000163803
-0.000159206
-0.00015452
-0.000149751
-0.000144901
-0.000139976
-0.00013498
-0.000129917
-0.000124792
-0.000119609
-0.000114372
-0.000109086
-0.000103755
-9.83843e-05
-9.29778e-05
-8.75404e-05
-8.20764e-05
-7.65905e-05
-7.1087e-05
-6.55707e-05
-6.0046e-05
-5.45175e-05
-4.89896e-05
-4.34668e-05
-3.79538e-05
-3.24546e-05
-2.69741e-05
-2.15162e-05
-1.60858e-05
-1.06866e-05
-5.32349e-06
0
0
-1.12826e-05
-2.25298e-05
-3.37059e-05
-4.47759e-05
-5.5705e-05
-6.64589e-05
-7.70041e-05
-8.73078e-05
-9.7338e-05
-0.000107064
-0.000116456
-0.000125485
-0.000134124
-0.000142347
-0.000150131
-0.000157452
-0.00016429
-0.000170624
-0.000176439
-0.000181717
-0.000186446
-0.000190613
-0.000194209
-0.000197226
-0.000199658
-0.000201501
-0.000202754
-0.000203416
-0.000203489
-0.000202978
-0.000201889
-0.000200229
-0.000198008
-0.000195237
-0.00019193
-0.000188102
-0.000183769
-0.000178949
-0.000173661
-0.000167926
-0.000161768
-0.000155207
-0.000148271
-0.000140983
-0.000133371
-0.000125461
-0.000117282
-0.000108862
-0.000100232
-9.14198e-05
-8.24565e-05
-7.33724e-05
-6.41978e-05
-5.49635e-05
-4.57e-05
-3.64378e-05
-2.7207e-05
-1.80376e-05
-8.9589e-06
0
0
-4.69549e-06
-9.38709e-06
-1.40715e-05
-1.87448e-05
-2.34035e-05
-2.80438e-05
-3.26621e-05
-3.7255e-05
-4.18185e-05
-4.63496e-05
-5.08441e-05
-5.52992e-05
-5.97108e-05
-6.40761e-05
-6.83911e-05
-7.26531e-05
-7.68581e-05
-8.10038e-05
-8.50859e-05
-8.91024e-05
-9.30492e-05
-9.69244e-05
-0.000100724
-0.000104446
-0.000108087
-0.000111645
-0.000115115
-0.000118499
-0.00012179
-0.000124988
-0.00012809
-0.000131094
-0.000133997
-0.000136799
-0.000139495
-0.000142086
-0.000144568
-0.000146942
-0.000149203
-0.000151353
-0.000153387
-0.000155307
-0.000157109
-0.000158795
-0.00016036
-0.000161807
-0.000163133
-0.000164339
-0.000165421
-0.000166383
-0.000167221
-0.000167938
-0.00016853
-0.000169
-0.000169347
-0.000169571
-0.000169672
-0.000169652
-0.000169508
-0.000169245
-0.000168859
-0.000168355
-0.000167731
-0.00016699
-0.00016613
-0.000165156
-0.000164066
-0.000162863
-0.000161547
-0.000160122
-0.000158587
-0.000156945
-0.000155197
-0.000153346
-0.000151392
-0.000149339
-0.000147187
-0.000144941
-0.0001426
-0.000140169
-0.000137648
-0.000135041
-0.000132349
-0.000129576
-0.000126724
-0.000123796
-0.000120794
-0.000117721
-0.00011458
-0.000111374
-0.000108105
-0.000104777
-0.000101392
-9.79532e-05
-9.44639e-05
-9.09275e-05
-8.73463e-05
-8.3724e-05
-8.00633e-05
-7.63677e-05
-7.26401e-05
-6.88839e-05
-6.5102e-05
-6.12979e-05
-5.74746e-05
-5.36354e-05
-4.97835e-05
-4.59221e-05
-4.20544e-05
-3.81836e-05
-3.4313e-05
-3.04455e-05
-2.65846e-05
-2.27332e-05
-1.88946e-05
-1.50718e-05
-1.12679e-05
-7.48591e-06
-3.72907e-06
0
0
-7.77029e-06
-1.55164e-05
-2.32141e-05
-3.08393e-05
-3.83685e-05
-4.57781e-05
-5.30453e-05
-6.01477e-05
-6.70633e-05
-7.37711e-05
-8.02505e-05
-8.64822e-05
-9.24472e-05
-9.81279e-05
-0.000103508
-0.00010857
-0.000113302
-0.000117689
-0.000121719
-0.000125381
-0.000128666
-0.000131565
-0.000134071
-0.000136179
-0.000137884
-0.000139183
-0.000140075
-0.000140559
-0.000140637
-0.000140311
-0.000139585
-0.000138463
-0.000136954
-0.000135063
-0.0001328
-0.000130175
-0.0001272
-0.000123885
-0.000120245
-0.000116294
-0.000112047
-0.00010752
-0.00010273
-9.76952e-05
-9.24329e-05
-8.69624e-05
-8.13032e-05
-7.54754e-05
-6.94992e-05
-6.33954e-05
-5.71849e-05
-5.0889e-05
-4.45291e-05
-3.81263e-05
-3.17023e-05
-2.52781e-05
-1.88751e-05
-1.2514e-05
-6.21556e-06
0
0
-3.15982e-06
-6.31704e-06
-9.46948e-06
-1.26145e-05
-1.57497e-05
-1.88727e-05
-2.1981e-05
-2.50722e-05
-2.81439e-05
-3.11938e-05
-3.42194e-05
-3.72186e-05
-4.01887e-05
-4.31279e-05
-4.60334e-05
-4.89035e-05
-5.17356e-05
-5.45279e-05
-5.72777e-05
-5.99836e-05
-6.2643e-05
-6.52543e-05
-6.78151e-05
-7.0324e-05
-7.27786e-05
-7.51775e-05
-7.75185e-05
-7.98004e-05
-8.20208e-05
-8.4179e-05
-8.62725e-05
-8.83006e-05
-9.0261e-05
-9.21533e-05
-9.39751e-05
-9.57262e-05
-9.74044e-05
-9.90094e-05
-0.000100539
-0.000101994
-0.000103371
-0.000104672
-0.000105893
-0.000107036
-0.000108099
-0.000109082
-0.000109983
-0.000110803
-0.000111541
-0.000112197
-0.00011277
-0.000113261
-0.000113669
-0.000113994
-0.000114236
-0.000114396
-0.000114472
-0.000114466
-0.000114378
-0.000114208
-0.000113956
-0.000113624
-0.000113211
-0.000112719
-0.000112147
-0.000111497
-0.000110769
-0.000109964
-0.000109084
-0.000108128
-0.000107099
-0.000105998
-0.000104824
-0.000103581
-0.000102268
-0.000100888
-9.94405e-05
-9.79289e-05
-9.63535e-05
-9.47164e-05
-9.30186e-05
-9.12623e-05
-8.94486e-05
-8.75797e-05
-8.56569e-05
-8.36823e-05
-8.16574e-05
-7.95845e-05
-7.74649e-05
-7.53011e-05
-7.30945e-05
-7.08476e-05
-6.85619e-05
-6.62398e-05
-6.38831e-05
-6.1494e-05
-5.90745e-05
-5.66269e-05
-5.4153e-05
-5.16553e-05
-4.91356e-05
-4.65963e-05
-4.40394e-05
-4.14673e-05
-3.8882e-05
-3.62857e-05
-3.36806e-05
-3.10689e-05
-2.84528e-05
-2.58344e-05
-2.3216e-05
-2.05997e-05
-1.79876e-05
-1.53819e-05
-1.27847e-05
-1.01981e-05
-7.62435e-06
-5.06532e-06
-2.52325e-06
0
0
-4.93902e-06
-9.86277e-06
-1.47559e-05
-1.96033e-05
-2.43898e-05
-2.91008e-05
-3.37217e-05
-3.82382e-05
-4.26366e-05
-4.69035e-05
-5.10259e-05
-5.49913e-05
-5.8788e-05
-6.24045e-05
-6.58303e-05
-6.90554e-05
-7.20705e-05
-7.4867e-05
-7.74372e-05
-7.9774e-05
-8.18713e-05
-8.37236e-05
-8.53264e-05
-8.66761e-05
-8.77697e-05
-8.86054e-05
-8.9182e-05
-8.94992e-05
-8.95578e-05
-8.93592e-05
-8.89056e-05
-8.82004e-05
-8.72474e-05
-8.60514e-05
-8.46179e-05
-8.29533e-05
-8.10647e-05
-7.89596e-05
-7.66466e-05
-7.41347e-05
-7.14334e-05
-6.8553e-05
-6.55043e-05
-6.22983e-05
-5.89469e-05
-5.5462e-05
-5.18561e-05
-4.8142e-05
-4.43325e-05
-4.04411e-05
-3.6481e-05
-3.2466e-05
-2.84095e-05
-2.43254e-05
-2.02273e-05
-1.61288e-05
-1.20435e-05
-7.98481e-06
-3.96598e-06
0
0
-1.76071e-06
-3.51993e-06
-5.27656e-06
-7.02894e-06
-8.77607e-06
-1.05162e-05
-1.22484e-05
-1.39708e-05
-1.56828e-05
-1.73822e-05
-1.90686e-05
-2.07398e-05
-2.23954e-05
-2.40332e-05
-2.56529e-05
-2.72523e-05
-2.88313e-05
-3.03874e-05
-3.19207e-05
-3.34288e-05
-3.49118e-05
-3.63672e-05
-3.77955e-05
-3.9194e-05
-4.05632e-05
-4.19005e-05
-4.32067e-05
-4.44788e-05
-4.5718e-05
-4.69213e-05
-4.80898e-05
-4.92207e-05
-5.03153e-05
-5.13706e-05
-5.23881e-05
-5.33649e-05
-5.43024e-05
-5.51979e-05
-5.60529e-05
-5.68646e-05
-5.76348e-05
-5.83607e-05
-5.90441e-05
-5.96822e-05
-6.02771e-05
-6.0826e-05
-6.1331e-05
-6.17894e-05
-6.22034e-05
-6.25703e-05
-6.28925e-05
-6.31673e-05
-6.33973e-05
-6.35797e-05
-6.37172e-05
-6.38072e-05
-6.38525e-05
-6.38504e-05
-6.38037e-05
-6.37101e-05
-6.35723e-05
-6.33881e-05
-6.31603e-05
-6.28866e-05
-6.257e-05
-6.22084e-05
-6.18047e-05
-6.13569e-05
-6.0868e-05
-6.03361e-05
-5.97641e-05
-5.91504e-05
-5.84978e-05
-5.78048e-05
-5.70743e-05
-5.63049e-05
-5.54994e-05
-5.46565e-05
-5.37792e-05
-5.28663e-05
-5.19205e-05
-5.09409e-05
-4.99302e-05
-4.88877e-05
-4.78159e-05
-4.67143e-05
-4.55854e-05
-4.44287e-05
-4.32468e-05
-4.20392e-05
-4.08085e-05
-3.95545e-05
-3.82794e-05
-3.69833e-05
-3.56685e-05
-3.43349e-05
-3.29848e-05
-3.16184e-05
-3.02377e-05
-2.88433e-05
-2.74369e-05
-2.60192e-05
-2.45919e-05
-2.31557e-05
-2.17124e-05
-2.02627e-05
-1.88082e-05
-1.73499e-05
-1.58891e-05
-1.4427e-05
-1.29649e-05
-1.15039e-05
-1.00451e-05
-8.59005e-06
-7.13957e-06
-5.69519e-06
-4.25771e-06
-2.82873e-06
-1.40893e-06
0
0
-1.92331e-06
-3.84059e-06
-5.74595e-06
-7.63349e-06
-9.49738e-06
-1.13319e-05
-1.31313e-05
-1.48901e-05
-1.6603e-05
-1.82648e-05
-1.98703e-05
-2.14147e-05
-2.28935e-05
-2.43022e-05
-2.56367e-05
-2.68931e-05
-2.80678e-05
-2.91574e-05
-3.0159e-05
-3.10697e-05
-3.18871e-05
-3.26092e-05
-3.32342e-05
-3.37606e-05
-3.41873e-05
-3.45136e-05
-3.47389e-05
-3.48633e-05
-3.48869e-05
-3.48103e-05
-3.46344e-05
-3.43604e-05
-3.39899e-05
-3.35247e-05
-3.2967e-05
-3.23192e-05
-3.1584e-05
-3.07645e-05
-2.98639e-05
-2.88857e-05
-2.78337e-05
-2.67119e-05
-2.55244e-05
-2.42756e-05
-2.297e-05
-2.16123e-05
-2.02075e-05
-1.87604e-05
-1.72761e-05
-1.57598e-05
-1.42168e-05
-1.26522e-05
-1.10715e-05
-9.47991e-06
-7.88288e-06
-6.28568e-06
-4.69361e-06
-3.11188e-06
-1.54566e-06
0
0
0
0
0
0
0
0
0
0
0
0
0
0
0
0
0
0
0
0
0
0
0
0
0
0
0
0
0
0
0
0
0
0
0
0
0
0
0
0
0
0
0
0
0
0
0
0
0
0
0
0
0
0
0
0
0
0
0
0
0
0
0
0
0
0
0
0
0
0
0
0
0
0
0
0
0
0
0
0
0
0
0
0
0
0
0
0
0
0
0
0
0
0
0
0
0
0
0
0
0
0
0
0
0
0
0
0
0
0
0
0
0
0
0
0
0
0
0
0
0
0
SCALARS Displacement_Z double 1
LOOKUP_TABLE default
0.00645261
0.00658203
0.00697159
0.0076183
0.0085207
0.00967321
0.0110715
0.0127052
0.0145661
0.0166355
0.0189065
0.0213476
0.02407
0.0268048
0.0293141
0.0317197
0.0340092
0.0361915
0.0382645
0.0402338
0.0421025
0.043877
0.0455621
0.047164
0.0486877
0.0501385
0.0515209
0.0528395
0.0540983
0.0553009
0.0564507
0.0575509
0.0586042
0.0596132
0.0605803
0.0615077
0.0623974
0.0632513
0.064071
0.0648583
0.0656146
0.0663413
0.0670398
0.0677112
0.0683569
0.0689778
0.0695751
0.0701498
0.0707027
0.0712348
0.0717469
0.0722399
0.0727146
0.0731716
0.0736116
0.0740354
0.0744435
0.0748366
0.0752153
0.0755801
0.0759315
0.07627
0.0765962
0.0769104
0.0772132
0.0775048
0.0777858
0.0780566
0.0783174
0.0785686
0.0788106
0.0790437
0.0792682
0.0794843
0.0796924
0.0798927
0.0800855
0.0802711
0.0804495
0.0806212
0.0807862
0.0809449
0.0810973
0.0812437
0.0813843
0.0815192
0.0816486
0.0817726
0.0818914
0.0820051
0.082114
0.082218
0.0823173
0.0824121
0.0825025
0.0825885
0.0826703
0.082748
0.0828216
0.0828913
0.0829571
0.0830192
0.0830775
0.0831323
0.0831834
0.0832311
0.0832754
0.0833163
0.0833539
0.0833882
0.0834194
0.0834474
0.0834722
0.0834941
0.0835129
0.0835287
0.0835416
0.0835516
0.0835586
0.0835629
0.0835643
0.00642227
0.00694174
0.0084922
0.0110454
0.014544
0.0188892
0.0240552
0.0293014
0.0340005
0.0382589
0.0420987
0.0455596
0.048686
0.0515198
0.0540976
0.0564504
0.0586041
0.0605804
0.0623977
0.0640714
0.0656151
0.0670404
0.0683576
0.0695758
0.0707034
0.0717477
0.0727154
0.0736124
0.0744443
0.0752161
0.0759323
0.076597
0.0772139
0.0777866
0.0783181
0.0788114
0.0792689
0.0796931
0.0800862
0.0804502
0.0807869
0.081098
0.081385
0.0816492
0.081892
0.0821146
0.082318
0.0825031
0.0826709
0.0828222
0.0829577
0.0830781
0.083184
0.083276
0.0833545
0.0834199
0.0834728
0.0835135
0.0835422
0.0835592
0.0835649
0.00639391
0.00652381
0.00691386
0.0075618
0.00846561
0.00962048
0.0110213
0.0126591
0.0145236
0.0165998
0.0188736
0.0213282
0.0240413
0.0267675
0.0292888
0.0316969
0.0339919
0.0361772
0.0382532
0.0402245
0.042095
0.0438708
0.0455571
0.0471598
0.0486843
0.0501356
0.0515186
0.0528377
0.0540968
0.0552998
0.0564499
0.0575504
0.0586039
0.0596131
0.0605805
0.061508
0.0623979
0.0632519
0.0640718
0.0648592
0.0656156
0.0663424
0.0670409
0.0677125
0.0683582
0.0689792
0.0695765
0.0701512
0.0707042
0.0712363
0.0717485
0.0722415
0.0727161
0.0731731
0.0736132
0.074037
0.0744451
0.0748382
0.0752169
0.0755816
0.0759331
0.0762716
0.0765977
0.076912
0.0772147
0.0775064
0.0777874
0.0780581
0.0783189
0.0785701
0.0788121
0.0790452
0.0792696
0.0794857
0.0796938
0.0798942
0.0800869
0.0802725
0.0804509
0.0806226
0.0807876
0.0809462
0.0810987
0.0812451
0.0813856
0.0815205
0.0816499
0.0817739
0.0818927
0.0820064
0.0821152
0.0822193
0.0823186
0.0824134
0.0825037
0.0825898
0.0826715
0.0827492
0.0828228
0.0828925
0.0829583
0.0830204
0.0830787
0.0831334
0.0831846
0.0832323
0.0832766
0.0833174
0.083355
0.0833894
0.0834205
0.0834485
0.0834734
0.0834952
0.083514
0.0835299
0.0835427
0.0835527
0.0835598
0.083564
0.0835654
0.00636759
0.00688798
0.00844101
0.010999
0.0145052
0.0188599
0.0240284
0.0292763
0.0339833
0.0382477
0.0420913
0.0455545
0.0486825
0.0515174
0.054096
0.0564495
0.0586037
0.0605805
0.0623981
0.0640721
0.065616
0.0670414
0.0683588
0.0695772
0.0707048
0.0717492
0.0727168
0.0736139
0.0744458
0.0752176
0.0759338
0.0765985
0.0772154
0.0777881
0.0783196
0.0788128
0.0792703
0.0796945
0.0800876
0.0804516
0.0807883
0.0810993
0.0813863
0.0816505
0.0818933
0.0821159
0.0823192
0.0825043
0.0826721
0.0828234
0.0829589
0.0830793
0.0831852
0.0832771
0.0833556
0.0834211
0.083474
0.0835146
0.0835433
0.0835604
0.083566
0.00634321
0.00647352
0.00686404
0.00751313
0.00841829
0.00957533
0.0109786
0.01262
0.0144884
0.0165702
0.0188478
0.0213147
0.0240163
0.0267317
0.029264
0.0316753
0.0339749
0.0361633
0.0382421
0.0402153
0.0420875
0.0438645
0.0455519
0.0471555
0.0486807
0.0501326
0.0515161
0.0528356
0.0540952
0.0552985
0.0564489
0.0575496
0.0586034
0.0596129
0.0605804
0.0615082
0.0623982
0.0632524
0.0640724
0.0648599
0.0656164
0.0663433
0.0670419
0.0677135
0.0683593
0.0689804
0.0695777
0.0701525
0.0707055
0.0712376
0.0717498
0.0722429
0.0727175
0.0731745
0.0736146
0.0740384
0.0744465
0.0748397
0.0752183
0.0755831
0.0759345
0.076273
0.0765992
0.0769134
0.0772161
0.0775078
0.0777888
0.0780595
0.0783203
0.0785715
0.0788135
0.0790465
0.079271
0.0794871
0.0796952
0.0798955
0.0800883
0.0802738
0.0804522
0.0806239
0.0807889
0.0809475
0.0810999
0.0812463
0.0813869
0.0815217
0.0816511
0.0817751
0.0818939
0.0820076
0.0821164
0.0822205
0.0823198
0.0824146
0.0825049
0.0825909
0.0826727
0.0827504
0.082824
0.0828937
0.0829595
0.0830215
0.0830799
0.0831346
0.0831857
0.0832334
0.0832777
0.0833186
0.0833562
0.0833905
0.0834216
0.0834496
0.0834745
0.0834963
0.0835151
0.083531
0.0835438
0.0835538
0.0835609
0.0835651
0.0835665
0.00632085
0.00684208
0.0083975
0.01096
0.0144734
0.0188376
0.0240051
0.0292516
0.0339666
0.0382366
0.0420837
0.0455493
0.0486788
0.0515148
0.0540943
0.0564484
0.0586031
0.0605803
0.0623983
0.0640726
0.0656167
0.0670423
0.0683598
0.0695783
0.070706
0.0717505
0.0727182
0.0736153
0.0744472
0.075219
0.0759352
0.0765999
0.0772168
0.0777895
0.0783209
0.0788141
0.0792716
0.0796958
0.0800889
0.0804529
0.0807895
0.0811006
0.0813875
0.0816517
0.0818945
0.082117
0.0823204
0.0825055
0.0826733
0.0828245
0.08296
0.0830804
0.0831863
0.0832782
0.0833567
0.0834222
0.083475
0.0835157
0.0835444
0.0835614
0.0835671
0.00630042
0.00643105
0.00682204
0.00747215
0.00837859
0.0095376
0.0109432
0.0125878
0.01446
0.0165467
0.0188289
0.0213055
0.0239948
0.0266986
0.0292396
0.0316548
0.0339585
0.0361499
0.0382312
0.0402062
0.04208
0.0438582
0.0455466
0.0471511
0.0486769
0.0501295
0.0515135
0.0528334
0.0540933
0.055297
0.0564477
0.0575487
0.0586028
0.0596125
0.0605802
0.0615081
0.0623983
0.0632526
0.0640728
0.0648604
0.065617
0.066344
0.0670427
0.0677144
0.0683602
0.0689814
0.0695788
0.0701536
0.0707066
0.0712388
0.071751
0.0722441
0.0727188
0.0731758
0.0736159
0.0740397
0.0744479
0.074841
0.0752197
0.0755844
0.0759358
0.0762744
0.0766005
0.0769147
0.0772175
0.0775091
0.0777901
0.0780608
0.0783216
0.0785728
0.0788148
0.0790478
0.0792723
0.0794884
0.0796965
0.0798967
0.0800895
0.080275
0.0804535
0.0806251
0.0807901
0.0809487
0.0811011
0.0812475
0.0813881
0.0815229
0.0816523
0.0817763
0.0818951
0.0820088
0.0821176
0.0822216
0.0823209
0.0824157
0.082506
0.082592
0.0826738
0.0827515
0.0828251
0.0828948
0.0829606
0.0830226
0.0830809
0.0831357
0.0831868
0.0832345
0.0832787
0.0833196
0.0833572
0.0833916
0.0834227
0.0834507
0.0834756
0.0834974
0.0835162
0.083532
0.0835449
0.0835549
0.0835619
0.0835662
0.0835676
0.00628192
0.0068039
0.00836152
0.0109281
0.0144482
0.0188219
0.0239853
0.0292276
0.0339505
0.0382258
0.0420763
0.045544
0.048675
0.0515121
0.0540924
0.0564471
0.0586024
0.06058
0.0623983
0.0640729
0.0656172
0.067043
0.0683607
0.0695793
0.0707071
0.0717516
0.0727194
0.0736165
0.0744485
0.0752203
0.0759365
0.0766011
0.0772181
0.0777907
0.0783222
0.0788154
0.0792729
0.0796971
0.0800901
0.0804541
0.0807907
0.0811017
0.0813886
0.0816528
0.0818956
0.0821181
0.0823215
0.0825066
0.0826744
0.0828256
0.0829611
0.0830815
0.0831873
0.0832793
0.0833577
0.0834232
0.0834761
0.0835167
0.0835454
0.0835625
0.0835681
0.00626536
0.00639624
0.00678768
0.00743871
0.00834632
0.0095071
0.0109148
0.0125623
0.014438
0.016529
0.0188162
0.0212998
0.0239767
0.0266687
0.029216
0.0316355
0.0339428
0.0361369
0.0382205
0.0401973
0.0420726
0.0438519
0.0455413
0.0471465
0.048673
0.0501261
0.0515107
0.052831
0.0540913
0.0552953
0.0564464
0.0575476
0.0586019
0.0596118
0.0605798
0.0615079
0.0623982
0.0632527
0.064073
0.0648607
0.0656174
0.0663445
0.0670433
0.0677151
0.068361
0.0689822
0.0695797
0.0701545
0.0707076
0.0712399
0.0717521
0.0722452
0.0727199
0.073177
0.0736171
0.0740409
0.0744491
0.0748422
0.0752209
0.0755857
0.0759371
0.0762756
0.0766017
0.076916
0.0772187
0.0775103
0.0777913
0.078062
0.0783228
0.078574
0.078816
0.079049
0.0792735
0.0794896
0.0796976
0.0798979
0.0800907
0.0802762
0.0804546
0.0806262
0.0807913
0.0809499
0.0811023
0.0812486
0.0813892
0.081524
0.0816534
0.0817774
0.0818962
0.0820099
0.0821187
0.0822227
0.082322
0.0824168
0.0825071
0.0825931
0.0826749
0.0827525
0.0828261
0.0828958
0.0829616
0.0830236
0.083082
0.0831367
0.0831878
0.0832355
0.0832798
0.0833207
0.0833582
0.0833926
0.0834237
0.0834517
0.0834766
0.0834984
0.0835172
0.083533
0.0835459
0.0835559
0.0835629
0.0835672
0.0835686
0.0062507
0.00677334
0.00833294
0.0109032
0.0144293
0.0188121
0.0239689
0.0292046
0.0339352
0.0382154
0.0420689
0.0455386
0.048671
0.0515092
0.0540903
0.0564456
0.0586014
0.0605795
0.0623981
0.064073
0.0656176
0.0670436
0.0683614
0.0695801
0.070708
0.0717526
0.0727204
0.0736176
0.0744496
0.0752214
0.0759376
0.0766023
0.0772193
0.0777919
0.0783234
0.0788165
0.079274
0.0796982
0.0800912
0.0804552
0.0807918
0.0811028
0.0813897
0.0816539
0.0818967
0.0821192
0.0823225
0.0825076
0.0826754
0.0828266
0.0829621
0.0830825
0.0831883
0.0832803
0.0833587
0.0834242
0.0834771
0.0835177
0.0835464
0.0835634
0.0835691
0.00623792
0.00636901
0.00676086
0.0074127
0.00832137
0.00948371
0.0108933
0.0125434
0.0144222
0.0165171
0.0188092
0.0212972
0.0239619
0.0266423
0.0291937
0.0316174
0.0339279
0.0361246
0.0382103
0.0401886
0.0420652
0.0438456
0.0455359
0.0471418
0.048669
0.0501227
0.0515077
0.0528285
0.0540891
0.0552935
0.0564448
0.0575464
0.0586009
0.059611
0.0605791
0.0615075
0.062398
0.0632526
0.064073
0.0648609
0.0656177
0.0663449
0.0670438
0.0677157
0.0683617
0.0689829
0.0695805
0.0701553
0.0707085
0.0712407
0.071753
0.0722462
0.0727209
0.073178
0.0736181
0.0740419
0.0744501
0.0748433
0.075222
0.0755868
0.0759382
0.0762767
0.0766029
0.0769171
0.0772198
0.0775115
0.0777924
0.0780631
0.0783239
0.0785751
0.0788171
0.0790501
0.0792746
0.0794907
0.0796987
0.079899
0.0800918
0.0802773
0.0804557
0.0806273
0.0807923
0.0809509
0.0811033
0.0812497
0.0813902
0.0815251
0.0816544
0.0817784
0.0818972
0.0820109
0.0821197
0.0822237
0.082323
0.0824178
0.0825081
0.0825941
0.0826759
0.0827535
0.0828271
0.0828968
0.0829626
0.0830246
0.0830829
0.0831377
0.0831888
0.0832365
0.0832807
0.0833216
0.0833592
0.0833935
0.0834247
0.0834526
0.0834775
0.0834994
0.0835182
0.083534
0.0835469
0.0835568
0.0835639
0.0835681
0.0835695
0.00622704
0.00675026
0.0083116
0.0108851
0.0144165
0.0188076
0.0239557
0.0291832
0.0339209
0.0382053
0.0420616
0.0455332
0.0486669
0.0515061
0.054088
0.056444
0.0586003
0.0605788
0.0623978
0.064073
0.0656178
0.067044
0.0683619
0.0695808
0.0707088
0.0717534
0.0727213
0.0736186
0.0744506
0.0752225
0.0759387
0.0766034
0.0772203
0.077793
0.0783244
0.0788176
0.0792751
0.0796992
0.0800923
0.0804562
0.0807928
0.0811038
0.0813907
0.0816549
0.0818977
0.0821202
0.0823235
0.0825086
0.0826763
0.0828276
0.0829631
0.0830834
0.0831893
0.0832812
0.0833597
0.0834251
0.083478
0.0835186
0.0835473
0.0835644
0.08357
0.00621801
0.00634926
0.00674148
0.00739401
0.00830361
0.00946729
0.0108785
0.0125308
0.0144123
0.0165106
0.0188071
0.0212975
0.0239504
0.0266196
0.0291732
0.0316005
0.033914
0.0361129
0.0382004
0.0401802
0.0420579
0.0438393
0.0455304
0.0471371
0.0486649
0.0501191
0.0515045
0.0528257
0.0540868
0.0552914
0.0564431
0.0575449
0.0585997
0.05961
0.0605784
0.0615069
0.0623976
0.0632523
0.0640729
0.0648609
0.0656178
0.0663451
0.0670441
0.067716
0.0683621
0.0689834
0.0695811
0.070156
0.0707092
0.0712415
0.0717538
0.072247
0.0727217
0.0731789
0.073619
0.0740429
0.0744511
0.0748442
0.0752229
0.0755877
0.0759392
0.0762777
0.0766039
0.0769181
0.0772208
0.0775125
0.0777935
0.0780642
0.0783249
0.0785761
0.0788181
0.0790511
0.0792756
0.0794917
0.0796997
0.0799
0.0800928
0.0802783
0.0804567
0.0806283
0.0807933
0.0809519
0.0811043
0.0812507
0.0813912
0.0815261
0.0816554
0.0817794
0.0818981
0.0820119
0.0821206
0.0822246
0.082324
0.0824187
0.082509
0.082595
0.0826768
0.0827544
0.082828
0.0828977
0.0829635
0.0830255
0.0830839
0.0831386
0.0831897
0.0832374
0.0832816
0.0833225
0.0833601
0.0833944
0.0834256
0.0834536
0.0834784
0.0835003
0.0835191
0.0835349
0.0835478
0.0835577
0.0835648
0.083569
0.0835704
0.00621084
0.00673455
0.0082974
0.0108736
0.0144095
0.0188079
0.0239458
0.0291636
0.0339075
0.0381957
0.0420544
0.0455277
0.0486628
0.0515029
0.0540855
0.0564422
0.058599
0.0605779
0.0623973
0.0640727
0.0656178
0.0670442
0.0683623
0.0695813
0.0707094
0.0717542
0.0727221
0.0736194
0.0744515
0.0752234
0.0759396
0.0766043
0.0772213
0.0777939
0.0783254
0.0788186
0.079276
0.0797002
0.0800933
0.0804572
0.0807938
0.0811048
0.0813917
0.0816558
0.0818986
0.0821211
0.0823244
0.0825095
0.0826772
0.0828285
0.082964
0.0830843
0.0831902
0.0832821
0.0833605
0.083426
0.0834789
0.0835195
0.0835482
0.0835652
0.0835709
0.00620552
0.00633691
0.00672945
0.00738255
0.00829294
0.00945774
0.0108703
0.0125245
0.0144082
0.0165095
0.0188097
0.0213006
0.0239421
0.0266004
0.0291546
0.0315852
0.0339012
0.036102
0.0381911
0.040172
0.0420508
0.0438331
0.045525
0.0471322
0.0486606
0.0501153
0.0515012
0.0528228
0.0540842
0.0552892
0.0564412
0.0575433
0.0585983
0.0596089
0.0605774
0.0615061
0.0623969
0.0632519
0.0640726
0.0648607
0.0656177
0.0663452
0.0670442
0.0677163
0.0683624
0.0689838
0.0695815
0.0701565
0.0707097
0.0712421
0.0717545
0.0722477
0.0727225
0.0731796
0.0736198
0.0740436
0.0744519
0.0748451
0.0752238
0.0755886
0.07594
0.0762786
0.0766047
0.076919
0.0772217
0.0775134
0.0777944
0.0780651
0.0783259
0.0785771
0.078819
0.0790521
0.0792765
0.0794926
0.0797007
0.0799009
0.0800937
0.0802792
0.0804576
0.0806292
0.0807942
0.0809528
0.0811052
0.0812516
0.0813921
0.081527
0.0816563
0.0817803
0.081899
0.0820128
0.0821215
0.0822255
0.0823248
0.0824196
0.0825099
0.0825959
0.0826777
0.0827553
0.0828289
0.0828986
0.0829644
0.0830264
0.0830847
0.0831394
0.0831906
0.0832383
0.0832825
0.0833234
0.083361
0.0833953
0.0834264
0.0834544
0.0834793
0.0835011
0.0835199
0.0835357
0.0835486
0.0835586
0.0835656
0.0835699
0.0835713
0.00620202
0.00672615
0.00829022
0.0108687
0.0144082
0.0188126
0.0239391
0.0291462
0.0338952
0.0381865
0.0420474
0.0455222
0.0486585
0.0514995
0.0540829
0.0564402
0.0585975
0.0605769
0.0623966
0.0640723
0.0656176
0.0670442
0.0683625
0.0695816
0.0707099
0.0717547
0.0727228
0.0736201
0.0744522
0.0752242
0.0759404
0.0766051
0.0772221
0.0777948
0.0783263
0.0788195
0.0792769
0.0797011
0.0800941
0.0804581
0.0807947
0.0811057
0.0813925
0.0816567
0.0818995
0.082122
0.0823253
0.0825103
0.0826781
0.0828293
0.0829648
0.0830851
0.083191
0.0832829
0.0833614
0.0834268
0.0834797
0.0835203
0.083549
0.0835661
0.0835717
0.00620036
0.00633186
0.00672466
0.00737823
0.00828925
0.00945493
0.0108686
0.0125242
0.0144097
0.0165134
0.0188164
0.0213065
0.0239369
0.0265849
0.0291384
0.0315714
0.0338895
0.0360918
0.0381822
0.0401641
0.0420439
0.0438269
0.0455195
0.0471274
0.0486563
0.0501114
0.0514978
0.0528198
0.0540816
0.0552869
0.0564391
0.0575415
0.0585967
0.0596075
0.0605763
0.0615051
0.0623962
0.0632512
0.0640721
0.0648603
0.0656175
0.066345
0.0670442
0.0677163
0.0683626
0.068984
0.0695818
0.0701568
0.0707101
0.0712425
0.0717549
0.0722482
0.072723
0.0731802
0.0736204
0.0740443
0.0744526
0.0748458
0.0752245
0.0755893
0.0759408
0.0762793
0.0766055
0.0769198
0.0772225
0.0775142
0.0777952
0.0780659
0.0783267
0.0785779
0.0788199
0.0790529
0.0792773
0.0794934
0.0797015
0.0799018
0.0800945
0.08028
0.0804585
0.0806301
0.0807951
0.0809537
0.0811061
0.0812524
0.0813929
0.0815278
0.0816571
0.0817811
0.0818999
0.0820136
0.0821224
0.0822263
0.0823257
0.0824204
0.0825107
0.0825967
0.0826785
0.0827561
0.0828297
0.0828994
0.0829652
0.0830272
0.0830855
0.0831402
0.0831914
0.0832391
0.0832833
0.0833242
0.0833618
0.0833961
0.0834272
0.0834552
0.0834801
0.0835019
0.0835207
0.0835365
0.0835494
0.0835594
0.0835664
0.0835707
0.0835721
0.00620051
0.00672495
0.00828999
0.0108702
0.0144125
0.0188212
0.0239355
0.0291311
0.0338841
0.0381779
0.0420405
0.0455167
0.0486541
0.051496
0.0540801
0.056438
0.0585959
0.0605756
0.0623957
0.0640718
0.0656173
0.0670441
0.0683626
0.0695819
0.0707102
0.0717551
0.0727233
0.0736207
0.0744528
0.0752248
0.0759411
0.0766059
0.0772229
0.0777956
0.0783271
0.0788202
0.0792777
0.0797019
0.0800949
0.0804589
0.0807955
0.0811065
0.0813933
0.0816575
0.0819003
0.0821228
0.0823261
0.0825111
0.0826789
0.0828301
0.0829656
0.0830859
0.0831918
0.0832837
0.0833621
0.0834276
0.0834805
0.0835211
0.0835498
0.0835668
0.0835725
0.00620247
0.00633405
0.00672704
0.00738096
0.00829246
0.00945878
0.0108733
0.0125299
0.0144167
0.0165222
0.018827
0.021315
0.0239349
0.0265728
0.0291245
0.0315592
0.0338789
0.0360824
0.0381738
0.0401566
0.0420371
0.0438208
0.045514
0.0471224
0.0486518
0.0501075
0.0514942
0.0528166
0.0540787
0.0552843
0.0564369
0.0575395
0.058595
0.059606
0.060575
0.061504
0.0623952
0.0632504
0.0640714
0.0648598
0.0656171
0.0663447
0.067044
0.0677162
0.0683625
0.0689841
0.0695819
0.070157
0.0707103
0.0712428
0.0717553
0.0722486
0.0727235
0.0731807
0.0736209
0.0740448
0.0744531
0.0748463
0.0752251
0.07559
0.0759414
0.07628
0.0766062
0.0769205
0.0772232
0.0775149
0.0777959
0.0780666
0.0783274
0.0785786
0.0788206
0.0790537
0.0792781
0.0794942
0.0797023
0.0799025
0.0800953
0.0802808
0.0804592
0.0806308
0.0807958
0.0809544
0.0811068
0.0812532
0.0813937
0.0815286
0.0816579
0.0817819
0.0819006
0.0820143
0.0821231
0.0822271
0.0823264
0.0824212
0.0825115
0.0825975
0.0826793
0.0827569
0.0828305
0.0829001
0.0829659
0.083028
0.0830863
0.083141
0.0831921
0.0832398
0.0832841
0.0833249
0.0833625
0.0833968
0.083428
0.083456
0.0834808
0.0835027
0.0835215
0.0835373
0.0835501
0.0835601
0.0835672
0.0835714
0.0835728
0.00620622
0.0067309
0.00829662
0.010878
0.0144222
0.0188337
0.023935
0.0291185
0.0338741
0.0381698
0.0420338
0.0455113
0.0486496
0.0514924
0.0540772
0.0564357
0.058594
0.0605742
0.0623947
0.064071
0.0656168
0.0670439
0.0683625
0.0695819
0.0707104
0.0717554
0.0727236
0.0736211
0.0744533
0.0752254
0.0759417
0.0766065
0.0772235
0.0777962
0.0783277
0.0788209
0.0792784
0.0797026
0.0800957
0.0804596
0.0807962
0.0811072
0.0813941
0.0816582
0.081901
0.0821235
0.0823268
0.0825119
0.0826796
0.0828308
0.0829663
0.0830867
0.0831925
0.0832844
0.0833629
0.0834283
0.0834812
0.0835218
0.0835505
0.0835675
0.0835732
0.00621177
0.00634341
0.00673653
0.00739068
0.00830249
0.00946923
0.0108842
0.0125415
0.014429
0.0165357
0.0188413
0.0213263
0.023936
0.0265641
0.0291132
0.0315487
0.0338696
0.0360738
0.038166
0.0401495
0.0420306
0.0438148
0.0455085
0.0471174
0.0486473
0.0501034
0.0514905
0.0528133
0.0540757
0.0552816
0.0564345
0.0575373
0.0585931
0.0596043
0.0605735
0.0615027
0.0623941
0.0632495
0.0640706
0.0648591
0.0656165
0.0663443
0.0670437
0.067716
0.0683624
0.068984
0.0695819
0.070157
0.0707104
0.071243
0.0717555
0.0722488
0.0727237
0.073181
0.0736213
0.0740452
0.0744535
0.0748468
0.0752256
0.0755905
0.0759419
0.0762805
0.0766068
0.076921
0.0772238
0.0775155
0.0777965
0.0780672
0.078328
0.0785793
0.0788212
0.0790543
0.0792787
0.0794949
0.0797029
0.0799032
0.080096
0.0802815
0.0804599
0.0806315
0.0807965
0.0809551
0.0811075
0.0812539
0.0813944
0.0815293
0.0816586
0.0817826
0.0819013
0.082015
0.0821238
0.0822278
0.0823271
0.0824219
0.0825122
0.0825982
0.08268
0.0827576
0.0828312
0.0829008
0.0829666
0.0830287
0.083087
0.0831417
0.0831928
0.0832405
0.0832848
0.0833256
0.0833632
0.0833975
0.0834287
0.0834567
0.0834815
0.0835034
0.0835222
0.083538
0.0835508
0.0835608
0.0835679
0.0835721
0.0835735
0.0062191
0.00674392
0.00831004
0.010892
0.0144372
0.0188499
0.0239376
0.0291085
0.0338654
0.0381623
0.0420274
0.0455058
0.048645
0.0514886
0.0540741
0.0564332
0.058592
0.0605727
0.0623935
0.0640701
0.0656162
0.0670434
0.0683622
0.0695818
0.0707104
0.0717555
0.0727238
0.0736214
0.0744537
0.0752258
0.0759422
0.076607
0.0772241
0.0777968
0.0783283
0.0788215
0.079279
0.0797032
0.0800963
0.0804602
0.0807969
0.0811078
0.0813947
0.0816589
0.0819017
0.0821242
0.0823275
0.0825125
0.0826803
0.0828315
0.082967
0.0830873
0.0831932
0.0832851
0.0833635
0.083429
0.0834819
0.0835225
0.0835512
0.0835682
0.0835739
0.00622821
0.00635987
0.00675307
0.00740733
0.00831929
0.00948619
0.0109014
0.0125589
0.0144467
0.0165537
0.0188593
0.0213403
0.0239401
0.0265588
0.0291045
0.03154
0.0338614
0.0360661
0.0381587
0.0401426
0.0420242
0.0438089
0.0455031
0.0471124
0.0486427
0.0500992
0.0514867
0.0528098
0.0540725
0.0552788
0.0564319
0.057535
0.058591
0.0596025
0.0605718
0.0615012
0.0623928
0.0632483
0.0640696
0.0648583
0.0656158
0.0663436
0.0670431
0.0677155
0.068362
0.0689837
0.0695817
0.0701569
0.0707104
0.071243
0.0717556
0.0722489
0.0727239
0.0731812
0.0736215
0.0740455
0.0744538
0.0748471
0.0752259
0.0755908
0.0759423
0.076281
0.0766072
0.0769215
0.0772243
0.077516
0.077797
0.0780678
0.0783286
0.0785798
0.0788218
0.0790549
0.0792793
0.0794954
0.0797035
0.0799038
0.0800966
0.0802821
0.0804605
0.0806321
0.0807972
0.0809558
0.0811081
0.0812545
0.081395
0.0815299
0.0816592
0.0817832
0.081902
0.0820157
0.0821245
0.0822285
0.0823278
0.0824225
0.0825128
0.0825988
0.0826806
0.0827582
0.0828318
0.0829015
0.0829673
0.0830293
0.0830876
0.0831423
0.0831935
0.0832412
0.0832854
0.0833263
0.0833639
0.0833982
0.0834293
0.0834573
0.0834822
0.083504
0.0835228
0.0835386
0.0835515
0.0835615
0.0835685
0.0835728
0.0835742
0.0062391
0.00676397
0.00833021
0.0109123
0.0144575
0.0188696
0.0239433
0.0291011
0.0338579
0.0381553
0.0420211
0.0455004
0.0486404
0.0514847
0.0540709
0.0564305
0.0585899
0.0605709
0.0623921
0.064069
0.0656154
0.0670428
0.0683618
0.0695815
0.0707103
0.0717555
0.0727239
0.0736216
0.0744539
0.0752261
0.0759425
0.0766074
0.0772245
0.0777972
0.0783288
0.078822
0.0792796
0.0797038
0.0800969
0.0804608
0.0807974
0.0811084
0.0813953
0.0816595
0.0819023
0.0821248
0.0823281
0.0825131
0.0826809
0.0828321
0.0829676
0.0830879
0.0831938
0.0832857
0.0833642
0.0834296
0.0834825
0.0835231
0.0835518
0.0835688
0.0835745
0.00625176
0.00638342
0.00677662
0.00743088
0.00834281
0.00950965
0.0109247
0.012582
0.0144696
0.0165763
0.0188808
0.0213571
0.0239473
0.0265568
0.0290984
0.0315332
0.0338545
0.0360593
0.0381521
0.0401362
0.0420181
0.0438031
0.0454976
0.0471074
0.048638
0.0500949
0.0514827
0.0528061
0.0540692
0.0552758
0.0564291
0.0575325
0.0585887
0.0596004
0.06057
0.0614996
0.0623913
0.063247
0.0640684
0.0648572
0.0656149
0.0663429
0.0670425
0.067715
0.0683615
0.0689833
0.0695814
0.0701567
0.0707102
0.0712428
0.0717555
0.0722489
0.0727239
0.0731813
0.0736216
0.0740456
0.074454
0.0748473
0.0752262
0.0755911
0.0759426
0.0762813
0.0766075
0.0769219
0.0772247
0.0775164
0.0777974
0.0780682
0.078329
0.0785803
0.0788223
0.0790553
0.0792798
0.0794959
0.079704
0.0799043
0.0800971
0.0802826
0.0804611
0.0806327
0.0807977
0.0809563
0.0811087
0.0812551
0.0813956
0.0815304
0.0816598
0.0817838
0.0819025
0.0820163
0.082125
0.082229
0.0823283
0.0824231
0.0825134
0.0825994
0.0826812
0.0827588
0.0828324
0.0829021
0.0829679
0.0830299
0.0830882
0.0831429
0.0831941
0.0832417
0.083286
0.0833269
0.0833645
0.0833988
0.0834299
0.0834579
0.0834828
0.0835046
0.0835234
0.0835392
0.0835521
0.083562
0.0835691
0.0835734
0.0835748
0.00626619
0.00679102
0.00835709
0.0109387
0.014483
0.0188929
0.023952
0.0290963
0.0338516
0.0381489
0.0420151
0.0454949
0.0486357
0.0514807
0.0540675
0.0564277
0.0585876
0.060569
0.0623905
0.0640678
0.0656144
0.0670421
0.0683612
0.0695811
0.07071
0.0717554
0.0727239
0.0736216
0.0744541
0.0752263
0.0759427
0.0766077
0.0772248
0.0777976
0.0783292
0.0788225
0.07928
0.0797042
0.0800973
0.0804613
0.0807979
0.0811089
0.0813958
0.08166
0.0819028
0.0821253
0.0823286
0.0825137
0.0826815
0.0828327
0.0829682
0.0830885
0.0831944
0.0832863
0.0833647
0.0834302
0.083483
0.0835237
0.0835524
0.0835694
0.083575
0.00628236
0.00641401
0.00680715
0.00746129
0.00837303
0.00953956
0.0109542
0.0126109
0.0144977
0.0166034
0.0189058
0.0213768
0.0239575
0.0265579
0.0290948
0.0315282
0.0338489
0.0360533
0.0381459
0.0401301
0.0420122
0.0437974
0.0454922
0.0471023
0.0486333
0.0500904
0.0514786
0.0528024
0.0540658
0.0552726
0.0564262
0.0575299
0.0585863
0.0595982
0.060568
0.0614978
0.0623897
0.0632456
0.0640671
0.064856
0.0656138
0.0663419
0.0670416
0.0677142
0.0683609
0.0689828
0.0695809
0.0701563
0.0707098
0.0712426
0.0717553
0.0722487
0.0727238
0.0731812
0.0736216
0.0740457
0.0744541
0.0748474
0.0752263
0.0755913
0.0759428
0.0762815
0.0766078
0.0769221
0.0772249
0.0775167
0.0777978
0.0780685
0.0783294
0.0785806
0.0788226
0.0790557
0.0792802
0.0794963
0.0797044
0.0799048
0.0800975
0.080283
0.0804615
0.0806331
0.0807982
0.0809568
0.0811092
0.0812556
0.0813961
0.0815309
0.0816603
0.0817843
0.0819031
0.0820168
0.0821256
0.0822295
0.0823289
0.0824236
0.082514
0.0825999
0.0826817
0.0827593
0.082833
0.0829026
0.0829684
0.0830304
0.0830888
0.0831435
0.0831946
0.0832423
0.0832865
0.0833274
0.083365
0.0833993
0.0834305
0.0834584
0.0834833
0.0835051
0.0835239
0.0835398
0.0835526
0.0835626
0.0835697
0.0835739
0.0835753
0.0063003
0.00682501
0.00839063
0.0109712
0.0145136
0.0189196
0.0239638
0.029094
0.0338466
0.0381431
0.0420093
0.0454896
0.0486309
0.0514766
0.054064
0.0564247
0.0585851
0.0605669
0.0623888
0.0640664
0.0656132
0.0670411
0.0683605
0.0695806
0.0707096
0.0717551
0.0727237
0.0736215
0.074454
0.0752263
0.0759429
0.0766078
0.077225
0.0777979
0.0783295
0.0788228
0.0792804
0.0797046
0.0800977
0.0804617
0.0807984
0.0811094
0.0813963
0.0816605
0.0819033
0.0821258
0.0823291
0.0825142
0.082682
0.0828332
0.0829687
0.083089
0.0831949
0.0832868
0.0833652
0.0834307
0.0834836
0.0835242
0.0835529
0.0835699
0.0835756
0.00632001
0.00645161
0.00684462
0.00749853
0.00840992
0.0095759
0.0109898
0.0126455
0.014531
0.0166349
0.0189344
0.0213995
0.0239708
0.0265621
0.0290939
0.031525
0.0338445
0.0360482
0.0381404
0.0401244
0.0420065
0.0437918
0.0454869
0.0470972
0.0486285
0.0500859
0.0514744
0.0527985
0.0540622
0.0552693
0.0564232
0.0575271
0.0585838
0.0595959
0.0605658
0.0614958
0.0623879
0.0632439
0.0640656
0.0648547
0.0656126
0.0663408
0.0670406
0.0677133
0.0683601
0.068982
0.0695802
0.0701557
0.0707094
0.0712421
0.0717549
0.0722484
0.0727236
0.073181
0.0736214
0.0740455
0.074454
0.0748474
0.0752263
0.0755913
0.0759429
0.0762816
0.0766079
0.0769223
0.0772251
0.0775169
0.077798
0.0780688
0.0783296
0.0785809
0.0788229
0.079056
0.0792805
0.0794967
0.0797048
0.0799051
0.0800979
0.0802834
0.0804619
0.0806335
0.0807986
0.0809572
0.0811096
0.081256
0.0813965
0.0815314
0.0816607
0.0817847
0.0819035
0.0820172
0.082126
0.08223
0.0823293
0.0824241
0.0825144
0.0826004
0.0826822
0.0827598
0.0828334
0.0829031
0.0829689
0.0830309
0.0830892
0.083144
0.0831951
0.0832428
0.083287
0.0833279
0.0833655
0.0833998
0.0834309
0.0834589
0.0834838
0.0835056
0.0835244
0.0835402
0.0835531
0.0835631
0.0835702
0.0835744
0.0835758
0.00634145
0.00686595
0.00843085
0.0110099
0.0145495
0.01895
0.0239785
0.0290943
0.0338428
0.0381378
0.0420037
0.0454842
0.048626
0.0514723
0.0540603
0.0564216
0.0585824
0.0605647
0.0623869
0.0640648
0.0656119
0.0670401
0.0683596
0.0695799
0.0707091
0.0717547
0.0727234
0.0736213
0.0744539
0.0752263
0.0759429
0.0766079
0.0772251
0.077798
0.0783297
0.078823
0.0792806
0.0797049
0.080098
0.080462
0.0807987
0.0811098
0.0813967
0.0816609
0.0819037
0.0821262
0.0823295
0.0825146
0.0826824
0.0828336
0.0829691
0.0830895
0.0831953
0.0832872
0.0833657
0.0834312
0.083484
0.0835247
0.0835533
0.0835704
0.083576
0.00636465
0.00649618
0.00688901
0.00754257
0.00845345
0.00961867
0.0110315
0.0126858
0.0145694
0.0166708
0.0189666
0.0214252
0.0239871
0.0265694
0.0290954
0.0315236
0.0338413
0.0360439
0.0381354
0.0401191
0.042001
0.0437864
0.0454815
0.0470921
0.0486236
0.0500813
0.0514701
0.0527945
0.0540584
0.0552658
0.05642
0.0575241
0.058581
0.0595934
0.0605635
0.0614937
0.0623859
0.0632421
0.064064
0.0648532
0.0656112
0.0663395
0.0670395
0.0677123
0.0683591
0.0689812
0.0695794
0.070155
0.0707087
0.0712416
0.0717544
0.072248
0.0727232
0.0731806
0.0736211
0.0740453
0.0744538
0.0748472
0.0752262
0.0755912
0.0759428
0.0762816
0.0766079
0.0769223
0.0772252
0.077517
0.0777981
0.0780689
0.0783298
0.0785811
0.0788231
0.0790562
0.0792807
0.0794969
0.079705
0.0799054
0.0800982
0.0802837
0.0804622
0.0806338
0.0807989
0.0809575
0.0811099
0.0812563
0.0813969
0.0815317
0.0816611
0.0817851
0.0819039
0.0820176
0.0821264
0.0822304
0.0823297
0.0824245
0.0825148
0.0826008
0.0826826
0.0827602
0.0828338
0.0829035
0.0829693
0.0830313
0.0830897
0.0831444
0.0831955
0.0832432
0.0832874
0.0833283
0.0833659
0.0834002
0.0834314
0.0834594
0.0834842
0.0835061
0.0835249
0.0835407
0.0835536
0.0835635
0.0835706
0.0835748
0.0835762
0.00638963
0.00691383
0.00847774
0.0110547
0.0145906
0.0189841
0.0239964
0.0290971
0.0338402
0.0381331
0.0419983
0.0454789
0.0486211
0.0514679
0.0540565
0.0564183
0.0585796
0.0605623
0.0623849
0.0640631
0.0656105
0.0670388
0.0683586
0.069579
0.0707084
0.0717541
0.0727229
0.0736209
0.0744537
0.0752261
0.0759428
0.0766079
0.0772252
0.0777981
0.0783298
0.0788232
0.0792808
0.0797051
0.0800983
0.0804623
0.080799
0.0811101
0.081397
0.0816612
0.081904
0.0821266
0.0823299
0.082515
0.0826828
0.082834
0.0829695
0.0830899
0.0831957
0.0832876
0.0833661
0.0834316
0.0834844
0.0835251
0.0835538
0.0835708
0.0835764
0.00641634
0.00654776
0.00694036
0.00759346
0.00850368
0.0096679
0.0110795
0.0127319
0.0146132
0.0167113
0.0190026
0.0214541
0.0240064
0.0265797
0.0290993
0.0315239
0.0338393
0.0360404
0.0381309
0.0401141
0.0419956
0.043781
0.0454762
0.0470869
0.0486187
0.0500766
0.0514657
0.0527903
0.0540545
0.0552622
0.0564166
0.057521
0.0585781
0.0595907
0.060561
0.0614914
0.0623838
0.0632401
0.0640622
0.0648515
0.0656097
0.0663381
0.0670381
0.0677111
0.068358
0.0689801
0.0695785
0.0701541
0.0707079
0.0712409
0.0717537
0.0722474
0.0727226
0.0731802
0.0736207
0.0740449
0.0744535
0.074847
0.0752259
0.075591
0.0759427
0.0762814
0.0766078
0.0769222
0.0772251
0.0775169
0.0777981
0.0780689
0.0783298
0.0785811
0.0788232
0.0790564
0.0792809
0.0794971
0.0797052
0.0799055
0.0800984
0.0802839
0.0804624
0.0806341
0.0807991
0.0809578
0.0811102
0.0812566
0.0813971
0.081532
0.0816614
0.0817854
0.0819042
0.0820179
0.0821267
0.0822307
0.08233
0.0824248
0.0825152
0.0826012
0.0826829
0.0827606
0.0828342
0.0829039
0.0829697
0.0830317
0.08309
0.0831448
0.0831959
0.0832436
0.0832878
0.0833287
0.0833663
0.0834006
0.0834318
0.0834598
0.0834846
0.0835065
0.0835253
0.0835411
0.083554
0.0835639
0.083571
0.0835752
0.0835766
0.00644482
0.00696865
0.00853132
0.0111058
0.0146371
0.019022
0.0240172
0.0291021
0.0338387
0.0381289
0.0419931
0.0454736
0.0486162
0.0514634
0.0540526
0.0564149
0.0585766
0.0605597
0.0623827
0.0640612
0.0656088
0.0670374
0.0683574
0.069578
0.0707075
0.0717534
0.0727223
0.0736205
0.0744533
0.0752258
0.0759425
0.0766077
0.0772251
0.0777981
0.0783298
0.0788232
0.0792809
0.0797052
0.0800984
0.0804625
0.0807992
0.0811103
0.0813972
0.0816615
0.0819043
0.0821268
0.0823302
0.0825153
0.0826831
0.0828344
0.0829698
0.0830902
0.0831961
0.083288
0.0833665
0.0834319
0.0834848
0.0835254
0.0835541
0.0835712
0.0835768
0.00647504
0.00660633
0.00699865
0.00765118
0.0085606
0.00972362
0.0111336
0.0127838
0.0146623
0.0167564
0.0190424
0.0214862
0.0240288
0.0265928
0.0291055
0.0315259
0.0338384
0.0360377
0.038127
0.0401094
0.0419905
0.0437757
0.0454709
0.0470817
0.0486136
0.0500718
0.0514612
0.052786
0.0540505
0.0552584
0.0564131
0.0575177
0.0585751
0.0595878
0.0605584
0.0614889
0.0623815
0.063238
0.0640602
0.0648497
0.065608
0.0663365
0.0670367
0.0677097
0.0683567
0.068979
0.0695774
0.0701531
0.070707
0.07124
0.071753
0.0722467
0.072722
0.0731796
0.0736202
0.0740444
0.074453
0.0748466
0.0752256
0.0755907
0.0759424
0.0762812
0.0766076
0.076922
0.077225
0.0775168
0.077798
0.0780689
0.0783298
0.0785811
0.0788232
0.0790564
0.0792809
0.0794971
0.0797053
0.0799056
0.0800985
0.080284
0.0804625
0.0806342
0.0807993
0.0809579
0.0811104
0.0812568
0.0813973
0.0815322
0.0816616
0.0817856
0.0819044
0.0820182
0.082127
0.082231
0.0823303
0.0824251
0.0825154
0.0826015
0.0826832
0.0827609
0.0828345
0.0829042
0.08297
0.083032
0.0830904
0.0831451
0.0831962
0.0832439
0.0832882
0.083329
0.0833666
0.083401
0.0834321
0.0834601
0.083485
0.0835068
0.0835256
0.0835414
0.0835543
0.0835643
0.0835713
0.0835756
0.083577
0.00650701
0.00703038
0.00859157
0.011163
0.0146889
0.0190639
0.0240411
0.0291094
0.0338383
0.0381252
0.041988
0.0454683
0.0486111
0.0514588
0.0540485
0.0564113
0.0585735
0.060557
0.0623803
0.0640591
0.065607
0.0670359
0.0683561
0.0695768
0.0707065
0.0717525
0.0727216
0.0736199
0.0744528
0.0752254
0.0759422
0.0766075
0.0772249
0.0777979
0.0783297
0.0788232
0.0792809
0.0797053
0.0800985
0.0804626
0.0807993
0.0811104
0.0813974
0.0816617
0.0819045
0.0821271
0.0823304
0.0825156
0.0826834
0.0828346
0.0829701
0.0830905
0.0831964
0.0832883
0.0833668
0.0834322
0.0834851
0.0835257
0.0835544
0.0835715
0.0835771
0.00654078
0.00667191
0.00706389
0.00771575
0.00862426
0.00978586
0.0111941
0.0128416
0.0147169
0.0168064
0.0190864
0.0215217
0.0240542
0.0266087
0.0291138
0.0315295
0.0338385
0.0360357
0.0381235
0.040105
0.0419856
0.0437705
0.0454656
0.0470765
0.0486085
0.0500669
0.0514565
0.0527816
0.0540464
0.0552545
0.0564094
0.0575143
0.0585719
0.0595848
0.0605556
0.0614863
0.0623791
0.0632357
0.064058
0.0648477
0.0656061
0.0663348
0.067035
0.0677082
0.0683553
0.0689776
0.0695762
0.070152
0.070706
0.071239
0.071752
0.0722458
0.0727212
0.0731788
0.0736195
0.0740438
0.0744525
0.074846
0.0752251
0.0755903
0.075942
0.0762808
0.0766073
0.0769218
0.0772247
0.0775166
0.0777978
0.0780687
0.0783297
0.078581
0.0788231
0.0790563
0.0792809
0.0794971
0.0797053
0.0799057
0.0800985
0.0802841
0.0804626
0.0806343
0.0807994
0.080958
0.0811105
0.0812569
0.0813975
0.0815324
0.0816618
0.0817858
0.0819046
0.0820183
0.0821272
0.0822312
0.0823305
0.0824253
0.0825157
0.0826017
0.0826835
0.0827611
0.0828347
0.0829044
0.0829702
0.0830323
0.0830906
0.0831453
0.0831965
0.0832442
0.0832884
0.0833293
0.0833669
0.0834012
0.0834324
0.0834604
0.0834853
0.0835071
0.0835259
0.0835417
0.0835546
0.0835645
0.0835716
0.0835759
0.0835773
0.00657627
0.00709911
0.00865861
0.0112266
0.0147463
0.01911
0.0240681
0.0291187
0.0338389
0.0381219
0.0419831
0.045463
0.048606
0.0514541
0.0540442
0.0564075
0.0585702
0.0605541
0.0623778
0.0640569
0.0656051
0.0670342
0.0683546
0.0695755
0.0707054
0.0717515
0.0727208
0.0736191
0.0744521
0.0752248
0.0759418
0.0766071
0.0772246
0.0777977
0.0783296
0.0788231
0.0792808
0.0797052
0.0800985
0.0804626
0.0807994
0.0811105
0.0813975
0.0816618
0.0819047
0.0821272
0.0823306
0.0825158
0.0826836
0.0828348
0.0829703
0.0830907
0.0831966
0.0832885
0.083367
0.0834325
0.0834854
0.083526
0.0835547
0.0835718
0.0835774
0.00661354
0.00674447
0.00713608
0.00778718
0.00869466
0.00985464
0.0112608
0.0129054
0.0147771
0.0168612
0.0191346
0.0215607
0.0240827
0.0266272
0.0291241
0.0315345
0.0338395
0.0360344
0.0381203
0.0401008
0.0419808
0.0437653
0.0454603
0.0470712
0.0486034
0.0500619
0.0514517
0.0527771
0.0540421
0.0552504
0.0564056
0.0575107
0.0585685
0.0595817
0.0605526
0.0614835
0.0623765
0.0632333
0.0640558
0.0648455
0.0656041
0.0663329
0.0670333
0.0677065
0.0683538
0.0689762
0.0695748
0.0701507
0.0707047
0.0712379
0.071751
0.0722449
0.0727203
0.073178
0.0736187
0.0740431
0.0744518
0.0748454
0.0752245
0.0755897
0.0759415
0.0762804
0.0766069
0.0769214
0.0772244
0.0775163
0.0777975
0.0780684
0.0783294
0.0785808
0.078823
0.0790562
0.0792807
0.079497
0.0797052
0.0799056
0.0800985
0.0802841
0.0804626
0.0806343
0.0807994
0.0809581
0.0811105
0.081257
0.0813976
0.0815325
0.0816619
0.0817859
0.0819047
0.0820185
0.0821273
0.0822313
0.0823307
0.0824255
0.0825158
0.0826019
0.0826836
0.0827613
0.0828349
0.0829046
0.0829704
0.0830325
0.0830908
0.0831455
0.0831967
0.0832444
0.0832886
0.0833295
0.0833671
0.0834015
0.0834326
0.0834606
0.0834855
0.0835073
0.0835261
0.0835419
0.0835548
0.0835648
0.0835719
0.0835761
0.0835775
0.00665262
0.00717484
0.00873245
0.0112967
0.0148094
0.0191605
0.0240981
0.0291299
0.0338403
0.0381189
0.0419784
0.0454577
0.0486008
0.0514493
0.0540399
0.0564037
0.0585668
0.0605511
0.0623751
0.0640545
0.065603
0.0670323
0.0683529
0.0695741
0.0707041
0.0717504
0.0727198
0.0736182
0.0744514
0.0752242
0.0759412
0.0766066
0.0772242
0.0777973
0.0783293
0.0788228
0.0792807
0.0797051
0.0800984
0.0804626
0.0807994
0.0811105
0.0813976
0.0816619
0.0819047
0.0821273
0.0823307
0.0825159
0.0826837
0.082835
0.0829705
0.0830909
0.0831968
0.0832887
0.0833672
0.0834327
0.0834856
0.0835262
0.0835549
0.083572
0.0835776
0.00669343
0.00682411
0.00721533
0.00786556
0.00877192
0.0099301
0.0113341
0.0129754
0.0148432
0.0169213
0.0191875
0.0216036
0.0241143
0.0266483
0.0291361
0.0315409
0.0338413
0.0360336
0.0381176
0.0400969
0.0419761
0.0437602
0.045455
0.0470659
0.0485982
0.0500569
0.0514469
0.0527724
0.0540377
0.0552462
0.0564017
0.0575069
0.058565
0.0595784
0.0605495
0.0614806
0.0623737
0.0632307
0.0640533
0.0648432
0.0656019
0.0663308
0.0670313
0.0677047
0.068352
0.0689745
0.0695733
0.0701492
0.0707034
0.0712366
0.0717498
0.0722437
0.0727192
0.073177
0.0736178
0.0740422
0.074451
0.0748446
0.0752238
0.075589
0.0759409
0.0762798
0.0766063
0.0769209
0.0772239
0.0775159
0.0777971
0.0780681
0.0783291
0.0785805
0.0788227
0.0790559
0.0792805
0.0794968
0.079705
0.0799054
0.0800983
0.080284
0.0804625
0.0806342
0.0807993
0.080958
0.0811105
0.081257
0.0813976
0.0815325
0.0816619
0.0817859
0.0819048
0.0820185
0.0821274
0.0822314
0.0823308
0.0824256
0.0825159
0.082602
0.0826838
0.0827614
0.0828351
0.0829048
0.0829706
0.0830326
0.083091
0.0831457
0.0831969
0.0832446
0.0832888
0.0833297
0.0833673
0.0834016
0.0834328
0.0834608
0.0834857
0.0835075
0.0835263
0.0835421
0.083555
0.083565
0.0835721
0.0835763
0.0835777
0.00673606
0.00725761
0.00881315
0.0113732
0.0148785
0.0192157
0.0241313
0.0291428
0.0338425
0.0381163
0.0419737
0.0454524
0.0485955
0.0514444
0.0540354
0.0563996
0.0585632
0.0605479
0.0623723
0.064052
0.0656008
0.0670303
0.0683511
0.0695725
0.0707027
0.0717491
0.0727186
0.0736173
0.0744505
0.0752234
0.0759405
0.076606
0.0772237
0.0777969
0.0783289
0.0788225
0.0792804
0.0797049
0.0800982
0.0804624
0.0807993
0.0811105
0.0813975
0.0816619
0.0819048
0.0821274
0.0823308
0.082516
0.0826838
0.0828351
0.0829706
0.083091
0.0831969
0.0832889
0.0833674
0.0834329
0.0834857
0.0835264
0.0835551
0.0835721
0.0835778
0.00678043
0.00691085
0.00730163
0.00795092
0.00885607
0.0100123
0.011414
0.0130517
0.0149152
0.0169869
0.0192452
0.0216506
0.0241491
0.0266718
0.0291498
0.0315484
0.0338438
0.0360334
0.0381151
0.0400932
0.0419714
0.0437552
0.0454497
0.0470605
0.0485928
0.0500517
0.0514419
0.0527676
0.0540331
0.0552419
0.0563976
0.0575031
0.0585613
0.0595749
0.0605463
0.0614775
0.0623708
0.0632279
0.0640507
0.0648407
0.0655996
0.0663286
0.0670292
0.0677027
0.0683502
0.0689728
0.0695716
0.0701477
0.0707019
0.0712352
0.0717485
0.0722425
0.072718
0.0731759
0.0736167
0.0740412
0.07445
0.0748437
0.075223
0.0755883
0.0759402
0.0762791
0.0766057
0.0769203
0.0772234
0.0775154
0.0777967
0.0780676
0.0783287
0.0785801
0.0788223
0.0790556
0.0792802
0.0794965
0.0797048
0.0799052
0.0800981
0.0802838
0.0804623
0.0806341
0.0807992
0.0809579
0.0811104
0.0812569
0.0813975
0.0815324
0.0816618
0.0817859
0.0819048
0.0820185
0.0821274
0.0822314
0.0823308
0.0824256
0.082516
0.082602
0.0826838
0.0827615
0.0828351
0.0829048
0.0829707
0.0830327
0.0830911
0.0831458
0.083197
0.0832447
0.0832889
0.0833298
0.0833674
0.0834018
0.0834329
0.0834609
0.0834858
0.0835076
0.0835264
0.0835423
0.0835551
0.0835651
0.0835722
0.0835764
0.0835778
0.00691072
0.00743069
0.00898114
0.0115317
0.015021
0.0193323
0.02421
0.0291861
0.0338647
0.0381271
0.0419783
0.0454536
0.0485949
0.0514429
0.0540336
0.0563978
0.0585613
0.0605461
0.0623706
0.0640504
0.0655992
0.0670288
0.0683497
0.0695711
0.0707014
0.0717479
0.0727175
0.0736161
0.0744494
0.0752224
0.0759395
0.0766051
0.0772227
0.077796
0.0783281
0.0788217
0.0792796
0.0797041
0.0800975
0.0804617
0.0807986
0.0811098
0.0813969
0.0816612
0.0819041
0.0821267
0.0823302
0.0825153
0.0826832
0.0828345
0.08297
0.0830904
0.0831963
0.0832883
0.0833668
0.0834323
0.0834852
0.0835258
0.0835545
0.0835716
0.0835772
0.00704031
0.00717026
0.00755904
0.00820519
0.0091055
0.0102555
0.0116487
0.0132762
0.0151262
0.0171816
0.0194189
0.0217997
0.0242707
0.0267664
0.0292224
0.031603
0.0338857
0.0360649
0.0381392
0.0401114
0.0419852
0.0437655
0.0454575
0.0470662
0.0485971
0.0500548
0.0514441
0.0527692
0.0540342
0.0552426
0.056398
0.0575032
0.0585613
0.0595748
0.060546
0.0614771
0.0623703
0.0632274
0.0640501
0.0648401
0.0655989
0.0663279
0.0670284
0.0677018
0.0683493
0.0689718
0.0695707
0.0701467
0.0707009
0.0712341
0.0717474
0.0722414
0.0727169
0.0731747
0.0736155
0.07404
0.0744488
0.0748425
0.0752218
0.075587
0.0759389
0.0762779
0.0766044
0.076919
0.0772221
0.0775141
0.0777954
0.0780664
0.0783274
0.0785788
0.078821
0.0790543
0.0792789
0.0794952
0.0797035
0.0799039
0.0800968
0.0802825
0.080461
0.0806328
0.0807979
0.0809566
0.0811091
0.0812556
0.0813962
0.0815311
0.0816606
0.0817846
0.0819035
0.0820172
0.0821261
0.0822301
0.0823295
0.0824243
0.0825147
0.0826007
0.0826825
0.0827602
0.0828339
0.0829035
0.0829694
0.0830314
0.0830898
0.0831445
0.0831957
0.0832434
0.0832876
0.0833285
0.0833661
0.0834005
0.0834316
0.0834596
0.0834845
0.0835064
0.0835252
0.083541
0.0835539
0.0835638
0.0835709
0.0835752
0.0835766
0.00716923
0.0076867
0.00922917
0.0117651
0.0152307
0.0195049
0.0243311
0.0292587
0.0339067
0.0381514
0.0419923
0.0454615
0.0485993
0.0514453
0.0540348
0.0563983
0.0585614
0.0605459
0.0623701
0.0640498
0.0655985
0.067028
0.0683488
0.0695702
0.0707003
0.0717468
0.0727163
0.0736149
0.0744482
0.0752211
0.0759383
0.0766038
0.0772214
0.0777947
0.0783267
0.0788204
0.0792783
0.0797028
0.0800962
0.0804604
0.0807972
0.0811084
0.0813955
0.0816599
0.0819028
0.0821254
0.0823288
0.082514
0.0826819
0.0828332
0.0829687
0.0830891
0.083195
0.083287
0.0833655
0.083431
0.0834839
0.0835245
0.0835532
0.0835703
0.0835759
0.00729744
0.00742683
0.00781366
0.0084566
0.00935212
0.0104958
0.0118807
0.0134979
0.0153345
0.0173738
0.0195904
0.021947
0.0243912
0.0268607
0.0292951
0.0316582
0.0339279
0.036097
0.0381638
0.0401301
0.0419994
0.0437763
0.0454656
0.0470723
0.0486016
0.0500582
0.0514466
0.052771
0.0540355
0.0552435
0.0563985
0.0575036
0.0585615
0.0595747
0.0605458
0.0614769
0.06237
0.0632269
0.0640496
0.0648395
0.0655982
0.0663271
0.0670276
0.067701
0.0683484
0.0689709
0.0695697
0.0701456
0.0706998
0.071233
0.0717462
0.0722402
0.0727157
0.0731735
0.0736143
0.0740388
0.0744476
0.0748413
0.0752205
0.0755857
0.0759376
0.0762766
0.0766031
0.0769177
0.0772208
0.0775127
0.077794
0.078065
0.078326
0.0785775
0.0788197
0.0790529
0.0792776
0.0794939
0.0797021
0.0799025
0.0800955
0.0802811
0.0804597
0.0806314
0.0807965
0.0809552
0.0811077
0.0812542
0.0813948
0.0815298
0.0816592
0.0817832
0.0819021
0.0820159
0.0821247
0.0822288
0.0823281
0.0824229
0.0825133
0.0825994
0.0826812
0.0827588
0.0828325
0.0829022
0.082968
0.0830301
0.0830884
0.0831432
0.0831943
0.083242
0.0832863
0.0833272
0.0833648
0.0833991
0.0834303
0.0834583
0.0834832
0.083505
0.0835238
0.0835396
0.0835525
0.0835625
0.0835696
0.0835738
0.0835752
0.00742495
0.00793991
0.00947437
0.0119957
0.0154377
0.0196753
0.0244511
0.0293315
0.0339492
0.0381763
0.0420067
0.0454698
0.048604
0.0514479
0.0540362
0.0563989
0.0585616
0.0605458
0.0623698
0.0640493
0.0655978
0.0670272
0.0683479
0.0695692
0.0706993
0.0717457
0.0727151
0.0736137
0.0744469
0.0752198
0.0759369
0.0766024
0.0772201
0.0777933
0.0783253
0.078819
0.0792769
0.0797014
0.0800948
0.080459
0.0807958
0.081107
0.0813941
0.0816585
0.0819014
0.082124
0.0823274
0.0825126
0.0826805
0.0828318
0.0829673
0.0830877
0.0831936
0.0832856
0.0833641
0.0834296
0.0834825
0.0835231
0.0835518
0.0835689
0.0835745
0.00755175
0.00768055
0.00806544
0.00870515
0.00959591
0.0107333
0.0121099
0.0137167
0.0155402
0.0175633
0.0197596
0.0220926
0.0245107
0.0269548
0.0293679
0.0317137
0.0339706
0.0361297
0.0381889
0.0401492
0.0420141
0.0437874
0.0454741
0.0470788
0.0486065
0.0500618
0.0514493
0.052773
0.0540369
0.0552446
0.0563993
0.057504
0.0585617
0.0595748
0.0605457
0.0614766
0.0623696
0.0632265
0.064049
0.0648389
0.0655975
0.0663264
0.0670268
0.0677001
0.0683475
0.0689699
0.0695686
0.0701446
0.0706987
0.0712319
0.0717451
0.072239
0.0727145
0.0731723
0.0736131
0.0740375
0.0744463
0.0748399
0.0752191
0.0755844
0.0759362
0.0762752
0.0766017
0.0769163
0.0772194
0.0775113
0.0777926
0.0780636
0.0783246
0.0785761
0.0788182
0.0790515
0.0792761
0.0794924
0.0797007
0.0799011
0.080094
0.0802796
0.0804582
0.08063
0.0807951
0.0809538
0.0811063
0.0812528
0.0813934
0.0815283
0.0816577
0.0817818
0.0819006
0.0820144
0.0821233
0.0822273
0.0823267
0.0824215
0.0825119
0.0825979
0.0826797
0.0827574
0.082831
0.0829007
0.0829666
0.0830286
0.083087
0.0831417
0.0831929
0.0832406
0.0832849
0.0833258
0.0833634
0.0833977
0.0834288
0.0834568
0.0834817
0.0835036
0.0835224
0.0835382
0.0835511
0.083561
0.0835681
0.0835724
0.0835738
0.00767785
0.00819027
0.00971674
0.0122234
0.015642
0.0198435
0.02457
0.0294043
0.0339921
0.0382016
0.0420216
0.0454785
0.0486091
0.0514508
0.0540378
0.0563997
0.0585618
0.0605457
0.0623695
0.0640488
0.0655972
0.0670264
0.068347
0.0695681
0.0706981
0.0717445
0.0727139
0.0736124
0.0744456
0.0752184
0.0759355
0.076601
0.0772186
0.0777919
0.0783239
0.0788175
0.0792754
0.0796999
0.0800933
0.0804575
0.0807943
0.0811055
0.0813926
0.081657
0.0818999
0.0821225
0.0823259
0.0825111
0.082679
0.0828303
0.0829658
0.0830862
0.0831922
0.0832841
0.0833626
0.0834281
0.083481
0.0835216
0.0835503
0.0835674
0.083573
0.00780324
0.00793142
0.00831439
0.00895084
0.00983685
0.0109679
0.0123362
0.0139327
0.0157432
0.0177502
0.0199267
0.0222364
0.0246291
0.0270486
0.0294408
0.0317697
0.0340137
0.0361629
0.0382144
0.0401689
0.0420292
0.0437991
0.045483
0.0470856
0.0486117
0.0500658
0.0514523
0.0527753
0.0540386
0.0552458
0.0564001
0.0575046
0.058562
0.0595749
0.0605457
0.0614765
0.0623693
0.0632261
0.0640486
0.0648383
0.0655968
0.0663256
0.067026
0.0676992
0.0683465
0.0689689
0.0695676
0.0701435
0.0706976
0.0712307
0.0717439
0.0722378
0.0727132
0.073171
0.0736117
0.0740361
0.0744449
0.0748386
0.0752177
0.075583
0.0759348
0.0762737
0.0766003
0.0769148
0.0772179
0.0775098
0.0777911
0.0780621
0.0783231
0.0785746
0.0788167
0.07905
0.0792746
0.0794909
0.0796991
0.0798996
0.0800925
0.0802781
0.0804567
0.0806284
0.0807936
0.0809523
0.0811048
0.0812512
0.0813918
0.0815268
0.0816562
0.0817803
0.0818991
0.0820129
0.0821217
0.0822258
0.0823252
0.08242
0.0825104
0.0825964
0.0826782
0.0827559
0.0828295
0.0828992
0.0829651
0.0830271
0.0830855
0.0831402
0.0831914
0.0832391
0.0832833
0.0833242
0.0833618
0.0833962
0.0834273
0.0834553
0.0834802
0.0835021
0.0835209
0.0835367
0.0835496
0.0835595
0.0835666
0.0835709
0.0835723
0.00792791
0.00843779
0.00995624
0.0124483
0.0158436
0.0200094
0.0246879
0.0294772
0.0340354
0.0382274
0.042037
0.0454876
0.0486144
0.0514539
0.0540395
0.0564006
0.0585623
0.0605457
0.0623692
0.0640483
0.0655965
0.0670256
0.068346
0.0695671
0.070697
0.0717432
0.0727126
0.073611
0.0744442
0.075217
0.0759341
0.0765995
0.0772171
0.0777903
0.0783223
0.078816
0.0792738
0.0796983
0.0800917
0.0804559
0.0807928
0.081104
0.0813911
0.0816554
0.0818983
0.082121
0.0823244
0.0825096
0.0826774
0.0828287
0.0829643
0.0830847
0.0831906
0.0832826
0.0833611
0.0834265
0.0834794
0.0835201
0.0835488
0.0835658
0.0835715
0.00805187
0.00817944
0.00856047
0.00919366
0.0100749
0.0111996
0.0125597
0.0141459
0.0159434
0.0179345
0.0200915
0.0223785
0.0247465
0.0271421
0.0295138
0.0318261
0.0340573
0.0361966
0.0382405
0.0401891
0.0420449
0.0438111
0.0454923
0.0470928
0.0486172
0.05007
0.0514556
0.0527778
0.0540405
0.0552472
0.0564011
0.0575053
0.0585625
0.0595752
0.0605458
0.0614764
0.0623691
0.0632258
0.0640481
0.0648377
0.0655962
0.0663249
0.0670252
0.0676984
0.0683456
0.0689679
0.0695665
0.0701424
0.0706964
0.0712295
0.0717426
0.0722365
0.0727119
0.0731696
0.0736103
0.0740347
0.0744435
0.0748371
0.0752163
0.0755815
0.0759333
0.0762722
0.0765987
0.0769133
0.0772163
0.0775083
0.0777896
0.0780605
0.0783215
0.078573
0.0788152
0.0790484
0.079273
0.0794893
0.0796975
0.079898
0.0800909
0.0802765
0.0804551
0.0806268
0.080792
0.0809507
0.0811032
0.0812496
0.0813902
0.0815252
0.0816546
0.0817787
0.0818975
0.0820113
0.0821201
0.0822242
0.0823236
0.0824184
0.0825088
0.0825948
0.0826766
0.0827543
0.0828279
0.0828976
0.0829635
0.0830255
0.0830839
0.0831386
0.0831898
0.0832375
0.0832817
0.0833227
0.0833603
0.0833946
0.0834257
0.0834537
0.0834786
0.0835005
0.0835193
0.0835351
0.083548
0.083558
0.083565
0.0835693
0.0835707
0.00817512
0.00868244
0.0101929
0.0126704
0.0160425
0.0201731
0.0248049
0.0295503
0.0340793
0.0382538
0.0420528
0.0454971
0.0486201
0.0514573
0.0540415
0.0564017
0.0585628
0.0605458
0.062369
0.0640479
0.0655959
0.0670248
0.0683451
0.069566
0.0706958
0.071742
0.0727112
0.0736096
0.0744427
0.0752155
0.0759325
0.0765979
0.0772155
0.0777887
0.0783207
0.0788143
0.0792722
0.0796967
0.0800901
0.0804543
0.0807911
0.0811023
0.0813894
0.0816538
0.0818967
0.0821193
0.0823227
0.0825079
0.0826758
0.0828271
0.0829626
0.0830831
0.083189
0.0832809
0.0833594
0.0834249
0.0834778
0.0835185
0.0835472
0.0835642
0.0835699
0.00829765
0.00842459
0.00880369
0.00943361
0.0103101
0.0114285
0.0127804
0.0143562
0.0161409
0.0181162
0.0202541
0.0225188
0.0248629
0.0272353
0.0295868
0.0318829
0.0341014
0.0362308
0.0382672
0.0402098
0.0420609
0.0438236
0.045502
0.0471003
0.0486231
0.0500746
0.0514591
0.0527805
0.0540426
0.0552488
0.0564023
0.0575062
0.0585631
0.0595755
0.0605459
0.0614764
0.062369
0.0632255
0.0640477
0.0648372
0.0655956
0.0663242
0.0670244
0.0676975
0.0683446
0.0689669
0.0695654
0.0701412
0.0706952
0.0712283
0.0717413
0.0722351
0.0727105
0.0731682
0.0736089
0.0740333
0.074442
0.0748356
0.0752147
0.0755799
0.0759317
0.0762706
0.0765971
0.0769117
0.0772147
0.0775067
0.0777879
0.0780589
0.0783199
0.0785713
0.0788135
0.0790467
0.0792714
0.0794876
0.0796959
0.0798963
0.0800892
0.0802748
0.0804534
0.0806252
0.0807903
0.080949
0.0811015
0.0812479
0.0813886
0.0815235
0.0816529
0.081777
0.0818958
0.0820096
0.0821185
0.0822225
0.0823219
0.0824167
0.0825071
0.0825931
0.0826749
0.0827526
0.0828263
0.082896
0.0829618
0.0830239
0.0830822
0.0831369
0.0831881
0.0832358
0.0832801
0.083321
0.0833586
0.0833929
0.0834241
0.0834521
0.083477
0.0834988
0.0835176
0.0835334
0.0835463
0.0835563
0.0835634
0.0835676
0.083569
0.00841946
0.00892423
0.0104266
0.0128896
0.0162387
0.0203345
0.0249207
0.0296234
0.0341236
0.0382807
0.0420691
0.045507
0.0486261
0.0514609
0.0540437
0.056403
0.0585634
0.060546
0.0623689
0.0640475
0.0655952
0.067024
0.0683441
0.0695649
0.0706946
0.0717407
0.0727098
0.0736082
0.0744412
0.0752139
0.0759309
0.0765963
0.0772139
0.0777871
0.078319
0.0788126
0.0792705
0.079695
0.0800884
0.0804525
0.0807894
0.0811006
0.0813877
0.0816521
0.081895
0.0821176
0.082321
0.0825062
0.0826741
0.0828254
0.0829609
0.0830813
0.0831873
0.0832792
0.0833577
0.0834232
0.0834761
0.0835168
0.0835455
0.0835625
0.0835682
0.00854056
0.00866688
0.00904404
0.00967068
0.0105424
0.0116545
0.0129982
0.0145638
0.0163357
0.0182954
0.0204144
0.0226575
0.0249783
0.0273281
0.02966
0.0319401
0.0341459
0.0362656
0.0382943
0.040231
0.0420775
0.0438365
0.0455121
0.0471082
0.0486292
0.0500794
0.0514628
0.0527834
0.0540448
0.0552505
0.0564036
0.0575071
0.0585638
0.059576
0.0605462
0.0614764
0.0623688
0.0632252
0.0640473
0.0648367
0.0655949
0.0663235
0.0670236
0.0676966
0.0683436
0.0689659
0.0695643
0.07014
0.070694
0.071227
0.07174
0.0722338
0.0727091
0.0731668
0.0736074
0.0740318
0.0744404
0.074834
0.0752131
0.0755783
0.0759301
0.076269
0.0765955
0.07691
0.077213
0.077505
0.0777862
0.0780572
0.0783182
0.0785696
0.0788118
0.079045
0.0792696
0.0794859
0.0796941
0.0798946
0.0800875
0.0802731
0.0804517
0.0806234
0.0807885
0.0809472
0.0810997
0.0812462
0.0813868
0.0815217
0.0816512
0.0817752
0.0818941
0.0820079
0.0821167
0.0822208
0.0823201
0.082415
0.0825053
0.0825914
0.0826732
0.0827509
0.0828245
0.0828942
0.08296
0.0830221
0.0830805
0.0831352
0.0831864
0.0832341
0.0832783
0.0833192
0.0833568
0.0833912
0.0834223
0.0834503
0.0834752
0.0834971
0.0835159
0.0835317
0.0835446
0.0835545
0.0835616
0.0835659
0.0835673
0.00866094
0.00916314
0.0106575
0.013106
0.0164321
0.0204938
0.0250356
0.0296967
0.0341684
0.0383081
0.0420859
0.0455173
0.0486324
0.0514648
0.054046
0.0564044
0.0585641
0.0605463
0.0623688
0.0640471
0.0655946
0.0670232
0.0683431
0.0695638
0.0706933
0.0717393
0.0727084
0.0736067
0.0744396
0.0752123
0.0759293
0.0765946
0.0772122
0.0777853
0.0783173
0.0788109
0.0792687
0.0796932
0.0800866
0.0804508
0.0807876
0.0810988
0.0813859
0.0816503
0.0818932
0.0821158
0.0823192
0.0825044
0.0826723
0.0828236
0.0829591
0.0830796
0.0831855
0.0832774
0.0833559
0.0834214
0.0834743
0.083515
0.0835437
0.0835607
0.0835664
0.0087806
0.00890629
0.00928152
0.00990486
0.0107719
0.0118775
0.0132131
0.0147685
0.0165278
0.018472
0.0205726
0.0227944
0.0250927
0.0274206
0.0297333
0.0319976
0.034191
0.0363008
0.038322
0.0402527
0.0420945
0.0438499
0.0455226
0.0471164
0.0486357
0.0500845
0.0514668
0.0527865
0.0540473
0.0552524
0.0564051
0.0575082
0.0585646
0.0595765
0.0605465
0.0614766
0.0623688
0.063225
0.0640469
0.0648362
0.0655943
0.0663227
0.0670228
0.0676957
0.0683426
0.0689648
0.0695632
0.0701388
0.0706927
0.0712257
0.0717386
0.0722323
0.0727076
0.0731653
0.0736059
0.0740302
0.0744388
0.0748324
0.0752115
0.0755766
0.0759284
0.0762673
0.0765938
0.0769083
0.0772113
0.0775032
0.0777844
0.0780554
0.0783164
0.0785678
0.07881
0.0790432
0.0792678
0.0794841
0.0796923
0.0798927
0.0800856
0.0802713
0.0804498
0.0806216
0.0807867
0.0809454
0.0810979
0.0812444
0.081385
0.0815199
0.0816493
0.0817734
0.0818922
0.082006
0.0821149
0.0822189
0.0823183
0.0824131
0.0825035
0.0825895
0.0826714
0.082749
0.0828227
0.0828924
0.0829582
0.0830203
0.0830786
0.0831334
0.0831846
0.0832322
0.0832765
0.0833174
0.083355
0.0833894
0.0834205
0.0834485
0.0834734
0.0834952
0.0835141
0.0835299
0.0835428
0.0835527
0.0835598
0.083564
0.0835655
0.00889955
0.00939917
0.0108855
0.0133195
0.0166228
0.0206508
0.0251495
0.02977
0.0342136
0.038336
0.0421032
0.0455279
0.0486391
0.0514689
0.0540486
0.0564059
0.058565
0.0605467
0.0623688
0.0640468
0.065594
0.0670224
0.0683421
0.0695626
0.070692
0.0717379
0.0727069
0.0736051
0.074438
0.0752106
0.0759275
0.0765929
0.0772104
0.0777835
0.0783155
0.078809
0.0792669
0.0796914
0.0800847
0.0804489
0.0807857
0.0810969
0.081384
0.0816484
0.0818913
0.0821139
0.0823174
0.0825026
0.0826704
0.0828217
0.0829573
0.0830777
0.0831836
0.0832756
0.0833541
0.0834196
0.0834725
0.0835131
0.0835418
0.0835589
0.0835645
0.00901777
0.00914282
0.00951611
0.0101362
0.0109984
0.0120977
0.0134252
0.0149704
0.0167172
0.0186461
0.0207285
0.0229297
0.025206
0.0275127
0.0298067
0.0320555
0.0342364
0.0363366
0.0383501
0.0402749
0.042112
0.0438636
0.0455334
0.047125
0.0486425
0.0500899
0.0514711
0.0527899
0.05405
0.0552545
0.0564067
0.0575095
0.0585655
0.0595772
0.0605469
0.0614767
0.0623688
0.0632248
0.0640466
0.0648357
0.0655937
0.066322
0.067022
0.0676948
0.0683416
0.0689637
0.069562
0.0701376
0.0706914
0.0712243
0.0717372
0.0722309
0.0727061
0.0731637
0.0736043
0.0740286
0.0744372
0.0748307
0.0752098
0.0755749
0.0759267
0.0762655
0.076592
0.0769065
0.0772095
0.0775014
0.0777826
0.0780535
0.0783145
0.0785659
0.0788081
0.0790413
0.0792659
0.0794822
0.0796904
0.0798908
0.0800837
0.0802694
0.0804479
0.0806197
0.0807848
0.0809435
0.081096
0.0812424
0.0813831
0.081518
0.0816474
0.0817715
0.0818903
0.0820041
0.082113
0.082217
0.0823164
0.0824112
0.0825016
0.0825876
0.0826694
0.0827471
0.0828208
0.0828905
0.0829563
0.0830184
0.0830767
0.0831315
0.0831827
0.0832304
0.0832746
0.0833155
0.0833531
0.0833875
0.0834186
0.0834466
0.0834715
0.0834933
0.0835122
0.083528
0.0835409
0.0835508
0.0835579
0.0835622
0.0835636
0.00913527
0.00963232
0.0111106
0.0135301
0.0168109
0.0208057
0.0252624
0.0298434
0.0342594
0.0383644
0.0421209
0.045539
0.048646
0.0514733
0.0540514
0.0564076
0.058566
0.0605471
0.0623688
0.0640465
0.0655935
0.0670215
0.0683411
0.0695614
0.0706907
0.0717365
0.0727054
0.0736035
0.0744363
0.0752089
0.0759258
0.076591
0.0772085
0.0777817
0.0783136
0.0788071
0.0792649
0.0796894
0.0800828
0.0804469
0.0807838
0.081095
0.0813821
0.0816464
0.0818893
0.082112
0.0823154
0.0825006
0.0826685
0.0828198
0.0829553
0.0830758
0.0831817
0.0832736
0.0833521
0.0834176
0.0834705
0.0835112
0.0835399
0.0835569
0.0835626
0.00925206
0.00937648
0.00974782
0.0103646
0.0112221
0.0123151
0.0136344
0.0151695
0.0169038
0.0188177
0.0208823
0.0230634
0.0253184
0.0276045
0.0298801
0.0321137
0.0342824
0.0363729
0.0383788
0.0402975
0.0421299
0.0438779
0.0455447
0.047134
0.0486496
0.0500955
0.0514756
0.0527935
0.0540528
0.0552568
0.0564085
0.0575109
0.0585665
0.0595779
0.0605473
0.061477
0.0623688
0.0632247
0.0640463
0.0648353
0.0655932
0.0663213
0.0670211
0.0676938
0.0683406
0.0689626
0.0695608
0.0701363
0.0706901
0.0712229
0.0717357
0.0722294
0.0727046
0.0731621
0.0736026
0.0740269
0.0744354
0.074829
0.075208
0.0755731
0.0759248
0.0762637
0.0765901
0.0769046
0.0772076
0.0774995
0.0777807
0.0780516
0.0783126
0.078564
0.0788061
0.0790394
0.079264
0.0794802
0.0796884
0.0798889
0.0800818
0.0802674
0.0804459
0.0806177
0.0807828
0.0809415
0.081094
0.0812405
0.0813811
0.081516
0.0816454
0.0817695
0.0818883
0.0820021
0.082111
0.082215
0.0823144
0.0824092
0.0824996
0.0825857
0.0826675
0.0827452
0.0828188
0.0828885
0.0829543
0.0830164
0.0830748
0.0831295
0.0831807
0.0832284
0.0832726
0.0833136
0.0833512
0.0833855
0.0834167
0.0834447
0.0834695
0.0834914
0.0835102
0.083526
0.0835389
0.0835489
0.083556
0.0835602
0.0835616
0.00936812
0.00986259
0.0113328
0.0137379
0.0169962
0.0209584
0.0253742
0.0299168
0.0343056
0.0383934
0.0421391
0.0455505
0.0486533
0.051478
0.0540544
0.0564095
0.058567
0.0605476
0.0623689
0.0640462
0.0655929
0.0670207
0.0683401
0.0695602
0.0706894
0.071735
0.0727038
0.0736018
0.0744346
0.0752071
0.0759239
0.0765891
0.0772066
0.0777797
0.0783116
0.0788051
0.0792629
0.0796874
0.0800807
0.0804449
0.0807818
0.081093
0.0813801
0.0816444
0.0818873
0.08211
0.0823134
0.0824986
0.0826664
0.0828178
0.0829533
0.0830737
0.0831797
0.0832716
0.0833501
0.0834156
0.0834685
0.0835092
0.0835379
0.0835549
0.0835606
0.00948346
0.00960725
0.00997664
0.0105901
0.0114428
0.0125295
0.0138407
0.0153658
0.0170878
0.0189868
0.021034
0.0231954
0.0254298
0.0276958
0.0299536
0.0321722
0.0343288
0.0364097
0.038408
0.0403207
0.0421483
0.0438925
0.0455564
0.0471433
0.0486571
0.0501015
0.0514804
0.0527974
0.0540559
0.0552592
0.0564105
0.0575124
0.0585676
0.0595787
0.0605479
0.0614773
0.0623689
0.0632246
0.0640461
0.0648349
0.0655926
0.0663206
0.0670203
0.0676929
0.0683396
0.0689615
0.0695596
0.070135
0.0706887
0.0712215
0.0717342
0.0722278
0.072703
0.0731604
0.0736009
0.0740251
0.0744337
0.0748272
0.0752062
0.0755712
0.0759229
0.0762618
0.0765882
0.0769026
0.0772056
0.0774975
0.0777787
0.0780496
0.0783106
0.078562
0.0788041
0.0790373
0.0792619
0.0794782
0.0796864
0.0798868
0.0800797
0.0802653
0.0804439
0.0806156
0.0807807
0.0809394
0.0810919
0.0812384
0.081379
0.0815139
0.0816434
0.0817674
0.0818863
0.0820001
0.0821089
0.082213
0.0823123
0.0824072
0.0824975
0.0825836
0.0826654
0.0827431
0.0828167
0.0828864
0.0829523
0.0830143
0.0830727
0.0831274
0.0831786
0.0832263
0.0832706
0.0833115
0.0833491
0.0833835
0.0834146
0.0834426
0.0834675
0.0834893
0.0835081
0.083524
0.0835369
0.0835468
0.0835539
0.0835581
0.0835595
0.00959808
0.01009
0.0115521
0.0139428
0.0171788
0.021109
0.0254851
0.0299903
0.0343522
0.0384228
0.0421577
0.0455624
0.0486609
0.0514829
0.0540575
0.0564115
0.0585682
0.0605482
0.062369
0.0640459
0.0655923
0.0670199
0.0683391
0.069559
0.070688
0.0717335
0.0727021
0.0736001
0.0744328
0.0752052
0.075922
0.0765872
0.0772046
0.0777777
0.0783095
0.0788031
0.0792609
0.0796853
0.0800787
0.0804428
0.0807797
0.0810909
0.0813779
0.0816423
0.0818852
0.0821079
0.0823113
0.0824965
0.0826643
0.0828157
0.0829512
0.0830717
0.0831776
0.0832695
0.083348
0.0834135
0.0834664
0.0835071
0.0835358
0.0835529
0.0835585
0.00971199
0.00983514
0.0102026
0.0108127
0.0116607
0.0127411
0.0140442
0.0155592
0.0172691
0.0191534
0.0211835
0.0233257
0.0255401
0.0277867
0.0300271
0.032231
0.0343757
0.036447
0.0384377
0.0403444
0.0421672
0.0439076
0.0455684
0.0471529
0.0486648
0.0501077
0.0514854
0.0528014
0.0540592
0.0552619
0.0564125
0.057514
0.0585689
0.0595796
0.0605485
0.0614777
0.0623691
0.0632246
0.0640458
0.0648345
0.0655921
0.0663199
0.0670195
0.067692
0.0683385
0.0689603
0.0695584
0.0701337
0.0706873
0.07122
0.0717327
0.0722262
0.0727013
0.0731587
0.0735992
0.0740233
0.0744318
0.0748253
0.0752043
0.0755693
0.075921
0.0762598
0.0765862
0.0769006
0.0772036
0.0774955
0.0777766
0.0780475
0.0783085
0.0785599
0.078802
0.0790352
0.0792598
0.0794761
0.0796843
0.0798847
0.0800776
0.0802632
0.0804417
0.0806135
0.0807786
0.0809373
0.0810898
0.0812363
0.0813769
0.0815118
0.0816412
0.0817653
0.0818841
0.0819979
0.0821068
0.0822108
0.0823102
0.082405
0.0824954
0.0825815
0.0826633
0.082741
0.0828146
0.0828843
0.0829501
0.0830122
0.0830706
0.0831253
0.0831765
0.0832242
0.0832685
0.0833094
0.083347
0.0833813
0.0834125
0.0834405
0.0834654
0.0834872
0.083506
0.0835218
0.0835347
0.0835447
0.0835518
0.083556
0.0835574
0.00982517
0.0103145
0.0117686
0.0141449
0.0173587
0.0212575
0.0255949
0.0300639
0.0343993
0.0384528
0.0421768
0.0455746
0.0486688
0.051488
0.0540609
0.0564136
0.0585696
0.0605489
0.0623692
0.0640457
0.0655918
0.0670191
0.068338
0.0695577
0.0706866
0.0717319
0.0727005
0.0735983
0.0744309
0.0752033
0.07592
0.0765852
0.0772025
0.0777756
0.0783074
0.0788009
0.0792587
0.0796832
0.0800765
0.0804406
0.0807775
0.0810887
0.0813758
0.0816401
0.081883
0.0821057
0.0823091
0.0824943
0.0826622
0.0828135
0.0829491
0.0830695
0.0831754
0.0832674
0.0833459
0.0834114
0.0834643
0.0835049
0.0835336
0.0835507
0.0835563
0.00993763
0.0100601
0.0104256
0.0110325
0.0118757
0.0129497
0.0142449
0.01575
0.0174477
0.0193176
0.0213309
0.0234545
0.0256495
0.0278773
0.0301007
0.0322901
0.034423
0.0364848
0.0384679
0.0403686
0.0421866
0.0439231
0.0455809
0.047163
0.0486729
0.0501143
0.0514907
0.0528057
0.0540626
0.0552647
0.0564148
0.0575158
0.0585703
0.0595807
0.0605493
0.0614782
0.0623693
0.0632246
0.0640456
0.0648341
0.0655915
0.0663193
0.0670187
0.067691
0.0683375
0.0689591
0.0695571
0.0701323
0.0706858
0.0712185
0.0717311
0.0722245
0.0726996
0.073157
0.0735974
0.0740215
0.0744299
0.0748234
0.0752023
0.0755673
0.075919
0.0762577
0.0765841
0.0768985
0.0772015
0.0774933
0.0777745
0.0780454
0.0783063
0.0785577
0.0787998
0.079033
0.0792576
0.0794739
0.0796821
0.0798825
0.0800754
0.080261
0.0804395
0.0806113
0.0807764
0.0809351
0.0810876
0.081234
0.0813746
0.0815096
0.081639
0.0817631
0.0818819
0.0819957
0.0821046
0.0822086
0.082308
0.0824028
0.0824932
0.0825792
0.0826611
0.0827387
0.0828124
0.0828821
0.0829479
0.08301
0.0830684
0.0831231
0.0831743
0.083222
0.0832663
0.0833072
0.0833448
0.0833791
0.0834103
0.0834383
0.0834632
0.083485
0.0835038
0.0835196
0.0835325
0.0835425
0.0835496
0.0835538
0.0835552
0.0100494
0.0105361
0.0119821
0.0143442
0.017536
0.0214038
0.0257038
0.0301374
0.0344468
0.0384832
0.0421964
0.0455873
0.0486771
0.0514935
0.0540645
0.056416
0.058571
0.0605497
0.0623694
0.0640455
0.0655913
0.0670183
0.0683369
0.0695565
0.0706851
0.0717303
0.0726987
0.0735965
0.074429
0.0752013
0.0759179
0.0765831
0.0772004
0.0777734
0.0783052
0.0787987
0.0792565
0.0796809
0.0800742
0.0804384
0.0807752
0.0810864
0.0813735
0.0816379
0.0818808
0.0821034
0.0823069
0.0824921
0.0826599
0.0828113
0.0829468
0.0830672
0.0831732
0.0832651
0.0833436
0.0834091
0.083462
0.0835027
0.0835314
0.0835485
0.0835541
0.0101604
0.0102823
0.0106458
0.0112493
0.0120878
0.0131556
0.0144427
0.0159379
0.0176237
0.0194793
0.0214762
0.0235817
0.0257578
0.0279674
0.0301742
0.0323495
0.0344707
0.0365231
0.0384986
0.0403932
0.0422064
0.0439391
0.0455938
0.0471733
0.0486813
0.0501211
0.0514963
0.0528102
0.0540663
0.0552676
0.0564172
0.0575177
0.0585717
0.0595818
0.0605501
0.0614787
0.0623696
0.0632246
0.0640455
0.0648338
0.065591
0.0663186
0.0670179
0.0676901
0.0683364
0.0689579
0.0695558
0.070131
0.0706844
0.0712169
0.0717295
0.0722229
0.0726978
0.0731552
0.0735955
0.0740196
0.074428
0.0748214
0.0752003
0.0755653
0.0759169
0.0762556
0.076582
0.0768964
0.0771993
0.0774912
0.0777723
0.0780432
0.0783041
0.0785555
0.0787976
0.0790308
0.0792554
0.0794716
0.0796798
0.0798802
0.0800731
0.0802587
0.0804372
0.080609
0.0807741
0.0809328
0.0810853
0.0812317
0.0813724
0.0815073
0.0816367
0.0817608
0.0818796
0.0819934
0.0821023
0.0822063
0.0823057
0.0824005
0.0824909
0.0825769
0.0826588
0.0827365
0.0828101
0.0828798
0.0829457
0.0830077
0.0830661
0.0831208
0.083172
0.0832197
0.083264
0.0833049
0.0833425
0.0833768
0.083408
0.083436
0.0834609
0.0834827
0.0835015
0.0835174
0.0835303
0.0835402
0.0835473
0.0835515
0.0835529
0.0102707
0.0107548
0.0121928
0.0145405
0.0177106
0.0215481
0.0258116
0.030211
0.0344947
0.0385142
0.0422165
0.0456003
0.0486857
0.0514991
0.0540682
0.0564184
0.0585725
0.0605505
0.0623697
0.0640454
0.0655907
0.0670174
0.0683358
0.0695551
0.0706836
0.0717286
0.0726969
0.0735946
0.074427
0.0751992
0.0759158
0.0765809
0.0771982
0.0777712
0.078303
0.0787964
0.0792542
0.0796786
0.0800719
0.0804361
0.0807729
0.0810841
0.0813712
0.0816355
0.0818784
0.0821011
0.0823045
0.0824897
0.0826576
0.0828089
0.0829445
0.0830649
0.0831708
0.0832628
0.0833413
0.0834068
0.0834597
0.0835004
0.0835291
0.0835461
0.0835518
0.0103803
0.0105015
0.0108631
0.0114633
0.012297
0.0133585
0.0146377
0.016123
0.017797
0.0196386
0.0216195
0.0237073
0.0258652
0.028057
0.0302477
0.0324092
0.0345188
0.0365619
0.0385299
0.0404184
0.0422267
0.0439554
0.045607
0.0471841
0.0486901
0.0501282
0.0515021
0.052815
0.0540702
0.0552708
0.0564197
0.0575197
0.0585733
0.059583
0.0605509
0.0614793
0.0623699
0.0632247
0.0640453
0.0648334
0.0655905
0.0663179
0.067017
0.0676891
0.0683353
0.0689567
0.0695545
0.0701295
0.0706828
0.0712153
0.0717278
0.0722211
0.072696
0.0731533
0.0735936
0.0740176
0.074426
0.0748193
0.0751982
0.0755632
0.0759148
0.0762535
0.0765798
0.0768942
0.0771971
0.0774889
0.07777
0.0780409
0.0783018
0.0785532
0.0787953
0.0790285
0.079253
0.0794693
0.0796775
0.0798779
0.0800707
0.0802563
0.0804349
0.0806066
0.0807717
0.0809304
0.0810829
0.0812294
0.08137
0.0815049
0.0816343
0.0817584
0.0818772
0.081991
0.0820999
0.0822039
0.0823033
0.0823982
0.0824885
0.0825746
0.0826564
0.0827341
0.0828077
0.0828774
0.0829433
0.0830054
0.0830637
0.0831185
0.0831696
0.0832173
0.0832616
0.0833025
0.0833401
0.0833745
0.0834056
0.0834336
0.0834585
0.0834804
0.0834992
0.083515
0.0835279
0.0835379
0.083545
0.0835492
0.0835506
0.0104891
0.0109706
0.0124006
0.0147341
0.0178826
0.0216904
0.0259185
0.0302845
0.034543
0.0385456
0.042237
0.0456138
0.0486945
0.0515051
0.0540722
0.056421
0.0585742
0.0605514
0.0623701
0.0640453
0.0655902
0.0670166
0.0683347
0.0695538
0.0706821
0.0717269
0.0726951
0.0735926
0.074425
0.0751971
0.0759137
0.0765787
0.0771959
0.0777689
0.0783007
0.0787941
0.0792518
0.0796763
0.0800695
0.0804337
0.0807705
0.0810817
0.0813688
0.0816331
0.081876
0.0820987
0.0823021
0.0824873
0.0826552
0.0828065
0.0829421
0.0830625
0.0831684
0.0832604
0.0833389
0.0834044
0.0834573
0.083498
0.0835267
0.0835437
0.0835494
0.0105973
0.0107179
0.0110775
0.0116744
0.0125034
0.0135586
0.0148298
0.0163054
0.0179677
0.0197955
0.0217607
0.0238314
0.0259716
0.0281462
0.0303212
0.0324691
0.0345674
0.0366011
0.0385616
0.040444
0.0422474
0.0439722
0.0456206
0.0471952
0.0486991
0.0501356
0.0515081
0.0528199
0.0540743
0.0552741
0.0564224
0.0575219
0.058575
0.0595843
0.0605519
0.0614799
0.0623703
0.0632248
0.0640452
0.0648331
0.06559
0.0663172
0.0670162
0.0676881
0.0683342
0.0689555
0.0695531
0.0701281
0.0706813
0.0712137
0.0717261
0.0722193
0.0726942
0.0731514
0.0735916
0.0740156
0.0744239
0.0748172
0.0751961
0.075561
0.0759125
0.0762512
0.0765775
0.0768919
0.0771948
0.0774866
0.0777677
0.0780385
0.0782995
0.0785508
0.0787929
0.0790261
0.0792506
0.0794669
0.079675
0.0798754
0.0800683
0.0802539
0.0804324
0.0806042
0.0807693
0.080928
0.0810805
0.0812269
0.0813675
0.0815025
0.0816319
0.0817559
0.0818748
0.0819886
0.0820974
0.0822015
0.0823009
0.0823957
0.0824861
0.0825721
0.082654
0.0827316
0.0828053
0.082875
0.0829408
0.0830029
0.0830613
0.083116
0.0831672
0.0832149
0.0832592
0.0833001
0.0833377
0.083372
0.0834032
0.0834312
0.0834561
0.0834779
0.0834968
0.0835126
0.0835255
0.0835354
0.0835425
0.0835468
0.0835482
0.0107047
0.0111836
0.0126055
0.0149249
0.018052
0.0218306
0.0260244
0.030358
0.0345918
0.0385776
0.0422579
0.0456276
0.0487038
0.0515113
0.0540764
0.0564238
0.0585759
0.0605524
0.0623705
0.0640452
0.0655898
0.0670158
0.0683336
0.0695525
0.0706805
0.0717252
0.0726932
0.0735906
0.0744229
0.075195
0.0759114
0.0765764
0.0771936
0.0777665
0.0782982
0.0787917
0.0792494
0.0796738
0.0800671
0.0804312
0.080768
0.0810792
0.0813663
0.0816306
0.0818735
0.0820962
0.0822996
0.0824848
0.0826527
0.082804
0.0829396
0.08306
0.083166
0.0832579
0.0833365
0.083402
0.0834549
0.0834955
0.0835242
0.0835413
0.0835469
0.0108114
0.0109314
0.011289
0.0118826
0.0127069
0.0137558
0.0150192
0.0164851
0.0181358
0.01995
0.0218999
0.023954
0.026077
0.0282349
0.0303947
0.0325293
0.0346163
0.0366408
0.0385937
0.0404701
0.0422686
0.0439894
0.0456347
0.0472066
0.0487085
0.0501433
0.0515145
0.0528251
0.0540785
0.0552776
0.0564253
0.0575242
0.0585769
0.0595857
0.060553
0.0614806
0.0623707
0.063225
0.0640452
0.0648328
0.0655895
0.0663166
0.0670154
0.0676871
0.0683331
0.0689542
0.0695518
0.0701266
0.0706797
0.071212
0.0717243
0.0722175
0.0726923
0.0731494
0.0735896
0.0740135
0.0744218
0.0748151
0.0751938
0.0755587
0.0759103
0.0762489
0.0765752
0.0768895
0.0771924
0.0774842
0.0777653
0.0780361
0.078297
0.0785483
0.0787904
0.0790236
0.0792481
0.0794644
0.0796725
0.0798729
0.0800658
0.0802514
0.0804299
0.0806017
0.0807668
0.0809255
0.0810779
0.0812244
0.081365
0.0814999
0.0816294
0.0817534
0.0818723
0.0819861
0.0820949
0.082199
0.0822984
0.0823932
0.0824836
0.0825696
0.0826514
0.0827291
0.0828028
0.0828725
0.0829383
0.0830004
0.0830588
0.0831135
0.0831647
0.0832124
0.0832567
0.0832976
0.0833352
0.0833695
0.0834007
0.0834287
0.0834536
0.0834754
0.0834942
0.0835101
0.083523
0.0835329
0.08354
0.0835442
0.0835457
0.0109174
0.0113937
0.0128075
0.0151128
0.0182188
0.0219688
0.0261293
0.0304314
0.0346409
0.03861
0.0422793
0.0456418
0.0487133
0.0515177
0.0540807
0.0564268
0.0585778
0.0605535
0.062371
0.0640451
0.0655893
0.067015
0.0683325
0.0695511
0.0706789
0.0717234
0.0726913
0.0735886
0.0744207
0.0751927
0.0759091
0.076574
0.0771912
0.0777641
0.0782958
0.0787892
0.0792469
0.0796713
0.0800645
0.0804287
0.0807655
0.0810766
0.0813637
0.0816281
0.081871
0.0820936
0.0822971
0.0824823
0.0826501
0.0828015
0.082937
0.0830575
0.0831634
0.0832554
0.0833339
0.0833994
0.0834523
0.083493
0.0835217
0.0835387
0.0835444
0.0110227
0.011142
0.0114977
0.012088
0.0129075
0.0139502
0.0152057
0.0166621
0.0183013
0.0201022
0.0220372
0.024075
0.0261814
0.0283232
0.0304681
0.0325896
0.0346656
0.036681
0.0386264
0.0404967
0.0422902
0.0440071
0.0456491
0.0472185
0.0487182
0.0501513
0.051521
0.0528306
0.054083
0.0552813
0.0564283
0.0575266
0.0585788
0.0595872
0.0605541
0.0614814
0.0623712
0.0632252
0.0640451
0.0648326
0.065589
0.0663159
0.0670145
0.0676861
0.0683319
0.068953
0.0695504
0.0701251
0.0706781
0.0712103
0.0717225
0.0722156
0.0726903
0.0731474
0.0735875
0.0740114
0.0744196
0.0748128
0.0751916
0.0755564
0.0759079
0.0762466
0.0765728
0.0768871
0.07719
0.0774817
0.0777628
0.0780336
0.0782945
0.0785458
0.0787879
0.079021
0.0792456
0.0794618
0.07967
0.0798704
0.0800632
0.0802488
0.0804273
0.0805991
0.0807642
0.0809229
0.0810753
0.0812218
0.0813624
0.0814973
0.0816268
0.0817508
0.0818697
0.0819835
0.0820923
0.0821964
0.0822958
0.0823906
0.082481
0.082567
0.0826488
0.0827265
0.0828002
0.0828699
0.0829357
0.0829978
0.0830562
0.0831109
0.0831621
0.0832098
0.0832541
0.083295
0.0833326
0.083367
0.0833981
0.0834261
0.083451
0.0834728
0.0834917
0.0835075
0.0835204
0.0835303
0.0835374
0.0835417
0.0835431
0.0111272
0.0116009
0.0130068
0.015298
0.0183831
0.022105
0.0262332
0.0305048
0.0346904
0.0386429
0.0423012
0.0456565
0.0487232
0.0515244
0.0540853
0.0564298
0.0585798
0.0605547
0.0623715
0.0640451
0.0655888
0.0670141
0.0683313
0.0695497
0.0706773
0.0717216
0.0726893
0.0735865
0.0744185
0.0751904
0.0759067
0.0765716
0.0771887
0.0777615
0.0782932
0.0787866
0.0792443
0.0796687
0.0800619
0.080426
0.0807628
0.081074
0.0813611
0.0816254
0.0818683
0.082091
0.0822944
0.0824796
0.0826475
0.0827989
0.0829344
0.0830548
0.0831608
0.0832528
0.0833313
0.0833968
0.0834497
0.0834903
0.0835191
0.0835361
0.0835417
0.0112311
0.0113497
0.0117035
0.0122905
0.0131053
0.0141418
0.0153895
0.0168363
0.0184642
0.0202521
0.0221724
0.0241945
0.0262849
0.028411
0.0305415
0.0326502
0.0347153
0.0367216
0.0386596
0.0405237
0.0423123
0.0440252
0.0456639
0.0472306
0.0487282
0.0501595
0.0515279
0.0528362
0.0540877
0.0552851
0.0564314
0.0575292
0.0585809
0.0595888
0.0605553
0.0614823
0.0623717
0.0632255
0.0640451
0.0648323
0.0655886
0.0663153
0.0670137
0.0676851
0.0683308
0.0689517
0.0695489
0.0701236
0.0706765
0.0712086
0.0717207
0.0722137
0.0726883
0.0731453
0.0735854
0.0740092
0.0744174
0.0748105
0.0751893
0.0755541
0.0759055
0.0762441
0.0765703
0.0768846
0.0771874
0.0774792
0.0777603
0.0780311
0.0782919
0.0785432
0.0787853
0.0790184
0.079243
0.0794592
0.0796673
0.0798677
0.0800606
0.0802461
0.0804247
0.0805964
0.0807615
0.0809202
0.0810727
0.0812191
0.0813597
0.0814947
0.0816241
0.0817481
0.081867
0.0819808
0.0820896
0.0821937
0.0822931
0.0823879
0.0824783
0.0825643
0.0826462
0.0827238
0.0827975
0.0828672
0.0829331
0.0829951
0.0830535
0.0831082
0.0831594
0.0832071
0.0832514
0.0832923
0.0833299
0.0833643
0.0833954
0.0834234
0.0834483
0.0834702
0.083489
0.0835048
0.0835177
0.0835277
0.0835348
0.083539
0.0835404
0.0113342
0.0118053
0.0132031
0.0154804
0.0185448
0.0222393
0.0263362
0.0305781
0.0347403
0.0386763
0.0423235
0.0456715
0.0487333
0.0515314
0.0540901
0.0564331
0.0585819
0.0605559
0.062372
0.0640451
0.0655884
0.0670133
0.0683302
0.0695482
0.0706756
0.0717198
0.0726873
0.0735843
0.0744162
0.0751881
0.0759043
0.0765691
0.0771862
0.077759
0.0782906
0.078784
0.0792416
0.079666
0.0800592
0.0804233
0.0807601
0.0810713
0.0813584
0.0816227
0.0818656
0.0820883
0.0822917
0.0824769
0.0826448
0.0827961
0.0829317
0.0830521
0.0831581
0.0832501
0.0833286
0.0833941
0.083447
0.0834876
0.0835164
0.0835334
0.083539
0.0114366
0.0115546
0.0119064
0.0124901
0.0133002
0.0143306
0.0155705
0.0170079
0.0186247
0.0203997
0.0223057
0.0243126
0.0263873
0.0284983
0.0306147
0.032711
0.0347653
0.0367626
0.0386932
0.0405512
0.0423349
0.0440436
0.0456791
0.0472431
0.0487385
0.0501681
0.051535
0.0528421
0.0540926
0.0552892
0.0564347
0.0575319
0.058583
0.0595905
0.0605566
0.0614832
0.0623723
0.0632258
0.0640452
0.0648321
0.0655882
0.0663146
0.0670129
0.0676841
0.0683296
0.0689504
0.0695475
0.070122
0.0706748
0.0712068
0.0717188
0.0722117
0.0726863
0.0731432
0.0735832
0.074007
0.0744151
0.0748082
0.0751869
0.0755516
0.0759031
0.0762416
0.0765678
0.0768821
0.0771849
0.0774766
0.0777576
0.0780284
0.0782893
0.0785406
0.0787826
0.0790157
0.0792403
0.0794564
0.0796646
0.079865
0.0800578
0.0802434
0.0804219
0.0805936
0.0807587
0.0809174
0.0810699
0.0812164
0.081357
0.0814919
0.0816213
0.0817454
0.0818642
0.081978
0.0820869
0.0821909
0.0822903
0.0823851
0.0824755
0.0825616
0.0826434
0.0827211
0.0827948
0.0828645
0.0829303
0.0829924
0.0830508
0.0831055
0.0831567
0.0832044
0.0832487
0.0832896
0.0833272
0.0833615
0.0833927
0.0834207
0.0834456
0.0834674
0.0834863
0.0835021
0.083515
0.0835249
0.083532
0.0835363
0.0835377
0.0118057
0.0122708
0.0136502
0.0158954
0.0189125
0.0225449
0.0265713
0.0307465
0.0348554
0.0387536
0.0423753
0.0457063
0.0487569
0.0515474
0.054101
0.0564403
0.0585865
0.0605585
0.0623729
0.0640447
0.0655869
0.0670109
0.0683271
0.0695445
0.0706713
0.071715
0.0726822
0.073579
0.0744106
0.0751823
0.0758984
0.076563
0.07718
0.0777527
0.0782843
0.0787776
0.0792352
0.0796596
0.0800528
0.0804169
0.0807537
0.0810649
0.0813519
0.0816163
0.0818592
0.0820819
0.0822853
0.0824705
0.0826384
0.0827898
0.0829253
0.0830458
0.0831517
0.0832437
0.0833222
0.0833878
0.0834407
0.0834813
0.08351
0.0835271
0.0835327
0.01217
0.0122857
0.0126304
0.0132022
0.0139954
0.0150035
0.0162155
0.017619
0.0191959
0.0209253
0.0227808
0.0247338
0.0267538
0.0288115
0.0308782
0.0329302
0.0349462
0.0369113
0.038815
0.040651
0.0424166
0.0441107
0.0457342
0.0472884
0.0487758
0.0501988
0.0515603
0.052863
0.0541097
0.0553032
0.0564462
0.057541
0.0585902
0.059596
0.0605605
0.0614858
0.0623737
0.063226
0.0640444
0.0648305
0.0655857
0.0663114
0.067009
0.0676796
0.0683245
0.0689448
0.0695414
0.0701155
0.0706679
0.0711995
0.0717112
0.0722038
0.0726781
0.0731348
0.0735746
0.0739982
0.0744061
0.0747991
0.0751776
0.0755422
0.0758935
0.076232
0.0765581
0.0768723
0.077175
0.0774667
0.0777477
0.0780184
0.0782792
0.0785305
0.0787725
0.0790056
0.0792301
0.0794463
0.0796544
0.0798548
0.0800476
0.0802332
0.0804117
0.0805834
0.0807485
0.0809072
0.0810597
0.0812062
0.0813468
0.0814817
0.0816111
0.0817352
0.0818541
0.0819679
0.0820767
0.0821808
0.0822802
0.082375
0.0824654
0.0825515
0.0826333
0.082711
0.0827847
0.0828544
0.0829203
0.0829823
0.0830407
0.0830955
0.0831467
0.0831944
0.0832387
0.0832796
0.0833172
0.0833515
0.0833827
0.0834107
0.0834356
0.0834575
0.0834763
0.0834921
0.083505
0.083515
0.0835221
0.0835263
0.0835277
0.0125294
0.0129852
0.0143358
0.016531
0.0194754
0.0230136
0.0269346
0.0310097
0.0350375
0.0388771
0.0424587
0.0457627
0.0487954
0.0515737
0.0541189
0.0564523
0.0585941
0.0605627
0.0623745
0.0640442
0.0655845
0.067007
0.068322
0.0695383
0.0706644
0.0717074
0.072674
0.0735702
0.0744015
0.0751728
0.0758887
0.0765531
0.0771699
0.0777425
0.078274
0.0787673
0.0792249
0.0796492
0.0800424
0.0804065
0.0807433
0.0810544
0.0813415
0.0816059
0.0818488
0.0820715
0.082275
0.0824602
0.0826281
0.0827795
0.0829151
0.0830355
0.0831415
0.0832335
0.083312
0.0833775
0.0834305
0.0834711
0.0834998
0.0835169
0.0835226
0.012884
0.0129974
0.0133351
0.0138951
0.0146714
0.0156574
0.0168421
0.0182124
0.0197507
0.021436
0.0232434
0.0251456
0.0271139
0.0291214
0.031141
0.0331506
0.0351294
0.0370629
0.03894
0.0407541
0.0425016
0.0441808
0.045792
0.0473363
0.0488155
0.0502317
0.0515876
0.0528856
0.0541285
0.0553187
0.0564588
0.0575512
0.0585983
0.0596022
0.0605651
0.0614889
0.0623755
0.0632266
0.064044
0.0648291
0.0655834
0.0663083
0.0670051
0.0676751
0.0683194
0.0689391
0.0695352
0.0701088
0.0706608
0.0711921
0.0717034
0.0721957
0.0726697
0.0731262
0.0735657
0.0739891
0.0743968
0.0747896
0.075168
0.0755325
0.0758837
0.076222
0.076548
0.0768621
0.0771648
0.0774564
0.0777373
0.078008
0.0782688
0.07852
0.078762
0.078995
0.0792195
0.0794357
0.0796438
0.0798442
0.080037
0.0802226
0.0804011
0.0805728
0.0807379
0.0808966
0.0810491
0.0811955
0.0813361
0.0814711
0.0816005
0.0817246
0.0818435
0.0819573
0.0820661
0.0821702
0.0822696
0.0823645
0.0824549
0.0825409
0.0826228
0.0827005
0.0827742
0.0828439
0.0829098
0.0829718
0.0830302
0.083085
0.0831362
0.0831839
0.0832282
0.0832691
0.0833067
0.0833411
0.0833723
0.0834003
0.0834252
0.083447
0.0834659
0.0834817
0.0834946
0.0835046
0.0835117
0.0835159
0.0835173
0.0132339
0.0136803
0.0150024
0.0171486
0.0200221
0.0234703
0.0272916
0.031272
0.0352217
0.0390036
0.0425452
0.045822
0.0488362
0.051602
0.0541384
0.0564655
0.0586027
0.0605676
0.0623766
0.0640439
0.0655823
0.0670033
0.0683168
0.0695321
0.0706572
0.0716995
0.0726655
0.0735612
0.0743921
0.075163
0.0758786
0.0765429
0.0771595
0.077732
0.0782634
0.0787565
0.0792141
0.0796383
0.0800315
0.0803956
0.0807324
0.0810436
0.0813307
0.081595
0.081838
0.0820607
0.0822642
0.0824494
0.0826174
0.0827687
0.0829043
0.0830248
0.0831308
0.0832228
0.0833014
0.0833669
0.0834198
0.0834605
0.0834892
0.0835063
0.0835119
0.0135791
0.0136901
0.0140209
0.0145691
0.0153289
0.0162932
0.0174508
0.0187889
0.0202897
0.0219329
0.0236943
0.0255483
0.0274679
0.0294278
0.0314027
0.0333716
0.0353145
0.0372171
0.039068
0.0408603
0.0425896
0.0442538
0.0458527
0.0473867
0.0488575
0.0502668
0.0516169
0.05291
0.0541488
0.0553354
0.0564726
0.0575624
0.0586073
0.0596092
0.0605704
0.0614926
0.0623778
0.0632277
0.0640439
0.0648279
0.0655813
0.0663054
0.0670014
0.0676707
0.0683143
0.0689334
0.069529
0.0701021
0.0706536
0.0711844
0.0716954
0.0721874
0.0726611
0.0731173
0.0735566
0.0739797
0.0743872
0.0747798
0.075158
0.0755224
0.0758735
0.0762117
0.0765376
0.0768516
0.0771541
0.0774457
0.0777265
0.0779972
0.0782579
0.0785091
0.078751
0.0789841
0.0792085
0.0794247
0.0796328
0.0798331
0.0800259
0.0802115
0.08039
0.0805617
0.0807268
0.0808855
0.081038
0.0811845
0.0813251
0.08146
0.0815895
0.0817135
0.0818324
0.0819462
0.0820551
0.0821592
0.0822586
0.0823535
0.0824439
0.08253
0.0826118
0.0826895
0.0827632
0.0828329
0.0828988
0.0829609
0.0830193
0.0830741
0.0831253
0.083173
0.0832173
0.0832582
0.0832959
0.0833302
0.0833614
0.0833894
0.0834143
0.0834362
0.083455
0.0834708
0.0834837
0.0834937
0.0835008
0.083505
0.0835064
0.0139196
0.0143568
0.0156508
0.0177488
0.0205536
0.0239156
0.0276426
0.0315331
0.0354076
0.039133
0.0426346
0.045884
0.0488794
0.0516322
0.0541595
0.0564799
0.0586121
0.0605732
0.0623791
0.064044
0.0655803
0.0669996
0.0683117
0.0695258
0.0706499
0.0716914
0.0726567
0.0735519
0.0743823
0.0751529
0.0758682
0.0765322
0.0771487
0.077721
0.0782523
0.0787454
0.0792029
0.0796271
0.0800202
0.0803843
0.0807211
0.0810323
0.0813194
0.0815838
0.0818267
0.0820494
0.0822529
0.0824382
0.0826062
0.0827576
0.0828932
0.0830137
0.0831197
0.0832117
0.0832903
0.0833558
0.0834087
0.0834494
0.0834782
0.0834952
0.0835009
0.0142556
0.0143643
0.0146882
0.0152249
0.0159683
0.0169112
0.0180426
0.0193492
0.0208138
0.0224165
0.0241342
0.0259425
0.0278159
0.0297308
0.0316631
0.033593
0.0355011
0.0373736
0.0391987
0.0409693
0.0426804
0.0443296
0.045916
0.0474396
0.0489018
0.0503039
0.051648
0.0529361
0.0541705
0.0553536
0.0564876
0.0575747
0.0586172
0.059617
0.0605763
0.0614969
0.0623806
0.0632291
0.0640441
0.064827
0.0655794
0.0663025
0.0669978
0.0676662
0.0683092
0.0689276
0.0695226
0.0700952
0.0706462
0.0711766
0.0716873
0.0721789
0.0726522
0.0731081
0.0735471
0.07397
0.0743773
0.0747697
0.0751477
0.075512
0.0758629
0.076201
0.0765268
0.0768407
0.0771431
0.0774346
0.0777154
0.0779859
0.0782466
0.0784977
0.0787397
0.0789727
0.0791971
0.0794132
0.0796213
0.0798216
0.0800144
0.0802
0.0803785
0.0805502
0.0807153
0.080874
0.0810265
0.0811729
0.0813136
0.0814485
0.081578
0.0817021
0.0818209
0.0819348
0.0820436
0.0821477
0.0822472
0.082342
0.0824325
0.0825185
0.0826004
0.0826781
0.0827518
0.0828216
0.0828874
0.0829496
0.083008
0.0830627
0.083114
0.0831617
0.083206
0.0832469
0.0832846
0.0833189
0.0833501
0.0833781
0.083403
0.0834249
0.0834437
0.0834596
0.0834725
0.0834824
0.0834895
0.0834938
0.0834952
0.014587
0.0150151
0.0162814
0.0183323
0.0210705
0.0243502
0.0279878
0.0317928
0.0355949
0.039265
0.0427269
0.0459486
0.0489248
0.0516642
0.054182
0.0564955
0.0586225
0.0605795
0.0623822
0.0640443
0.0655785
0.066996
0.0683066
0.0695194
0.0706425
0.0716831
0.0726477
0.0735423
0.0743722
0.0751425
0.0758574
0.0765212
0.0771375
0.0777097
0.0782408
0.0787338
0.0791912
0.0796154
0.0800085
0.0803726
0.0807094
0.0810205
0.0813076
0.0815721
0.081815
0.0820378
0.0822413
0.0824266
0.0825945
0.082746
0.0828816
0.0830021
0.0831081
0.0832002
0.0832787
0.0833443
0.0833972
0.0834379
0.0834666
0.0834837
0.0834894
0.0149138
0.0150203
0.0153374
0.0158627
0.01659
0.0175121
0.0186178
0.0198939
0.0213236
0.0228875
0.0245635
0.0263284
0.0281581
0.0300302
0.031922
0.0338144
0.035689
0.037532
0.0393319
0.041081
0.0427741
0.0444081
0.0459818
0.0474949
0.0489483
0.050343
0.0516809
0.0529638
0.0541938
0.055373
0.0565038
0.057588
0.058628
0.0596256
0.0605829
0.0615017
0.0623839
0.063231
0.0640446
0.0648264
0.0655777
0.0662999
0.0669942
0.0676618
0.068304
0.0689218
0.0695162
0.0700882
0.0706387
0.0711687
0.0716789
0.0721701
0.0726431
0.0730986
0.0735374
0.07396
0.0743671
0.0747593
0.0751371
0.0755012
0.0758519
0.0761899
0.0765156
0.0768294
0.0771317
0.0774231
0.0777038
0.0779743
0.0782349
0.078486
0.0787279
0.0789609
0.0791853
0.0794013
0.0796094
0.0798097
0.0800025
0.0801881
0.0803666
0.0805383
0.0807033
0.080862
0.0810145
0.081161
0.0813016
0.0814366
0.081566
0.0816901
0.081809
0.0819228
0.0820317
0.0821359
0.0822353
0.0823302
0.0824206
0.0825067
0.0825886
0.0826663
0.08274
0.0828097
0.0828756
0.0829378
0.0829962
0.0830509
0.0831022
0.0831499
0.0831942
0.0832352
0.0832728
0.0833072
0.0833384
0.0833664
0.0833913
0.0834132
0.083432
0.0834478
0.0834607
0.0834707
0.0834778
0.083482
0.0834835
0.0152364
0.0156555
0.0168946
0.0188995
0.0215735
0.0247745
0.0283271
0.0320508
0.0357833
0.0393993
0.0428218
0.0460157
0.0489724
0.0516981
0.054206
0.0565123
0.0586337
0.0605865
0.0623857
0.064045
0.0655769
0.0669924
0.0683015
0.069513
0.0706349
0.0716746
0.0726384
0.0735324
0.0743619
0.0751317
0.0758463
0.0765098
0.0771259
0.0776979
0.0782289
0.0787218
0.0791792
0.0796033
0.0799964
0.0803604
0.0806972
0.0810084
0.0812955
0.0815599
0.0818029
0.0820256
0.0822292
0.0824145
0.0825825
0.0827339
0.0828696
0.0829901
0.0830961
0.0831882
0.0832668
0.0833323
0.0833853
0.083426
0.0834547
0.0834718
0.0834774
0.0155547
0.015659
0.0159694
0.0164835
0.017195
0.0180967
0.0191774
0.0204241
0.0218202
0.0233469
0.024983
0.0267066
0.0284948
0.0303262
0.0321792
0.0340357
0.0358779
0.0376923
0.0394673
0.0411952
0.0428703
0.0444892
0.0460501
0.0475526
0.048997
0.0503842
0.0517157
0.0529931
0.0542185
0.0553938
0.0565211
0.0576023
0.0586396
0.0596349
0.0605902
0.0615071
0.0623876
0.0632332
0.0640455
0.064826
0.0655762
0.0662973
0.0669907
0.0676575
0.0682989
0.0689159
0.0695097
0.0700811
0.0706311
0.0711605
0.0716703
0.0721611
0.0726337
0.0730889
0.0735274
0.0739497
0.0743566
0.0747485
0.0751262
0.0754901
0.0758406
0.0761785
0.076504
0.0768177
0.07712
0.0774112
0.0776919
0.0779623
0.0782229
0.0784739
0.0787157
0.0789486
0.079173
0.0793891
0.0795971
0.0797974
0.0799902
0.0801757
0.0803542
0.0805259
0.080691
0.0808496
0.0810021
0.0811486
0.0812892
0.0814242
0.0815537
0.0816778
0.0817967
0.0819105
0.0820194
0.0821235
0.082223
0.0823178
0.0824083
0.0824944
0.0825763
0.082654
0.0827277
0.0827975
0.0828634
0.0829255
0.0829839
0.0830387
0.08309
0.0831377
0.083182
0.083223
0.0832606
0.083295
0.0833262
0.0833542
0.0833791
0.083401
0.0834198
0.0834357
0.0834486
0.0834586
0.0834657
0.0834699
0.0834713
0.0158687
0.016279
0.0174914
0.0194516
0.0220636
0.0251893
0.0286611
0.0323072
0.0359726
0.0395358
0.0429193
0.0460852
0.0490221
0.0517337
0.0542315
0.0565302
0.0586458
0.060594
0.0623896
0.064046
0.0655754
0.0669889
0.0682963
0.0695064
0.0706272
0.0716659
0.072629
0.0735223
0.0743512
0.0751206
0.0758349
0.0764981
0.0771139
0.0776858
0.0782167
0.0787095
0.0791667
0.0795908
0.0799838
0.0803478
0.0806846
0.0809958
0.0812829
0.0815473
0.0817903
0.0820131
0.0822166
0.082402
0.08257
0.0827214
0.0828571
0.0829777
0.0830837
0.0831758
0.0832544
0.0833199
0.0833729
0.0834136
0.0834423
0.0834594
0.0834651
0.0161786
0.0162806
0.0165845
0.0170876
0.0177838
0.0186657
0.0197221
0.0209402
0.0223039
0.0237951
0.0253932
0.0270775
0.0288261
0.0306187
0.0324347
0.0342567
0.0360676
0.0378541
0.0396048
0.0413118
0.0429689
0.0445727
0.0461209
0.0476125
0.0490478
0.0504273
0.0517522
0.0530241
0.0542447
0.0554158
0.0565395
0.0576176
0.0586522
0.059645
0.0605981
0.0615131
0.0623918
0.0632357
0.0640466
0.0648258
0.0655748
0.0662948
0.0669872
0.0676531
0.0682937
0.06891
0.0695031
0.0700738
0.0706233
0.0711522
0.0716615
0.0721518
0.0726241
0.073079
0.0735171
0.0739391
0.0743457
0.0747375
0.0751149
0.0754786
0.075829
0.0761667
0.0764921
0.0768056
0.0771078
0.077399
0.0776795
0.0779499
0.0782104
0.0784613
0.0787031
0.078936
0.0791603
0.0793763
0.0795844
0.0797846
0.0799774
0.0801629
0.0803414
0.0805131
0.0806781
0.0808368
0.0809893
0.0811358
0.0812764
0.0814114
0.0815409
0.081665
0.0817839
0.0818977
0.0820066
0.0821107
0.0822102
0.0823051
0.0823955
0.0824817
0.0825635
0.0826413
0.082715
0.0827848
0.0828507
0.0829128
0.0829713
0.0830261
0.0830773
0.0831251
0.0831694
0.0832103
0.083248
0.0832824
0.0833136
0.0833416
0.0833665
0.0833884
0.0834072
0.0834231
0.083436
0.083446
0.0834531
0.0834573
0.0834587
0.0164843
0.0168859
0.0180723
0.019989
0.0225412
0.0255949
0.0289897
0.0325618
0.0361626
0.0396743
0.0430191
0.0461571
0.049074
0.0517712
0.0542583
0.0565492
0.0586588
0.0606023
0.062394
0.0640473
0.0655741
0.0669855
0.0682911
0.0694997
0.0706193
0.071657
0.0726192
0.0735118
0.0743402
0.0751091
0.075823
0.076486
0.0771016
0.0776732
0.078204
0.0786966
0.0791538
0.0795778
0.0799708
0.0803348
0.0806716
0.0809827
0.0812699
0.0815343
0.0817773
0.0820001
0.0822036
0.082389
0.082557
0.0827085
0.0828442
0.0829648
0.0830708
0.0831629
0.0832415
0.0833071
0.0833601
0.0834008
0.0834295
0.0834466
0.0834522
0.0167859
0.0168859
0.0171833
0.0176758
0.0183569
0.0192195
0.0202523
0.021443
0.0227756
0.0242326
0.0257945
0.0274413
0.0291522
0.0309077
0.0326884
0.0344772
0.0362578
0.0380173
0.0397442
0.0414304
0.0430699
0.0446585
0.0461938
0.0476746
0.0491006
0.0504722
0.0517905
0.0530566
0.0542723
0.0554391
0.0565591
0.0576339
0.0586656
0.0596558
0.0606066
0.0615195
0.0623964
0.0632387
0.064048
0.0648258
0.0655736
0.0662924
0.0669838
0.0676488
0.0682885
0.068904
0.0694963
0.0700665
0.0706153
0.0711437
0.0716524
0.0721424
0.0726142
0.0730687
0.0735065
0.0739283
0.0743346
0.0747261
0.0751033
0.0754668
0.075817
0.0761545
0.0764798
0.0767932
0.0770952
0.0773863
0.0776668
0.0779371
0.0781975
0.0784484
0.0786901
0.0789229
0.0791472
0.0793632
0.0795712
0.0797714
0.0799642
0.0801497
0.0803282
0.0804998
0.0806649
0.0808236
0.0809761
0.0811225
0.0812632
0.0813981
0.0815276
0.0816517
0.0817706
0.0818845
0.0819934
0.0820975
0.082197
0.0822919
0.0823824
0.0824685
0.0825504
0.0826281
0.0827019
0.0827717
0.0828376
0.0828997
0.0829582
0.083013
0.0830642
0.083112
0.0831563
0.0831973
0.0832349
0.0832693
0.0833005
0.0833286
0.0833535
0.0833754
0.0833942
0.0834101
0.083423
0.0834329
0.08344
0.0834443
0.0834457
0.0170837
0.0174769
0.0186378
0.0205123
0.023007
0.0259919
0.0293133
0.0328145
0.0363531
0.0398145
0.0431212
0.0462312
0.0491278
0.0518103
0.0542866
0.0565692
0.0586725
0.0606111
0.0623988
0.0640488
0.065573
0.0669821
0.0682858
0.0694929
0.0706112
0.0716479
0.0726092
0.0735011
0.0743289
0.0750973
0.0758109
0.0764735
0.0770888
0.0776603
0.0781909
0.0786834
0.0791405
0.0795645
0.0799574
0.0803214
0.0806581
0.0809693
0.0812564
0.0815208
0.0817639
0.0819866
0.0821902
0.0823756
0.0825436
0.0826951
0.0828309
0.0829514
0.0830575
0.0831496
0.0832282
0.0832938
0.0833468
0.0833875
0.0834163
0.0834334
0.083439
0.0173775
0.0174753
0.0177665
0.0182485
0.0189151
0.0197588
0.0207689
0.0219331
0.0232357
0.0246601
0.0261873
0.0277983
0.0294732
0.0311934
0.0329402
0.0346971
0.0364485
0.0381816
0.0398852
0.0415511
0.043173
0.0447466
0.046269
0.0477388
0.0491554
0.050519
0.0518304
0.0530907
0.0543012
0.0554636
0.0565797
0.0576511
0.0586797
0.0596673
0.0606157
0.0615265
0.0624014
0.0632419
0.0640497
0.0648261
0.0655725
0.0662902
0.0669804
0.0676444
0.0682832
0.0688979
0.0694895
0.0700589
0.0706071
0.071135
0.0716432
0.0721327
0.0726041
0.0730582
0.0734957
0.0739171
0.0743231
0.0747144
0.0750913
0.0754546
0.0758046
0.076142
0.0764671
0.0767804
0.0770823
0.0773733
0.0776537
0.0779238
0.0781842
0.078435
0.0786767
0.0789095
0.0791337
0.0793497
0.0795576
0.0797578
0.0799506
0.080136
0.0803145
0.0804861
0.0806512
0.0808099
0.0809624
0.0811088
0.0812495
0.0813845
0.0815139
0.081638
0.081757
0.0818708
0.0819798
0.0820839
0.0821834
0.0822783
0.0823687
0.0824549
0.0825368
0.0826146
0.0826883
0.0827581
0.082824
0.0828862
0.0829446
0.0829994
0.0830507
0.0830985
0.0831428
0.0831838
0.0832214
0.0832558
0.083287
0.0833151
0.08334
0.0833619
0.0833807
0.0833966
0.0834095
0.0834195
0.0834266
0.0834308
0.0834322
0.0176674
0.0180524
0.0191887
0.0210223
0.0234616
0.0263807
0.0296319
0.0330653
0.0365439
0.0399563
0.0432253
0.0463074
0.0491835
0.051851
0.0543162
0.0565904
0.0586871
0.0606205
0.062404
0.0640506
0.065572
0.0669788
0.0682806
0.069486
0.070603
0.0716385
0.072599
0.0734901
0.0743173
0.0750852
0.0757983
0.0764606
0.0770757
0.0776469
0.0781774
0.0786698
0.0791268
0.0795507
0.0799436
0.0803075
0.0806442
0.0809554
0.0812425
0.0815069
0.08175
0.0819728
0.0821764
0.0823618
0.0825298
0.0826813
0.0828171
0.0829377
0.0830438
0.0831359
0.0832145
0.0832801
0.0833331
0.0833738
0.0834026
0.0834197
0.0834253
0.0179537
0.0180495
0.0183346
0.0188064
0.0194588
0.0202844
0.0212725
0.022411
0.0236849
0.025078
0.0265721
0.028149
0.0297895
0.0314758
0.03319
0.0349163
0.0366394
0.0383469
0.0400277
0.0416737
0.0432781
0.0448367
0.0463462
0.0478049
0.0492121
0.0505676
0.051872
0.0531262
0.0543315
0.0554893
0.0566013
0.0576692
0.0586947
0.0596795
0.0606254
0.0615339
0.0624068
0.0632455
0.0640516
0.0648265
0.0655715
0.066288
0.0669771
0.06764
0.0682779
0.0688917
0.0694825
0.0700513
0.0705988
0.071126
0.0716338
0.0721227
0.0725937
0.0730474
0.0734845
0.0739056
0.0743113
0.0747023
0.075079
0.0754421
0.0757919
0.0761291
0.076454
0.0767672
0.077069
0.0773598
0.0776401
0.0779102
0.0781705
0.0784212
0.0786628
0.0788956
0.0791198
0.0793357
0.0795436
0.0797438
0.0799365
0.080122
0.0803004
0.080472
0.0806371
0.0807958
0.0809483
0.0810947
0.0812354
0.0813703
0.0814998
0.0816239
0.0817429
0.0818567
0.0819657
0.0820698
0.0821693
0.0822642
0.0823547
0.0824408
0.0825228
0.0826005
0.0826743
0.0827441
0.08281
0.0828722
0.0829306
0.0829855
0.0830367
0.0830845
0.0831289
0.0831698
0.0832075
0.0832419
0.0832731
0.0833012
0.0833261
0.083348
0.0833668
0.0833827
0.0833956
0.0834056
0.0834127
0.0834169
0.0834183
0.0182363
0.0186132
0.0197255
0.0215195
0.0239056
0.0267616
0.0299458
0.0333142
0.0367349
0.0400995
0.0433314
0.0463856
0.0492411
0.0518933
0.0543471
0.0566125
0.0587025
0.0606304
0.0624096
0.0640527
0.0655711
0.0669754
0.0682752
0.069479
0.0705946
0.071629
0.0725884
0.0734788
0.0743053
0.0750728
0.0757854
0.0764474
0.0770622
0.0776332
0.0781635
0.0786558
0.0791127
0.0795365
0.0799293
0.0802932
0.0806299
0.080941
0.0812281
0.0814926
0.0817356
0.0819585
0.0821621
0.0823475
0.0825156
0.0826671
0.0828029
0.0829235
0.0830296
0.0831217
0.0832004
0.083266
0.083319
0.0833597
0.0833885
0.0834056
0.0834112
0.0185152
0.0186091
0.0188883
0.0193502
0.0199888
0.0207968
0.0217636
0.0228775
0.0241238
0.0254869
0.0269493
0.0284935
0.0301011
0.0317551
0.033438
0.0351348
0.0368305
0.0385131
0.0401716
0.0417979
0.0433852
0.0449288
0.0464254
0.047873
0.0492706
0.0506178
0.0519151
0.0531631
0.054363
0.0555161
0.056624
0.0576882
0.0587105
0.0596924
0.0606356
0.0615418
0.0624126
0.0632494
0.0640538
0.0648271
0.0655707
0.0662858
0.0669738
0.0676356
0.0682725
0.0688855
0.0694755
0.0700434
0.0705903
0.0711169
0.0716241
0.0721126
0.0725831
0.0730364
0.0734731
0.0738938
0.0742992
0.0746899
0.0750664
0.0754292
0.0757789
0.0761158
0.0764406
0.0767536
0.0770553
0.077346
0.0776262
0.0778962
0.0781564
0.0784071
0.0786486
0.0788813
0.0791054
0.0793213
0.0795292
0.0797293
0.079922
0.0801075
0.0802859
0.0804575
0.0806226
0.0807812
0.0809337
0.0810802
0.0812208
0.0813558
0.0814853
0.0816094
0.0817283
0.0818422
0.0819511
0.0820553
0.0821548
0.0822497
0.0823402
0.0824264
0.0825083
0.0825861
0.0826598
0.0827296
0.0827956
0.0828578
0.0829162
0.0829711
0.0830223
0.0830701
0.0831145
0.0831555
0.0831931
0.0832276
0.0832588
0.0832868
0.0833118
0.0833336
0.0833525
0.0833684
0.0833813
0.0833913
0.0833984
0.0834026
0.083404
0.0187907
0.0191599
0.0202488
0.0220047
0.0243395
0.0271351
0.0302552
0.0335613
0.036926
0.040244
0.0434394
0.0464657
0.0493005
0.0519372
0.0543792
0.0566357
0.0587186
0.0606409
0.0624156
0.0640549
0.0655703
0.0669721
0.0682698
0.0694719
0.070586
0.0716192
0.0725777
0.0734672
0.0742931
0.07506
0.0757722
0.0764338
0.0770483
0.0776191
0.0781492
0.0786413
0.0790981
0.0795218
0.0799146
0.0802785
0.0806151
0.0809263
0.0812134
0.0814778
0.0817209
0.0819437
0.0821474
0.0823328
0.0825009
0.0826525
0.0827882
0.0829089
0.083015
0.0831071
0.0831858
0.0832514
0.0833044
0.0833452
0.0833739
0.083391
0.0833967
0.0190628
0.0191547
0.0194281
0.0198805
0.0205057
0.0212966
0.0222429
0.0233331
0.0245529
0.0258873
0.0273193
0.0288322
0.0304083
0.0320312
0.0336841
0.0353524
0.0370216
0.03868
0.0403168
0.0419237
0.043494
0.0450228
0.0465065
0.047943
0.0493309
0.0506697
0.0519597
0.0532014
0.0543957
0.055544
0.0566476
0.057708
0.0587269
0.0597058
0.0606464
0.0615501
0.0624187
0.0632536
0.0640561
0.0648278
0.06557
0.0662838
0.0669705
0.0676312
0.0682671
0.0688791
0.0694682
0.0700355
0.0705816
0.0711076
0.0716142
0.0721021
0.0725722
0.073025
0.0734613
0.0738817
0.0742868
0.0746772
0.0750534
0.075416
0.0757654
0.0761022
0.0764268
0.0767397
0.0770412
0.0773318
0.0776119
0.0778818
0.0781419
0.0783925
0.0786339
0.0788666
0.0790907
0.0793065
0.0795143
0.0797145
0.0799071
0.0800925
0.0802709
0.0804426
0.0806076
0.0807663
0.0809187
0.0810652
0.0812058
0.0813408
0.0814703
0.0815944
0.0817134
0.0818272
0.0819362
0.0820404
0.0821398
0.0822348
0.0823253
0.0824114
0.0824934
0.0825712
0.082645
0.0827148
0.0827807
0.0828429
0.0829014
0.0829562
0.0830075
0.0830553
0.0830997
0.0831407
0.0831783
0.0832128
0.083244
0.083272
0.083297
0.0833189
0.0833377
0.0833536
0.0833665
0.0833765
0.0833836
0.0833878
0.0833893
0.0193315
0.019693
0.0207594
0.0224784
0.0247639
0.0275017
0.0305603
0.0338064
0.0371172
0.0403898
0.043549
0.0465477
0.0493616
0.0519825
0.0544126
0.0566598
0.0587354
0.0606519
0.0624219
0.0640574
0.0655696
0.0669688
0.0682643
0.0694646
0.0705772
0.0716092
0.0725666
0.0734554
0.0742805
0.0750468
0.0757586
0.0764198
0.077034
0.0776046
0.0781344
0.0786265
0.0790831
0.0795068
0.0798995
0.0802633
0.0806
0.0809111
0.0811982
0.0814626
0.0817057
0.0819285
0.0821322
0.0823177
0.0824858
0.0826374
0.0827731
0.0828938
0.0829999
0.0830921
0.0831708
0.0832364
0.0832894
0.0833302
0.083359
0.0833761
0.0833817
0.0195969
0.019687
0.0199548
0.0203978
0.0210101
0.0217846
0.0227111
0.0237785
0.0249728
0.0262795
0.0276824
0.0291654
0.0307113
0.0323043
0.0339284
0.0355691
0.0372127
0.0388476
0.0404631
0.042051
0.0436045
0.0451185
0.0465894
0.0480146
0.0493928
0.0507232
0.0520058
0.0532409
0.0544297
0.055573
0.0566722
0.0577287
0.0587441
0.0597199
0.0606576
0.0615589
0.0624252
0.063258
0.0640587
0.0648287
0.0655693
0.0662817
0.0669672
0.0676267
0.0682616
0.0688726
0.0694609
0.0700273
0.0705728
0.0710981
0.0716041
0.0720915
0.072561
0.0730134
0.0734493
0.0738693
0.0742741
0.0746642
0.0750401
0.0754024
0.0757517
0.0760882
0.0764127
0.0767253
0.0770267
0.0773172
0.0775971
0.0778669
0.0781269
0.0783775
0.0786189
0.0788514
0.0790755
0.0792913
0.0794991
0.0796992
0.0798918
0.0800772
0.0802556
0.0804272
0.0805922
0.0807509
0.0809033
0.0810498
0.0811904
0.0813254
0.0814549
0.081579
0.081698
0.0818118
0.0819208
0.082025
0.0821245
0.0822194
0.0823099
0.0823961
0.082478
0.0825559
0.0826296
0.0826995
0.0827654
0.0828276
0.0828861
0.082941
0.0829922
0.08304
0.0830844
0.0831254
0.0831631
0.0831975
0.0832288
0.0832568
0.0832818
0.0833037
0.0833225
0.0833384
0.0833513
0.0833613
0.0833684
0.0833727
0.0833741
0.0198592
0.0202134
0.0212579
0.0229412
0.0251794
0.0278616
0.0308612
0.0340498
0.0373083
0.0405366
0.0436603
0.0466314
0.0494243
0.0520293
0.0544471
0.0566848
0.0587529
0.0606634
0.0624286
0.0640601
0.065569
0.0669655
0.0682588
0.0694572
0.0705683
0.0715989
0.0725553
0.0734432
0.0742676
0.0750333
0.0757446
0.0764054
0.0770193
0.0775896
0.0781193
0.0786112
0.0790677
0.0794913
0.079884
0.0802477
0.0805843
0.0808955
0.0811825
0.081447
0.0816901
0.0819129
0.0821166
0.0823021
0.0824702
0.0826218
0.0827576
0.0828783
0.0829845
0.0830766
0.0831553
0.083221
0.083274
0.0833148
0.0833436
0.0833607
0.0833663
0.0201183
0.0202066
0.020469
0.020903
0.0215028
0.0222614
0.0231688
0.0242141
0.0253839
0.0266642
0.0280392
0.0294933
0.0310102
0.0325746
0.0341708
0.035785
0.0374038
0.0390157
0.0406104
0.0421796
0.0437165
0.0452159
0.0466739
0.0480879
0.0494563
0.0507781
0.0520532
0.0532818
0.0544647
0.0556029
0.0566976
0.0577501
0.0587619
0.0597345
0.0606694
0.061568
0.062432
0.0632627
0.0640615
0.0648297
0.0655687
0.0662797
0.0669638
0.0676222
0.068256
0.068866
0.0694534
0.070019
0.0705637
0.0710883
0.0715937
0.0720805
0.0725496
0.0730015
0.073437
0.0738566
0.074261
0.0746508
0.0750265
0.0753885
0.0757375
0.0760739
0.0763981
0.0767106
0.0770119
0.0773022
0.077582
0.0778517
0.0781116
0.0783621
0.0786034
0.0788359
0.0790599
0.0792756
0.0794834
0.0796835
0.079876
0.0800614
0.0802398
0.0804114
0.0805764
0.080735
0.0808875
0.0810339
0.0811746
0.0813096
0.081439
0.0815632
0.0816821
0.081796
0.081905
0.0820092
0.0821087
0.0822036
0.0822941
0.0823803
0.0824623
0.0825401
0.0826139
0.0826837
0.0827497
0.0828119
0.0828704
0.0829253
0.0829766
0.0830244
0.0830687
0.0831097
0.0831474
0.0831819
0.0832131
0.0832412
0.0832661
0.083288
0.0833069
0.0833228
0.0833357
0.0833457
0.0833528
0.083357
0.0833584
0.0203743
0.0207214
0.0217447
0.0233937
0.0255863
0.0282152
0.0311582
0.0342913
0.0374992
0.0406843
0.043773
0.0467168
0.0494886
0.0520774
0.0544827
0.0567106
0.058771
0.0606754
0.0624355
0.0640629
0.0655685
0.0669622
0.0682531
0.0694496
0.0705591
0.0715884
0.0725437
0.0734307
0.0742544
0.0750195
0.0757303
0.0763907
0.0770043
0.0775743
0.0781038
0.0785955
0.0790519
0.0794754
0.079868
0.0802317
0.0805683
0.0808794
0.0811665
0.081431
0.081674
0.0818969
0.0821006
0.0822861
0.0824542
0.0826059
0.0827417
0.0828624
0.0829686
0.0830607
0.0831395
0.0832051
0.0832582
0.0832989
0.0833277
0.0833448
0.0833505
0.0206276
0.020714
0.0209712
0.0213965
0.0219842
0.0227274
0.0236164
0.0246405
0.0257868
0.0270416
0.0283898
0.0298163
0.0313054
0.0328421
0.0344115
0.036
0.0375946
0.0391842
0.0407585
0.0423094
0.0438299
0.0453148
0.04676
0.0481628
0.0495213
0.0508344
0.0521019
0.0533238
0.0545008
0.0556338
0.0567238
0.0577722
0.0587803
0.0597496
0.0606815
0.0615775
0.0624391
0.0632675
0.0640644
0.0648308
0.0655682
0.0662777
0.0669605
0.0676176
0.0682503
0.0688593
0.0694457
0.0700105
0.0705544
0.0710784
0.0715831
0.0720693
0.0725379
0.0729893
0.0734243
0.0738436
0.0742477
0.0746371
0.0750125
0.0753743
0.075723
0.0760592
0.0763832
0.0766956
0.0769966
0.0772868
0.0775665
0.0778361
0.0780959
0.0783463
0.0785875
0.07882
0.0790439
0.0792596
0.0794673
0.0796673
0.0798599
0.0800452
0.0802236
0.0803951
0.0805601
0.0807188
0.0808712
0.0810177
0.0811583
0.0812933
0.0814228
0.0815469
0.0816659
0.0817798
0.0818887
0.0819929
0.0820924
0.0821874
0.0822779
0.0823641
0.0824461
0.0825239
0.0825977
0.0826676
0.0827336
0.0827958
0.0828543
0.0829091
0.0829604
0.0830083
0.0830526
0.0830937
0.0831314
0.0831658
0.083197
0.0832251
0.0832501
0.083272
0.0832908
0.0833067
0.0833196
0.0833296
0.0833367
0.083341
0.0833424
0.020878
0.0212181
0.022221
0.0238367
0.0259854
0.028563
0.0314516
0.0345312
0.0376901
0.040833
0.0438871
0.0468036
0.0495543
0.0521267
0.0545193
0.0567373
0.0587898
0.0606877
0.0624427
0.0640659
0.065568
0.0669588
0.0682474
0.0694419
0.0705497
0.0715777
0.0725319
0.0734179
0.0742408
0.0750053
0.0757156
0.0763756
0.0769889
0.0775586
0.0780879
0.0785794
0.0790357
0.0794591
0.0798516
0.0802153
0.0805518
0.0808629
0.08115
0.0814145
0.0816576
0.0818804
0.0820842
0.0822697
0.0824378
0.0825895
0.0827253
0.082846
0.0829522
0.0830444
0.0831231
0.0831888
0.0832419
0.0832827
0.0833115
0.0833286
0.0833342
0.0211256
0.0212103
0.0214624
0.0218793
0.0224552
0.0231836
0.0240548
0.0250586
0.0261821
0.0274125
0.0287349
0.0301348
0.031597
0.0331071
0.0346505
0.0362142
0.0377854
0.0393532
0.0409076
0.0424404
0.0439447
0.0454152
0.0468476
0.0482391
0.0495877
0.0508921
0.0521518
0.053367
0.054538
0.0556656
0.0567509
0.057795
0.0587993
0.0597652
0.0606941
0.0615873
0.0624464
0.0632726
0.0640674
0.064832
0.0655677
0.0662757
0.0669571
0.067613
0.0682444
0.0688524
0.0694379
0.0700018
0.070545
0.0710682
0.0715722
0.0720579
0.0725259
0.0729768
0.0734114
0.0738302
0.0742339
0.074623
0.0749981
0.0753596
0.0757081
0.0760441
0.0763679
0.0766801
0.076981
0.077271
0.0775506
0.0778201
0.0780798
0.0783301
0.0785712
0.0788036
0.0790275
0.0792431
0.0794508
0.0796508
0.0798433
0.0800286
0.0802069
0.0803785
0.0805435
0.0807021
0.0808545
0.081001
0.0811416
0.0812766
0.0814061
0.0815302
0.0816492
0.0817631
0.081872
0.0819762
0.0820758
0.0821707
0.0822613
0.0823475
0.0824295
0.0825073
0.0825811
0.082651
0.082717
0.0827792
0.0828377
0.0828926
0.0829439
0.0829917
0.0830361
0.0830771
0.0831148
0.0831493
0.0831805
0.0832086
0.0832336
0.0832555
0.0832744
0.0832902
0.0833032
0.0833132
0.0833203
0.0833245
0.0833259
0.0213705
0.021704
0.0226871
0.0242707
0.0263771
0.0289054
0.0317415
0.0347695
0.0378808
0.0409824
0.0440026
0.046892
0.0496214
0.0521773
0.0545569
0.0567647
0.0588091
0.0607005
0.0624501
0.064069
0.0655675
0.0669554
0.0682415
0.069434
0.0705401
0.0715667
0.0725198
0.0734048
0.074227
0.0749908
0.0757006
0.0763601
0.076973
0.0775425
0.0780716
0.0785629
0.0790191
0.0794424
0.0798348
0.0801984
0.080535
0.080846
0.0811331
0.0813976
0.0816407
0.0818635
0.0820673
0.0822528
0.082421
0.0825726
0.0827085
0.0828292
0.0829354
0.0830277
0.0831064
0.0831721
0.0832252
0.0832659
0.0832948
0.0833119
0.0833175
0.0216129
0.0216961
0.0219432
0.0223519
0.0229165
0.0236305
0.0244846
0.0254686
0.0265704
0.0277772
0.0290747
0.030449
0.0318853
0.0333697
0.0348881
0.0364276
0.0379761
0.0395226
0.0410574
0.0425725
0.0440608
0.0455169
0.0469367
0.0483169
0.0496554
0.050951
0.052203
0.0534112
0.054576
0.0556982
0.0567786
0.0578184
0.0588189
0.0597813
0.060707
0.0615974
0.0624539
0.0632779
0.0640706
0.0648333
0.0655672
0.0662736
0.0669536
0.0676082
0.0682385
0.0688454
0.0694299
0.0699929
0.0705353
0.0710577
0.0715611
0.0720462
0.0725136
0.072964
0.0733982
0.0738166
0.0742199
0.0746087
0.0749834
0.0753447
0.0756929
0.0760286
0.0763522
0.0766642
0.076965
0.0772549
0.0775343
0.0778037
0.0780633
0.0783135
0.0785545
0.0787868
0.0790106
0.0792262
0.0794338
0.0796338
0.0798263
0.0800116
0.0801899
0.0803614
0.0805264
0.080685
0.0808374
0.0809838
0.0811245
0.0812594
0.0813889
0.0815131
0.081632
0.0817459
0.0818549
0.0819591
0.0820587
0.0821536
0.0822442
0.0823304
0.0824124
0.0824902
0.0825641
0.0826339
0.0826999
0.0827622
0.0828207
0.0828756
0.0829269
0.0829747
0.0830191
0.0830602
0.0830979
0.0831323
0.0831636
0.0831917
0.0832167
0.0832386
0.0832574
0.0832733
0.0832862
0.0832962
0.0833034
0.0833076
0.083309
0.0218528
0.0221799
0.0231437
0.0246964
0.026762
0.0292427
0.0320283
0.0350063
0.0380713
0.0411326
0.0441192
0.0469817
0.0496898
0.0522289
0.0545954
0.0567928
0.0588288
0.0607136
0.0624578
0.0640722
0.065567
0.0669518
0.0682355
0.0694259
0.0705303
0.0715555
0.0725073
0.0733914
0.0742127
0.0749759
0.0756852
0.0763443
0.0769568
0.077526
0.0780549
0.078546
0.0790021
0.0794252
0.0798176
0.0801812
0.0805176
0.0808287
0.0811157
0.0813802
0.0816233
0.0818462
0.08205
0.0822355
0.0824037
0.0825554
0.0826913
0.082812
0.0829182
0.0830105
0.0830892
0.083155
0.083208
0.0832488
0.0832776
0.0832947
0.0833004
0.0220903
0.0221719
0.0224142
0.0228151
0.0233687
0.0240689
0.0249063
0.0258714
0.026952
0.028136
0.0294096
0.0307592
0.0321705
0.0336301
0.0351241
0.0366403
0.0381665
0.0396923
0.041208
0.0427055
0.044178
0.0456199
0.047027
0.0483959
0.0497244
0.0510111
0.0522551
0.0534563
0.054615
0.0557316
0.0568071
0.0578424
0.0588389
0.0597977
0.0607202
0.0616078
0.0624617
0.0632832
0.0640738
0.0648346
0.0655668
0.0662716
0.0669501
0.0676033
0.0682324
0.0688382
0.0694217
0.0699838
0.0705253
0.071047
0.0715497
0.0720342
0.072501
0.0729509
0.0733846
0.0738026
0.0742055
0.0745939
0.0749684
0.0753293
0.0756773
0.0760128
0.0763362
0.076648
0.0769486
0.0772383
0.0775176
0.0777869
0.0780463
0.0782964
0.0785374
0.0787697
0.0789934
0.0792089
0.0794165
0.0796164
0.0798088
0.0799941
0.0801724
0.0803439
0.0805088
0.0806674
0.0808199
0.0809663
0.0811069
0.0812419
0.0813714
0.0814955
0.0816145
0.0817284
0.0818374
0.0819416
0.0820411
0.0821361
0.0822267
0.0823129
0.0823949
0.0824728
0.0825466
0.0826165
0.0826825
0.0827447
0.0828033
0.0828582
0.0829095
0.0829573
0.0830017
0.0830428
0.0830805
0.083115
0.0831462
0.0831743
0.0831993
0.0832212
0.0832401
0.083256
0.0832689
0.0832789
0.083286
0.0832903
0.0832917
0.0223256
0.0226463
0.0235916
0.0251143
0.0271405
0.0295754
0.0323121
0.0352416
0.0382617
0.0412835
0.044237
0.0470726
0.0497594
0.0522816
0.0546348
0.0568215
0.0588491
0.060727
0.0624656
0.0640754
0.0655665
0.0669483
0.0682293
0.0694176
0.0705203
0.071544
0.0724946
0.0733777
0.0741982
0.0749607
0.0756694
0.076328
0.0769402
0.0775091
0.0780377
0.0785287
0.0789846
0.0794077
0.0798
0.0801635
0.0804999
0.0808109
0.081098
0.0813624
0.0816055
0.0818285
0.0820322
0.0822178
0.082386
0.0825377
0.0826736
0.0827944
0.0829006
0.0829929
0.0830716
0.0831374
0.0831905
0.0832312
0.0832601
0.0832772
0.0832828
0.0225586
0.0226385
0.0228763
0.0232694
0.0238125
0.0244992
0.0253206
0.0262673
0.0273276
0.0284896
0.0297401
0.0310658
0.0324529
0.0338884
0.0353588
0.0368522
0.0383568
0.0398623
0.0413591
0.0428395
0.0442963
0.0457241
0.0471185
0.0484761
0.0497946
0.0510723
0.0523083
0.0535024
0.0546547
0.0557657
0.0568361
0.057867
0.0588594
0.0598145
0.0607338
0.0616183
0.0624696
0.0632887
0.0640771
0.0648359
0.0655663
0.0662694
0.0669464
0.0675983
0.0682262
0.0688309
0.0694134
0.0699745
0.0705152
0.0710361
0.0715381
0.0720219
0.0724881
0.0729375
0.0733707
0.0737883
0.0741908
0.0745789
0.074953
0.0753136
0.0756613
0.0759966
0.0763198
0.0766314
0.0769318
0.0772214
0.0775005
0.0777696
0.078029
0.078279
0.0785199
0.0787521
0.0789757
0.0791912
0.0793987
0.0795986
0.079791
0.0799762
0.0801545
0.0803259
0.0804909
0.0806495
0.0808019
0.0809483
0.0810889
0.0812239
0.0813534
0.0814775
0.0815965
0.0817104
0.0818194
0.0819236
0.0820232
0.0821182
0.0822087
0.082295
0.082377
0.0824549
0.0825287
0.0825986
0.0826646
0.0827269
0.0827854
0.0828403
0.0828916
0.0829395
0.0829839
0.083025
0.0830627
0.0830972
0.0831284
0.0831565
0.0831815
0.0832034
0.0832223
0.0832382
0.0832511
0.0832611
0.0832682
0.0832725
0.0832739
0.0226306
0.0229474
0.0238808
0.0253844
0.0273855
0.0297911
0.0324966
0.0353952
0.0383864
0.0413828
0.0443149
0.047133
0.0498057
0.0523169
0.0546611
0.0568409
0.0588628
0.0607361
0.062471
0.0640777
0.0655663
0.066946
0.0682253
0.0694121
0.0705136
0.0715363
0.0724861
0.0733685
0.0741885
0.0749505
0.0756588
0.0763172
0.0769291
0.0774978
0.0780262
0.0785171
0.0789729
0.0793958
0.0797881
0.0801515
0.0804879
0.0807989
0.081086
0.0813504
0.0815935
0.0818164
0.0820202
0.0822058
0.082374
0.0825257
0.0826616
0.0827824
0.0828887
0.0829809
0.0830597
0.0831254
0.0831785
0.0832193
0.0832481
0.0832653
0.0832709
0.0227022
0.0227817
0.0230181
0.0234089
0.0239487
0.0246313
0.0254479
0.026389
0.0274431
0.0285985
0.0298419
0.0311604
0.0325402
0.0339683
0.0354316
0.0369181
0.0384161
0.0399154
0.0414065
0.0428815
0.0443335
0.045757
0.0471475
0.0485016
0.0498169
0.0510918
0.0523254
0.0535173
0.0546676
0.0557768
0.0568456
0.0578751
0.0588662
0.0598202
0.0607384
0.061622
0.0624724
0.0632907
0.0640784
0.0648365
0.0655664
0.066269
0.0669455
0.067597
0.0682244
0.0688287
0.0694109
0.0699717
0.0705121
0.0710328
0.0715345
0.0720181
0.0724841
0.0729333
0.0733663
0.0737838
0.0741861
0.0745741
0.0749481
0.0753086
0.0756562
0.0759914
0.0763145
0.076626
0.0769264
0.0772159
0.077495
0.077764
0.0780234
0.0782733
0.0785142
0.0787463
0.0789699
0.0791854
0.0793929
0.0795927
0.0797851
0.0799703
0.0801485
0.08032
0.0804849
0.0806435
0.0807959
0.0809423
0.0810829
0.0812179
0.0813474
0.0814715
0.0815905
0.0817044
0.0818134
0.0819176
0.0820172
0.0821122
0.0822027
0.082289
0.082371
0.0824488
0.0825227
0.0825926
0.0826586
0.0827208
0.0827794
0.0828343
0.0828856
0.0829335
0.0829779
0.083019
0.0830567
0.0830912
0.0831224
0.0831505
0.0831755
0.0831974
0.0832163
0.0832322
0.0832451
0.0832551
0.0832623
0.0832665
0.0832679
0.0227733
0.0230883
0.0240162
0.025511
0.0275004
0.0298925
0.0325836
0.0354679
0.0384457
0.0414302
0.0443522
0.047162
0.0498282
0.052334
0.0546741
0.0568504
0.0588696
0.0607407
0.0624738
0.0640791
0.0655664
0.066945
0.0682235
0.0694096
0.0705105
0.0715327
0.0724821
0.0733641
0.0741838
0.0749456
0.0756536
0.0763118
0.0769236
0.0774922
0.0780205
0.0785113
0.078967
0.0793899
0.0797821
0.0801456
0.0804819
0.0807929
0.0810799
0.0813444
0.0815875
0.0818104
0.0820141
0.0821997
0.0823679
0.0825196
0.0826556
0.0827763
0.0828826
0.0829749
0.0830537
0.0831194
0.0831725
0.0832133
0.0832421
0.0832592
0.0832649
0.0228441
0.0229232
0.0231582
0.0235468
0.0240834
0.024762
0.0255738
0.0265094
0.0275575
0.0287064
0.0299429
0.0312543
0.0326269
0.0340479
0.0355041
0.0369838
0.0384753
0.0399685
0.0414539
0.0429237
0.0443709
0.0457901
0.0471767
0.0485273
0.0498395
0.0511116
0.0523427
0.0535323
0.0546806
0.055788
0.0568552
0.0578832
0.058873
0.0598259
0.060743
0.0616257
0.0624752
0.0632928
0.0640797
0.0648372
0.0655664
0.0662685
0.0669445
0.0675956
0.0682226
0.0688265
0.0694083
0.0699688
0.0705089
0.0710293
0.0715308
0.0720142
0.07248
0.0729291
0.0733619
0.0737792
0.0741814
0.0745692
0.0749431
0.0753035
0.075651
0.0759861
0.0763091
0.0766206
0.0769208
0.0772103
0.0774894
0.0777584
0.0780176
0.0782675
0.0785084
0.0787405
0.0789641
0.0791795
0.0793869
0.0795868
0.0797791
0.0799643
0.0801425
0.080314
0.0804789
0.0806375
0.0807899
0.0809363
0.0810769
0.0812118
0.0813413
0.0814654
0.0815844
0.0816983
0.0818073
0.0819115
0.0820111
0.0821061
0.0821966
0.0822829
0.0823649
0.0824427
0.0825166
0.0825865
0.0826525
0.0827147
0.0827733
0.0828282
0.0828795
0.0829274
0.0829718
0.0830129
0.0830506
0.0830851
0.0831163
0.0831444
0.0831694
0.0831913
0.0832102
0.0832261
0.083239
0.083249
0.0832562
0.0832604
0.0832618
0.0229144
0.0232276
0.0241501
0.0256362
0.0276142
0.0299931
0.03267
0.0355403
0.0385048
0.0414776
0.0443897
0.0471913
0.0498508
0.0523513
0.0546871
0.0568601
0.0588765
0.0607453
0.0624766
0.0640804
0.0655664
0.066944
0.0682216
0.069407
0.0705073
0.071529
0.072478
0.0733597
0.074179
0.0749405
0.0756484
0.0763064
0.076918
0.0774865
0.0780147
0.0785054
0.0789611
0.0793839
0.0797761
0.0801395
0.0804758
0.0807868
0.0810738
0.0813382
0.0815813
0.0818042
0.082008
0.0821935
0.0823618
0.0825135
0.0826494
0.0827702
0.0828764
0.0829687
0.0830475
0.0831132
0.0831663
0.0832071
0.0832359
0.0832531
0.0832587
0.0229843
0.023063
0.0232967
0.023683
0.0242166
0.0248912
0.0256983
0.0266286
0.0276708
0.0288133
0.0300431
0.0313475
0.0327131
0.034127
0.0355763
0.0370493
0.0385344
0.0400215
0.0415014
0.0429659
0.0444085
0.0458233
0.047206
0.0485531
0.0498622
0.0511315
0.05236
0.0535474
0.0546937
0.0557993
0.0568649
0.0578914
0.05888
0.0598316
0.0607477
0.0616294
0.062478
0.0632948
0.064081
0.0648378
0.0655665
0.066268
0.0669435
0.0675941
0.0682207
0.0688243
0.0694057
0.0699659
0.0705057
0.0710258
0.0715271
0.0720102
0.0724759
0.0729247
0.0733574
0.0737745
0.0741766
0.0745642
0.074938
0.0752983
0.0756457
0.0759807
0.0763036
0.076615
0.0769152
0.0772046
0.0774836
0.0777526
0.0780118
0.0782617
0.0785025
0.0787345
0.0789581
0.0791735
0.0793809
0.0795807
0.079773
0.0799582
0.0801364
0.0803079
0.0804728
0.0806313
0.0807837
0.0809301
0.0810707
0.0812056
0.0813351
0.0814592
0.0815782
0.0816921
0.0818011
0.0819053
0.0820049
0.0820998
0.0821904
0.0822766
0.0823586
0.0824365
0.0825104
0.0825803
0.0826463
0.0827085
0.0827671
0.082822
0.0828733
0.0829212
0.0829656
0.0830066
0.0830444
0.0830789
0.0831101
0.0831382
0.0831632
0.0831851
0.083204
0.0832199
0.0832328
0.0832428
0.08325
0.0832542
0.0832556
0.0230538
0.0233653
0.0242825
0.0257601
0.027727
0.0300928
0.0327559
0.0356123
0.0385639
0.0415251
0.0444273
0.0472207
0.0498736
0.0523688
0.0547003
0.0568698
0.0588834
0.06075
0.0624794
0.0640816
0.0655665
0.066943
0.0682197
0.0694044
0.0705041
0.0715252
0.0724738
0.0733551
0.0741741
0.0749354
0.0756431
0.0763009
0.0769124
0.0774807
0.0780088
0.0784995
0.078955
0.0793778
0.07977
0.0801333
0.0804696
0.0807806
0.0810676
0.081332
0.0815751
0.081798
0.0820017
0.0821873
0.0823555
0.0825072
0.0826431
0.0827639
0.0828702
0.0829625
0.0830412
0.083107
0.0831601
0.0832009
0.0832297
0.0832468
0.0832525
0.0231229
0.0232012
0.0234335
0.0238177
0.0243482
0.0250191
0.0258215
0.0267466
0.027783
0.0289192
0.0301424
0.0314401
0.0327987
0.0342057
0.0356483
0.0371146
0.0385935
0.0400746
0.0415489
0.0430083
0.0444461
0.0458567
0.0472355
0.0485791
0.049885
0.0511515
0.0523775
0.0535627
0.0547069
0.0558107
0.0568747
0.0578997
0.0588869
0.0598374
0.0607524
0.0616331
0.0624808
0.0632968
0.0640823
0.0648384
0.0655665
0.0662674
0.0669425
0.0675926
0.0682188
0.0688219
0.069403
0.0699629
0.0705024
0.0710223
0.0715233
0.0720062
0.0724716
0.0729203
0.0733528
0.0737697
0.0741716
0.0745592
0.0749328
0.075293
0.0756403
0.0759752
0.0762981
0.0766094
0.0769095
0.0771988
0.0774778
0.0777467
0.0780059
0.0782557
0.0784964
0.0787284
0.078952
0.0791673
0.0793748
0.0795745
0.0797669
0.079952
0.0801302
0.0803016
0.0804665
0.080625
0.0807774
0.0809238
0.0810644
0.0811993
0.0813288
0.0814529
0.0815719
0.0816858
0.0817948
0.081899
0.0819985
0.0820935
0.0821841
0.0822703
0.0823523
0.0824302
0.082504
0.0825739
0.08264
0.0827022
0.0827607
0.0828157
0.082867
0.0829149
0.0829593
0.0830003
0.0830381
0.0830725
0.0831038
0.0831319
0.0831569
0.0831788
0.0831977
0.0832136
0.0832265
0.0832365
0.0832436
0.0832479
0.0832493
0.0231916
0.0235014
0.0244135
0.0258826
0.0278387
0.0301918
0.0328413
0.0356841
0.0386229
0.0415727
0.044465
0.0472503
0.0498965
0.0523863
0.0547136
0.0568796
0.0588904
0.0607547
0.0624822
0.0640829
0.0655665
0.0669419
0.0682178
0.0694017
0.0705007
0.0715214
0.0724695
0.0733504
0.0741692
0.0749302
0.0756376
0.0762953
0.0769066
0.0774748
0.0780029
0.0784934
0.0789489
0.0793717
0.0797637
0.080127
0.0804633
0.0807742
0.0810612
0.0813256
0.0815687
0.0817916
0.0819953
0.0821809
0.0823491
0.0825008
0.0826368
0.0827576
0.0828638
0.0829561
0.0830349
0.0831006
0.0831537
0.0831945
0.0832233
0.0832405
0.0832461
0.0232599
0.0233378
0.0235689
0.0239509
0.0244784
0.0251455
0.0259435
0.0268635
0.0278941
0.0290242
0.030241
0.031532
0.0328838
0.034284
0.0357199
0.0371798
0.0386524
0.0401277
0.0415965
0.0430508
0.0444839
0.0458902
0.0472652
0.0486053
0.0499081
0.0511717
0.0523952
0.053578
0.0547202
0.0558222
0.0568845
0.057908
0.0588939
0.0598432
0.060757
0.0616368
0.0624836
0.0632988
0.0640835
0.064839
0.0655664
0.0662669
0.0669414
0.067591
0.0682168
0.0688196
0.0694003
0.0699599
0.070499
0.0710186
0.0715194
0.0720021
0.0724673
0.0729158
0.0733481
0.0737648
0.0741666
0.074554
0.0749275
0.0752877
0.0756349
0.0759696
0.0762924
0.0766036
0.0769037
0.077193
0.0774718
0.0777407
0.0779998
0.0782496
0.0784903
0.0787223
0.0789458
0.0791611
0.0793685
0.0795683
0.0797606
0.0799457
0.0801239
0.0802953
0.0804602
0.0806187
0.080771
0.0809174
0.081058
0.0811929
0.0813224
0.0814465
0.0815655
0.0816794
0.0817884
0.0818926
0.0819921
0.0820871
0.0821777
0.0822639
0.0823459
0.0824238
0.0824976
0.0825675
0.0826335
0.0826958
0.0827543
0.0828092
0.0828606
0.0829084
0.0829529
0.0829939
0.0830317
0.0830661
0.0830974
0.0831255
0.0831505
0.0831724
0.0831913
0.0832072
0.0832201
0.0832301
0.0832372
0.0832415
0.0832429
0.0233278
0.0236359
0.024543
0.026004
0.0279493
0.03029
0.0329262
0.0357557
0.0386819
0.0416203
0.0445029
0.0472801
0.0499196
0.052404
0.0547269
0.0568894
0.0588974
0.0607594
0.062485
0.0640842
0.0655664
0.0669408
0.0682158
0.0693989
0.0704973
0.0715174
0.0724651
0.0733457
0.0741641
0.0749249
0.0756321
0.0762896
0.0769007
0.0774688
0.0779968
0.0784872
0.0789427
0.0793654
0.0797574
0.0801207
0.0804569
0.0807678
0.0810548
0.0813192
0.0815622
0.0817851
0.0819889
0.0821744
0.0823427
0.0824944
0.0826303
0.0827511
0.0828573
0.0829496
0.0830284
0.0830941
0.0831472
0.083188
0.0832169
0.083234
0.0832397
0.0233954
0.0234729
0.0237027
0.0240827
0.0246072
0.0252706
0.0260642
0.0269791
0.0280042
0.0291284
0.0303388
0.0316232
0.0329684
0.034362
0.0357913
0.0372448
0.0387113
0.0401808
0.0416441
0.0430934
0.0445219
0.0459239
0.047295
0.0486316
0.0499312
0.051192
0.052413
0.0535935
0.0547336
0.0558337
0.0568944
0.0579164
0.0589009
0.059849
0.0607617
0.0616405
0.0624864
0.0633008
0.0640848
0.0648396
0.0655664
0.0662662
0.0669402
0.0675894
0.0682147
0.0688171
0.0693975
0.0699567
0.0704956
0.0710149
0.0715154
0.0719979
0.0724629
0.0729112
0.0733433
0.0737599
0.0741616
0.0745488
0.0749222
0.0752822
0.0756293
0.075964
0.0762867
0.0765978
0.0768978
0.077187
0.0774658
0.0777346
0.0779937
0.0782434
0.0784841
0.078716
0.0789395
0.0791548
0.0793622
0.0795619
0.0797542
0.0799393
0.0801174
0.0802888
0.0804537
0.0806122
0.0807646
0.0809109
0.0810515
0.0811864
0.0813159
0.08144
0.081559
0.0816729
0.0817819
0.0818861
0.0819856
0.0820806
0.0821711
0.0822574
0.0823394
0.0824173
0.0824911
0.082561
0.082627
0.0826893
0.0827478
0.0828027
0.0828541
0.0829019
0.0829463
0.0829874
0.0830251
0.0830596
0.0830909
0.083119
0.083144
0.0831659
0.0831848
0.0832007
0.0832136
0.0832236
0.0832307
0.083235
0.0832364
0.0234625
0.023769
0.0246711
0.0261241
0.0280589
0.0303874
0.0330105
0.0358269
0.0387407
0.0416679
0.0445409
0.04731
0.0499429
0.0524219
0.0547404
0.0568993
0.0589045
0.0607641
0.0624878
0.0640854
0.0655663
0.0669396
0.0682137
0.0693961
0.0704939
0.0715134
0.0724607
0.0733409
0.074159
0.0749195
0.0756265
0.0762838
0.0768948
0.0774628
0.0779906
0.078481
0.0789363
0.079359
0.079751
0.0801142
0.0804504
0.0807613
0.0810482
0.0813126
0.0815557
0.0817786
0.0819823
0.0821678
0.0823361
0.0824878
0.0826237
0.0827445
0.0828508
0.082943
0.0830218
0.0830876
0.0831407
0.0831815
0.0832103
0.0832274
0.0832331
0.0235293
0.0236064
0.023835
0.024213
0.0247346
0.0253944
0.0261837
0.0270937
0.0281134
0.0292316
0.0304358
0.0317138
0.0330525
0.0344396
0.0358624
0.0373097
0.0387701
0.0402338
0.0416918
0.0431361
0.0445599
0.0459577
0.047325
0.0486581
0.0499545
0.0512124
0.0524308
0.0536091
0.0547471
0.0558453
0.0569043
0.0579248
0.058908
0.0598548
0.0607665
0.0616442
0.0624892
0.0633027
0.064086
0.0648401
0.0655663
0.0662656
0.066939
0.0675877
0.0682126
0.0688146
0.0693946
0.0699535
0.0704921
0.0710112
0.0715114
0.0719936
0.0724584
0.0729065
0.0733384
0.0737549
0.0741564
0.0745435
0.0749167
0.0752766
0.0756236
0.0759582
0.0762808
0.0765919
0.0768918
0.0771809
0.0774597
0.0777284
0.0779875
0.0782371
0.0784778
0.0787097
0.0789331
0.0791484
0.0793557
0.0795554
0.0797477
0.0799328
0.0801109
0.0802823
0.0804471
0.0806056
0.080758
0.0809044
0.0810449
0.0811798
0.0813093
0.0814334
0.0815524
0.0816662
0.0817752
0.0818794
0.081979
0.082074
0.0821645
0.0822507
0.0823327
0.0824106
0.0824845
0.0825544
0.0826204
0.0826826
0.0827412
0.0827961
0.0828474
0.0828953
0.0829397
0.0829808
0.0830185
0.083053
0.0830843
0.0831124
0.0831374
0.0831593
0.0831782
0.083194
0.083207
0.083217
0.0832241
0.0832284
0.0832298
0.0235957
0.0239007
0.0247978
0.026243
0.0281675
0.0304841
0.0330944
0.0358979
0.0387995
0.0417157
0.044579
0.04734
0.0499662
0.0524398
0.0547539
0.0569093
0.0589115
0.0607688
0.0624906
0.0640866
0.0655662
0.0669384
0.0682115
0.0693932
0.0704903
0.0715094
0.0724561
0.073336
0.0741538
0.074914
0.0756208
0.0762779
0.0768887
0.0774566
0.0779843
0.0784746
0.0789299
0.0793525
0.0797444
0.0801076
0.0804438
0.0807547
0.0810416
0.081306
0.081549
0.0817719
0.0819756
0.0821612
0.0823294
0.0824811
0.082617
0.0827378
0.0828441
0.0829364
0.0830152
0.0830809
0.083134
0.0831748
0.0832036
0.0832208
0.0832264
0.0236618
0.0237386
0.023966
0.0243419
0.0248607
0.025517
0.026302
0.0272072
0.0282215
0.029334
0.0305322
0.0318039
0.0331362
0.0345168
0.0359333
0.0373743
0.0388289
0.0402869
0.0417395
0.0431788
0.0445981
0.0459917
0.0473551
0.0486847
0.049978
0.051233
0.0524488
0.0536247
0.0547607
0.055857
0.0569143
0.0579333
0.0589151
0.0598606
0.0607712
0.0616479
0.062492
0.0633047
0.0640872
0.0648406
0.0655661
0.0662648
0.0669378
0.067586
0.0682105
0.0688121
0.0693917
0.0699503
0.0704885
0.0710073
0.0715073
0.0719893
0.0724538
0.0729017
0.0733335
0.0737498
0.0741511
0.0745381
0.0749112
0.075271
0.0756179
0.0759524
0.0762749
0.0765859
0.0768857
0.0771748
0.0774535
0.0777221
0.0779811
0.0782308
0.0784714
0.0787032
0.0789266
0.0791419
0.0793492
0.0795489
0.0797411
0.0799262
0.0801043
0.0802757
0.0804405
0.080599
0.0807513
0.0808977
0.0810382
0.0811731
0.0813026
0.0814267
0.0815456
0.0816595
0.0817685
0.0818727
0.0819722
0.0820672
0.0821578
0.082244
0.082326
0.0824039
0.0824777
0.0825476
0.0826136
0.0826759
0.0827344
0.0827894
0.0828407
0.0828886
0.082933
0.082974
0.0830118
0.0830463
0.0830775
0.0831056
0.0831306
0.0831525
0.0831714
0.0831873
0.0832003
0.0832103
0.0832174
0.0832216
0.083223
0.0237275
0.0240309
0.0249233
0.0263607
0.0282752
0.03058
0.0331778
0.0359686
0.0388582
0.0417634
0.0446173
0.0473702
0.0499897
0.0524579
0.0547676
0.0569193
0.0589186
0.0607735
0.0624934
0.0640877
0.065566
0.0669372
0.0682094
0.0693902
0.0704867
0.0715052
0.0724515
0.073331
0.0741484
0.0749084
0.075615
0.0762719
0.0768826
0.0774503
0.0779779
0.0784681
0.0789234
0.0793459
0.0797378
0.0801009
0.0804371
0.0807479
0.0810348
0.0812992
0.0815422
0.0817651
0.0819688
0.0821544
0.0823226
0.0824743
0.0826102
0.082731
0.0828373
0.0829296
0.0830084
0.0830741
0.0831272
0.083168
0.0831969
0.083214
0.0832196
0.0237928
0.0238692
0.0240955
0.0244694
0.0249855
0.0256382
0.0264191
0.0273196
0.0283287
0.0294356
0.0306277
0.0318933
0.0332193
0.0345936
0.0360039
0.0374388
0.0388875
0.0403399
0.0417873
0.0432217
0.0446364
0.0460257
0.0473853
0.0487114
0.0500016
0.0512537
0.052467
0.0536405
0.0547744
0.0558688
0.0569244
0.0579418
0.0589222
0.0598665
0.0607759
0.0616516
0.0624948
0.0633066
0.0640883
0.064841
0.0655659
0.0662641
0.0669365
0.0675842
0.0682082
0.0688094
0.0693887
0.0699469
0.0704849
0.0710034
0.0715031
0.0719848
0.0724492
0.0728969
0.0733285
0.0737446
0.0741458
0.0745326
0.0749056
0.0752652
0.075612
0.0759464
0.0762688
0.0765797
0.0768795
0.0771685
0.0774471
0.0777158
0.0779747
0.0782243
0.0784649
0.0786967
0.07892
0.0791352
0.0793425
0.0795422
0.0797344
0.0799195
0.0800976
0.0802689
0.0804337
0.0805922
0.0807445
0.0808909
0.0810314
0.0811663
0.0812958
0.0814199
0.0815388
0.0816527
0.0817617
0.0818659
0.0819654
0.0820604
0.0821509
0.0822372
0.0823192
0.082397
0.0824709
0.0825408
0.0826068
0.0826691
0.0827276
0.0827825
0.0828339
0.0828817
0.0829262
0.0829672
0.083005
0.0830394
0.0830707
0.0830988
0.0831238
0.0831457
0.0831646
0.0831805
0.0831934
0.0832034
0.0832106
0.0832148
0.0832162
0.0238578
0.0241598
0.0250474
0.0264773
0.028382
0.0306753
0.0332607
0.0360391
0.0389168
0.0418113
0.0446556
0.0474005
0.0500134
0.0524761
0.0547813
0.0569294
0.0589258
0.0607783
0.0624961
0.0640889
0.0655658
0.0669358
0.0682071
0.0693872
0.070483
0.071501
0.0724468
0.0733259
0.0741431
0.0749027
0.0756091
0.0762658
0.0768764
0.0774439
0.0779715
0.0784616
0.0789167
0.0793392
0.079731
0.0800942
0.0804303
0.0807411
0.081028
0.0812923
0.0815354
0.0817582
0.0819619
0.0821475
0.0823157
0.0824674
0.0826034
0.0827242
0.0828304
0.0829227
0.0830015
0.0830672
0.0831203
0.0831612
0.08319
0.0832071
0.0832128
0.0239225
0.0239986
0.0242237
0.0245958
0.025109
0.0257584
0.0265352
0.0274311
0.028435
0.0295363
0.0307227
0.0319822
0.033302
0.0346701
0.0360743
0.0375032
0.0389461
0.040393
0.0418352
0.0432646
0.0446748
0.0460599
0.0474157
0.0487383
0.0500253
0.0512745
0.0524852
0.0536563
0.0547881
0.0558806
0.0569345
0.0579504
0.0589294
0.0598724
0.0607807
0.0616553
0.0624975
0.0633085
0.0640894
0.0648415
0.0655657
0.0662633
0.0669352
0.0675824
0.068206
0.0688068
0.0693857
0.0699435
0.0704812
0.0709994
0.0714989
0.0719803
0.0724445
0.0728919
0.0733233
0.0737393
0.0741403
0.074527
0.0748999
0.0752594
0.0756061
0.0759404
0.0762627
0.0765735
0.0768732
0.0771622
0.0774407
0.0777093
0.0779682
0.0782177
0.0784582
0.07869
0.0789134
0.0791285
0.0793358
0.0795354
0.0797276
0.0799126
0.0800907
0.0802621
0.0804269
0.0805853
0.0807376
0.080884
0.0810245
0.0811594
0.0812889
0.081413
0.0815319
0.0816458
0.0817547
0.0818589
0.0819585
0.0820534
0.082144
0.0822302
0.0823122
0.0823901
0.0824639
0.0825338
0.0825999
0.0826621
0.0827207
0.0827756
0.0828269
0.0828748
0.0829192
0.0829603
0.082998
0.0830325
0.0830638
0.0830919
0.0831169
0.0831388
0.0831577
0.0831736
0.0831865
0.0831965
0.0832036
0.0832079
0.0832093
0.0239868
0.0242873
0.0251704
0.0265928
0.0284878
0.0307699
0.0333432
0.0361094
0.0389754
0.0418591
0.0446941
0.047431
0.0500372
0.0524943
0.0547951
0.0569396
0.0589329
0.060783
0.0624989
0.06409
0.0655656
0.0669345
0.0682048
0.0693841
0.0704793
0.0714967
0.0724421
0.0733208
0.0741376
0.074897
0.0756031
0.0762596
0.07687
0.0774375
0.0779649
0.0784549
0.07891
0.0793324
0.0797242
0.0800873
0.0804234
0.0807342
0.081021
0.0812854
0.0815284
0.0817512
0.0819549
0.0821405
0.0823087
0.0824604
0.0825964
0.0827172
0.0828234
0.0829157
0.0829945
0.0830603
0.0831134
0.0831542
0.083183
0.0832001
0.0832058
0.0240508
0.0241267
0.0243506
0.0247209
0.0252314
0.0258775
0.0266502
0.0275416
0.0285404
0.0296364
0.030817
0.0320705
0.0333843
0.0347463
0.0361445
0.0375674
0.0390046
0.040446
0.0418831
0.0433076
0.0447134
0.0460943
0.0474463
0.0487653
0.0500491
0.0512954
0.0525035
0.0536723
0.054802
0.0558925
0.0569446
0.0579589
0.0589365
0.0598783
0.0607854
0.061659
0.0625003
0.0633104
0.0640905
0.0648418
0.0655655
0.0662624
0.0669338
0.0675805
0.0682036
0.068804
0.0693825
0.0699401
0.0704774
0.0709953
0.0714945
0.0719757
0.0724397
0.0728869
0.0733181
0.0737339
0.0741348
0.0745213
0.0748941
0.0752535
0.0756001
0.0759343
0.0762565
0.0765672
0.0768668
0.0771557
0.0774342
0.0777027
0.0779616
0.0782111
0.0784515
0.0786833
0.0789066
0.0791217
0.0793289
0.0795285
0.0797207
0.0799057
0.0800838
0.0802551
0.0804199
0.0805783
0.0807306
0.080877
0.0810175
0.0811524
0.0812818
0.0814059
0.0815248
0.0816387
0.0817477
0.0818519
0.0819514
0.0820464
0.082137
0.0822232
0.0823052
0.0823831
0.0824569
0.0825268
0.0825928
0.0826551
0.0827136
0.0827685
0.0828199
0.0828678
0.0829122
0.0829532
0.082991
0.0830255
0.0830567
0.0830848
0.0831098
0.0831318
0.0831506
0.0831665
0.0831795
0.0831895
0.0831966
0.0832009
0.0832023
0.0241145
0.0244136
0.0252921
0.0267073
0.0285928
0.0308639
0.0334253
0.0361795
0.0390339
0.0419071
0.0447327
0.0474616
0.0500611
0.0525127
0.0548089
0.0569498
0.0589401
0.0607878
0.0625016
0.0640911
0.0655653
0.0669331
0.0682024
0.069381
0.0704755
0.0714923
0.0724372
0.0733155
0.074132
0.0748911
0.075597
0.0762533
0.0768636
0.0774309
0.0779582
0.0784481
0.0789031
0.0793255
0.0797172
0.0800803
0.0804164
0.0807271
0.081014
0.0812783
0.0815213
0.0817441
0.0819479
0.0821334
0.0823016
0.0824533
0.0825893
0.0827101
0.0828163
0.0829086
0.0829874
0.0830532
0.0831063
0.0831471
0.0831759
0.083193
0.0831987
0.0241778
0.0242535
0.0244763
0.0248448
0.0253525
0.0259955
0.0267641
0.0276512
0.028645
0.0297357
0.0309106
0.0321583
0.0334662
0.0348221
0.0362144
0.0376315
0.0390631
0.040499
0.0419311
0.0433507
0.044752
0.0461287
0.0474769
0.0487923
0.0500731
0.0513164
0.052522
0.0536883
0.0548159
0.0559044
0.0569549
0.0579675
0.0589437
0.0598841
0.0607901
0.0616626
0.062503
0.0633122
0.0640916
0.0648422
0.0655652
0.0662615
0.0669323
0.0675786
0.0682012
0.0688012
0.0693793
0.0699365
0.0704735
0.0709912
0.0714901
0.0719711
0.0724348
0.0728818
0.0733129
0.0737285
0.0741292
0.0745156
0.0748882
0.0752475
0.0755939
0.075928
0.0762502
0.0765608
0.0768603
0.0771492
0.0774276
0.077696
0.0779548
0.0782043
0.0784447
0.0786764
0.0788997
0.0791148
0.079322
0.0795216
0.0797137
0.0798987
0.0800767
0.0802481
0.0804128
0.0805713
0.0807236
0.0808699
0.0810104
0.0811453
0.0812747
0.0813988
0.0815177
0.0816316
0.0817406
0.0818447
0.0819443
0.0820393
0.0821298
0.082216
0.082298
0.0823759
0.0824498
0.0825196
0.0825857
0.0826479
0.0827065
0.0827614
0.0828128
0.0828606
0.082905
0.0829461
0.0829838
0.0830183
0.0830496
0.0830777
0.0831027
0.0831246
0.0831435
0.0831594
0.0831723
0.0831824
0.0831895
0.0831937
0.0831951
0.0242409
0.0245387
0.0254127
0.0268207
0.028697
0.0309572
0.033507
0.0362493
0.0390924
0.0419551
0.0447714
0.0474923
0.0500852
0.0525312
0.0548229
0.05696
0.0589473
0.0607925
0.0625043
0.0640921
0.065565
0.0669316
0.0682
0.0693777
0.0704716
0.0714879
0.0724323
0.0733102
0.0741263
0.0748852
0.0755908
0.076247
0.0768571
0.0774242
0.0779514
0.0784413
0.0788962
0.0793185
0.0797102
0.0800732
0.0804093
0.08072
0.0810068
0.0812711
0.0815141
0.0817369
0.0819407
0.0821262
0.0822944
0.0824461
0.0825821
0.0827029
0.0828091
0.0829014
0.0829802
0.083046
0.0830991
0.0831399
0.0831687
0.0831859
0.0831915
0.0243036
0.0243792
0.0246007
0.0249677
0.0254725
0.0261125
0.0268771
0.0277599
0.0287487
0.0298343
0.0310036
0.0322457
0.0335476
0.0348977
0.0362842
0.0376954
0.0391216
0.040552
0.0419791
0.0433938
0.0447908
0.0461632
0.0475078
0.0488195
0.0500972
0.0513375
0.0525405
0.0537043
0.0548299
0.0559164
0.0569651
0.0579762
0.058951
0.05989
0.0607949
0.0616663
0.0625057
0.063314
0.0640926
0.0648425
0.0655648
0.0662606
0.0669308
0.0675766
0.0681988
0.0687983
0.0693761
0.0699329
0.0704696
0.0709869
0.0714856
0.0719663
0.0724298
0.0728767
0.0733075
0.0737229
0.0741235
0.0745097
0.0748822
0.0752414
0.0755877
0.0759217
0.0762438
0.0765543
0.0768538
0.0771425
0.0774209
0.0776893
0.077948
0.0781974
0.0784378
0.0786695
0.0788927
0.0791078
0.0793149
0.0795145
0.0797066
0.0798916
0.0800696
0.0802409
0.0804057
0.0805641
0.0807164
0.0808627
0.0810032
0.0811381
0.0812675
0.0813916
0.0815105
0.0816244
0.0817333
0.0818375
0.081937
0.082032
0.0821226
0.0822088
0.0822908
0.0823687
0.0824425
0.0825124
0.0825784
0.0826407
0.0826992
0.0827541
0.0828055
0.0828534
0.0828978
0.0829389
0.0829766
0.0830111
0.0830424
0.0830705
0.0830955
0.0831174
0.0831363
0.0831522
0.0831651
0.0831751
0.0831822
0.0831865
0.0831879
0.0243659
0.0246625
0.025532
0.0269332
0.0288003
0.0310499
0.0335883
0.036319
0.0391509
0.0420032
0.0448103
0.0475233
0.0501094
0.0525499
0.0548369
0.0569703
0.0589546
0.0607972
0.062507
0.0640931
0.0655646
0.0669301
0.0681975
0.0693744
0.0704676
0.0714833
0.0724273
0.0733048
0.0741206
0.0748792
0.0755846
0.0762405
0.0768504
0.0774175
0.0779446
0.0784343
0.0788892
0.0793114
0.079703
0.080066
0.080402
0.0807127
0.0809995
0.0812638
0.0815068
0.0817296
0.0819334
0.0821189
0.0822871
0.0824388
0.0825748
0.0826956
0.0828018
0.0828941
0.0829729
0.0830387
0.0830918
0.0831326
0.0831614
0.0831786
0.0831842
0.024428
0.0245038
0.024724
0.0250895
0.0255913
0.0262285
0.026989
0.0278679
0.0288517
0.0299323
0.0310961
0.0323326
0.0336288
0.0349729
0.0363538
0.0377592
0.0391801
0.0406049
0.0420273
0.0434369
0.0448298
0.0461977
0.0475388
0.0488468
0.0501215
0.0513587
0.0525592
0.0537205
0.054844
0.0559284
0.0569754
0.0579848
0.0589582
0.0598959
0.0607996
0.0616699
0.0625084
0.0633158
0.0640936
0.0648428
0.0655644
0.0662596
0.0669293
0.0675745
0.0681963
0.0687954
0.0693728
0.0699292
0.0704656
0.0709826
0.071481
0.0719615
0.0724247
0.0728714
0.073302
0.0737173
0.0741177
0.0745038
0.0748761
0.0752352
0.0755814
0.0759153
0.0762373
0.0765477
0.0768471
0.0771358
0.0774141
0.0776824
0.0779411
0.0781904
0.0784308
0.0786624
0.0788856
0.0791006
0.0793078
0.0795073
0.0796994
0.0798844
0.0800624
0.0802336
0.0803984
0.0805568
0.0807091
0.0808554
0.0809959
0.0811307
0.0812601
0.0813842
0.0815031
0.081617
0.081726
0.0818301
0.0819297
0.0820247
0.0821152
0.0822014
0.0822834
0.0823613
0.0824351
0.082505
0.0825711
0.0826333
0.0826919
0.0827468
0.0827981
0.082846
0.0828904
0.0829315
0.0829692
0.0830037
0.083035
0.0830631
0.0830881
0.08311
0.0831289
0.0831448
0.0831578
0.0831678
0.0831749
0.0831791
0.0831805
0.0244895
0.0247851
0.0256502
0.0270445
0.0289028
0.0311421
0.0336692
0.0363886
0.0392094
0.0420514
0.0448494
0.0475544
0.0501337
0.0525686
0.0548511
0.0569806
0.0589619
0.060802
0.0625097
0.0640941
0.0655642
0.0669285
0.068195
0.0693711
0.0704636
0.0714787
0.0724222
0.0732993
0.0741148
0.074873
0.0755782
0.076234
0.0768437
0.0774106
0.0779376
0.0784272
0.078882
0.0793042
0.0796958
0.0800587
0.0803947
0.0807054
0.0809922
0.0812564
0.0814994
0.0817222
0.081926
0.0821115
0.0822797
0.0824314
0.0825674
0.0826882
0.0827944
0.0828867
0.0829655
0.0830313
0.0830844
0.0831252
0.083154
0.0831712
0.0831768
0.0245508
0.0246275
0.0248459
0.0252104
0.0257089
0.0263438
0.0270998
0.0279751
0.0289537
0.0300297
0.0311879
0.032419
0.0337095
0.0350479
0.0364233
0.0378227
0.0392386
0.0406578
0.0420756
0.04348
0.044869
0.0462323
0.04757
0.048874
0.050146
0.0513798
0.0525781
0.0537366
0.0548582
0.0559404
0.0569858
0.0579934
0.0589655
0.0599018
0.0608044
0.0616735
0.0625111
0.0633176
0.0640946
0.064843
0.065564
0.0662585
0.0669277
0.0675724
0.0681937
0.0687924
0.0693694
0.0699255
0.0704615
0.0709783
0.0714764
0.0719566
0.0724196
0.0728661
0.0732965
0.0737116
0.0741118
0.0744978
0.07487
0.0752289
0.075575
0.0759088
0.0762306
0.076541
0.0768403
0.0771289
0.0774072
0.0776755
0.0779341
0.0781834
0.0784237
0.0786553
0.0788784
0.0790934
0.0793005
0.0795
0.0796921
0.079877
0.080055
0.0802263
0.080391
0.0805494
0.0807017
0.080848
0.0809884
0.0811233
0.0812527
0.0813768
0.0814957
0.0816096
0.0817185
0.0818227
0.0819222
0.0820172
0.0821077
0.082194
0.082276
0.0823538
0.0824277
0.0824976
0.0825636
0.0826259
0.0826844
0.0827393
0.0827907
0.0828386
0.082883
0.0829241
0.0829618
0.0829963
0.0830276
0.0830557
0.0830807
0.0831026
0.0831215
0.0831374
0.0831503
0.0831603
0.0831674
0.0831717
0.0831731
0.0246114
0.0249063
0.0257672
0.0271548
0.0290044
0.0312336
0.0337498
0.036458
0.039268
0.0420999
0.0448888
0.0475858
0.0501584
0.0525876
0.0548653
0.0569911
0.0589692
0.0608068
0.0625124
0.0640951
0.0655637
0.0669268
0.0681923
0.0693676
0.0704594
0.071474
0.072417
0.0732937
0.0741088
0.0748668
0.0755718
0.0762273
0.0768369
0.0774037
0.0779305
0.0784201
0.0788748
0.0792969
0.0796884
0.0800513
0.0803873
0.0806979
0.0809847
0.081249
0.0814919
0.0817147
0.0819184
0.082104
0.0822722
0.0824239
0.0825598
0.0826806
0.0827869
0.0828792
0.082958
0.0830238
0.0830769
0.0831177
0.0831465
0.0831637
0.0831693
0.0246717
0.0247503
0.0249664
0.0253306
0.0258252
0.0264583
0.0272096
0.0280817
0.0290549
0.0301266
0.0312792
0.032505
0.03379
0.0351225
0.0364927
0.0378861
0.0392973
0.0407105
0.0421242
0.043523
0.0449085
0.0462668
0.0476016
0.0489013
0.0501708
0.051401
0.0525971
0.0537527
0.0548725
0.0559523
0.0569963
0.058002
0.0589729
0.0599076
0.0608091
0.0616771
0.0625137
0.0633193
0.0640955
0.0648431
0.0655635
0.0662574
0.066926
0.0675702
0.068191
0.0687893
0.0693659
0.0699217
0.0704573
0.0709738
0.0714716
0.0719516
0.0724144
0.0728606
0.0732908
0.0737058
0.0741058
0.0744917
0.0748637
0.0752225
0.0755685
0.0759022
0.0762239
0.0765343
0.0768334
0.077122
0.0774002
0.0776684
0.0779269
0.0781762
0.0784164
0.078648
0.0788711
0.0790861
0.0792932
0.0794927
0.0796847
0.0798696
0.0800476
0.0802188
0.0803835
0.0805419
0.0806942
0.0808404
0.0809809
0.0811158
0.0812452
0.0813693
0.0814881
0.081602
0.081711
0.0818151
0.0819147
0.0820096
0.0821002
0.0821864
0.0822684
0.0823463
0.0824201
0.08249
0.082556
0.0826183
0.0826769
0.0827318
0.0827831
0.082831
0.0828754
0.0829165
0.0829542
0.0829887
0.08302
0.0830481
0.0830731
0.083095
0.0831139
0.0831298
0.0831428
0.0831528
0.0831599
0.0831641
0.0831655
0.0247307
0.0250259
0.0258827
0.0272639
0.0291052
0.0313246
0.0338302
0.0365275
0.0393268
0.0421487
0.0449285
0.0476176
0.0501833
0.0526068
0.0548798
0.0570017
0.0589766
0.0608116
0.0625151
0.064096
0.0655632
0.0669251
0.0681897
0.0693641
0.0704552
0.0714692
0.0724117
0.073288
0.0741028
0.0748605
0.0755652
0.0762205
0.07683
0.0773966
0.0779233
0.0784128
0.0788674
0.0792895
0.079681
0.0800438
0.0803797
0.0806904
0.0809771
0.0812414
0.0814843
0.0817071
0.0819108
0.0820964
0.0822646
0.0824163
0.0825522
0.082673
0.0827793
0.0828716
0.0829504
0.0830162
0.0830693
0.0831101
0.0831389
0.0831561
0.0831617
0.0247895
0.0248727
0.0250852
0.0254502
0.0259399
0.0265723
0.027318
0.0281878
0.0291552
0.0302231
0.0313698
0.0325906
0.0338702
0.0351968
0.0365622
0.0379492
0.0393562
0.040763
0.0421732
0.0435659
0.0449485
0.0463012
0.0476336
0.0489284
0.0501959
0.051422
0.0526165
0.0537687
0.0548871
0.0559642
0.057007
0.0580105
0.0589803
0.0599134
0.060814
0.0616806
0.0625164
0.0633209
0.0640965
0.0648433
0.0655629
0.0662562
0.0669243
0.067568
0.0681883
0.0687862
0.0693623
0.0699178
0.0704531
0.0709693
0.0714668
0.0719466
0.0724091
0.0728551
0.0732851
0.0736999
0.0740997
0.0744855
0.0748573
0.0752161
0.0755619
0.0758955
0.0762171
0.0765274
0.0768265
0.077115
0.077393
0.0776612
0.0779197
0.078169
0.0784091
0.0786407
0.0788637
0.0790787
0.0792857
0.0794852
0.0796772
0.0798621
0.08004
0.0802113
0.0803759
0.0805343
0.0806865
0.0808328
0.0809733
0.0811082
0.0812375
0.0813616
0.0814805
0.0815944
0.0817033
0.0818075
0.081907
0.082002
0.0820925
0.0821787
0.0822607
0.0823386
0.0824124
0.0824824
0.0825484
0.0826106
0.0826692
0.0827241
0.0827755
0.0828233
0.0828678
0.0829088
0.0829466
0.0829811
0.0830123
0.0830405
0.0830655
0.0830874
0.0831063
0.0831222
0.0831351
0.0831451
0.0831522
0.0831565
0.0831579
0.0393079
0.0394292
0.0398109
0.0404379
0.0412937
0.0423578
0.0436058
0.0450107
0.046543
0.0481717
0.0498656
0.0515948
0.0533314
0.0550517
0.056736
0.0583694
0.0599415
0.0614452
0.0628766
0.0642343
0.0655184
0.0667301
0.0678716
0.0689455
0.0699547
0.0709023
0.0717913
0.0726248
0.0734058
0.0741372
0.0748218
0.0754621
0.0760608
0.0766201
0.0771424
0.0776298
0.0780841
0.0785073
0.0789011
0.0792671
0.0796069
0.0799218
0.0802131
0.080482
0.0807298
0.0809573
0.0811656
0.0813556
0.081528
0.0816837
0.0818233
0.0819475
0.0820568
0.0821518
0.082233
0.0823007
0.0823555
0.0823975
0.0824273
0.0824449
0.0824508
0.0475946
0.047621
0.0476746
0.0477734
0.0478992
0.04807
0.0482681
0.0485083
0.0487761
0.0490817
0.0494152
0.0497815
0.0501755
0.0505969
0.051045
0.0515151
0.0520102
0.052522
0.0530563
0.0536023
0.0541676
0.0547402
0.0553282
0.0559198
0.0565227
0.0571257
0.057736
0.0583438
0.0589548
0.059561
0.0601671
0.0607663
0.0613626
0.0619505
0.062533
0.0631061
0.0636719
0.0642274
0.0647743
0.0653102
0.0658366
0.0663517
0.0668565
0.0673499
0.0678325
0.0683038
0.0687642
0.0692133
0.0696514
0.0700784
0.0704945
0.0708998
0.0712944
0.0716785
0.0720521
0.0724155
0.0727687
0.0731121
0.0734457
0.0737697
0.0740843
0.0743898
0.0746862
0.0749739
0.0752528
0.0755233
0.0757855
0.0760396
0.0762858
0.0765243
0.0767551
0.0769787
0.0771949
0.0774041
0.0776064
0.0778021
0.077991
0.0781736
0.0783499
0.0785201
0.0786842
0.0788426
0.0789951
0.0791422
0.0792837
0.0794199
0.0795508
0.0796767
0.0797975
0.0799135
0.0800247
0.0801312
0.0802331
0.0803305
0.0804235
0.0805122
0.0805967
0.080677
0.0807533
0.0808256
0.0808939
0.0809585
0.0810192
0.0810762
0.0811296
0.0811794
0.0812256
0.0812684
0.0813077
0.0813437
0.0813763
0.0814056
0.0814317
0.0814546
0.0814744
0.081491
0.0815045
0.081515
0.0815224
0.0815269
0.0815284
0.0530068
0.0530597
0.0532124
0.0534637
0.0538099
0.0542458
0.054765
0.0553601
0.0560229
0.056745
0.0575177
0.0583323
0.0591803
0.0600535
0.0609437
0.0618436
0.062746
0.0636446
0.0645337
0.0654085
0.0662649
0.0670994
0.0679094
0.0686928
0.0694481
0.0701742
0.0708706
0.0715369
0.0721731
0.0727793
0.073356
0.0739036
0.0744228
0.0749143
0.0753788
0.0758171
0.0762301
0.0766185
0.0769832
0.0773251
0.077645
0.0779435
0.0782216
0.07848
0.0787193
0.0789402
0.0791435
0.0793297
0.0794994
0.0796532
0.0797915
0.0799149
0.0800238
0.0801187
0.0801999
0.0802678
0.0803227
0.080365
0.0803949
0.0804127
0.0804186
0.0567877
0.0567954
0.0568218
0.056865
0.0569266
0.0570047
0.0571005
0.0572126
0.0573412
0.0574857
0.0576455
0.0578208
0.0580097
0.0582136
0.0584296
0.0586597
0.0589005
0.0591542
0.0594171
0.0596918
0.0599744
0.0602672
0.0605669
0.0608751
0.0611892
0.0615101
0.0618359
0.0621668
0.0625017
0.0628402
0.0631817
0.0635252
0.0638708
0.0642172
0.0645646
0.0649117
0.0652589
0.0656046
0.0659497
0.0662924
0.0666336
0.0669717
0.0673076
0.0676397
0.0679689
0.068294
0.0686155
0.0689324
0.0692453
0.0695533
0.0698569
0.0701553
0.0704491
0.0707374
0.0710208
0.0712987
0.0715714
0.0718386
0.0721005
0.0723568
0.0726078
0.0728531
0.0730931
0.0733275
0.0735565
0.0737799
0.073998
0.0742106
0.0744179
0.0746199
0.0748166
0.075008
0.0751942
0.0753753
0.0755514
0.0757224
0.0758884
0.0760495
0.0762057
0.0763572
0.0765039
0.076646
0.0767835
0.0769164
0.0770448
0.0771688
0.0772885
0.0774038
0.0775149
0.0776219
0.0777247
0.0778234
0.0779182
0.078009
0.0780959
0.078179
0.0782582
0.0783338
0.0784057
0.0784739
0.0785386
0.0785997
0.0786574
0.0787116
0.0787624
0.0788098
0.078854
0.0788948
0.0789325
0.0789669
0.0789982
0.0790263
0.0790514
0.0790734
0.0790923
0.0791083
0.0791213
0.0791314
0.0791386
0.0791429
0.0791443
0.059368
0.0593927
0.0594681
0.0595928
0.0597657
0.059985
0.0602486
0.060554
0.0608983
0.0612783
0.0616908
0.0621322
0.0625989
0.0630872
0.0635935
0.0641143
0.0646462
0.065186
0.0657304
0.0662767
0.0668222
0.0673643
0.0679009
0.06843
0.0689497
0.0694585
0.0699552
0.0704384
0.0709074
0.0713613
0.0717995
0.0722216
0.0726271
0.0730159
0.0733879
0.073743
0.0740811
0.0744025
0.0747072
0.0749954
0.0752674
0.0755233
0.0757635
0.0759882
0.0761978
0.0763925
0.0765726
0.0767384
0.0768903
0.0770286
0.0771534
0.0772652
0.0773643
0.0774507
0.0775249
0.0775871
0.0776375
0.0776763
0.0777038
0.0777202
0.0777256
0.0610434
0.0610486
0.0610623
0.061086
0.0611182
0.0611601
0.0612105
0.0612704
0.0613386
0.0614159
0.0615014
0.0615954
0.0616975
0.0618075
0.0619253
0.0620505
0.0621831
0.0623224
0.0624687
0.0626211
0.06278
0.0629444
0.0631146
0.0632899
0.0634702
0.063655
0.0638443
0.0640374
0.0642344
0.0644346
0.0646379
0.064844
0.0650526
0.0652633
0.0654759
0.0656901
0.0659056
0.0661222
0.0663396
0.0665575
0.0667758
0.066994
0.0672121
0.0674297
0.0676469
0.067863
0.0680783
0.0682923
0.068505
0.068716
0.0689255
0.0691329
0.0693385
0.0695418
0.069743
0.0699417
0.070138
0.0703316
0.0705226
0.0707108
0.0708962
0.0710786
0.071258
0.0714344
0.0716077
0.0717778
0.0719447
0.0721084
0.0722688
0.0724259
0.0725797
0.0727301
0.0728772
0.0730209
0.0731613
0.0732982
0.0734318
0.0735619
0.0736887
0.0738121
0.0739321
0.0740487
0.074162
0.0742719
0.0743785
0.0744817
0.0745817
0.0746784
0.0747718
0.074862
0.074949
0.0750327
0.0751133
0.0751907
0.075265
0.0753362
0.0754043
0.0754693
0.0755313
0.0755903
0.0756462
0.0756993
0.0757494
0.0757965
0.0758408
0.0758822
0.0759208
0.0759566
0.0759895
0.0760197
0.0760472
0.0760719
0.0760939
0.0761133
0.07613
0.0761441
0.0761555
0.0761644
0.0761707
0.0761745
0.0761758
0.0620084
0.0620226
0.0620646
0.0621343
0.0622311
0.0623544
0.0625032
0.0626764
0.0628729
0.0630911
0.0633298
0.0635872
0.0638618
0.0641519
0.0644556
0.0647713
0.0650972
0.0654315
0.0657726
0.0661188
0.0664685
0.0668202
0.0671725
0.0675239
0.0678733
0.0682195
0.0685613
0.0688979
0.0692282
0.0695515
0.069867
0.0701742
0.0704724
0.0707612
0.0710401
0.0713089
0.0715672
0.0718147
0.0720514
0.072277
0.0724915
0.0726948
0.0728868
0.0730677
0.0732373
0.0733958
0.0735432
0.0736796
0.073805
0.0739197
0.0740237
0.0741171
0.0742
0.0742727
0.0743352
0.0743877
0.0744303
0.0744632
0.0744865
0.0745003
0.0745049
0.0623903
0.062393
0.0624011
0.0624145
0.0624332
0.0624573
0.0624867
0.0625213
0.062561
0.062606
0.0626558
0.0627107
0.0627704
0.0628349
0.062904
0.0629778
0.0630558
0.0631384
0.0632249
0.0633157
0.0634103
0.0635087
0.0636108
0.0637164
0.0638252
0.0639374
0.0640525
0.0641705
0.0642912
0.0644146
0.0645403
0.0646682
0.0647983
0.0649303
0.065064
0.0651993
0.0653361
0.0654742
0.0656135
0.0657537
0.0658948
0.0660365
0.0661789
0.0663216
0.0664646
0.0666077
0.0667509
0.0668939
0.0670367
0.0671791
0.0673211
0.0674625
0.0676032
0.0677431
0.0678821
0.06802
0.0681569
0.0682926
0.0684271
0.0685601
0.0686918
0.068822
0.0689506
0.0690776
0.0692029
0.0693264
0.0694481
0.0695679
0.0696859
0.0698018
0.0699158
0.0700277
0.0701376
0.0702453
0.0703509
0.0704542
0.0705554
0.0706544
0.0707511
0.0708455
0.0709377
0.0710275
0.0711151
0.0712003
0.0712831
0.0713636
0.0714418
0.0715175
0.071591
0.071662
0.0717307
0.071797
0.0718609
0.0719225
0.0719817
0.0720385
0.072093
0.0721451
0.0721949
0.0722423
0.0722875
0.0723303
0.0723707
0.0724089
0.0724448
0.0724784
0.0725098
0.0725388
0.0725657
0.0725903
0.0726127
0.0726329
0.0726509
0.0726667
0.0726804
0.0726919
0.0727013
0.0727085
0.0727137
0.0727168
0.0727178
0.0622825
0.0622908
0.0623158
0.0623573
0.0624151
0.0624889
0.0625781
0.0626823
0.062801
0.0629333
0.0630787
0.0632363
0.0634052
0.0635847
0.0637738
0.0639715
0.064177
0.0643893
0.0646073
0.0648303
0.0650571
0.065287
0.065519
0.0657523
0.0659861
0.0662194
0.0664517
0.0666821
0.06691
0.0671348
0.0673559
0.0675727
0.0677847
0.0679915
0.0681927
0.0683878
0.0685766
0.0687587
0.0689339
0.0691019
0.0692625
0.0694156
0.069561
0.0696986
0.0698283
0.06995
0.0700636
0.0701692
0.0702667
0.0703561
0.0704374
0.0705107
0.0705759
0.0706331
0.0706825
0.070724
0.0707578
0.0707838
0.0708023
0.0708133
0.070817
0.0617525
0.0617542
0.0617591
0.0617673
0.0617787
0.0617935
0.0618113
0.0618325
0.0618567
0.0618842
0.0619147
0.0619483
0.0619849
0.0620245
0.062067
0.0621123
0.0621605
0.0622114
0.062265
0.0623212
0.0623799
0.0624412
0.0625048
0.0625707
0.0626388
0.0627092
0.0627816
0.0628559
0.0629322
0.0630103
0.0630901
0.0631716
0.0632546
0.0633391
0.0634249
0.063512
0.0636003
0.0636897
0.0637801
0.0638714
0.0639636
0.0640564
0.06415
0.064244
0.0643386
0.0644335
0.0645288
0.0646243
0.0647199
0.0648156
0.0649112
0.0650068
0.0651022
0.0651974
0.0652922
0.0653867
0.0654807
0.0655742
0.0656672
0.0657594
0.065851
0.0659418
0.0660318
0.0661209
0.0662092
0.0662964
0.0663826
0.0664677
0.0665518
0.0666346
0.0667163
0.0667967
0.0668758
0.0669536
0.0670301
0.0671052
0.0671789
0.0672512
0.067322
0.0673912
0.067459
0.0675253
0.0675899
0.067653
0.0677145
0.0677744
0.0678327
0.0678893
0.0679442
0.0679975
0.0680491
0.068099
0.0681472
0.0681937
0.0682385
0.0682816
0.0683229
0.0683626
0.0684005
0.0684366
0.068471
0.0685037
0.0685347
0.068564
0.0685915
0.0686173
0.0686414
0.0686637
0.0686844
0.0687033
0.0687206
0.0687361
0.06875
0.0687622
0.0687728
0.0687817
0.068789
0.0687946
0.0687986
0.068801
0.0688018
0.0608537
0.0608588
0.0608744
0.0609001
0.0609361
0.0609819
0.0610376
0.0611026
0.0611769
0.0612599
0.0613514
0.0614508
0.0615578
0.0616719
0.0617925
0.0619191
0.0620513
0.0621883
0.0623298
0.0624752
0.0626238
0.0627751
0.0629286
0.0630837
0.0632399
0.0633967
0.0635536
0.06371
0.0638655
0.0640197
0.0641721
0.0643224
0.0644701
0.0646149
0.0647564
0.0648944
0.0650284
0.0651584
0.0652839
0.0654048
0.065521
0.0656321
0.065738
0.0658386
0.0659337
0.0660233
0.0661073
0.0661855
0.0662579
0.0663245
0.0663851
0.0664399
0.0664888
0.0665318
0.0665689
0.0666002
0.0666256
0.0666453
0.0666593
0.0666676
0.0666703
0.0596255
0.0596265
0.0596296
0.0596348
0.059642
0.0596512
0.0596625
0.0596758
0.0596911
0.0597084
0.0597276
0.0597488
0.0597719
0.059797
0.0598238
0.0598526
0.0598831
0.0599154
0.0599494
0.0599852
0.0600226
0.0600616
0.0601022
0.0601443
0.0601879
0.060233
0.0602795
0.0603273
0.0603764
0.0604268
0.0604783
0.060531
0.0605848
0.0606397
0.0606955
0.0607522
0.0608099
0.0608684
0.0609276
0.0609875
0.0610482
0.0611094
0.0611712
0.0612334
0.0612961
0.0613592
0.0614227
0.0614864
0.0615504
0.0616145
0.0616788
0.0617431
0.0618074
0.0618718
0.061936
0.0620002
0.0620641
0.0621279
0.0621914
0.0622546
0.0623174
0.0623799
0.0624419
0.0625034
0.0625645
0.062625
0.0626849
0.0627441
0.0628028
0.0628607
0.0629179
0.0629743
0.06303
0.0630848
0.0631388
0.0631919
0.0632442
0.0632954
0.0633458
0.0633951
0.0634435
0.0634908
0.0635372
0.0635824
0.0636266
0.0636697
0.0637116
0.0637525
0.0637922
0.0638307
0.0638681
0.0639043
0.0639394
0.0639732
0.0640058
0.0640372
0.0640674
0.0640964
0.0641241
0.0641506
0.0641758
0.0641998
0.0642226
0.0642441
0.0642643
0.0642833
0.064301
0.0643175
0.0643328
0.0643467
0.0643595
0.064371
0.0643812
0.0643903
0.0643981
0.0644047
0.06441
0.0644142
0.0644171
0.0644189
0.0644195
0.0581005
0.0581038
0.0581137
0.0581301
0.058153
0.0581822
0.0582177
0.0582592
0.0583067
0.0583599
0.0584186
0.0584825
0.0585515
0.0586251
0.0587032
0.0587854
0.0588714
0.0589609
0.0590536
0.059149
0.0592469
0.0593469
0.0594487
0.0595519
0.0596562
0.0597613
0.0598667
0.0599723
0.0600776
0.0601824
0.0602863
0.0603891
0.0604906
0.0605903
0.0606882
0.0607839
0.0608772
0.0609679
0.0610558
0.0611408
0.0612226
0.0613011
0.0613761
0.0614476
0.0615153
0.0615793
0.0616393
0.0616954
0.0617474
0.0617953
0.0618391
0.0618787
0.061914
0.0619451
0.061972
0.0619947
0.0620132
0.0620275
0.0620376
0.0620437
0.0620457
0.0563038
0.0563045
0.0563064
0.0563097
0.0563144
0.0563203
0.0563275
0.0563361
0.0563459
0.056357
0.0563693
0.056383
0.0563978
0.0564139
0.0564312
0.0564497
0.0564693
0.0564902
0.0565121
0.0565352
0.0565593
0.0565846
0.0566108
0.0566381
0.0566664
0.0566956
0.0567258
0.0567569
0.0567888
0.0568217
0.0568553
0.0568897
0.0569248
0.0569607
0.0569973
0.0570345
0.0570724
0.0571108
0.0571498
0.0571894
0.0572294
0.0572698
0.0573107
0.057352
0.0573936
0.0574355
0.0574778
0.0575202
0.0575629
0.0576058
0.0576488
0.0576919
0.0577351
0.0577783
0.0578216
0.0578648
0.057908
0.0579511
0.0579941
0.058037
0.0580796
0.0581221
0.0581643
0.0582063
0.058248
0.0582894
0.0583304
0.0583711
0.0584113
0.0584512
0.0584906
0.0585295
0.0585679
0.0586058
0.0586432
0.05868
0.0587163
0.0587519
0.058787
0.0588214
0.0588551
0.0588882
0.0589206
0.0589522
0.0589832
0.0590134
0.0590429
0.0590716
0.0590996
0.0591267
0.0591531
0.0591787
0.0592034
0.0592273
0.0592504
0.0592727
0.0592941
0.0593146
0.0593343
0.0593531
0.0593711
0.0593881
0.0594043
0.0594197
0.0594341
0.0594476
0.0594603
0.059472
0.0594829
0.0594929
0.059502
0.0595103
0.0595176
0.0595241
0.0595296
0.0595343
0.0595382
0.0595412
0.0595433
0.0595446
0.059545
0.0542562
0.0542584
0.0542647
0.0542753
0.0542901
0.0543089
0.0543318
0.0543587
0.0543894
0.0544239
0.0544619
0.0545034
0.0545483
0.0545962
0.0546472
0.0547009
0.0547572
0.0548159
0.0548767
0.0549396
0.0550041
0.0550703
0.0551377
0.0552063
0.0552757
0.0553458
0.0554163
0.0554871
0.0555579
0.0556284
0.0556986
0.0557682
0.055837
0.0559049
0.0559716
0.0560369
0.0561008
0.0561631
0.0562235
0.0562821
0.0563386
0.0563929
0.0564449
0.0564945
0.0565417
0.0565862
0.0566282
0.0566674
0.0567038
0.0567373
0.0567681
0.0567959
0.0568207
0.0568426
0.0568616
0.0568776
0.0568906
0.0569007
0.0569078
0.0569121
0.0569135
0.0519742
0.0519747
0.0519759
0.0519781
0.0519811
0.0519849
0.0519896
0.0519951
0.0520014
0.0520086
0.0520166
0.0520255
0.0520351
0.0520455
0.0520567
0.0520687
0.0520815
0.052095
0.0521092
0.0521242
0.0521399
0.0521563
0.0521734
0.0521912
0.0522096
0.0522287
0.0522484
0.0522686
0.0522895
0.052311
0.0523329
0.0523555
0.0523785
0.052402
0.052426
0.0524505
0.0524753
0.0525006
0.0525263
0.0525523
0.0525787
0.0526054
0.0526324
0.0526597
0.0526872
0.052715
0.052743
0.0527712
0.0527995
0.052828
0.0528566
0.0528854
0.0529142
0.052943
0.0529719
0.0530008
0.0530298
0.0530586
0.0530875
0.0531162
0.0531449
0.0531735
0.0532019
0.0532302
0.0532583
0.0532863
0.053314
0.0533415
0.0533688
0.0533958
0.0534225
0.053449
0.0534751
0.0535009
0.0535264
0.0535515
0.0535762
0.0536005
0.0536245
0.053648
0.0536711
0.0536937
0.0537159
0.0537377
0.0537589
0.0537797
0.0538
0.0538198
0.053839
0.0538577
0.0538759
0.0538936
0.0539107
0.0539272
0.0539432
0.0539585
0.0539734
0.0539876
0.0540012
0.0540143
0.0540267
0.0540386
0.0540498
0.0540604
0.0540705
0.0540799
0.0540887
0.0540969
0.0541044
0.0541114
0.0541177
0.0541235
0.0541286
0.0541331
0.054137
0.0541402
0.0541429
0.054145
0.0541465
0.0541474
0.0541477
0.0494717
0.0494731
0.0494772
0.0494841
0.0494936
0.0495058
0.0495207
0.0495381
0.049558
0.0495804
0.0496051
0.0496321
0.0496613
0.0496926
0.0497258
0.0497609
0.0497977
0.0498361
0.049876
0.0499173
0.0499598
0.0500033
0.0500478
0.050093
0.050139
0.0501854
0.0502322
0.0502792
0.0503263
0.0503733
0.0504202
0.0504668
0.0505128
0.0505584
0.0506032
0.0506472
0.0506902
0.0507323
0.0507731
0.0508128
0.0508511
0.050888
0.0509233
0.0509571
0.0509892
0.0510196
0.0510483
0.0510751
0.0511
0.051123
0.051144
0.0511631
0.0511802
0.0511952
0.0512082
0.0512192
0.0512282
0.0512351
0.0512401
0.051243
0.051244
0.0467596
0.0467599
0.0467607
0.0467621
0.046764
0.0467665
0.0467695
0.0467731
0.0467772
0.0467819
0.046787
0.0467927
0.046799
0.0468057
0.046813
0.0468208
0.046829
0.0468378
0.046847
0.0468567
0.0468669
0.0468776
0.0468887
0.0469002
0.0469122
0.0469245
0.0469373
0.0469505
0.0469641
0.0469781
0.0469924
0.0470071
0.0470221
0.0470374
0.0470531
0.047069
0.0470853
0.0471018
0.0471186
0.0471357
0.0471529
0.0471704
0.0471881
0.047206
0.0472241
0.0472423
0.0472607
0.0472793
0.0472979
0.0473167
0.0473355
0.0473545
0.0473735
0.0473925
0.0474116
0.0474307
0.0474499
0.047469
0.0474881
0.0475071
0.0475262
0.0475451
0.047564
0.0475828
0.0476015
0.0476201
0.0476386
0.0476569
0.0476751
0.0476931
0.0477109
0.0477286
0.0477461
0.0477633
0.0477803
0.0477971
0.0478137
0.04783
0.0478461
0.0478619
0.0478774
0.0478926
0.0479075
0.0479222
0.0479365
0.0479505
0.0479641
0.0479774
0.0479904
0.0480031
0.0480153
0.0480273
0.0480388
0.04805
0.0480608
0.0480712
0.0480812
0.0480908
0.0481001
0.0481089
0.0481173
0.0481254
0.048133
0.0481402
0.048147
0.0481534
0.0481594
0.0481649
0.0481701
0.0481748
0.0481791
0.048183
0.0481865
0.0481895
0.0481922
0.0481944
0.0481962
0.0481976
0.0481986
0.0481992
0.0481994
0.0438474
0.0438483
0.0438509
0.0438553
0.0438615
0.0438693
0.0438789
0.0438901
0.043903
0.0439174
0.0439334
0.0439508
0.0439697
0.0439899
0.0440114
0.0440341
0.044058
0.0440829
0.0441088
0.0441356
0.0441632
0.0441915
0.0442205
0.0442501
0.04428
0.0443104
0.044341
0.0443718
0.0444027
0.0444336
0.0444643
0.044495
0.0445253
0.0445553
0.0445849
0.044614
0.0446424
0.0446703
0.0446973
0.0447236
0.0447491
0.0447736
0.0447971
0.0448196
0.044841
0.0448612
0.0448803
0.0448982
0.0449149
0.0449303
0.0449443
0.0449571
0.0449685
0.0449786
0.0449873
0.0449947
0.0450007
0.0450054
0.0450087
0.0450107
0.0450113
0.0407424
0.0407426
0.0407431
0.040744
0.0407452
0.0407468
0.0407487
0.040751
0.0407536
0.0407566
0.0407599
0.0407635
0.0407675
0.0407718
0.0407765
0.0407815
0.0407867
0.0407923
0.0407983
0.0408045
0.040811
0.0408178
0.0408249
0.0408323
0.04084
0.0408479
0.0408561
0.0408646
0.0408733
0.0408822
0.0408914
0.0409009
0.0409105
0.0409204
0.0409304
0.0409407
0.0409511
0.0409618
0.0409726
0.0409836
0.0409947
0.041006
0.0410174
0.0410289
0.0410406
0.0410524
0.0410642
0.0410762
0.0410883
0.0411004
0.0411126
0.0411248
0.0411371
0.0411495
0.0411619
0.0411742
0.0411866
0.041199
0.0412114
0.0412238
0.0412362
0.0412485
0.0412608
0.041273
0.0412852
0.0412973
0.0413093
0.0413213
0.0413331
0.0413449
0.0413565
0.041368
0.0413794
0.0413907
0.0414018
0.0414128
0.0414237
0.0414344
0.0414449
0.0414552
0.0414654
0.0414753
0.0414851
0.0414947
0.0415041
0.0415133
0.0415223
0.041531
0.0415395
0.0415478
0.0415559
0.0415637
0.0415713
0.0415787
0.0415858
0.0415926
0.0415993
0.0416056
0.0416117
0.0416175
0.0416231
0.0416284
0.0416334
0.0416381
0.0416426
0.0416468
0.0416508
0.0416545
0.0416578
0.041661
0.0416638
0.0416664
0.0416687
0.0416707
0.0416724
0.0416739
0.0416751
0.041676
0.0416767
0.0416771
0.0416772
0.037451
0.0374516
0.0374532
0.037456
0.0374599
0.0374649
0.0374709
0.037478
0.0374861
0.0374952
0.0375053
0.0375164
0.0375283
0.0375411
0.0375547
0.0375691
0.0375842
0.0376
0.0376164
0.0376334
0.037651
0.037669
0.0376874
0.0377062
0.0377253
0.0377446
0.0377641
0.0377838
0.0378035
0.0378233
0.0378429
0.0378625
0.037882
0.0379012
0.0379202
0.0379388
0.0379571
0.037975
0.0379924
0.0380093
0.0380257
0.0380415
0.0380566
0.0380711
0.038085
0.038098
0.0381104
0.0381219
0.0381327
0.0381427
0.0381518
0.03816
0.0381674
0.038174
0.0381796
0.0381844
0.0381883
0.0381913
0.0381934
0.0381947
0.0381951
0.0339782
0.0339783
0.0339787
0.0339792
0.03398
0.033981
0.0339822
0.0339836
0.0339852
0.033987
0.0339891
0.0339914
0.0339938
0.0339965
0.0339994
0.0340024
0.0340057
0.0340092
0.0340129
0.0340167
0.0340208
0.034025
0.0340294
0.034034
0.0340387
0.0340437
0.0340488
0.034054
0.0340594
0.034065
0.0340707
0.0340765
0.0340825
0.0340887
0.0340949
0.0341013
0.0341078
0.0341144
0.0341211
0.034128
0.0341349
0.0341419
0.034149
0.0341562
0.0341635
0.0341708
0.0341783
0.0341857
0.0341932
0.0342008
0.0342084
0.0342161
0.0342238
0.0342315
0.0342392
0.0342469
0.0342547
0.0342625
0.0342702
0.034278
0.0342857
0.0342934
0.0343011
0.0343088
0.0343164
0.034324
0.0343315
0.034339
0.0343465
0.0343538
0.0343612
0.0343684
0.0343756
0.0343826
0.0343896
0.0343965
0.0344034
0.0344101
0.0344167
0.0344232
0.0344296
0.0344359
0.034442
0.0344481
0.034454
0.0344598
0.0344654
0.034471
0.0344763
0.0344816
0.0344867
0.0344916
0.0344964
0.034501
0.0345055
0.0345099
0.034514
0.034518
0.0345219
0.0345256
0.0345291
0.0345324
0.0345356
0.0345386
0.0345414
0.0345441
0.0345466
0.0345489
0.0345511
0.034553
0.0345548
0.0345565
0.0345579
0.0345592
0.0345603
0.0345612
0.034562
0.0345626
0.034563
0.0345633
0.0345633
0.0303283
0.0303287
0.0303297
0.0303313
0.0303337
0.0303367
0.0303403
0.0303446
0.0303495
0.030355
0.0303611
0.0303677
0.0303749
0.0303826
0.0303908
0.0303995
0.0304086
0.0304182
0.0304281
0.0304384
0.030449
0.0304599
0.0304711
0.0304824
0.030494
0.0305057
0.0305176
0.0305295
0.0305415
0.0305534
0.0305654
0.0305773
0.0305891
0.0306008
0.0306124
0.0306237
0.0306349
0.0306458
0.0306564
0.0306667
0.0306767
0.0306863
0.0306956
0.0307044
0.0307129
0.0307209
0.0307284
0.0307355
0.0307421
0.0307482
0.0307537
0.0307588
0.0307633
0.0307673
0.0307708
0.0307737
0.0307761
0.030778
0.0307793
0.0307801
0.0307803
0.0265044
0.0265045
0.0265047
0.026505
0.0265054
0.026506
0.0265067
0.0265075
0.0265085
0.0265095
0.0265107
0.026512
0.0265134
0.026515
0.0265167
0.0265184
0.0265203
0.0265223
0.0265245
0.0265267
0.026529
0.0265315
0.026534
0.0265367
0.0265394
0.0265423
0.0265452
0.0265483
0.0265514
0.0265546
0.0265579
0.0265613
0.0265648
0.0265684
0.026572
0.0265757
0.0265794
0.0265833
0.0265872
0.0265911
0.0265952
0.0265992
0.0266034
0.0266075
0.0266118
0.026616
0.0266203
0.0266247
0.026629
0.0266334
0.0266378
0.0266423
0.0266468
0.0266512
0.0266557
0.0266602
0.0266648
0.0266693
0.0266738
0.0266783
0.0266828
0.0266873
0.0266918
0.0266962
0.0267007
0.0267051
0.0267095
0.0267139
0.0267182
0.0267225
0.0267267
0.026731
0.0267352
0.0267393
0.0267434
0.0267474
0.0267514
0.0267553
0.0267592
0.026763
0.0267667
0.0267704
0.026774
0.0267775
0.026781
0.0267843
0.0267876
0.0267909
0.026794
0.0267971
0.0268001
0.0268029
0.0268057
0.0268085
0.0268111
0.0268136
0.0268161
0.0268184
0.0268207
0.0268228
0.0268249
0.0268268
0.0268287
0.0268305
0.0268321
0.0268337
0.0268351
0.0268365
0.0268378
0.0268389
0.02684
0.0268409
0.0268418
0.0268425
0.0268432
0.0268437
0.0268442
0.0268445
0.0268448
0.0268449
0.0268449
0.0225092
0.0225094
0.02251
0.0225109
0.0225122
0.0225138
0.0225158
0.0225181
0.0225207
0.0225237
0.022527
0.0225307
0.0225346
0.0225388
0.0225432
0.022548
0.022553
0.0225582
0.0225636
0.0225692
0.0225749
0.0225809
0.022587
0.0225932
0.0225995
0.0226059
0.0226123
0.0226189
0.0226254
0.0226319
0.0226385
0.022645
0.0226515
0.0226579
0.0226642
0.0226704
0.0226765
0.0226824
0.0226883
0.0226939
0.0226994
0.0227047
0.0227097
0.0227146
0.0227192
0.0227236
0.0227278
0.0227316
0.0227353
0.0227386
0.0227417
0.0227444
0.0227469
0.0227491
0.022751
0.0227526
0.0227539
0.022755
0.0227557
0.0227561
0.0227563
0.0183445
0.0183445
0.0183446
0.0183447
0.018345
0.0183452
0.0183456
0.018346
0.0183464
0.018347
0.0183476
0.0183482
0.0183489
0.0183497
0.0183505
0.0183514
0.0183523
0.0183533
0.0183544
0.0183555
0.0183566
0.0183578
0.0183591
0.0183604
0.0183618
0.0183632
0.0183647
0.0183662
0.0183677
0.0183693
0.0183709
0.0183726
0.0183743
0.0183761
0.0183779
0.0183797
0.0183816
0.0183835
0.0183854
0.0183874
0.0183894
0.0183914
0.0183935
0.0183955
0.0183976
0.0183997
0.0184019
0.018404
0.0184062
0.0184084
0.0184106
0.0184128
0.018415
0.0184172
0.0184195
0.0184217
0.0184239
0.0184262
0.0184284
0.0184307
0.0184329
0.0184351
0.0184374
0.0184396
0.0184418
0.018444
0.0184462
0.0184483
0.0184505
0.0184526
0.0184547
0.0184568
0.0184589
0.018461
0.018463
0.018465
0.018467
0.018469
0.0184709
0.0184728
0.0184746
0.0184765
0.0184782
0.01848
0.0184817
0.0184834
0.0184851
0.0184867
0.0184882
0.0184898
0.0184912
0.0184927
0.0184941
0.0184954
0.0184967
0.018498
0.0184992
0.0185004
0.0185015
0.0185026
0.0185036
0.0185046
0.0185055
0.0185064
0.0185072
0.018508
0.0185087
0.0185094
0.01851
0.0185106
0.0185111
0.0185116
0.018512
0.0185124
0.0185127
0.018513
0.0185132
0.0185134
0.0185135
0.0185136
0.0185136
0.0140113
0.0140114
0.0140116
0.014012
0.0140125
0.0140132
0.0140141
0.014015
0.0140162
0.0140174
0.0140189
0.0140204
0.0140221
0.0140238
0.0140257
0.0140278
0.0140299
0.0140321
0.0140344
0.0140368
0.0140392
0.0140418
0.0140444
0.014047
0.0140497
0.0140524
0.0140552
0.0140579
0.0140607
0.0140635
0.0140663
0.0140691
0.0140718
0.0140746
0.0140773
0.0140799
0.0140825
0.0140851
0.0140875
0.01409
0.0140923
0.0140946
0.0140967
0.0140988
0.0141008
0.0141027
0.0141044
0.0141061
0.0141076
0.0141091
0.0141104
0.0141115
0.0141126
0.0141136
0.0141144
0.0141151
0.0141156
0.014116
0.0141164
0.0141165
0.0141166
0.00950997
0.00950998
0.00951001
0.00951006
0.00951013
0.00951022
0.00951034
0.00951047
0.00951062
0.00951079
0.00951098
0.00951119
0.00951142
0.00951167
0.00951194
0.00951223
0.00951253
0.00951285
0.00951319
0.00951356
0.00951393
0.00951433
0.00951474
0.00951516
0.00951561
0.00951607
0.00951654
0.00951703
0.00951754
0.00951806
0.00951859
0.00951914
0.0095197
0.00952027
0.00952086
0.00952145
0.00952206
0.00952268
0.00952331
0.00952395
0.0095246
0.00952526
0.00952592
0.0095266
0.00952728
0.00952797
0.00952866
0.00952936
0.00953007
0.00953078
0.0095315
0.00953222
0.00953294
0.00953366
0.00953439
0.00953512
0.00953585
0.00953658
0.00953731
0.00953804
0.00953877
0.0095395
0.00954023
0.00954095
0.00954167
0.00954239
0.0095431
0.00954381
0.00954451
0.00954521
0.0095459
0.00954658
0.00954726
0.00954793
0.0095486
0.00954925
0.0095499
0.00955053
0.00955116
0.00955178
0.00955239
0.00955298
0.00955357
0.00955414
0.0095547
0.00955525
0.00955579
0.00955632
0.00955683
0.00955732
0.00955781
0.00955828
0.00955874
0.00955918
0.00955961
0.00956002
0.00956042
0.0095608
0.00956116
0.00956151
0.00956185
0.00956217
0.00956247
0.00956276
0.00956303
0.00956328
0.00956352
0.00956374
0.00956395
0.00956414
0.00956431
0.00956446
0.0095646
0.00956472
0.00956483
0.00956492
0.00956499
0.00956505
0.00956509
0.00956511
0.00956512
0.00484012
0.00484013
0.00484017
0.00484025
0.00484034
0.00484047
0.00484062
0.0048408
0.00484101
0.00484124
0.0048415
0.00484178
0.00484208
0.00484241
0.00484276
0.00484312
0.00484351
0.00484391
0.00484433
0.00484477
0.00484522
0.00484568
0.00484615
0.00484663
0.00484712
0.00484762
0.00484812
0.00484863
0.00484914
0.00484965
0.00485016
0.00485067
0.00485117
0.00485167
0.00485216
0.00485264
0.00485312
0.00485359
0.00485404
0.00485448
0.00485491
0.00485532
0.00485572
0.0048561
0.00485646
0.0048568
0.00485713
0.00485743
0.00485771
0.00485797
0.00485821
0.00485843
0.00485863
0.0048588
0.00485895
0.00485907
0.00485917
0.00485925
0.00485931
0.00485934
0.00485936
-0
-0
-0
-0
-0
-0
-0
-0
-0
-0
-0
-0
-0
-0
-0
-0
-0
-0
-0
-0
-0
-0
-0
-0
-0
-0
-0
-0
-0
-0
-0
-0
-0
-0
-0
-0
-0
-0
-0
-0
-0
-0
-0
-0
-0
-0
-0
-0
-0
-0
-0
-0
-0
-0
-0
-0
-0
-0
-0
-0
-0
-0
-0
-0
-0
-0
-0
-0
-0
-0
-0
-0
-0
-0
-0
-0
-0
-0
-0
-0
-0
-0
-0
-0
-0
-0
-0
-0
-0
-0
-0
-0
-0
-0
-0
-0
-0
-0
-0
-0
-0
-0
-0
-0
-0
-0
-0
-0
-0
-0
-0
-0
-0
-0
-0
-0
-0
-0
-0
-0
-0
SCALARS Stress_R double 1
LOOKUP_TABLE default
-303.024
-301.385
-299.811
-295.231
-290.421
-281.597
-272.475
-258.053
-242.874
-220.562
-197.864
-173.231
-104.421
-41.792
-20.9716
-6.75754
7.78941
15.0859
21.9507
24.9537
27.7788
28.6645
29.4177
29.3479
29.1835
28.718
28.1784
27.583
26.9294
26.3188
25.6613
25.0777
24.4557
23.9085
23.3293
22.8153
22.2744
21.7873
21.2773
20.8113
20.3259
19.8773
19.412
18.9787
18.5312
18.1124
17.6815
17.2775
16.863
16.4743
16.0765
15.7036
15.3229
14.9664
14.6031
14.2635
13.9178
13.5951
13.2672
12.9614
12.6511
12.362
12.069
11.7963
11.5201
11.2634
11.0035
10.7622
10.5181
10.2916
10.0626
9.85019
9.63562
9.43675
9.23593
9.04991
8.86213
8.68829
8.51288
8.35057
8.18685
8.03544
7.88276
7.74164
7.59936
7.46794
7.33547
7.21318
7.08995
6.97626
6.86172
6.75612
6.64975
6.55177
6.45308
6.36227
6.27081
6.18674
6.10209
6.02436
5.94611
5.87437
5.80215
5.73605
5.66952
5.60874
5.54757
5.49183
5.43572
5.38474
5.33342
5.28695
5.24017
5.19798
5.15551
5.11738
5.079
5.04475
5.01032
4.97959
4.94962
-291.982
-288.862
-279.693
-262.266
-233.156
-189.521
-101.605
-23.0787
5.3083
19.6297
25.5822
27.4315
27.4115
26.6062
25.5308
24.4104
23.3295
22.3091
21.3451
20.4272
19.5455
18.6938
17.8689
17.0699
16.2975
15.5531
14.838
14.1536
13.5006
12.8796
12.2907
11.7335
11.2075
10.712
10.2458
9.8079
9.39717
9.01234
8.65216
8.3154
8.00082
7.70721
7.43342
7.17832
6.94084
6.71995
6.51468
6.32412
6.14741
5.98374
5.83235
5.69253
5.56362
5.44502
5.33615
5.2365
5.14557
5.06292
4.98815
4.92088
4.86121
-281.009
-279.405
-277.966
-273.561
-269.05
-260.715
-252.186
-238.534
-223.814
-203.948
-181.722
-153.02
-98.9161
-50.1492
-24.6103
-10.1102
3.06499
10.5937
17.405
20.4923
23.4279
24.5022
25.4669
25.6083
25.6512
25.3897
25.0403
24.6252
24.1357
23.6795
23.1614
22.7085
22.2045
21.7681
21.2895
20.8704
20.4163
20.0114
19.5773
19.1835
18.7652
18.3808
17.9756
17.5999
17.2065
16.84
16.4581
16.1016
15.7318
15.3864
15.0294
14.6961
14.3528
14.0326
13.7036
13.3972
13.0829
12.7907
12.4916
12.2138
11.9299
11.6665
11.3976
11.1485
10.8945
10.6594
10.42
10.1985
9.97304
9.76472
9.55285
9.35718
9.15832
8.97478
8.78836
8.61639
8.44182
8.28087
8.11756
7.96707
7.81444
7.67386
7.53133
7.40013
7.26716
7.14481
7.02085
6.90687
6.79142
6.68532
6.57788
6.47922
6.37933
6.28767
6.19489
6.10984
6.02375
5.94492
5.86514
5.79217
5.71834
5.6509
5.58266
5.52044
5.45749
5.4002
5.34224
5.28961
5.23636
5.18814
5.13935
5.09531
5.05075
5.01069
4.97013
4.93384
4.8971
4.86441
4.83126
4.80202
4.77266
-270.058
-267.084
-258.45
-242.14
-214.909
-172.853
-96.2525
-27.151
1.18463
15.2114
21.3034
23.5143
23.9027
23.4836
22.7482
21.9187
21.0846
20.2743
19.491
18.7304
17.9875
17.2596
16.5461
15.8481
15.1676
14.5071
13.8689
13.2548
12.6663
12.1045
11.5699
11.0625
10.5823
10.1286
9.70093
9.29836
8.92001
8.56488
8.23194
7.92015
7.62846
7.35583
7.10124
6.86372
6.64231
6.43611
6.24426
6.06593
5.90035
5.74679
5.60456
5.47302
5.35158
5.23966
5.13677
5.0424
4.95613
4.87753
4.80624
4.74188
4.68442
-259.14
-257.576
-256.253
-252.075
-247.89
-240.025
-232.181
-219.283
-205.885
-187.025
-164.766
-137.267
-93.6003
-53.9978
-28.9687
-13.6975
-0.781481
6.29477
13.0732
16.1383
19.1972
20.4163
21.5782
21.9079
22.1616
22.084
21.9308
21.6803
21.3625
21.0483
20.6767
20.3449
19.965
19.6321
19.2591
18.9291
18.5658
18.2386
17.8835
17.5584
17.2098
16.8867
16.5435
16.2232
15.8855
15.5691
15.2378
14.927
14.6032
14.2995
13.9845
13.6896
13.3845
13.0995
12.8056
12.5314
12.2493
11.9867
11.7171
11.4665
11.2095
10.9711
10.7271
10.5009
10.2696
10.0556
9.83691
9.63475
9.42843
9.23785
9.0435
8.86412
8.68133
8.51273
8.34104
8.18279
8.02172
7.87335
7.72242
7.58346
7.44217
7.31216
7.18002
7.0585
6.93504
6.82156
6.70631
6.60044
6.49294
6.39426
6.29409
6.2022
6.10894
6.02346
5.93673
5.8573
5.77671
5.70299
5.62821
5.55988
5.49056
5.42732
5.36317
5.30473
5.24545
5.19156
5.13689
5.08729
5.03698
4.99145
4.94526
4.9036
4.86132
4.82331
4.78474
4.75022
4.71518
4.68397
4.65228
4.62426
4.59595
-248.246
-245.436
-237.358
-222.217
-197.109
-156.461
-90.8941
-30.9864
-2.5438
10.9382
17.1084
19.6501
20.4279
20.3834
19.9812
19.4384
18.8484
18.2465
17.6427
17.0385
16.4336
15.8289
15.2263
14.6287
14.0398
13.4628
12.9011
12.3571
11.833
11.3302
10.8497
10.3921
9.95743
9.54564
9.15635
8.78902
8.44301
8.11754
7.81181
7.52497
7.25614
7.00446
6.76907
6.54911
6.34377
6.15226
5.97381
5.8077
5.65325
5.50979
5.37672
5.25347
5.13948
5.03426
4.93733
4.84826
4.76664
4.69208
4.62426
4.56283
4.50766
-237.4
-235.9
-234.684
-230.768
-226.892
-219.569
-212.365
-200.35
-188.309
-170.372
-148.585
-123.654
-88.2126
-55.7105
-32.62
-17.0486
-4.33078
2.2255
8.86354
11.9199
15.0454
16.4073
17.7408
18.2522
18.7046
18.8057
18.8427
18.7531
18.6042
18.4296
18.2031
17.9906
17.7343
17.5034
17.2358
16.9939
16.7212
16.471
16.1948
15.9377
15.6587
15.3964
15.1153
14.8496
14.5678
14.3011
14.0203
13.7548
13.4769
13.2147
12.9417
12.6847
12.418
12.1678
11.909
11.6669
11.417
11.1837
10.9436
10.72
10.4901
10.2765
10.0573
9.85386
9.64536
9.45221
9.25446
9.07148
8.88433
8.71136
8.5346
8.37138
8.20472
8.05096
7.89406
7.74942
7.60192
7.46603
7.32753
7.20002
7.07012
6.95061
6.82891
6.71701
6.6031
6.49843
6.39191
6.2941
6.1946
6.10329
6.01042
5.92526
5.83867
5.75933
5.67866
5.60482
5.52976
5.46113
5.39136
5.32764
5.26287
5.20379
5.14375
5.08907
5.03349
4.98296
4.93161
4.88502
4.83767
4.79481
4.75124
4.71192
4.67194
4.63598
4.59941
4.56665
4.53332
4.50359
4.47335
4.44653
4.41933
-226.545
-223.916
-216.42
-202.477
-179.586
-140.798
-85.4538
-34.1518
-6.035
6.78648
12.9926
15.8352
16.9839
17.3031
17.2278
16.968
16.62
16.2249
15.7995
15.3508
14.8834
14.4012
13.909
13.4115
12.9137
12.42
11.9345
11.4605
11.0005
10.5566
10.1301
9.72207
9.33294
8.96293
8.61198
8.27986
7.96613
7.6703
7.39175
7.12983
6.88385
6.65311
6.43689
6.23449
6.04521
5.86838
5.70333
5.54944
5.4061
5.27275
5.14885
5.03387
4.92734
4.82881
4.73785
4.65407
4.5771
4.50659
4.44223
4.38373
4.33089
-215.753
-214.338
-213.223
-209.597
-206.028
-199.296
-192.707
-181.688
-170.926
-154.066
-133.278
-111.506
-82.7231
-55.9432
-35.457
-20.0745
-7.70705
-1.63165
4.76614
7.8179
10.9683
12.464
13.9488
14.6342
15.2752
15.5498
15.7719
15.8399
15.8574
15.8199
15.7376
15.6428
15.5095
15.3796
15.2172
15.0626
14.8805
14.7065
14.5093
14.3196
14.1102
13.9081
13.6891
13.4778
13.2518
13.0344
12.8041
12.5836
12.3517
12.1307
11.8996
11.6803
11.4521
11.2365
11.0129
10.8025
10.5849
10.3809
10.1703
9.9735
9.77079
9.58181
9.38746
9.20669
9.02104
8.84867
8.67188
8.50799
8.34008
8.18463
8.02551
7.87839
7.72791
7.58892
7.44686
7.31578
7.18188
7.05843
6.93241
6.81631
6.69784
6.58878
6.47756
6.37524
6.27092
6.17502
6.07729
5.9875
5.89603
5.81206
5.72652
5.64806
5.56817
5.49494
5.42038
5.35211
5.2826
5.21902
5.1543
5.09516
5.03497
4.98004
4.92413
4.87318
4.82133
4.77415
4.72614
4.68254
4.63816
4.59796
4.55703
4.52004
4.48238
4.44845
4.41389
4.38287
4.35127
4.32301
4.29423
4.26861
4.24256
-204.966
-202.534
-195.646
-182.931
-162.274
-125.977
-79.9262
-36.5534
-9.3617
2.75221
8.95474
12.0682
13.5703
14.2432
14.4888
14.5085
14.4001
14.2104
13.9622
13.6683
13.3375
12.9773
12.5949
12.1971
11.79
11.3793
10.9698
10.5654
10.1693
9.78409
9.4115
9.05291
8.70918
8.38086
8.06819
7.77119
7.4897
7.22344
6.97202
6.73499
6.51183
6.302
6.10494
5.92008
5.74684
5.58466
5.433
5.29132
5.1591
5.03584
4.92109
4.81439
4.71531
4.62346
4.53847
4.45998
4.38765
4.32119
4.2603
4.20472
4.15423
-194.207
-192.897
-191.879
-188.562
-185.307
-179.197
-173.226
-163.276
-153.7
-138.164
-118.838
-100.371
-77.1415
-55.1519
-37.4978
-22.735
-10.9549
-5.30069
0.782747
3.82106
6.96401
8.58224
10.2009
11.0532
11.8731
12.3168
12.7189
12.9417
13.1229
13.2208
13.2811
13.3027
13.2918
13.2619
13.2043
13.1361
13.0444
12.9461
12.8277
12.7049
12.565
12.4227
12.2656
12.1083
11.9381
11.7697
11.5899
11.4141
11.2281
11.048
10.8588
10.6771
10.4872
10.3061
10.1176
9.93891
9.75352
9.57857
9.39759
9.2275
9.05192
8.88748
8.71805
8.55981
8.39702
8.24536
8.08954
7.94467
7.796
7.65802
7.51657
7.38548
7.2512
7.12693
6.99974
6.88216
6.76189
6.65083
6.53731
6.43257
6.32557
6.22693
6.1262
6.03342
5.93872
5.85156
5.76263
5.68085
5.59742
5.52076
5.44259
5.3708
5.29763
5.23048
5.16205
5.09932
5.03539
4.97685
4.91719
4.86262
4.80702
4.75622
4.70446
4.65723
4.60911
4.56528
4.52061
4.47999
4.43861
4.40104
4.36276
4.32809
4.29276
4.26085
4.22832
4.19903
4.16916
4.14237
4.11505
4.09063
4.06574
-183.473
-181.25
-174.996
-163.544
-145.122
-111.933
-74.3106
-38.2314
-12.5545
-1.1734
4.98484
8.34146
10.1814
11.199
11.7605
12.0566
12.186
12.2004
12.1286
11.9887
11.794
11.5554
11.2825
10.9839
10.6673
10.3393
10.0056
9.6707
9.33843
9.01176
8.69296
8.38375
8.08538
7.79871
7.52427
7.26237
7.0131
6.7764
6.55211
6.33996
6.13961
5.95069
5.77278
5.60545
5.44826
5.30075
5.16248
5.033
4.9119
4.79874
4.69315
4.59472
4.5031
4.41794
4.33892
4.26571
4.19804
4.13562
4.0782
4.02554
3.97743
-172.762
-171.572
-170.65
-167.659
-164.723
-159.261
-153.918
-145.091
-136.635
-122.662
-105.15
-89.9784
-71.4869
-53.6117
-38.8492
-25.0426
-14.0813
-8.80618
-3.09336
-0.0835928
3.02629
4.75601
6.49371
7.50622
8.49666
9.1056
9.68311
10.058
10.4005
10.6319
10.8336
10.9704
11.0811
11.1504
11.1971
11.2148
11.2132
11.1899
11.1501
11.0938
11.0232
10.9404
10.8451
10.7415
10.6268
10.5072
10.3777
10.2464
10.1063
9.96691
9.81958
9.67521
9.52364
9.37681
9.22345
9.07621
8.92303
8.77703
8.6256
8.48211
8.33366
8.19366
8.04913
7.91335
7.77342
7.64239
7.50755
7.38163
7.25222
7.13164
7.00786
6.89275
6.77469
6.66509
6.55277
6.44865
6.34204
6.24333
6.14232
6.04891
5.95338
5.86513
5.77492
5.69166
5.60659
5.52814
5.44803
5.37422
5.29886
5.22948
5.15868
5.09356
5.02711
4.96604
4.90374
4.84653
4.78819
4.73467
4.68009
4.63007
4.57908
4.53239
4.48479
4.44127
4.3969
4.35639
4.31509
4.27744
4.23905
4.20411
4.16849
4.13614
4.10315
4.07325
4.04275
4.01519
3.98706
3.96172
3.93587
3.91264
3.88894
-162.072
-160.07
-154.471
-144.316
-128.132
-98.5729
-68.626
-39.2769
-15.6203
-4.99701
1.07794
4.65333
6.8172
8.17134
9.0438
9.61339
9.97865
10.1959
10.2995
10.313
10.2538
10.1361
9.97227
9.77262
9.5462
9.30067
9.04247
8.7769
8.50827
8.24003
7.9749
7.715
7.46191
7.21681
6.98056
6.75371
6.53661
6.32945
6.13226
5.94496
5.76741
5.59938
5.44062
5.29082
5.14966
5.01681
4.89192
4.77465
4.66466
4.5616
4.46516
4.37501
4.29085
4.21238
4.13932
4.07141
4.00838
3.95001
3.89606
3.84632
3.80058
-151.422
-150.361
-149.534
-146.882
-144.271
-139.477
-134.775
-127.108
-119.739
-107.536
-92.1
-80.1245
-65.7763
-51.529
-39.6188
-27.0233
-17.0856
-12.1696
-6.87066
-3.90565
-0.85041
0.981186
2.82503
3.99203
5.14574
5.91615
6.66497
7.18952
7.69098
8.05438
8.39607
8.64694
8.87844
9.04593
9.19649
9.29933
9.38744
9.43876
9.4772
9.48699
9.48544
9.4618
9.42809
9.37783
9.31854
9.24742
9.16817
9.08111
8.98667
8.88782
8.78224
8.67504
8.56169
8.449
8.33068
8.21481
8.09378
7.9766
7.85468
7.73769
7.61633
7.50068
7.38102
7.26762
7.15052
7.04005
6.92618
6.81915
6.70898
6.60575
6.49963
6.40045
6.2986
6.20362
6.10618
6.01548
5.92251
5.83612
5.74763
5.66552
5.58146
5.50356
5.42387
5.3501
5.27466
5.20491
5.13361
5.06775
5.00046
4.93836
4.87493
4.81645
4.75673
4.70172
4.64556
4.59387
4.54112
4.49261
4.44311
4.39763
4.35124
4.30866
4.26523
4.2254
4.18479
4.14759
4.10966
4.07497
4.03958
4.00727
3.97431
3.94426
3.91361
3.88572
3.85726
3.83142
3.80504
3.78115
3.75677
3.73472
3.71222
-140.758
-138.985
-134.059
-125.231
-111.306
-85.7801
-62.8886
-39.7968
-18.5638
-8.73092
-2.77378
0.999847
3.47567
5.15923
6.33833
7.17864
7.77798
8.19677
8.47495
8.64099
8.71667
8.71958
8.66433
8.56324
8.42668
8.26334
8.08047
7.88402
7.67887
7.46893
7.25737
7.04667
6.83878
6.6352
6.43707
6.24523
6.06028
5.88262
5.7125
5.55004
5.39526
5.24811
5.10848
4.9762
4.85106
4.73286
4.62136
4.51629
4.4174
4.32445
4.23716
4.15528
4.07857
4.00679
3.9397
3.87707
3.8187
3.76437
3.71389
3.66707
3.62372
-130.149
-129.224
-128.491
-126.19
-123.908
-119.799
-115.751
-109.275
-102.989
-92.7225
-79.5461
-70.6523
-60.0159
-49.0442
-39.9163
-28.7188
-19.9724
-15.4157
-10.5663
-7.66042
-4.67788
-2.7523
-0.812895
0.503757
1.81468
2.74352
3.66019
4.33248
4.99089
5.48494
5.96544
6.32948
6.68103
6.94617
7.20006
7.38761
7.56507
7.69061
7.80706
7.88261
7.94991
7.98514
8.01285
8.01574
8.01171
7.98891
7.95973
7.91678
7.86794
7.80949
7.74557
7.67544
7.60025
7.5216
7.43827
7.35369
7.26476
7.17635
7.08391
6.99336
6.89907
6.80773
6.71292
6.62186
6.52758
6.43764
6.34472
6.25655
6.16562
6.07971
5.99125
5.90798
5.82235
5.74198
5.65941
5.58213
5.50281
5.42872
5.35275
5.28192
5.20934
5.14179
5.07262
5.00833
4.94254
4.88147
4.819
4.76109
4.70188
4.64704
4.591
4.53915
4.48617
4.43721
4.3872
4.34102
4.29386
4.25036
4.20595
4.16501
4.12323
4.08475
4.04548
4.00936
3.9725
3.93862
3.90406
3.87232
3.83995
3.81026
3.77997
3.75222
3.72392
3.69803
3.67161
3.64748
3.62286
3.60041
3.5775
3.55664
3.53535
-119.541
-118.002
-113.76
-106.283
-94.6493
-73.4485
-57.1183
-39.8992
-21.3915
-12.388
-6.57649
-2.62106
0.156647
2.16334
3.64508
4.7535
5.5851
6.20416
6.65587
6.97369
7.18362
7.3065
7.35942
7.35648
7.30943
7.22798
7.12018
6.99264
6.85077
6.69898
6.54085
6.37923
6.21644
6.05428
5.8942
5.7373
5.58443
5.43622
5.29313
5.15547
5.02343
4.89713
4.7766
4.66181
4.55269
4.44913
4.35098
4.2581
4.17032
4.08744
4.0093
3.93569
3.86643
3.80132
3.7402
3.68286
3.62913
3.57885
3.53183
3.48793
3.44697
-108.949
-108.167
-107.528
-105.584
-103.634
-100.223
-96.8383
-91.5784
-86.3853
-78.186
-67.396
-61.4498
-54.2226
-46.2826
-39.8381
-30.1727
-22.7516
-18.5652
-14.1935
-11.3575
-8.46243
-6.44878
-4.42219
-2.95986
-1.49678
-0.412087
0.669378
1.48772
2.30116
2.92472
3.54281
4.01921
4.49
4.85219
5.20883
5.48064
5.74701
5.94641
6.14052
6.28153
6.41741
6.51127
6.60015
6.65599
6.70703
6.73236
6.75309
6.7541
6.75073
6.73254
6.71017
6.677
6.63987
6.59517
6.54675
6.49337
6.4365
6.37678
6.31376
6.24959
6.18232
6.11523
6.04525
5.97647
5.905
5.83554
5.76356
5.6942
5.6225
5.55389
5.48308
5.41569
5.34625
5.28046
5.21277
5.14887
5.0832
5.02139
4.95794
4.89838
4.83728
4.78007
4.72142
4.6666
4.61045
4.55805
4.50441
4.45444
4.4033
4.35572
4.30705
4.26183
4.2156
4.17268
4.12882
4.08814
4.04659
4.00809
3.96876
3.93236
3.89519
3.86082
3.82572
3.79329
3.76019
3.72962
3.69843
3.66965
3.64028
3.61321
3.58559
3.56015
3.53419
3.5103
3.48593
3.46352
3.44065
3.41964
3.39821
3.37853
3.35845
-98.3806
-97.0799
-93.5306
-87.4231
-78.1236
-61.4554
-51.3177
-39.6788
-24.1175
-15.9868
-10.342
-6.21726
-3.14554
-0.82068
0.960511
2.33492
3.39734
4.21563
4.84006
5.30905
5.65273
5.89518
6.05591
6.15085
6.19307
6.19331
6.16042
6.10165
6.02296
5.92922
5.82443
5.71184
5.5941
5.47333
5.35127
5.22928
5.10847
4.9897
4.87362
4.76075
4.65145
4.546
4.44457
4.34727
4.25416
4.16523
4.08045
3.99976
3.92307
3.85029
3.78129
3.71595
3.65414
3.59572
3.54055
3.4885
3.43943
3.39319
3.34964
3.30866
3.27009
-87.8215
-87.1844
-86.6404
-85.0571
-83.4412
-80.7373
-78.02
-73.9967
-69.9189
-63.8736
-55.544
-52.4514
-48.4122
-43.3218
-39.4883
-31.4402
-25.4371
-21.6399
-17.7689
-15.0094
-12.212
-10.1147
-8.0069
-6.40203
-4.79056
-3.55216
-2.30831
-1.34541
-0.378506
0.373521
1.12813
1.71612
2.3054
2.76406
3.22289
3.5785
3.93337
4.20627
4.4777
4.68388
4.88806
5.04029
5.19013
5.2987
5.40463
5.47791
5.5484
5.59321
5.63517
5.65711
5.67619
5.67985
5.68069
5.66985
5.65625
5.63401
5.6091
5.57801
5.54436
5.5065
5.46622
5.42332
5.37812
5.33159
5.28288
5.23387
5.18279
5.13223
5.07973
5.02838
4.9752
4.92366
4.87041
4.81919
4.76635
4.71582
4.66378
4.61425
4.5633
4.515
4.46537
4.41847
4.37034
4.32498
4.27846
4.23473
4.18991
4.14787
4.1048
4.06447
4.02319
3.98459
3.94509
3.90822
3.8705
3.83532
3.79936
3.76586
3.73162
3.69975
3.6672
3.63692
3.60599
3.57725
3.54791
3.52065
3.49283
3.46701
3.44065
3.4162
3.39125
3.3681
3.3445
3.32261
3.30028
3.27958
3.25847
3.2389
3.21895
3.20044
3.18158
-77.281
-76.221
-73.369
-68.6398
-61.7177
-49.7136
-45.502
-39.226
-26.7591
-19.541
-14.0764
-9.79095
-6.4312
-3.79225
-1.71442
-0.0760149
1.21575
2.23215
3.02845
3.64792
4.12479
4.48634
4.75449
4.94698
5.0782
5.15991
5.20173
5.21156
5.1959
5.1601
5.10855
5.0449
4.97213
4.89269
4.80859
4.72148
4.6327
4.54332
4.45424
4.36613
4.27955
4.19493
4.11259
4.03277
3.95565
3.88135
3.80993
3.74142
3.67583
3.61313
3.55327
3.4962
3.44183
3.3901
3.3409
3.29413
3.24971
3.20751
3.16743
3.12937
3.09319
-66.7652
-66.2745
-65.825
-64.6048
-63.3229
-61.3299
-59.2803
-56.5085
-53.5704
-49.7359
-43.9058
-43.5969
-42.597
-40.2318
-38.9514
-32.5711
-28.0485
-24.66
-21.3061
-18.6263
-15.9327
-13.7545
-11.5693
-9.82426
-8.06712
-6.67673
-5.27246
-4.16627
-3.04732
-2.16778
-1.2777
-0.578844
0.128126
0.682683
1.24309
1.68205
2.12493
2.47095
2.81932
3.09036
3.36251
3.57286
3.78339
3.94448
4.10507
4.22612
4.34617
4.43463
4.52175
4.58369
4.64407
4.68446
4.72314
4.74605
4.76719
4.77598
4.78297
4.78041
4.77607
4.76446
4.75109
4.73233
4.71186
4.68752
4.66153
4.63292
4.60271
4.5709
4.53756
4.50344
4.46786
4.43215
4.39506
4.35837
4.32036
4.28318
4.24475
4.20747
4.16901
4.13194
4.09377
4.05718
4.01955
3.98364
3.94674
3.91166
3.87565
3.84153
3.80653
3.77344
3.73953
3.70754
3.67478
3.64393
3.61236
3.58267
3.55231
3.52379
3.49464
3.4673
3.43935
3.41316
3.38641
3.36135
3.33576
3.31181
3.28736
3.26449
3.24114
3.2193
3.19702
3.17617
3.15491
3.13502
3.11474
3.09575
3.07639
3.05826
3.03979
3.02246
3.00481
-56.2353
-55.4164
-53.2624
-49.9124
-45.4045
-38.1396
-39.6822
-38.6238
-29.3403
-23.0666
-17.7878
-13.3463
-9.70243
-6.75238
-4.38019
-2.47954
-0.959768
0.253688
1.22101
1.99028
2.59978
3.07997
3.45517
3.74489
3.96484
4.12778
4.24412
4.3224
4.36963
4.39165
4.39325
4.37846
4.35059
4.31241
4.26622
4.21394
4.15714
4.09713
4.03501
3.97164
3.90776
3.84395
3.78068
3.71833
3.6572
3.59751
3.53944
3.48312
3.42861
3.37599
3.32527
3.27646
3.22954
3.18448
3.14124
3.09976
3.05998
3.02183
2.98522
2.95008
2.91629
-45.7451
-45.4009
-45.0459
-44.1885
-43.2398
-41.9582
-40.5738
-39.064
-37.2889
-35.7006
-32.3876
-34.8251
-36.7787
-37.0653
-38.3036
-33.6172
-30.6137
-27.6511
-24.8243
-22.2239
-19.6363
-17.3784
-15.1174
-13.2334
-11.3321
-9.79074
-8.22729
-6.97865
-5.70868
-4.7023
-3.67756
-2.86836
-2.04435
-1.39431
-0.732829
-0.210857
0.319619
0.738499
1.16347
1.49916
1.83902
2.10731
2.37831
2.59179
2.80685
2.97555
3.14502
3.27703
3.40921
3.51107
3.61265
3.68969
3.76615
3.82276
3.87856
3.91834
3.95717
3.98312
4.00802
4.02263
4.03614
4.0415
4.04572
4.04356
4.04025
4.03202
4.02266
4.00959
3.9954
3.97849
3.96049
3.9406
3.91966
3.89749
3.87432
3.85047
3.82565
3.80061
3.77463
3.7488
3.72208
3.69579
3.66866
3.64219
3.61491
3.58848
3.56129
3.53508
3.50814
3.48229
3.45575
3.43037
3.40435
3.37953
3.3541
3.32991
3.30513
3.28161
3.25754
3.23472
3.21139
3.18929
3.1667
3.14533
3.1235
3.10286
3.08178
3.06185
3.04152
3.02229
3.00268
2.98413
2.96522
2.94732
2.92909
2.91181
2.89421
2.87752
2.86053
2.84438
2.82794
-35.2359
-34.6574
-33.1978
-31.2203
-29.1515
-26.6573
-33.8683
-37.9486
-31.8893
-26.5792
-21.4842
-16.8875
-12.9613
-9.70211
-7.0373
-4.87588
-3.12934
-1.71983
-0.582308
0.336097
1.07768
1.67607
2.15794
2.54458
2.853
3.09696
3.28764
3.4342
3.5442
3.62391
3.67857
3.71255
3.7295
3.73252
3.72419
3.70669
3.68184
3.65117
3.61597
3.57732
3.53611
3.49309
3.44888
3.40399
3.35883
3.31375
3.26902
3.22486
3.18144
3.13889
3.09731
3.05676
3.01728
2.9789
2.94162
2.90542
2.87029
2.83617
2.80303
2.77081
2.73942
-24.76
-24.5608
-24.3
-23.8025
-23.185
-22.6104
-21.8854
-21.6396
-21.0442
-21.7181
-20.921
-26.0968
-30.9679
-33.8731
-37.6167
-34.6283
-33.1602
-30.6349
-28.3367
-25.8125
-23.3288
-20.9908
-18.6534
-16.6309
-14.5858
-12.8942
-11.1724
-9.78191
-8.36179
-7.22912
-6.07054
-5.15148
-4.21112
-3.466
-2.70403
-2.09938
-1.48178
-0.990311
-0.489118
-0.089013
0.318253
0.644303
0.975521
1.24122
1.51056
1.72679
1.9455
2.12096
2.29803
2.43972
2.58239
2.69602
2.81015
2.90038
2.99076
3.06148
3.13207
3.18648
3.24058
3.28137
3.3217
3.35114
3.38001
3.39999
3.41934
3.43147
3.44292
3.44856
3.45349
3.45378
3.45335
3.44926
3.44444
3.43679
3.42842
3.4179
3.40667
3.39386
3.38035
3.36575
3.35047
3.33448
3.31783
3.3008
3.28313
3.26535
3.24696
3.22866
3.20978
3.19116
3.17199
3.15322
3.13393
3.11514
3.09584
3.07714
3.05796
3.03943
3.02044
3.00214
2.98341
2.96541
2.94699
2.9293
2.91123
2.89389
2.87618
2.8592
2.84188
2.82526
2.80832
2.79207
2.77551
2.7596
2.74341
2.72785
2.71201
2.69675
2.68124
2.66627
2.65104
-14.2867
-13.9457
-13.1731
-12.5529
-12.9309
-15.203
-28.0728
-37.2722
-34.4359
-30.0923
-25.1718
-20.4169
-16.2084
-12.6409
-9.68485
-7.26402
-5.29194
-3.68745
-2.3806
-1.3138
-0.440729
0.27535
0.863489
1.34669
1.74329
2.06802
2.33282
2.54747
2.72007
2.85734
2.96492
3.04756
3.10925
3.15338
3.18284
3.20005
3.20708
3.2057
3.19739
3.18341
3.16484
3.14258
3.1174
3.08994
3.06073
3.03024
2.99884
2.96683
2.93448
2.90199
2.86953
2.83722
2.80518
2.77347
2.74214
2.71122
2.68073
2.65065
2.62098
2.59167
2.56267
-3.80793
-3.75056
-3.58387
-3.44054
-3.15095
-3.27359
-3.19987
-4.21041
-4.80249
-7.73766
-9.44417
-17.3746
-25.1754
-30.7066
-36.9593
-35.6581
-35.7211
-33.6368
-31.8586
-29.4049
-27.0182
-24.5982
-22.1814
-20.02
-17.8305
-15.9886
-14.1087
-12.5767
-11.0071
-9.74847
-8.45677
-7.42822
-6.3722
-5.53232
-4.67047
-3.98341
-3.2792
-2.71536
-2.13837
-1.67403
-1.19971
-0.816049
-0.424896
-0.107094
0.216288
0.479939
0.747713
0.966526
1.18835
1.3698
1.55342
1.70357
1.85525
1.97907
2.10394
2.20554
2.30782
2.39065
2.47386
2.5408
2.6079
2.66138
2.71486
2.75696
2.79891
2.83138
2.86361
2.88794
2.91195
2.92942
2.94652
2.95822
2.9695
2.97636
2.98277
2.98556
2.9879
2.98732
2.98627
2.98288
2.97902
2.97332
2.96715
2.95955
2.95149
2.94234
2.93274
2.92235
2.91152
2.90014
2.88832
2.87616
2.86359
2.85082
2.83766
2.82445
2.81085
2.7973
2.78339
2.76962
2.75549
2.74158
2.72732
2.71332
2.699
2.68496
2.67062
2.65659
2.64227
2.62827
2.61399
2.60004
2.58582
2.57192
2.55777
2.54391
2.52983
2.51601
2.50198
2.48818
2.47417
6.65205
6.75934
6.85509
6.13844
3.32137
-3.69336
-22.294
-36.6582
-37.0136
-33.6238
-28.8619
-23.9423
-19.4491
-15.5732
-12.3264
-9.64698
-7.45024
-5.65155
-4.17607
-2.96142
-1.95732
-1.12391
-0.429797
0.149747
0.634337
1.03967
1.37846
1.66111
1.89622
2.09098
2.25143
2.38267
2.48906
2.57427
2.64148
2.69338
2.73228
2.76017
2.77873
2.78942
2.79348
2.79198
2.78582
2.77578
2.76252
2.74662
2.72853
2.70868
2.6874
2.66497
2.64163
2.61758
2.59297
2.56793
2.54255
2.51691
2.49106
2.46502
2.43882
2.41242
2.38581
17.1056
17.0257
17.0988
16.8961
16.8626
16.0577
15.4915
13.2428
11.4667
6.28701
2.10565
-8.63499
-19.4143
-27.6075
-36.404
-36.7588
-38.3291
-36.68
-35.4035
-33.0116
-30.7105
-28.2049
-25.704
-23.4021
-21.0665
-19.0738
-17.0357
-15.3622
-13.6436
-12.2593
-10.8352
-9.69747
-8.52654
-7.5922
-6.63116
-5.86195
-5.0717
-4.43574
-3.78343
-3.25504
-2.71405
-2.27294
-1.82217
-1.4524
-1.07525
-0.764282
-0.447672
-0.185595
0.0807943
0.301921
0.526335
0.712937
0.902036
1.05938
1.2186
1.35105
1.4849
1.59611
1.70835
1.80139
1.89517
1.97268
2.05068
2.11486
2.17936
2.23214
2.28508
2.32809
2.37114
2.40577
2.44035
2.46782
2.49516
2.5165
2.53766
2.55376
2.56964
2.58126
2.59264
2.60045
2.608
2.61257
2.61686
2.61867
2.62019
2.61968
2.61886
2.61637
2.61357
2.60941
2.60494
2.59938
2.59351
2.58677
2.57973
2.572
2.56397
2.55541
2.54657
2.53731
2.52778
2.51795
2.50785
2.49753
2.48695
2.47622
2.46524
2.45416
2.44284
2.43145
2.41984
2.40818
2.39631
2.3844
2.37229
2.36015
2.34781
2.33544
2.32287
2.31026
2.29745
27.5726
27.452
26.885
24.8601
19.6351
7.92798
-16.5448
-36.1747
-39.6563
-37.1867
-32.5607
-27.4661
-22.684
-18.4983
-14.9609
-12.0237
-9.60315
-7.61113
-5.96775
-4.60588
-3.47125
-2.52092
-1.72117
-1.04556
-0.473205
0.0125551
0.42518
0.775686
1.07319
1.32534
1.53856
1.71834
1.86934
1.99558
2.1005
2.18704
2.25777
2.31489
2.3603
2.39562
2.42229
2.44152
2.45437
2.46174
2.46442
2.46309
2.45832
2.45061
2.44038
2.42801
2.41379
2.39798
2.3808
2.36242
2.343
2.32263
2.30142
2.27942
2.25668
2.2332
2.20897
38.0177
37.8071
37.7867
37.2486
36.8967
35.4292
34.2347
30.7763
27.8283
20.431
13.8074
0.170694
-13.6829
-24.6153
-36.0117
-37.9823
-41.0201
-39.7923
-38.9885
-36.6481
-34.417
-31.8209
-29.2287
-26.7838
-24.2993
-22.1548
-19.9577
-18.1422
-16.2748
-14.7648
-13.2089
-11.9619
-10.6768
-9.64807
-8.58846
-7.73719
-6.86146
-6.15344
-5.42627
-4.8339
-4.22662
-3.7281
-3.21802
-2.79631
-2.36561
-2.00736
-1.6421
-1.33678
-1.02598
-0.765187
-0.500111
-0.277063
-0.0506549
0.140205
0.333703
0.496988
0.662341
0.801922
0.943118
1.06227
1.18268
1.28419
1.38667
1.47295
1.55995
1.63304
1.70666
1.76834
1.83039
1.88218
1.93423
1.97746
2.02085
2.05667
2.09256
2.12196
2.15136
2.1752
2.19899
2.21801
2.23694
2.25179
2.26652
2.27776
2.28885
2.29697
2.30492
2.31033
2.31555
2.31862
2.32149
2.32253
2.32337
2.32265
2.32172
2.31948
2.31702
2.31345
2.30967
2.30494
2.3
2.29425
2.28831
2.28167
2.27484
2.26741
2.25979
2.25165
2.24334
2.23456
2.22561
2.21625
2.20671
2.1968
2.18673
2.1763
2.16572
2.15479
2.1437
2.13226
2.12066
48.4815
48.1404
46.9284
43.6306
36.0518
19.7249
-10.8331
-35.8876
-42.3986
-40.795
-36.2755
-30.9922
-25.9151
-21.4174
-17.589
-14.3944
-11.7509
-9.56629
-7.75573
-6.24724
-4.98258
-3.91571
-3.01065
-2.23923
-1.57933
-1.01332
-0.527016
-0.108784
0.251006
0.560437
0.826352
1.05459
1.25015
1.41736
1.55992
1.68107
1.78359
1.8699
1.94212
2.00206
2.05131
2.09125
2.12308
2.14785
2.16645
2.17968
2.18821
2.19263
2.19346
2.19113
2.18602
2.17845
2.16869
2.15698
2.1435
2.12841
2.11184
2.09387
2.07459
2.05403
2.03217
58.9288
58.5963
58.4819
57.6222
56.9571
54.8528
53.0425
48.4164
44.3195
34.7471
25.7225
9.07642
-7.98925
-21.7772
-35.8472
-39.3809
-43.8265
-42.9972
-42.6251
-40.3246
-38.1431
-35.4503
-32.7578
-30.1665
-27.5296
-25.2314
-22.8744
-20.916
-18.9001
-17.2638
-15.5769
-14.2206
-12.8221
-11.699
-10.5416
-9.60827
-8.64776
-7.86769
-7.06623
-6.40988
-5.73678
-5.18087
-4.61184
-4.1382
-3.65427
-3.24872
-2.83508
-2.48649
-2.13151
-1.83103
-1.52547
-1.26597
-1.0024
-0.778015
-0.550375
-0.356245
-0.159504
0.00845885
0.178517
0.323783
0.470729
0.59627
0.723151
0.831521
0.940955
1.03436
1.1286
1.20896
1.28996
1.35892
1.42838
1.48739
1.54677
1.59708
1.64767
1.69037
1.73326
1.76932
1.80549
1.83573
1.86602
1.89115
1.9163
1.93697
1.95761
1.97437
1.99106
2.00438
2.01761
2.02791
2.03811
2.04575
2.05328
2.05859
2.06377
2.06701
2.07011
2.07153
2.0728
2.07259
2.07224
2.07058
2.06879
2.06583
2.06274
2.05861
2.05435
2.04916
2.04384
2.03768
2.03138
2.02432
2.01713
2.00922
2.00118
1.99246
1.98363
1.97414
1.96452
1.95427
1.94385
69.3734
68.8212
66.9855
62.4576
52.6035
31.7553
-5.16893
-35.8623
-45.2728
-44.4603
-40.0117
-34.5228
-29.1429
-24.3301
-20.21
-16.7583
-13.8925
-11.5162
-9.53919
-7.88473
-6.49057
-5.30762
-4.29759
-3.43066
-2.68346
-2.03742
-1.47761
-0.991814
-0.56988
-0.203286
0.11521
0.391805
0.631839
0.839926
1.02007
1.17575
1.31001
1.42547
1.52445
1.60896
1.68076
1.74138
1.79217
1.8343
1.8688
1.89656
1.91837
1.93492
1.94678
1.95448
1.95847
1.95913
1.95679
1.95173
1.94419
1.93437
1.92242
1.90849
1.89267
1.87502
1.85553
79.8389
79.3967
79.1863
78.0229
77.0491
74.3409
71.9271
66.1897
60.9767
49.2911
37.9125
18.1206
-2.34189
-19.1492
-35.977
-41.0123
-46.7824
-46.3211
-46.3265
-44.0534
-41.8956
-39.0993
-36.295
-33.5532
-30.7592
-28.3049
-25.7868
-23.6841
-21.52
-19.7567
-17.9396
-16.4735
-14.9627
-13.7448
-12.4906
-11.475
-10.4306
-9.57834
-8.70331
-7.98286
-7.24452
-6.6311
-6.0036
-5.47793
-4.94115
-4.48824
-4.02651
-3.63461
-3.23568
-2.89547
-2.54964
-2.25364
-1.9531
-1.69514
-1.43352
-1.2085
-0.980516
-0.784138
-0.585341
-0.413932
-0.240555
-0.0909665
0.0602216
0.190708
0.322492
0.436234
0.551024
0.650073
0.749963
0.836106
0.922918
0.997715
1.07304
1.13786
1.20308
1.25911
1.31545
1.36373
1.41225
1.4537
1.49532
1.53075
1.56628
1.59639
1.62656
1.65195
1.67737
1.6986
1.71983
1.73736
1.75486
1.76912
1.78332
1.79465
1.80592
1.81465
1.82331
1.82971
1.83603
1.84035
1.84457
1.84701
1.84935
1.85008
1.85071
1.8499
1.84898
1.84675
1.84441
1.84087
1.83723
1.83246
1.8276
1.82169
1.81569
1.80869
1.80159
1.79355
1.78541
1.77634
1.76709
90.2858
89.5334
87.0975
81.3868
69.3539
44.1022
0.454454
-36.1578
-48.3122
-48.1986
-43.7799
-38.0654
-32.373
-27.2408
-22.8275
-19.1186
-16.0308
-13.4633
-11.3204
-9.52045
-7.99717
-6.69841
-5.58365
-4.62138
-3.787
-3.06104
-2.42781
-1.87452
-1.3905
-0.966793
-0.595761
-0.270843
0.0136268
0.26257
0.480272
0.670471
0.836437
0.981032
1.10676
1.21583
1.31016
1.39146
1.46119
1.52069
1.57108
1.61338
1.64847
1.67712
1.70002
1.71776
1.73084
1.73973
1.7448
1.74639
1.74479
1.74024
1.73293
1.72302
1.71066
1.69594
1.67878
100.741
100.203
99.8947
98.4486
97.1718
93.897
90.8962
84.1142
77.8315
64.1147
50.4411
27.3412
3.25169
-16.7921
-36.4698
-42.9337
-49.9209
-49.7861
-50.1052
-47.8436
-45.6801
-42.7716
-39.8424
-36.9448
-33.9887
-31.375
-28.6946
-26.4456
-24.1338
-22.2422
-20.2962
-18.7194
-17.0976
-15.7844
-14.4348
-13.3365
-12.2092
-11.2844
-10.3367
-9.55195
-8.74909
-8.07798
-7.39261
-6.81475
-6.22561
-5.72518
-5.21578
-4.78044
-4.33792
-3.95788
-3.57207
-3.23947
-2.9022
-2.61061
-2.31522
-2.05926
-1.80022
-1.57537
-1.348
-1.15041
-0.950747
-0.777075
-0.60171
-0.449076
-0.295059
-0.160954
-0.0257216
0.092045
0.210727
0.314072
0.418156
0.508758
0.599953
0.679286
0.759091
0.828449
0.898178
0.958699
1.01951
1.07219
1.12509
1.17082
1.2167
1.25625
1.2959
1.32995
1.36406
1.39321
1.42239
1.44716
1.47194
1.49281
1.51366
1.53103
1.54837
1.56259
1.57678
1.58818
1.59952
1.60837
1.61715
1.62368
1.63014
1.63457
1.63891
1.64141
1.64383
1.64455
1.64519
1.64427
1.64327
1.64081
1.63827
1.63437
1.63038
1.62511
1.61975
1.61316
1.60649
1.5986
1.5905
111.209
110.269
107.261
100.421
86.3256
56.8199
6.0364
-36.8277
-51.5425
-52.0211
-47.5858
-41.6226
-35.6063
-30.1496
-25.4411
-21.4746
-18.1652
-15.407
-13.0987
-11.1537
-9.50168
-8.08744
-6.86818
-5.81076
-4.88938
-4.08361
-3.37709
-2.75639
-2.21037
-1.72963
-1.30613
-0.932947
-0.604095
-0.314344
-0.0591303
0.165545
0.363189
0.536883
0.689338
0.822939
0.939785
1.04173
1.1304
1.20723
1.2735
1.33032
1.37868
1.41944
1.45336
1.48112
1.5033
1.5204
1.53288
1.54112
1.54546
1.54617
1.54348
1.53761
1.52871
1.5169
1.50205
121.683
121.053
120.649
118.937
117.372
113.561
110.004
102.24
94.9532
79.3026
63.3974
36.8078
8.8068
-14.7785
-37.3816
-45.2071
-53.2785
-53.4162
-53.9828
-51.708
-49.5098
-46.4759
-43.4086
-40.3474
-37.2241
-34.4461
-31.6023
-29.2038
-26.7452
-24.7231
-22.6497
-20.9608
-19.2296
-17.8201
-16.3764
-15.1947
-13.9858
-12.9879
-11.9686
-11.1189
-10.2524
-9.52318
-8.78061
-8.1502
-7.50925
-6.961
-6.40438
-5.92533
-5.43958
-5.01948
-4.59401
-4.22462
-3.8509
-3.52549
-3.19657
-2.90952
-2.61961
-2.36617
-2.1104
-1.88651
-1.66071
-1.46286
-1.26345
-1.08858
-0.912448
-0.757906
-0.602332
-0.465783
-0.328397
-0.207794
-0.0865159
0.0199403
0.126938
0.220832
0.315156
0.397883
0.480948
0.55374
0.626793
0.690736
0.754875
0.810929
0.867125
0.916135
0.965244
1.00796
1.05074
1.08782
1.12493
1.15696
1.189
1.2165
1.24398
1.26739
1.29078
1.31052
1.33021
1.34661
1.36297
1.37636
1.38968
1.40032
1.41089
1.41902
1.42707
1.43289
1.43863
1.44232
1.44593
1.44764
1.44926
1.44912
1.44889
1.447
1.44503
1.44148
1.43786
1.43271
1.42753
1.42082
1.41383
132.159
131.042
127.49
119.581
103.542
69.964
11.6071
-37.8856
-54.9724
-55.9393
-51.438
-45.2
-38.8468
-33.0592
-28.0529
-23.8278
-20.2967
-17.348
-14.8748
-12.7851
-11.0046
-9.47509
-8.1515
-6.99908
-5.99079
-5.10533
-4.32557
-3.63754
-3.02959
-2.49187
-2.01595
-1.59456
-1.22137
-0.89085
-0.598161
-0.339044
-0.109752
0.0930141
0.272167
0.430278
0.569617
0.692191
0.799776
0.893942
0.976076
1.04741
1.10902
1.16187
1.20681
1.24459
1.27584
1.30117
1.32105
1.33594
1.3462
1.35217
1.35411
1.35227
1.34683
1.33793
1.32532
70.3912
70.0468
69.8021
68.8408
67.9279
65.8047
63.7572
59.4722
55.3016
46.656
37.4748
22.376
6.15086
-7.76579
-20.4303
-25.0889
-29.4468
-29.5994
-29.8726
-28.6478
-27.4399
-25.7842
-24.1124
-22.4368
-20.7383
-19.2164
-17.6717
-16.3574
-15.0226
-13.9143
-12.7885
-11.8624
-10.9216
-10.1479
-9.36231
-8.71269
-8.05351
-7.50382
-6.94655
-6.47734
-6.00219
-5.59828
-5.18975
-4.83946
-4.48559
-4.1799
-3.87146
-3.6034
-3.33324
-3.09729
-2.85976
-2.65151
-2.44208
-2.25792
-2.07289
-1.9098
-1.74608
-1.60152
-1.45651
-1.32828
-1.19975
-1.08596
-0.971978
-0.870975
-0.769869
-0.680207
-0.590512
-0.510923
-0.431353
-0.360719
-0.290146
-0.227483
-0.164911
-0.109349
-0.0539018
-0.00467262
0.0444248
0.0880003
0.131432
0.169955
0.208326
0.242329
0.276174
0.306128
0.335922
0.362244
0.388406
0.411466
0.434367
0.454493
0.474463
0.491944
0.509273
0.524367
0.539312
0.552245
0.565033
0.576006
0.586838
0.596028
0.60508
0.61264
0.620068
0.626134
0.632073
0.636765
0.641333
0.644752
0.648052
0.650287
0.652407
0.653532
0.654548
0.654627
0.654601
0.653687
0.652672
0.650805
0.64882
0.646106
0.642901
-1.7088
-1.6917
-1.63515
-1.5613
-1.51264
-1.6282
-2.05097
-2.31277
-2.13409
-1.81689
-1.51017
-1.2446
-1.02506
-0.84761
-0.705341
-0.591097
-0.49863
-0.422915
-0.360094
-0.307289
-0.262378
-0.223803
-0.190408
-0.161324
-0.135881
-0.113553
-0.0939111
-0.0766043
-0.061336
-0.0478541
-0.0359417
-0.0254109
-0.0160987
-0.00786243
-0.000577694
0.00586462
0.0115602
0.0165932
0.0210374
0.0249579
0.0284122
0.0314507
0.0341181
0.0364539
0.0384927
0.0402654
0.041799
0.0431175
0.0442421
0.0451913
0.0459814
0.0466268
0.0471401
0.0475321
0.0478123
0.0479889
0.0480687
0.0480577
0.0479607
0.0477814
0.0475149
-1.57049
-1.57832
-1.55494
-1.5452
-1.50351
-1.49246
-1.43877
-1.45201
-1.40448
-1.50108
-1.5438
-1.77177
-2.00321
-2.13877
-2.29846
-2.18231
-2.13701
-1.95455
-1.8279
-1.66166
-1.52522
-1.38534
-1.26142
-1.14763
-1.04237
-0.951364
-0.864736
-0.792327
-0.721966
-0.664132
-0.607087
-0.56044
-0.513938
-0.47581
-0.437532
-0.405906
-0.374024
-0.347415
-0.320538
-0.297866
-0.274955
-0.255434
-0.235716
-0.21877
-0.201669
-0.186868
-0.171947
-0.158962
-0.145885
-0.134456
-0.122957
-0.112876
-0.10274
-0.0938333
-0.0848835
-0.077005
-0.069092
-0.0621174
-0.0551144
-0.048936
-0.042734
-0.0372583
-0.0317628
-0.0269083
-0.022037
-0.0177324
-0.0134135
-0.0095962
-0.00576664
-0.00238182
0.00101357
0.00401426
0.00702402
0.00968309
0.0123499
0.0147048
0.0170664
0.0191502
0.0212397
0.0230816
0.0249283
0.026554
0.0281838
0.0296162
0.0310521
0.0323112
0.0335733
0.0346772
0.0357834
0.0367477
0.037714
0.0385526
0.0393929
0.0401183
0.040845
0.041468
0.0420922
0.0426224
0.0431536
0.0435995
0.0440463
0.0444154
0.0447851
0.045084
0.0453833
0.0456175
0.0458521
0.0460267
0.0462016
0.0463208
0.0464402
0.0465076
0.0465753
0.0465941
0.0466131
0.0465858
0.0465588
0.0464873
0.0464165
0.0463032
0.046182
-1.43292
-1.41879
-1.37258
-1.31719
-1.29756
-1.46086
-1.95516
-2.28244
-2.13876
-1.83819
-1.53985
-1.27801
-1.05954
-0.881791
-0.738554
-0.623058
-0.529239
-0.452147
-0.387954
-0.333788
-0.287532
-0.247629
-0.212929
-0.18257
-0.155888
-0.132362
-0.111569
-0.0931626
-0.076848
-0.0623747
-0.0495263
-0.0381147
-0.0279754
-0.0189645
-0.0109557
-0.00383757
0.00248772
0.0081066
0.0130953
0.0175214
0.0214443
0.0249169
0.0279859
0.0306927
0.0330741
0.0351625
0.0369868
0.0385725
0.0399421
0.0411158
0.042111
0.0429433
0.0436264
0.0441721
0.0445908
0.0448915
0.0450818
0.0451684
0.0451568
0.0450514
0.0448486
-1.29553
-1.30435
-1.28307
-1.27803
-1.24215
-1.2397
-1.19617
-1.22287
-1.19142
-1.30911
-1.37873
-1.6387
-1.90717
-2.0779
-2.26576
-2.17006
-2.13992
-1.96702
-1.8481
-1.68664
-1.5542
-1.41645
-1.29439
-1.18121
-1.07657
-0.985413
-0.898741
-0.82581
-0.755068
-0.696561
-0.638978
-0.591609
-0.544503
-0.505646
-0.466736
-0.434389
-0.401864
-0.374547
-0.347023
-0.323656
-0.300097
-0.279894
-0.259533
-0.24192
-0.224183
-0.208732
-0.193186
-0.179572
-0.165885
-0.15385
-0.141761
-0.131098
-0.120394
-0.110932
-0.101438
-0.0930316
-0.0846003
-0.0771264
-0.0696318
-0.0629824
-0.0563158
-0.0503972
-0.044464
-0.039194
-0.0339115
-0.029218
-0.0245136
-0.0203329
-0.0161429
-0.0124191
-0.00868712
-0.00537069
-0.00204716
0.000905592
0.00386454
0.00649228
0.00912543
0.0114624
0.0138041
0.0158806
0.0179612
0.0198042
0.0216508
0.0232841
0.0249205
0.0263653
0.0278128
0.0290879
0.0303653
0.0314874
0.0326115
0.0335955
0.0345811
0.03544
0.0363003
0.0370458
0.0377925
0.0384349
0.0390784
0.0396268
0.0401761
0.0406386
0.0411019
0.0414855
0.0418698
0.0421808
0.0424923
0.042736
0.0429802
0.0431614
0.043343
0.0434656
0.0435886
0.0436561
0.043724
0.0437393
0.043755
0.0437204
0.0436865
0.0436039
0.0435156
-1.15871
-1.1479
-1.11237
-1.07603
-1.08649
-1.29804
-1.85892
-2.24746
-2.14002
-1.85739
-1.56819
-1.31056
-1.09348
-0.915619
-0.771542
-0.654877
-0.559756
-0.481319
-0.415772
-0.360257
-0.312662
-0.271435
-0.235434
-0.203802
-0.175882
-0.151159
-0.129217
-0.109712
-0.0923519
-0.0768882
-0.0631048
-0.0508129
-0.0398473
-0.0300624
-0.0213299
-0.0135365
-0.00658185
-0.000377367
0.00515563
0.0100869
0.0144782
0.0183847
0.0218551
0.0249329
0.0276566
0.0300606
0.0321754
0.0340282
0.0356429
0.037041
0.0382412
0.0392604
0.0401132
0.0408125
0.0413697
0.0417944
0.0420953
0.0422795
0.0423532
0.0423216
0.0421824
-1.02229
-1.03259
-1.01324
-1.0133
-0.983161
-0.989856
-0.956542
-0.997532
-0.982409
-1.12204
-1.2181
-1.50854
-1.81068
-2.01328
-2.22849
-2.15333
-2.13944
-1.97662
-1.86624
-1.70985
-1.58187
-1.44645
-1.32651
-1.21411
-1.11023
-1.01904
-0.932397
-0.859033
-0.787949
-0.728835
-0.670731
-0.622686
-0.574979
-0.535426
-0.495881
-0.462838
-0.429665
-0.401656
-0.373479
-0.349429
-0.325217
-0.304342
-0.283331
-0.265059
-0.24668
-0.230586
-0.214412
-0.200173
-0.185874
-0.173236
-0.160553
-0.149312
-0.138037
-0.128023
-0.117983
-0.109052
-0.100101
-0.0921298
-0.0841421
-0.0770238
-0.0698914
-0.0635316
-0.0571598
-0.0514757
-0.0457812
-0.0407
-0.0356095
-0.0310666
-0.0265154
-0.0224536
-0.0183845
-0.0147532
-0.0111154
-0.00786969
-0.00461824
-0.0017183
0.00118676
0.00377634
0.00637049
0.0086812
0.010996
0.0130558
0.0151193
0.0169532
0.0187903
0.0204205
0.0220535
0.0234996
0.0249483
0.0262281
0.0275101
0.0286392
0.0297702
0.0307624
0.0317564
0.0326242
0.0334936
0.034248
0.0350039
0.0356546
0.0363066
0.0368624
0.0374192
0.0378875
0.0383568
0.0387445
0.039133
0.0394458
0.0397593
0.0400024
0.0402461
0.0404239
0.0406023
0.0407185
0.0408353
0.0408932
0.0409516
0.0409537
0.0409568
0.0409051
0.0408494
-0.88637
-0.87911
-0.854569
-0.837869
-0.879483
-1.13953
-1.76221
-2.20802
-2.13788
-1.87453
-1.59522
-1.34226
-1.12687
-0.949103
-0.804315
-0.686562
-0.590189
-0.510436
-0.443553
-0.386698
-0.33777
-0.295225
-0.257924
-0.22502
-0.195864
-0.169946
-0.146856
-0.126253
-0.107848
-0.0913951
-0.0766773
-0.0635059
-0.0517146
-0.0411562
-0.0317005
-0.0232321
-0.0156486
-0.00885881
-0.00278185
0.00265435
0.00751393
0.0118541
0.0157257
0.0191742
0.0222402
0.0249598
0.027365
0.0294847
0.0313444
0.0329668
0.0343721
0.035578
0.0366005
0.0374534
0.038149
0.0386979
0.0391092
0.039391
0.03955
0.0395921
0.0395163
-0.750937
-0.762987
-0.745522
-0.750938
-0.72658
-0.742838
-0.7199
-0.775812
-0.777416
-0.939453
-1.06165
-1.38088
-1.71372
-1.94542
-2.18689
-2.13247
-2.13562
-1.98349
-1.88234
-1.73135
-1.60825
-1.47537
-1.35779
-1.24632
-1.14336
-1.05224
-0.965714
-0.891996
-0.820618
-0.760951
-0.702351
-0.653668
-0.605372
-0.565148
-0.524973
-0.49125
-0.457428
-0.428741
-0.399908
-0.375184
-0.350316
-0.328775
-0.307112
-0.288185
-0.269163
-0.25243
-0.235624
-0.220764
-0.20585
-0.192612
-0.179335
-0.167518
-0.155671
-0.145107
-0.13452
-0.125066
-0.115594
-0.107127
-0.0986458
-0.0910598
-0.0834611
-0.0766613
-0.0698503
-0.0637532
-0.0576463
-0.0521782
-0.0467014
-0.0417968
-0.0368843
-0.0324851
-0.0280786
-0.024133
-0.0201808
-0.0166426
-0.0130985
-0.00992676
-0.00674965
-0.00390781
-0.00106107
0.00148351
0.00403254
0.00630897
0.00858943
0.0106237
0.0126616
0.0144769
0.0162955
0.0179125
0.0195325
0.0209698
0.0224098
0.0236838
0.0249602
0.0260857
0.0272134
0.0282034
0.0291955
0.0300619
0.0309301
0.0316831
0.0324378
0.0330867
0.0337371
0.0342901
0.0348444
0.0353087
0.0357741
0.036156
0.0365389
0.0368438
0.0371498
0.0373826
0.0376164
0.0377813
0.037947
0.0380474
0.0381486
0.0381875
0.0382275
0.0382066
0.0381833
-0.615981
-0.612443
-0.599182
-0.602699
-0.676457
-0.985068
-1.66502
-2.16438
-2.13244
-1.88964
-1.62097
-1.37313
-1.15973
-0.982252
-0.836878
-0.718116
-0.62054
-0.539501
-0.471298
-0.413114
-0.362859
-0.318997
-0.2804
-0.246226
-0.215834
-0.188723
-0.164485
-0.142785
-0.123337
-0.105895
-0.090244
-0.0761938
-0.0635773
-0.0522459
-0.0420675
-0.0329246
-0.0247125
-0.0173377
-0.0107171
-0.00477617
0.000551422
0.00532504
0.00959773
0.0134169
0.016825
0.0198599
0.0225556
0.0249421
0.0270467
0.0288934
0.0305035
0.0318962
0.0330884
0.0340949
0.0349288
0.0356017
0.0361236
0.036503
0.0367472
0.0368629
0.0368503
-0.481546
-0.495491
-0.479919
-0.490885
-0.472399
-0.498562
-0.486219
-0.557563
-0.576347
-0.761001
-0.909103
-1.25539
-1.6163
-1.87474
-2.14124
-2.10779
-2.12856
-1.98773
-1.89645
-1.75119
-1.63336
-1.50323
-1.38825
-1.27786
-1.17596
-1.08501
-0.998698
-0.924699
-0.853079
-0.792907
-0.733842
-0.684553
-0.635684
-0.594811
-0.554013
-0.519624
-0.485157
-0.455799
-0.426312
-0.400919
-0.375396
-0.353193
-0.330877
-0.311299
-0.291632
-0.274262
-0.256824
-0.241345
-0.225815
-0.21198
-0.198107
-0.185715
-0.173296
-0.162183
-0.151048
-0.141072
-0.131079
-0.122118
-0.113143
-0.10509
-0.0970251
-0.0897859
-0.0825357
-0.0760262
-0.0695068
-0.0636525
-0.0577891
-0.0525235
-0.0472496
-0.0425134
-0.0377696
-0.03351
-0.0292433
-0.025413
-0.0215762
-0.018133
-0.0146838
-0.0115899
-0.0084906
-0.00571236
-0.00292908
-0.000436258
0.0020612
0.00429565
0.00653435
0.00853463
0.0105388
0.0123266
0.0141179
0.0157125
0.0173105
0.0187293
0.0201512
0.0214098
0.0226712
0.0237835
0.0248982
0.0258764
0.026857
0.0277122
0.0285695
0.0293116
0.0300556
0.0306932
0.0313326
0.0318734
0.0324158
0.0328666
0.0333189
0.0336857
0.0340538
0.0343418
0.0346309
0.0348445
0.0350591
0.0352021
0.035346
0.0354216
0.0354984
0.0355086
0.0355175
-0.347574
-0.347893
-0.346191
-0.370474
-0.477291
-0.834333
-1.56739
-2.11685
-2.12382
-1.90277
-1.64545
-1.40319
-1.19207
-1.01507
-0.869236
-0.749543
-0.650812
-0.568515
-0.499009
-0.439506
-0.387929
-0.342754
-0.302862
-0.26742
-0.235794
-0.207489
-0.182105
-0.15931
-0.138819
-0.120389
-0.103805
-0.0888766
-0.0754355
-0.0633316
-0.0524309
-0.0426139
-0.0337735
-0.0258141
-0.0186501
-0.0122047
-0.00640926
-0.00120235
0.00347123
0.00766091
0.011411
0.0147612
0.017747
0.0204004
0.0227498
0.0248207
0.0266357
0.0282151
0.0295768
0.0307368
0.0317091
0.032506
0.0331383
0.0336153
0.0339449
0.034134
0.0341846
-0.214131
-0.230074
-0.216421
-0.233096
-0.220595
-0.256955
-0.255446
-0.342647
-0.379059
-0.586369
-0.760126
-1.13179
-1.51845
-1.80161
-2.09187
-2.07961
-2.11839
-1.98946
-1.90861
-1.76942
-1.65722
-1.53006
-1.41791
-1.30874
-1.20804
-1.11737
-1.03136
-0.957141
-0.885336
-0.824704
-0.765207
-0.715341
-0.665917
-0.624414
-0.583003
-0.54796
-0.512852
-0.482832
-0.452692
-0.426636
-0.400456
-0.377595
-0.354626
-0.334399
-0.314087
-0.296082
-0.278012
-0.261915
-0.24577
-0.231337
-0.216869
-0.203904
-0.190912
-0.179251
-0.167569
-0.157072
-0.146557
-0.137103
-0.127634
-0.119115
-0.110583
-0.102905
-0.0952159
-0.0882946
-0.0813627
-0.0751227
-0.0688728
-0.0632465
-0.0576112
-0.0525385
-0.0474573
-0.042884
-0.0383029
-0.0341807
-0.0300513
-0.0263368
-0.0226156
-0.0192699
-0.015918
-0.0129063
-0.00988884
-0.00717977
-0.00446536
-0.00203084
0.000408605
0.00259376
0.00478347
0.00674188
0.00870449
0.0104564
0.0122123
0.013776
0.0153432
0.0167349
0.01813
0.0193643
0.0206017
0.0216918
0.0227846
0.0237421
0.024702
0.0255372
0.0263748
0.0270969
0.0278213
0.0284387
0.029058
0.0295779
0.0300995
0.0305281
0.0309584
0.0313014
0.0316459
0.0319081
0.0321716
0.0323571
0.0325438
0.0326562
0.0327698
0.032811
0.0328519
-0.0811462
-0.0854413
-0.0955611
-0.141128
-0.28183
-0.687013
-1.46935
-2.06576
-2.11216
-1.91399
-1.6687
-1.43244
-1.2239
-1.04757
-0.901392
-0.780844
-0.681006
-0.59748
-0.526688
-0.465874
-0.41298
-0.366495
-0.32531
-0.288601
-0.255743
-0.226246
-0.199717
-0.175826
-0.154294
-0.134877
-0.11736
-0.101554
-0.0872891
-0.0744132
-0.0627907
-0.0523
-0.0428317
-0.0342879
-0.0265807
-0.019631
-0.0133681
-0.00772804
-0.00265374
0.00190628
0.00599822
0.00966356
0.0129396
0.0158596
0.0184538
0.0207487
0.0227685
0.0245345
0.0260658
0.0273793
0.0284899
0.0294108
0.0301535
0.030728
0.0311429
0.0314056
0.0315191
0.0513123
0.0332985
0.044993
0.0224725
0.0288706
-0.0179445
-0.0275126
-0.13093
-0.185386
-0.415267
-0.614405
-1.00984
-1.4202
-1.72635
-2.03911
-2.04818
-2.10528
-1.98878
-1.9189
-1.78609
-1.67987
-1.55588
-1.44677
-1.33897
-1.23961
-1.14932
-1.06369
-0.989324
-0.917392
-0.856341
-0.796447
-0.74603
-0.696073
-0.653955
-0.611943
-0.576256
-0.540514
-0.509837
-0.479048
-0.452333
-0.425499
-0.401981
-0.37836
-0.357486
-0.336529
-0.31789
-0.299187
-0.282474
-0.265713
-0.250684
-0.235621
-0.222084
-0.208519
-0.196311
-0.184081
-0.173064
-0.162029
-0.152081
-0.142118
-0.133134
-0.124136
-0.11602
-0.107891
-0.100558
-0.093214
-0.0865885
-0.0799523
-0.0739657
-0.0679691
-0.0625601
-0.0571416
-0.052255
-0.0473596
-0.0429457
-0.0385237
-0.0345382
-0.030545
-0.0269477
-0.0233434
-0.0200983
-0.0168467
-0.0139215
-0.0109902
-0.00835571
-0.00571559
-0.00334564
-0.000970457
0.00115852
0.00329235
0.00520154
0.00711522
0.00882366
0.0105362
0.012061
0.0135896
0.0149461
0.0163061
0.0175079
0.0187131
0.0197727
0.0208352
0.0217635
0.0226946
0.0235013
0.0243106
0.0250046
0.0257008
0.0262896
0.0268806
0.027371
0.0278635
0.0282615
0.0286614
0.0289722
0.0292846
0.0295126
0.0297421
0.0298911
0.0300416
0.0301139
0.0301865
0.183315
0.174939
0.152748
0.0854134
-0.0898978
-0.54279
-1.37093
-2.01143
-2.09763
-1.92335
-1.69075
-1.46091
-1.25521
-1.07974
-0.933347
-0.812022
-0.711123
-0.626395
-0.554334
-0.492218
-0.438013
-0.390222
-0.347745
-0.309771
-0.275681
-0.244993
-0.217319
-0.192335
-0.169761
-0.149358
-0.13091
-0.114227
-0.099138
-0.0854906
-0.0731468
-0.0619826
-0.0518868
-0.042759
-0.0345089
-0.0270553
-0.0203249
-0.014252
-0.00877713
-0.00384692
0.000586733
0.00456711
0.00813314
0.0113198
0.0141586
0.0166776
0.0189021
0.0208547
0.0225555
0.0240224
0.0252713
0.0263162
0.0271693
0.0278413
0.0283414
0.0286776
0.028854
0.3148
0.294656
0.30435
0.275863
0.276038
0.218538
0.197658
0.0777189
0.00485091
-0.247427
-0.471625
-0.889324
-1.3216
-1.64922
-1.98327
-2.01376
-2.08936
-1.98582
-1.92735
-1.80125
-1.70133
-1.58071
-1.47486
-1.36856
-1.27068
-1.18086
-1.0957
-1.02125
-0.949248
-0.887819
-0.827564
-0.776621
-0.726152
-0.683435
-0.640834
-0.604513
-0.568144
-0.536816
-0.505381
-0.47801
-0.450523
-0.426352
-0.402079
-0.380559
-0.358958
-0.339686
-0.320351
-0.303022
-0.285645
-0.270022
-0.254363
-0.240254
-0.226117
-0.213363
-0.200586
-0.189048
-0.177492
-0.167052
-0.156596
-0.147146
-0.137682
-0.129128
-0.120561
-0.112817
-0.105061
-0.09805
-0.0910276
-0.084681
-0.0783233
-0.0725782
-0.0668226
-0.0616228
-0.0564132
-0.0517079
-0.0469934
-0.042737
-0.038472
-0.0346232
-0.0307665
-0.0272882
-0.0238025
-0.0206613
-0.0175132
-0.0146789
-0.0118382
-0.00928351
-0.00672293
-0.00442345
-0.00211847
-5.21026e-05
0.00201937
0.00387251
0.00573037
0.00738815
0.00905031
0.0105288
0.0120114
0.013325
0.0146424
0.0158041
0.0169692
0.0179906
0.0190151
0.0199064
0.0208006
0.0215711
0.0223442
0.023002
0.0236623
0.0242145
0.0247691
0.0252222
0.0256774
0.0260368
0.0263981
0.0266686
0.0269409
0.0271265
0.0273138
0.0274173
0.0275216
0.445831
0.433276
0.398781
0.30923
0.0986909
-0.401357
-1.27217
-1.9542
-2.08037
-1.93092
-1.71162
-1.48862
-1.28604
-1.1116
-0.965104
-0.843077
-0.741164
-0.655263
-0.581947
-0.518539
-0.463028
-0.413933
-0.370167
-0.330928
-0.295608
-0.26373
-0.234913
-0.208835
-0.185221
-0.163832
-0.144453
-0.126894
-0.110982
-0.0965638
-0.083499
-0.0716619
-0.0609389
-0.0512273
-0.0424346
-0.0344772
-0.0272798
-0.0207741
-0.0148989
-0.00959863
-0.00482341
-0.000528122
0.00332783
0.00678101
0.00986432
0.0126073
0.0150365
0.0171756
0.0190459
0.0206662
0.0220533
0.0232221
0.0241855
0.024955
0.0255404
0.0259501
0.0261892
0.576356
0.554031
0.561682
0.527118
0.520955
0.452563
0.420147
0.283433
0.19184
-0.082596
-0.331488
-0.770062
-1.22269
-1.57047
-1.92469
-1.97661
-2.07081
-1.98068
-1.93405
-1.81495
-1.72163
-1.60458
-1.50218
-1.39752
-1.30126
-1.21199
-1.12741
-1.05292
-0.980907
-0.919138
-0.858558
-0.807113
-0.756155
-0.712854
-0.669678
-0.63273
-0.595741
-0.563768
-0.531691
-0.503666
-0.475529
-0.450706
-0.425783
-0.403618
-0.381373
-0.361469
-0.341503
-0.323558
-0.305567
-0.289349
-0.273095
-0.258415
-0.243706
-0.230406
-0.217082
-0.205025
-0.192949
-0.182016
-0.171067
-0.161153
-0.151223
-0.142231
-0.133225
-0.125071
-0.116902
-0.109507
-0.102099
-0.0953922
-0.0886736
-0.0825926
-0.0765002
-0.0709873
-0.0654637
-0.0604671
-0.0554604
-0.0509331
-0.0463965
-0.0422963
-0.0381873
-0.034476
-0.0307564
-0.0273992
-0.0240344
-0.0210003
-0.0179591
-0.0152198
-0.0124739
-0.010004
-0.00752792
-0.00530444
-0.00307523
-0.00107745
0.000925637
0.00271637
0.00451203
0.00611253
0.00771758
0.00914294
0.0105725
0.0118363
0.013104
0.0142184
0.0153364
0.0163122
0.0172913
0.0181383
0.0189883
0.019715
0.0204445
0.0210586
0.0216752
0.0221834
0.0226939
0.0231019
0.0235121
0.0238251
0.0241401
0.0243625
0.0245866
0.0247211
0.024857
0.706427
0.689605
0.642587
0.530407
0.284126
-0.262424
-1.17313
-1.89436
-2.06057
-1.93676
-1.73136
-1.51557
-1.31637
-1.14314
-0.996666
-0.874011
-0.771129
-0.684082
-0.609528
-0.544837
-0.488025
-0.437629
-0.392576
-0.352074
-0.315524
-0.282457
-0.252497
-0.225327
-0.200674
-0.1783
-0.157991
-0.139555
-0.122821
-0.107633
-0.0938473
-0.0813377
-0.0699878
-0.0596928
-0.0503578
-0.0418969
-0.0342325
-0.0272944
-0.0210189
-0.0153488
-0.0102321
-0.00562208
-0.00147632
0.00224326
0.00557103
0.00853792
0.0111717
0.0134973
0.0155369
0.0173106
0.0188359
0.0201285
0.0212023
0.0220693
0.0227399
0.0232231
0.0235248
0.836004
0.811456
0.81702
0.776281
0.763668
0.684202
0.640041
0.486346
0.375772
0.0794662
-0.19371
-0.651897
-1.12352
-1.49031
-1.86365
-1.93694
-2.04979
-1.97347
-1.93906
-1.82725
-1.74081
-1.62751
-1.52876
-1.42586
-1.33135
-1.24273
-1.1588
-1.08434
-1.01237
-0.950299
-0.889431
-0.837508
-0.786083
-0.742211
-0.698473
-0.660908
-0.623306
-0.590692
-0.557978
-0.529303
-0.500517
-0.475044
-0.449471
-0.426664
-0.403775
-0.38324
-0.362642
-0.344084
-0.325477
-0.308666
-0.291817
-0.276566
-0.261286
-0.24744
-0.23357
-0.220994
-0.208398
-0.196974
-0.185531
-0.175152
-0.164757
-0.155328
-0.145884
-0.137319
-0.128739
-0.120959
-0.113165
-0.106099
-0.0990199
-0.0926033
-0.0861741
-0.0803484
-0.074511
-0.0692232
-0.0639244
-0.0591265
-0.0543183
-0.0499669
-0.0456058
-0.0416615
-0.037708
-0.0341351
-0.0305537
-0.0273199
-0.0240782
-0.0211544
-0.0182233
-0.015583
-0.0129359
-0.0105554
-0.00816853
-0.00602616
-0.00387791
-0.00195427
-2.51688e-05
0.00169728
0.0034248
0.00496185
0.0065036
0.00786944
0.00923963
0.010447
0.0116584
0.0127187
0.0137827
0.0147062
0.015633
0.0164287
0.0172274
0.0179033
0.018582
0.0191452
0.019711
0.0201676
0.0206267
0.0209822
0.0213399
0.0215989
0.0218598
0.0220255
0.0221928
0.965128
0.943956
0.884214
0.749032
0.466597
-0.125718
-1.07383
-1.83222
-2.03837
-1.94094
-1.74999
-1.54178
-1.34622
-1.17438
-1.02803
-0.904824
-0.801019
-0.712853
-0.637077
-0.571112
-0.513004
-0.46131
-0.414971
-0.373208
-0.335429
-0.301174
-0.270073
-0.241811
-0.216119
-0.192761
-0.171522
-0.152212
-0.134656
-0.118697
-0.104192
-0.0910098
-0.0790334
-0.0681554
-0.0582783
-0.0493142
-0.0411831
-0.0338126
-0.0271372
-0.0210974
-0.0156394
-0.0107147
-0.00627926
-0.00229338
0.00127877
0.00446946
0.00730774
0.0098197
0.0120287
0.0139556
0.0156191
0.0170356
0.0182197
0.0191841
0.0199399
0.0204967
0.0208609
1.09377
1.06696
1.0704
1.0234
1.00423
0.913527
0.857428
0.686591
0.556835
0.238987
-0.0580299
-0.534693
-1.02411
-1.40894
-1.80045
-1.89499
-2.02647
-1.96431
-1.94244
-1.8382
-1.7589
-1.64954
-1.55461
-1.45361
-1.36096
-1.27307
-1.18988
-1.11551
-1.04364
-0.981304
-0.920184
-0.867805
-0.815935
-0.771507
-0.72722
-0.689045
-0.650839
-0.617588
-0.584241
-0.554918
-0.525487
-0.499365
-0.473145
-0.449695
-0.426164
-0.404998
-0.38377
-0.364598
-0.345377
-0.327972
-0.310529
-0.294708
-0.278857
-0.264466
-0.250049
-0.236955
-0.223839
-0.211923
-0.199988
-0.189146
-0.178285
-0.16842
-0.158538
-0.149562
-0.140571
-0.132407
-0.124227
-0.116802
-0.109362
-0.10261
-0.0958444
-0.0897061
-0.083555
-0.0779762
-0.0723855
-0.0673171
-0.0622375
-0.057635
-0.0530219
-0.0488447
-0.0446575
-0.0408689
-0.037071
-0.0336376
-0.0301956
-0.0270873
-0.023971
-0.0211605
-0.0183425
-0.0158049
-0.0132605
-0.0109736
-0.00868023
-0.00662373
-0.00456124
-0.00271687
-0.000866944
0.000781761
0.00243562
0.00390349
0.00537613
0.00667649
0.00798126
0.00912605
0.0102749
0.0112748
0.0122785
0.013143
0.014011
0.0147486
0.0154894
0.0161076
0.0167287
0.0172339
0.0177418
0.0181398
0.0185402
0.0188359
0.0191337
0.0193305
0.0195291
1.22196
1.19637
1.12371
0.965194
0.646294
0.00901279
-0.974333
-1.76804
-2.01395
-1.94353
-1.76755
-1.56727
-1.3756
-1.20531
-1.05921
-0.935517
-0.830834
-0.741576
-0.664594
-0.597364
-0.537966
-0.484976
-0.437354
-0.394329
-0.355323
-0.319881
-0.287639
-0.258286
-0.231557
-0.207214
-0.185047
-0.164862
-0.146485
-0.129757
-0.114532
-0.100678
-0.0880758
-0.0766149
-0.0661961
-0.056729
-0.0481315
-0.0403289
-0.0332536
-0.0268443
-0.0210452
-0.015806
-0.0110809
-0.00682887
-0.00301245
0.000401973
0.0034447
0.00614298
0.00852127
0.0106015
0.012403
0.0139434
0.0152377
0.0162996
0.0171406
0.0177708
0.0181974
1.34969
1.32058
1.32186
1.26851
1.24269
1.14061
1.0724
0.884305
0.735219
0.396184
0.0757956
-0.418331
-0.924518
-1.32652
-1.73535
-1.85097
-2.001
-1.95332
-1.94426
-1.84785
-1.77594
-1.67069
-1.57975
-1.48076
-1.39011
-1.30304
-1.22066
-1.14644
-1.07472
-1.01215
-0.950817
-0.898005
-0.845713
-0.800742
-0.755919
-0.717143
-0.67834
-0.644458
-0.610482
-0.580514
-0.550439
-0.52367
-0.496803
-0.472711
-0.44854
-0.426744
-0.404886
-0.3851
-0.365266
-0.347268
-0.329231
-0.31284
-0.296418
-0.281482
-0.26652
-0.252908
-0.239272
-0.226866
-0.214439
-0.203133
-0.191807
-0.181505
-0.171185
-0.1618
-0.152398
-0.143849
-0.135285
-0.1275
-0.1197
-0.112613
-0.105511
-0.0990602
-0.0925956
-0.086726
-0.0808435
-0.0755048
-0.0701539
-0.0653004
-0.0604355
-0.0560255
-0.0516048
-0.0476005
-0.0435862
-0.0399533
-0.0363111
-0.0330184
-0.0297171
-0.0267363
-0.0237475
-0.021053
-0.018351
-0.0159196
-0.0134813
-0.0112919
-0.00909613
-0.00712989
-0.00515761
-0.00339729
-0.00163136
-6.15006e-05
0.00151355
0.00290686
0.00430497
0.00553421
0.00676789
0.00784422
0.00892467
0.00985808
0.0107953
0.0115946
0.0123975
0.0130706
0.013747
0.0143008
0.0148575
0.015298
0.0157411
0.0160734
0.0164081
0.016636
0.0168659
1.47696
1.44687
1.36114
1.17899
0.823405
0.142002
-0.874664
-1.70209
-1.98747
-1.94461
-1.78407
-1.59206
-1.40451
-1.23594
-1.09019
-0.966091
-0.860575
-0.770252
-0.692079
-0.623593
-0.562909
-0.508627
-0.459722
-0.415439
-0.375206
-0.338578
-0.305195
-0.274753
-0.246986
-0.221661
-0.198566
-0.177507
-0.158309
-0.140812
-0.124868
-0.110343
-0.0971147
-0.0850713
-0.0741111
-0.0641413
-0.0550776
-0.0468431
-0.0393682
-0.0325895
-0.0264494
-0.0208958
-0.0158813
-0.0113632
-0.00730256
-0.0036645
-0.000417411
0.00246713
0.00501465
0.00724802
0.00918767
0.0108518
0.0122564
0.0134156
0.0143418
0.0150455
0.0155344
1.60378
1.57236
1.57142
1.51167
1.4791
1.36554
1.28504
1.07963
0.911109
0.551265
0.207989
-0.302705
-0.824778
-1.24322
-1.66859
-1.8051
-1.97355
-1.94061
-1.9446
-1.85625
-1.79195
-1.69098
-1.6042
-1.50734
-1.41879
-1.33262
-1.25115
-1.17712
-1.10562
-1.04285
-0.981333
-0.928109
-0.875417
-0.829915
-0.784572
-0.7452
-0.70581
-0.671299
-0.636699
-0.606088
-0.575374
-0.547958
-0.520447
-0.495714
-0.470902
-0.448477
-0.425989
-0.405591
-0.385143
-0.366553
-0.347923
-0.330962
-0.31397
-0.29849
-0.282983
-0.268853
-0.254698
-0.241801
-0.228882
-0.217113
-0.205323
-0.194585
-0.183827
-0.174032
-0.164219
-0.155287
-0.146338
-0.138194
-0.130034
-0.122612
-0.115174
-0.108411
-0.101633
-0.0954725
-0.0892983
-0.0836894
-0.0780675
-0.0729631
-0.0678465
-0.0632038
-0.0585497
-0.0543299
-0.0500994
-0.046267
-0.0424247
-0.0389477
-0.0354614
-0.0323104
-0.0291508
-0.0262995
-0.0234401
-0.0208643
-0.018281
-0.0159589
-0.0136298
-0.0115417
-0.00944715
-0.00757525
-0.00569731
-0.00402549
-0.00234807
-0.000861843
0.000629569
0.00194323
0.00326168
0.00441444
0.00557163
0.00657391
0.00758029
0.00844138
0.00930625
0.0100344
0.0107659
0.0113683
0.0119739
0.0124568
0.0129426
0.0133116
0.0136831
0.0139421
0.0142032
1.73015
1.6955
1.59654
1.3905
0.998113
0.273462
-0.774865
-1.6346
-1.95909
-1.94423
-1.79958
-1.61617
-1.43297
-1.26628
-1.12099
-0.996547
-0.890242
-0.79888
-0.719533
-0.6498
-0.587834
-0.532263
-0.482078
-0.436536
-0.395078
-0.357265
-0.322743
-0.291211
-0.262408
-0.236101
-0.212078
-0.190146
-0.170128
-0.151862
-0.135199
-0.120004
-0.10615
-0.0935246
-0.0820233
-0.071551
-0.0620213
-0.0533552
-0.0454808
-0.0383329
-0.031852
-0.0259841
-0.0206803
-0.0158962
-0.0115915
-0.00772992
-0.00427855
-0.00120782
0.00150887
0.00389538
0.00597305
0.00776086
0.00927566
0.0105323
0.0115436
0.0123208
0.0128719
1.85608
1.82232
1.81914
1.75292
1.71351
1.58837
1.49546
1.27269
1.08469
0.704427
0.338755
-0.187727
-0.724925
-1.15918
-1.60041
-1.75756
-1.94429
-1.9263
-1.94353
-1.86348
-1.80697
-1.71044
-1.62798
-1.53336
-1.44703
-1.36183
-1.28134
-1.20756
-1.13632
-1.07339
-1.01173
-0.958116
-0.905047
-0.859028
-0.813177
-0.773218
-0.733248
-0.698113
-0.662894
-0.631642
-0.60029
-0.572229
-0.544075
-0.518702
-0.493251
-0.470197
-0.44708
-0.42607
-0.405009
-0.385827
-0.366604
-0.349075
-0.331513
-0.315489
-0.299437
-0.284789
-0.270116
-0.256729
-0.243318
-0.231086
-0.218832
-0.207658
-0.196463
-0.186259
-0.176035
-0.16672
-0.157385
-0.148883
-0.140364
-0.132606
-0.124832
-0.117757
-0.110666
-0.104216
-0.09775
-0.091871
-0.0859782
-0.080623
-0.0752548
-0.0703796
-0.0654922
-0.0610569
-0.0566103
-0.0525786
-0.0485363
-0.044875
-0.0412039
-0.0378829
-0.0345526
-0.0315445
-0.0285277
-0.0258075
-0.0230793
-0.0206245
-0.0181622
-0.0159523
-0.0137355
-0.0117521
-0.00976219
-0.00798843
-0.0062087
-0.00462958
-0.00304491
-0.00164685
-0.000243666
0.000985491
0.00221939
0.00329053
0.00436605
0.00528886
0.00621572
0.0069988
0.0077856
0.00843653
0.00909087
0.00961624
0.0101447
0.0105503
0.0109587
0.0112489
0.0115409
1.98157
1.9423
1.82997
1.59983
1.1706
0.40359
-0.67497
-1.56579
-1.92897
-1.94247
-1.81412
-1.63962
-1.46098
-1.29633
-1.15161
-1.02689
-0.919835
-0.827462
-0.746955
-0.675983
-0.612741
-0.555883
-0.50442
-0.457622
-0.414938
-0.375941
-0.34028
-0.30766
-0.277822
-0.250534
-0.225584
-0.202779
-0.181942
-0.162908
-0.145527
-0.12966
-0.115182
-0.101975
-0.0899325
-0.078958
-0.0689626
-0.059865
-0.0515914
-0.0440745
-0.0372529
-0.0310709
-0.025478
-0.020428
-0.0158793
-0.0117942
-0.00813867
-0.00488183
-0.00199604
0.000543554
0.00275919
0.0046707
0.00629567
0.00764959
0.00874602
0.00959673
0.01021
2.10663
2.0705
2.06504
1.99231
1.94599
1.8092
1.70374
1.46364
1.25613
0.85586
0.46828
-0.0733143
-0.624993
-1.07453
-1.53101
-1.70856
-1.91336
-1.91051
-1.94112
-1.86958
-1.82105
-1.72911
-1.65109
-1.55884
-1.47483
-1.39067
-1.31125
-1.23776
-1.16684
-1.10379
-1.04201
-0.988028
-0.934605
-0.88808
-0.841735
-0.801196
-0.760654
-0.724899
-0.689066
-0.657175
-0.625188
-0.596483
-0.567688
-0.541675
-0.515586
-0.491903
-0.46816
-0.446536
-0.424865
-0.405089
-0.385275
-0.367177
-0.349046
-0.332478
-0.315882
-0.300717
-0.285526
-0.271648
-0.257747
-0.245052
-0.232334
-0.220724
-0.209093
-0.19848
-0.187846
-0.178147
-0.168429
-0.159568
-0.150689
-0.142597
-0.134487
-0.1271
-0.119696
-0.112955
-0.106198
-0.100049
-0.0938858
-0.08828
-0.0826605
-0.0775527
-0.0724322
-0.0677816
-0.063119
-0.058888
-0.0546459
-0.0508004
-0.0469445
-0.0434535
-0.0399526
-0.0367877
-0.0336137
-0.0307492
-0.0278762
-0.0252887
-0.0226933
-0.0203617
-0.0180227
-0.0159277
-0.0138259
-0.0119503
-0.0100683
-0.00839631
-0.00671844
-0.005236
-0.00374812
-0.00244258
-0.00113201
7.96795e-06
0.00115259
0.00213712
0.00312593
0.00396397
0.00480597
0.00550545
0.00620855
0.00677638
0.00734752
0.00778974
0.00823497
0.00855634
0.00887922
2.23124
2.18731
2.06149
1.80707
1.34104
0.532562
-0.575011
-1.49586
-1.89726
-1.93941
-1.82773
-1.66241
-1.48856
-1.32609
-1.18204
-1.05711
-0.949357
-0.855997
-0.774346
-0.702144
-0.637631
-0.579489
-0.526749
-0.478695
-0.434788
-0.394607
-0.357809
-0.324101
-0.293228
-0.264959
-0.239083
-0.215406
-0.19375
-0.173948
-0.15585
-0.139313
-0.12421
-0.110421
-0.0978386
-0.0863623
-0.0759014
-0.0663725
-0.0576999
-0.0498141
-0.0426521
-0.0361562
-0.0302741
-0.0249584
-0.0201659
-0.0158574
-0.0119977
-0.00855487
-0.00550004
-0.00280742
-0.000453863
0.00158129
0.00331639
0.00476762
0.00594914
0.00687332
0.0075485
2.35545
2.31695
2.30917
2.22989
2.17658
2.02811
1.90998
1.65261
1.42562
1.00575
0.596735
0.0406018
-0.525013
-0.989404
-1.46058
-1.65828
-1.88091
-1.89336
-1.93744
-1.87461
-1.83421
-1.74701
-1.67358
-1.58377
-1.50219
-1.41916
-1.34087
-1.26773
-1.19718
-1.13403
-1.07218
-1.01785
-0.96409
-0.917071
-0.870247
-0.829134
-0.788029
-0.751657
-0.715216
-0.682687
-0.650069
-0.62072
-0.591286
-0.564633
-0.537908
-0.513597
-0.489227
-0.466991
-0.444708
-0.424341
-0.403936
-0.385269
-0.366569
-0.349458
-0.332318
-0.316636
-0.300928
-0.28656
-0.272169
-0.25901
-0.24583
-0.233784
-0.221717
-0.210695
-0.199651
-0.189569
-0.179467
-0.170247
-0.161009
-0.152583
-0.144138
-0.136439
-0.128722
-0.121691
-0.114643
-0.108224
-0.10179
-0.095934
-0.0900633
-0.0847232
-0.0793697
-0.0745038
-0.0696254
-0.0651952
-0.0607533
-0.0567237
-0.0526832
-0.0490222
-0.0453509
-0.0420293
-0.0386981
-0.0356893
-0.0326716
-0.0299515
-0.0272231
-0.0247697
-0.0223086
-0.0201022
-0.0178886
-0.015911
-0.0139268
-0.012162
-0.010391
-0.00882417
-0.00725165
-0.00586974
-0.00448254
-0.00327374
-0.00206004
-0.00101382
3.6918e-05
0.000929915
0.00182707
0.0025751
0.00332693
0.00393723
0.004551
0.00502984
0.0055119
0.00586448
0.00621802
2.4792
2.43056
2.29115
2.01232
1.5096
0.660542
-0.475015
-1.42498
-1.86411
-1.93512
-1.84045
-1.68458
-1.51572
-1.35558
-1.21229
-1.08722
-0.978807
-0.884486
-0.801705
-0.728282
-0.662503
-0.60308
-0.549064
-0.499756
-0.454626
-0.413262
-0.375327
-0.340533
-0.308626
-0.279377
-0.252575
-0.228027
-0.205552
-0.184984
-0.166168
-0.148962
-0.133234
-0.118865
-0.105742
-0.0937638
-0.0828376
-0.0728778
-0.0638063
-0.0555519
-0.0480495
-0.0412398
-0.0350688
-0.0294875
-0.0244512
-0.0199195
-0.0158557
-0.0122269
-0.0090031
-0.00615751
-0.00366609
-0.00150733
0.000337867
0.00188637
0.00315297
0.00415056
0.00488754
2.60259
2.56169
2.55156
2.46571
2.40534
2.24516
2.11428
1.83973
1.59332
1.15426
0.724276
0.154083
-0.425008
-0.903911
-1.3893
-1.60691
-1.8471
-1.87497
-1.93256
-1.87863
-1.84649
-1.76417
-1.69544
-1.6082
-1.52914
-1.4473
-1.37021
-1.29747
-1.22734
-1.16412
-1.10224
-1.04757
-0.993504
-0.946001
-0.898713
-0.857032
-0.815374
-0.778386
-0.741343
-0.708178
-0.674932
-0.64494
-0.61487
-0.587577
-0.560217
-0.535277
-0.510282
-0.487433
-0.464541
-0.443582
-0.422586
-0.40335
-0.384083
-0.366428
-0.348745
-0.332546
-0.316322
-0.301464
-0.286583
-0.272962
-0.259319
-0.246838
-0.234335
-0.222903
-0.211451
-0.200985
-0.1905
-0.180922
-0.171325
-0.162564
-0.153784
-0.145773
-0.137745
-0.130423
-0.123085
-0.116396
-0.109692
-0.103585
-0.0974633
-0.0918909
-0.0863046
-0.0812235
-0.0761294
-0.0715001
-0.0668586
-0.0626449
-0.0584199
-0.054589
-0.0507474
-0.0472691
-0.0437809
-0.0406278
-0.0374655
-0.0346128
-0.0317514
-0.0291764
-0.0265933
-0.0242754
-0.02195
-0.0198706
-0.0177843
-0.0159266
-0.0140625
-0.0124113
-0.0107542
-0.00929596
-0.00783218
-0.00655456
-0.00527183
-0.00416392
-0.00305129
-0.00210335
-0.00115107
-0.000354493
0.000446058
0.0010988
0.00175519
0.00227065
0.00278949
0.00317337
0.00355734
2.72551
2.6721
2.51902
2.21568
1.67646
0.787682
-0.375005
-1.35334
-1.82967
-1.92966
-1.8523
-1.70614
-1.54245
-1.38478
-1.24236
-1.11722
-1.00819
-0.912931
-0.829035
-0.754399
-0.687358
-0.626656
-0.571367
-0.520805
-0.474453
-0.431907
-0.392836
-0.356956
-0.324016
-0.293787
-0.266061
-0.240642
-0.217349
-0.196014
-0.176481
-0.158606
-0.142255
-0.127304
-0.113642
-0.101162
-0.0897712
-0.0793806
-0.0699105
-0.0612876
-0.0534451
-0.0463217
-0.039862
-0.0340151
-0.0287352
-0.0239803
-0.0197126
-0.0158979
-0.0125052
-0.0095067
-0.00687745
-0.00459513
-0.00263988
-0.00099414
0.000357513
0.00142847
0.00222708
2.84813
2.80477
2.79228
2.69982
2.63234
2.46044
2.31675
2.02515
1.75939
1.30156
0.851051
0.267181
-0.325001
-0.818167
-1.31733
-1.55463
-1.81207
-1.85546
-1.92656
-1.8817
-1.85793
-1.78062
-1.71671
-1.63212
-1.55567
-1.4751
-1.39929
-1.32699
-1.25733
-1.19407
-1.13218
-1.0772
-1.02285
-0.974872
-0.927135
-0.884889
-0.842688
-0.805088
-0.767449
-0.733647
-0.699778
-0.669142
-0.638438
-0.610505
-0.582513
-0.556943
-0.531324
-0.507863
-0.484362
-0.46281
-0.441226
-0.42142
-0.401587
-0.383388
-0.365164
-0.348447
-0.331707
-0.316359
-0.300989
-0.286906
-0.272801
-0.259884
-0.246947
-0.235106
-0.223245
-0.212396
-0.201527
-0.191591
-0.181636
-0.172541
-0.163427
-0.155104
-0.146763
-0.139151
-0.131523
-0.124564
-0.11759
-0.111233
-0.10486
-0.0990556
-0.0932369
-0.0879405
-0.082631
-0.0778025
-0.0729617
-0.068564
-0.0641547
-0.0601538
-0.0561421
-0.0525071
-0.048862
-0.0455647
-0.0422579
-0.0392725
-0.0362783
-0.0335816
-0.0308766
-0.0284472
-0.0260102
-0.023829
-0.0216406
-0.0196901
-0.0177329
-0.0159974
-0.0142558
-0.0127212
-0.0111809
-0.00983445
-0.00848275
-0.00731314
-0.00613867
-0.00513578
-0.00412841
-0.00328329
-0.00243406
-0.00173887
-0.00103988
-0.000487808
6.77536e-05
0.000483044
0.000897151
2.97023
2.91198
2.74515
2.41725
1.84178
0.914124
-0.274996
-1.28106
-1.79406
-1.92312
-1.86332
-1.72711
-1.56879
-1.41373
-1.27226
-1.14712
-1.0375
-0.941331
-0.856335
-0.780494
-0.712196
-0.650218
-0.593656
-0.541842
-0.494269
-0.450542
-0.410336
-0.37337
-0.339397
-0.30819
-0.27954
-0.25325
-0.22914
-0.20704
-0.18679
-0.168246
-0.151271
-0.135741
-0.121538
-0.108558
-0.0967021
-0.085881
-0.0760125
-0.0670214
-0.0588388
-0.051402
-0.0446535
-0.0385413
-0.0330179
-0.0280399
-0.0235684
-0.0195678
-0.0160063
-0.0128549
-0.0100879
-0.0076821
-0.00561683
-0.00387387
-0.0024372
-0.00129296
-0.000432908
3.09215
3.04622
3.03138
2.93226
2.85766
2.67403
2.51749
2.20899
1.92403
1.4478
0.977201
0.379941
-0.225003
-0.732279
-1.24481
-1.5016
-1.77595
-1.83495
-1.91952
-1.88389
-1.86857
-1.79639
-1.7374
-1.65555
-1.58182
-1.50256
-1.4281
-1.35628
-1.28715
-1.22388
-1.16202
-1.10673
-1.05213
-1.00368
-0.955514
-0.912706
-0.869973
-0.831761
-0.793533
-0.759095
-0.724608
-0.693327
-0.661993
-0.633418
-0.604796
-0.578595
-0.552355
-0.52828
-0.504173
-0.482027
-0.459855
-0.43948
-0.419081
-0.400338
-0.381573
-0.364339
-0.347084
-0.331247
-0.315388
-0.300842
-0.286276
-0.272924
-0.259552
-0.247302
-0.235033
-0.223801
-0.21255
-0.202256
-0.191943
-0.182513
-0.173065
-0.16443
-0.155778
-0.147876
-0.139957
-0.132729
-0.125485
-0.118877
-0.112254
-0.106217
-0.100166
-0.0946549
-0.0891301
-0.0841026
-0.0790625
-0.0744808
-0.0698873
-0.0657166
-0.0615348
-0.0577432
-0.0539413
-0.0504998
-0.0470486
-0.0439307
-0.0408038
-0.0379854
-0.0351586
-0.0326178
-0.0300691
-0.0277861
-0.0254957
-0.0234524
-0.0214023
-0.0195825
-0.0177564
-0.0161454
-0.0145286
-0.0131134
-0.0116928
-0.0104615
-0.00922518
-0.00816736
-0.00710492
-0.00621127
-0.00531337
-0.00457575
-0.00383419
-0.00324549
-0.0026533
-0.00220645
-0.00176255
3.21348
3.15028
2.96963
2.61715
2.00573
1.04001
-0.174995
-1.20829
-1.75741
-1.91555
-1.87355
-1.74751
-1.59473
-1.44241
-1.302
-1.1769
-1.06674
-0.969689
-0.883607
-0.806569
-0.737018
-0.673766
-0.615933
-0.562867
-0.514074
-0.469167
-0.427826
-0.389775
-0.354771
-0.322586
-0.293012
-0.265853
-0.240926
-0.21806
-0.197095
-0.177882
-0.160284
-0.144173
-0.129432
-0.115951
-0.10363
-0.0923789
-0.0821122
-0.072753
-0.0642306
-0.0564804
-0.0494435
-0.0430661
-0.0372991
-0.0320982
-0.0274229
-0.0232366
-0.0195063
-0.0162022
-0.0132975
-0.0107682
-0.00859294
-0.00675281
-0.00523114
-0.00401373
-0.00309244
6.91551
6.81777
6.78314
6.5717
6.40792
6.01724
5.67749
5.02633
4.41562
3.42461
2.43816
1.21081
-0.0332454
-1.08681
-2.14852
-2.71342
-3.3062
-3.46763
-3.67421
-3.6326
-3.62871
-3.50437
-3.40502
-3.25513
-3.12069
-2.97188
-2.83216
-2.69542
-2.56373
-2.44215
-2.32315
-2.21619
-2.11037
-2.01608
-1.92219
-1.83843
-1.75469
-1.67957
-1.60429
-1.53628
-1.46808
-1.40605
-1.34383
-1.28695
-1.22991
-1.17758
-1.12511
-1.07688
-1.02853
-0.984048
-0.939463
-0.898431
-0.857313
-0.819484
-0.781576
-0.746722
-0.711796
-0.679707
-0.64755
-0.618028
-0.588442
-0.561301
-0.5341
-0.509165
-0.484172
-0.461277
-0.438328
-0.41732
-0.39626
-0.376992
-0.357676
-0.340016
-0.322309
-0.306131
-0.289909
-0.275096
-0.260243
-0.246689
-0.233098
-0.220705
-0.208277
-0.196954
-0.185598
-0.175262
-0.164895
-0.155468
-0.146013
-0.137427
-0.128814
-0.121004
-0.113168
-0.106075
-0.0989582
-0.0925283
-0.0860769
-0.0802617
-0.0744266
-0.0691817
-0.0639184
-0.0592035
-0.0544716
-0.0502502
-0.046013
-0.0422521
-0.0384766
-0.0351464
-0.0318026
-0.0288763
-0.0259375
-0.0233911
-0.0208333
-0.0186454
-0.016447
-0.0145987
-0.0127409
-0.0112156
-0.00968161
-0.00846462
-0.0072413
-0.0063159
-0.00540389
10.6138
10.4053
9.81961
8.69148
6.77608
3.84913
0.260929
-2.82657
-4.58669
-5.21327
-5.21811
-4.94219
-4.56219
-4.16495
-3.7893
-3.44888
-3.14517
-2.87459
-2.63216
-2.41316
-2.21372
-2.03089
-1.86252
-1.70702
-1.56321
-1.43017
-1.30713
-1.19341
-1.0884
-0.991534
-0.90225
-0.820029
-0.744374
-0.67481
-0.610891
-0.552198
-0.498338
-0.448943
-0.403673
-0.362211
-0.324266
-0.289568
-0.257866
-0.228934
-0.20256
-0.178551
-0.156731
-0.136939
-0.119027
-0.102862
-0.08832
-0.0752916
-0.0636763
-0.0533835
-0.044332
-0.0364486
-0.0296683
-0.0239333
-0.0191926
-0.0154023
-0.0125347
10.7305
10.5713
10.5136
10.1725
9.90693
9.28805
8.75007
7.75056
6.8178
5.36573
3.93338
2.20768
0.462551
-1.02109
-2.53681
-3.39259
-4.30798
-4.61317
-4.99369
-4.99574
-5.05871
-4.92554
-4.8322
-4.6493
-4.49044
-4.29937
-4.12201
-3.94126
-3.76774
-3.60371
-3.44307
-3.29637
-3.15088
-3.01972
-2.88865
-2.77064
-2.65219
-2.54509
-2.43737
-2.33937
-2.24074
-2.1505
-2.05969
-1.97625
-1.8923
-1.81496
-1.73719
-1.66544
-1.59331
-1.52675
-1.45986
-1.39816
-1.33616
-1.27901
-1.2216
-1.16873
-1.11563
-1.06678
-1.01771
-0.972613
-0.927318
-0.885736
-0.843968
-0.805659
-0.767177
-0.731914
-0.696489
-0.664053
-0.631468
-0.601655
-0.571704
-0.544321
-0.516809
-0.491675
-0.466422
-0.443368
-0.420204
-0.399074
-0.377842
-0.35849
-0.339043
-0.321334
-0.303539
-0.287349
-0.271079
-0.256294
-0.241434
-0.227949
-0.214394
-0.20211
-0.189763
-0.178593
-0.167364
-0.157226
-0.147033
-0.137853
-0.128623
-0.120333
-0.111996
-0.104535
-0.0970302
-0.0903411
-0.0836122
-0.0776447
-0.0716405
-0.0663488
-0.0610231
-0.0563658
-0.0516773
-0.0476173
-0.0435285
-0.0400329
-0.0365106
-0.0335498
-0.0305644
-0.0281125
-0.0256379
-0.0236726
-0.0216847
-0.0201872
-0.0186731
10.8425
10.6183
9.99112
8.80702
6.86172
4.02228
0.661666
-2.25456
-4.03266
-4.77429
-4.8987
-4.72154
-4.41814
-4.07867
-3.74595
-3.43715
-3.15656
-2.90273
-2.67226
-2.46161
-2.26778
-2.0885
-1.92209
-1.76735
-1.6234
-1.48954
-1.36517
-1.24977
-1.14283
-1.04385
-0.952357
-0.867877
-0.789952
-0.71814
-0.652018
-0.591184
-0.535256
-0.483878
-0.436714
-0.393451
-0.3538
-0.317491
-0.284274
-0.253919
-0.226213
-0.200961
-0.177983
-0.157115
-0.138206
-0.12112
-0.10573
-0.091923
-0.0795954
-0.0686538
-0.059014
-0.0506003
-0.043345
-0.0371879
-0.032076
-0.0279622
-0.0248108
10.9562
10.7904
10.7249
10.3655
10.079
9.437
8.87102
7.86318
6.9163
5.50812
4.12011
2.49777
0.859775
-0.544093
-1.98172
-2.84541
-3.76641
-4.12823
-4.55995
-4.62136
-4.74089
-4.65671
-4.61166
-4.46679
-4.34599
-4.18367
-4.03528
-3.87593
-3.72407
-3.57582
-3.43118
-3.296
-3.16223
-3.03941
-2.91682
-2.80475
-2.69236
-2.5894
-2.48589
-2.39067
-2.29487
-2.20637
-2.11734
-2.03486
-1.95189
-1.87491
-1.79751
-1.72568
-1.65348
-1.5865
-1.51919
-1.45682
-1.39415
-1.33616
-1.2779
-1.22406
-1.16998
-1.12008
-1.06995
-1.02375
-0.97735
-0.934643
-0.891741
-0.852303
-0.812682
-0.7763
-0.739748
-0.706216
-0.672526
-0.641648
-0.610623
-0.582212
-0.553664
-0.527544
-0.501297
-0.477301
-0.453188
-0.431162
-0.409028
-0.388828
-0.368526
-0.350017
-0.331414
-0.314471
-0.297442
-0.281949
-0.266377
-0.252229
-0.238007
-0.225105
-0.212135
-0.200389
-0.18858
-0.177907
-0.167176
-0.1575
-0.147771
-0.139023
-0.130225
-0.122342
-0.114412
-0.107336
-0.100217
-0.0938956
-0.0875344
-0.0819202
-0.0762693
-0.0713197
-0.0663362
-0.0620128
-0.0576581
-0.0539264
-0.0501659
-0.0469954
-0.0437983
-0.0411619
-0.0385012
-0.0363751
-0.0342265
-0.0325909
-0.030935
11.0673
10.829
10.1653
8.93517
6.97418
4.22179
1.0546
-1.71716
-3.50542
-4.34742
-4.5834
-4.50157
-4.27351
-3.99159
-3.70198
-3.42509
-3.16785
-2.93091
-2.71247
-2.51019
-2.32196
-2.14618
-1.98168
-1.82766
-1.68353
-1.54881
-1.4231
-1.30599
-1.1971
-1.09601
-1.0023
-0.915567
-0.835376
-0.761321
-0.693001
-0.63003
-0.572042
-0.518687
-0.469635
-0.424579
-0.383229
-0.345315
-0.310588
-0.278815
-0.249783
-0.223292
-0.199161
-0.177222
-0.15732
-0.139317
-0.123082
-0.108499
-0.0954621
-0.0838741
-0.0736482
-0.0647061
-0.0569773
-0.0503996
-0.0449175
-0.0404822
-0.0370521
11.1801
11.0079
10.9354
10.5602
10.2555
9.59501
9.00607
7.99582
7.04143
5.6762
4.33086
2.79618
1.24863
-0.0892099
-1.46031
-2.32929
-3.25229
-3.6636
-4.13961
-4.25624
-4.42817
-4.3911
-4.39242
-4.28483
-4.20136
-4.06758
-3.948
-3.81007
-3.67994
-3.54755
-3.41904
-3.29548
-3.17354
-3.05911
-2.94509
-2.83899
-2.73269
-2.63385
-2.53458
-2.44211
-2.34913
-2.26235
-2.17507
-2.09352
-2.01151
-1.93487
-1.85782
-1.78588
-1.71358
-1.64616
-1.57842
-1.51537
-1.45202
-1.39317
-1.33406
-1.27924
-1.22418
-1.17322
-1.12203
-1.07473
-1.02722
-0.983387
-0.939351
-0.898785
-0.858028
-0.820529
-0.782852
-0.748226
-0.713435
-0.681494
-0.649399
-0.619962
-0.590382
-0.563278
-0.536041
-0.511107
-0.486048
-0.46313
-0.440097
-0.419052
-0.3979
-0.378593
-0.359186
-0.341492
-0.323707
-0.30751
-0.291228
-0.27642
-0.261534
-0.248016
-0.234426
-0.222107
-0.20972
-0.198514
-0.187246
-0.177077
-0.16685
-0.157647
-0.14839
-0.140087
-0.131734
-0.124272
-0.116765
-0.11009
-0.103374
-0.0974382
-0.0914634
-0.0862226
-0.0809453
-0.0763593
-0.0717396
-0.0677728
-0.0637749
-0.0603955
-0.0569873
-0.0541671
-0.0513206
-0.0490348
-0.0467249
-0.0449521
-0.0431564
11.2907
11.0398
10.3445
9.07746
7.11168
4.4428
1.43959
-1.21071
-3.00428
-3.9339
-4.27351
-4.28326
-4.12903
-3.90424
-3.65778
-3.41295
-3.17923
-2.9593
-2.75294
-2.559
-2.37633
-2.20398
-2.04134
-1.88798
-1.74361
-1.608
-1.48091
-1.36209
-1.25123
-1.14802
-1.0521
-0.963099
-0.880644
-0.804348
-0.733835
-0.668734
-0.608692
-0.553366
-0.502434
-0.455589
-0.412546
-0.373035
-0.336804
-0.30362
-0.273266
-0.245542
-0.220262
-0.197255
-0.176366
-0.157449
-0.140373
-0.125017
-0.111273
-0.0990415
-0.0882317
-0.078763
-0.0705626
-0.0635656
-0.0577145
-0.0529585
-0.0492523
11.4037
11.2262
11.1473
10.7588
10.438
9.7633
9.15568
8.14753
7.19056
5.86625
4.56113
3.10093
1.62992
0.347043
-0.967679
-1.84029
-2.76336
-3.2182
-3.73281
-3.90085
-4.12126
-4.12955
-4.17525
-4.10423
-4.05723
-3.95178
-3.86073
-3.74422
-3.63579
-3.51933
-3.40702
-3.29512
-3.18508
-3.07908
-2.97366
-2.87352
-2.77333
-2.67861
-2.58356
-2.49381
-2.40362
-2.31852
-2.23297
-2.15231
-2.07122
-1.99488
-1.91816
-1.84609
-1.77366
-1.70578
-1.63758
-1.57383
-1.50979
-1.45008
-1.39009
-1.33429
-1.27824
-1.22622
-1.17397
-1.12556
-1.07693
-1.03198
-0.986806
-0.94511
-0.903218
-0.864603
-0.825803
-0.790085
-0.754194
-0.721193
-0.688031
-0.657572
-0.626962
-0.598878
-0.570654
-0.544783
-0.518783
-0.494976
-0.471048
-0.44916
-0.42716
-0.407058
-0.386852
-0.36841
-0.349871
-0.332972
-0.315984
-0.300519
-0.284971
-0.27084
-0.256632
-0.243742
-0.23078
-0.219044
-0.207242
-0.196581
-0.185859
-0.176202
-0.166487
-0.157766
-0.148992
-0.141146
-0.133251
-0.126226
-0.119155
-0.1129
-0.106602
-0.101071
-0.0955014
-0.0906537
-0.0857702
-0.081569
-0.0773347
-0.0737469
-0.0701286
-0.067125
-0.0640934
-0.0616482
-0.0591774
-0.0572679
-0.0553336
11.5147
11.2529
10.5305
9.23442
7.2719
4.68141
1.8174
-0.7309
-2.52722
-3.53394
-3.96978
-4.0674
-3.98539
-3.81715
-3.61377
-3.40109
-3.19098
-2.98809
-2.79379
-2.60817
-2.43097
-2.26199
-2.10112
-1.94835
-1.8037
-1.66715
-1.53865
-1.41807
-1.30523
-1.19988
-1.10174
-1.01048
-0.925761
-0.847227
-0.774524
-0.707298
-0.645206
-0.587916
-0.535109
-0.486483
-0.441753
-0.400649
-0.36292
-0.32833
-0.296661
-0.267708
-0.241285
-0.217216
-0.195341
-0.175515
-0.157601
-0.141476
-0.127028
-0.114155
-0.102764
-0.0927706
-0.0841003
-0.0766855
-0.0704665
-0.0653907
-0.0614098
11.629
11.4472
11.3623
10.9628
10.6279
9.94259
9.32008
8.31713
7.36128
6.0751
4.8073
3.41042
2.00432
0.767255
-0.499882
-1.37525
-2.29763
-2.791
-3.3397
-3.55558
-3.82097
-3.87281
-3.96098
-3.92574
-3.91432
-3.8369
-3.77404
-3.67889
-3.59207
-3.49155
-3.39544
-3.29524
-3.19712
-3.09954
-3.00274
-2.90855
-2.81444
-2.7238
-2.63293
-2.54586
-2.45844
-2.37496
-2.29109
-2.21127
-2.13108
-2.055
-1.97857
-1.90632
-1.83374
-1.76537
-1.6967
-1.63223
-1.56748
-1.50688
-1.44601
-1.38922
-1.33217
-1.27908
-1.22575
-1.17623
-1.12649
-1.0804
-1.0341
-0.991274
-0.948247
-0.908515
-0.868594
-0.831785
-0.794797
-0.760737
-0.726511
-0.695031
-0.663396
-0.634334
-0.605126
-0.578323
-0.551384
-0.526691
-0.501871
-0.479144
-0.4563
-0.435406
-0.414403
-0.395216
-0.375927
-0.358329
-0.340637
-0.324519
-0.308312
-0.293571
-0.278748
-0.265289
-0.251754
-0.23949
-0.227156
-0.216006
-0.204791
-0.194682
-0.184512
-0.175374
-0.16618
-0.157952
-0.149673
-0.142297
-0.134874
-0.1283
-0.121682
-0.115861
-0.11
-0.104892
-0.099746
-0.0953112
-0.0908415
-0.0870462
-0.0832186
-0.0800323
-0.0768163
-0.0742123
-0.071581
-0.0695353
-0.0674633
11.7417
11.4703
10.7247
9.40638
7.45276
4.93459
2.18876
-0.27411
-2.0723
-3.14761
-3.67299
-3.85482
-3.84331
-3.73095
-3.57043
-3.38987
-3.20337
-3.0175
-2.83521
-2.6578
-2.48599
-2.32027
-2.16108
-2.00882
-1.8638
-1.72626
-1.5963
-1.47395
-1.3591
-1.2516
-1.15123
-1.0577
-0.970715
-0.889944
-0.815054
-0.745707
-0.681571
-0.622321
-0.567646
-0.517245
-0.470834
-0.428145
-0.388924
-0.352935
-0.319955
-0.289779
-0.262217
-0.23709
-0.214236
-0.193504
-0.174755
-0.157865
-0.142716
-0.129205
-0.117234
-0.106719
-0.0975803
-0.0897494
-0.083164
-0.0777694
-0.073515
11.8581
11.6727
11.5824
11.1738
10.8268
10.1338
9.49952
8.50387
7.55168
6.30053
5.06687
3.72384
2.37286
1.1739
-0.0531897
-0.931139
-1.85277
-2.3807
-2.95985
-3.22042
-3.52765
-3.62136
-3.75017
-3.74992
-3.77318
-3.72349
-3.68843
-3.61454
-3.54921
-3.4646
-3.38466
-3.29615
-3.20993
-3.12076
-3.03255
-2.94427
-2.85622
-2.76961
-2.68288
-2.59843
-2.5137
-2.4318
-2.34956
-2.27054
-2.19117
-2.11531
-2.03913
-1.96667
-1.8939
-1.82502
-1.75584
-1.69063
-1.62513
-1.56363
-1.50187
-1.44407
-1.38601
-1.33184
-1.27743
-1.2268
-1.17593
-1.12871
-1.08127
-1.03731
-0.993146
-0.952298
-0.911256
-0.873355
-0.835271
-0.800154
-0.764864
-0.732366
-0.699707
-0.669669
-0.63948
-0.611746
-0.583871
-0.558294
-0.532585
-0.509021
-0.485336
-0.463652
-0.441855
-0.421926
-0.40189
-0.383596
-0.365203
-0.348432
-0.33157
-0.31622
-0.300785
-0.286759
-0.272654
-0.259864
-0.247
-0.235362
-0.223657
-0.213097
-0.202473
-0.192921
-0.183309
-0.1747
-0.166037
-0.158313
-0.150539
-0.143647
-0.136709
-0.130601
-0.12445
-0.119082
-0.113674
-0.109007
-0.104302
-0.1003
-0.0962639
-0.0928955
-0.0894957
-0.0867332
-0.083942
-0.0817605
-0.0795512
11.9733
11.6937
10.9287
9.59347
7.65243
5.2001
2.55462
0.163019
-1.63733
-2.77445
-3.38344
-3.64605
-3.70333
-3.64611
-3.52816
-3.37963
-3.21667
-3.04776
-2.87737
-2.70807
-2.54151
-2.37892
-2.22131
-2.06946
-1.92401
-1.78541
-1.65395
-1.52977
-1.41289
-1.30323
-1.2006
-1.1048
-1.01554
-0.932533
-0.855456
-0.78399
-0.717813
-0.656608
-0.600069
-0.547898
-0.499811
-0.455542
-0.414834
-0.377449
-0.343164
-0.311771
-0.283073
-0.256893
-0.233062
-0.211428
-0.191849
-0.174196
-0.158349
-0.144201
-0.131654
-0.120618
-0.111013
-0.102768
-0.0958171
-0.0901046
-0.0855777
12.0929
11.9047
11.8096
11.3935
11.036
10.3376
9.69416
8.70702
7.76011
6.54065
5.33782
4.04045
2.73618
1.56871
0.375053
-0.505754
-1.42713
-1.98642
-2.5932
-2.89557
-3.24193
-3.37584
-3.54357
-3.57748
-3.63452
-3.61218
-3.6045
-3.55171
-3.50767
-3.43892
-3.37506
-3.29818
-3.22381
-3.14299
-3.06332
-2.98088
-2.89882
-2.81617
-2.7335
-2.6516
-2.56951
-2.48911
-2.40844
-2.33015
-2.25156
-2.17587
-2.09987
-2.02717
-1.95417
-1.88473
-1.81501
-1.74903
-1.68277
-1.62035
-1.55767
-1.49884
-1.43976
-1.3845
-1.329
-1.27724
-1.22525
-1.17689
-1.1283
-1.08321
-1.03791
-0.995941
-0.953775
-0.914784
-0.875604
-0.83943
-0.803078
-0.769563
-0.735882
-0.70487
-0.673701
-0.645039
-0.616231
-0.589772
-0.563177
-0.538779
-0.514255
-0.491785
-0.469197
-0.448527
-0.427747
-0.408759
-0.389667
-0.372247
-0.354732
-0.338776
-0.322731
-0.308141
-0.293468
-0.280153
-0.266762
-0.254639
-0.242445
-0.231436
-0.220362
-0.210396
-0.200369
-0.19138
-0.182335
-0.174264
-0.16614
-0.158932
-0.151676
-0.145281
-0.138841
-0.133214
-0.127546
-0.122646
-0.117708
-0.1135
-0.109256
-0.105706
-0.102123
-0.0992028
-0.0962522
-0.0939353
-0.0915893
12.2116
11.9248
11.1434
9.79574
7.86936
5.47616
2.91558
0.582923
-1.22073
-2.41432
-3.10169
-3.44178
-3.56612
-3.5632
-3.48744
-3.37073
-3.23118
-3.07908
-2.92044
-2.75908
-2.59762
-2.43803
-2.28186
-2.13032
-1.98434
-1.84461
-1.71158
-1.58554
-1.4666
-1.35474
-1.24986
-1.15177
-1.06024
-0.974984
-0.895719
-0.822135
-0.75392
-0.690764
-0.632365
-0.578429
-0.528672
-0.482827
-0.440638
-0.401864
-0.366279
-0.333671
-0.303844
-0.276614
-0.251812
-0.22928
-0.208873
-0.19046
-0.173918
-0.159137
-0.146015
-0.134461
-0.124392
-0.115733
-0.108419
-0.102389
-0.0975909
12.3352
12.1448
12.0452
11.623
11.2566
10.5545
9.90402
8.92588
7.98516
6.79399
5.61863
4.35979
3.09494
1.95322
0.787192
-0.0971033
-1.01908
-1.60719
-2.23943
-2.5811
-2.96419
-3.13673
-3.34178
-3.40902
-3.49893
-3.50353
-3.52277
-3.49089
-3.4679
-3.4149
-3.36698
-3.30165
-3.23904
-3.16649
-3.09525
-3.01857
-2.94242
-2.86363
-2.78495
-2.70551
-2.62596
-2.54699
-2.4678
-2.39018
-2.31229
-2.23671
-2.16085
-2.08785
-2.01457
-1.94454
-1.87424
-1.80746
-1.74041
-1.67705
-1.61342
-1.55355
-1.49343
-1.43707
-1.38047
-1.32758
-1.27445
-1.22494
-1.17521
-1.12898
-1.08253
-1.03945
-0.996157
-0.956075
-0.915798
-0.878568
-0.841155
-0.806625
-0.771922
-0.739938
-0.707792
-0.678204
-0.648464
-0.621126
-0.593647
-0.568418
-0.543057
-0.519803
-0.496426
-0.475019
-0.453498
-0.433818
-0.414031
-0.395964
-0.377798
-0.361238
-0.344586
-0.329433
-0.314195
-0.300359
-0.286443
-0.273836
-0.261156
-0.2497
-0.238176
-0.227798
-0.217357
-0.207991
-0.198565
-0.190149
-0.181677
-0.174154
-0.16658
-0.1599
-0.153172
-0.147288
-0.14136
-0.13623
-0.131059
-0.126645
-0.122195
-0.118464
-0.114698
-0.111621
-0.108511
-0.106059
-0.103577
12.4582
12.1653
11.37
10.0132
8.10231
5.76147
3.27232
0.987748
-0.820967
-2.06692
-2.8281
-3.24262
-3.4323
-3.48276
-3.44873
-3.36355
-3.24719
-3.11168
-2.9646
-2.81098
-2.65443
-2.49767
-2.34279
-2.19143
-2.04482
-1.90388
-1.76924
-1.64129
-1.52024
-1.40617
-1.29901
-1.19862
-1.1048
-1.0173
-0.935845
-0.860144
-0.789893
-0.724789
-0.664535
-0.608837
-0.557416
-0.51
-0.466335
-0.426176
-0.389296
-0.35548
-0.324528
-0.296253
-0.270482
-0.247056
-0.225826
-0.206656
-0.189422
-0.17401
-0.160317
-0.148246
-0.137715
-0.128644
-0.120967
-0.114622
-0.109553
12.5865
12.3945
12.2909
11.8638
11.4896
10.7851
10.1291
9.15997
8.2257
7.05944
5.90819
4.68161
3.4498
2.32875
1.1852
0.296519
-0.627157
-1.24217
-1.89822
-2.27699
-2.69478
-2.90447
-3.14538
-3.24512
-3.36702
-3.39813
-3.44378
-3.43258
-3.43036
-3.39295
-3.3608
-3.3069
-3.2559
-3.19151
-3.12859
-3.05756
-2.98718
-2.91216
-2.83734
-2.76027
-2.68316
-2.60553
-2.52773
-2.4507
-2.37344
-2.2979
-2.22212
-2.14877
-2.07515
-2.00449
-1.93357
-1.86596
-1.79808
-1.73375
-1.66916
-1.60823
-1.54705
-1.48958
-1.43185
-1.37782
-1.32354
-1.27288
-1.222
-1.17462
-1.12703
-1.08282
-1.03841
-0.997231
-0.955857
-0.917571
-0.879096
-0.843551
-0.807828
-0.774873
-0.741751
-0.711239
-0.68057
-0.652355
-0.623994
-0.597936
-0.571741
-0.547706
-0.523543
-0.501401
-0.479141
-0.458772
-0.438292
-0.41958
-0.400766
-0.383605
-0.366347
-0.350635
-0.334834
-0.320478
-0.306039
-0.292951
-0.279786
-0.267885
-0.255914
-0.245126
-0.234273
-0.224531
-0.214727
-0.205966
-0.197148
-0.189311
-0.181422
-0.174457
-0.167443
-0.161302
-0.155115
-0.149755
-0.144353
-0.139735
-0.135078
-0.131167
-0.12722
-0.123985
-0.120717
-0.118131
-0.115513
12.7147
12.4165
11.6095
10.246
8.35029
6.05511
3.62544
1.3793
-0.436667
-1.73191
-2.56298
-3.04911
-3.30244
-3.40534
-3.41247
-3.35845
-3.26497
-3.1458
-3.01001
-2.8639
-2.71204
-2.55791
-2.40417
-2.25285
-2.10551
-1.96327
-1.82693
-1.69702
-1.57383
-1.45751
-1.34805
-1.24535
-1.14923
-1.05948
-0.975837
-0.898017
-0.825732
-0.758683
-0.696577
-0.639123
-0.58604
-0.53706
-0.491923
-0.450385
-0.412214
-0.377194
-0.345122
-0.315806
-0.289072
-0.264755
-0.242705
-0.222782
-0.204859
-0.188819
-0.174556
-0.161972
-0.150979
-0.141499
-0.133461
-0.126801
-0.121462
12.8487
12.6553
12.5481
12.1169
11.7359
11.03
10.3696
9.40891
8.48088
7.33615
6.20571
5.0058
3.80134
2.69644
1.57073
0.67658
-0.250089
-0.89055
-1.56925
-1.98324
-2.43399
-2.67949
-2.95489
-3.08632
-3.23936
-3.29651
-3.36807
-3.37725
-3.39551
-3.37349
-3.35688
-3.31425
-3.2747
-3.21831
-3.16356
-3.09804
-3.0333
-2.96191
-2.89082
-2.816
-2.74122
-2.66482
-2.58832
-2.51179
-2.43507
-2.35951
-2.28371
-2.20996
-2.13595
-2.06462
-1.99302
-1.92455
-1.85581
-1.79048
-1.72489
-1.66289
-1.60062
-1.54202
-1.48316
-1.42797
-1.37254
-1.32072
-1.26867
-1.22015
-1.1714
-1.12607
-1.08052
-1.03826
-0.995782
-0.95644
-0.916903
-0.880343
-0.8436
-0.809676
-0.775579
-0.744144
-0.712548
-0.683458
-0.654217
-0.627332
-0.600306
-0.575491
-0.550544
-0.527671
-0.504674
-0.483618
-0.462448
-0.443094
-0.423634
-0.405874
-0.388014
-0.371745
-0.355383
-0.340509
-0.325549
-0.311981
-0.298334
-0.285991
-0.273573
-0.262378
-0.251114
-0.240997
-0.230816
-0.221713
-0.21255
-0.204401
-0.196197
-0.188949
-0.18165
-0.175254
-0.16881
-0.163221
-0.157588
-0.152766
-0.147904
-0.143813
-0.139685
-0.136294
-0.132869
-0.130148
-0.127395
12.9827
12.68
11.8629
10.4942
8.61255
6.3564
3.97554
1.75912
-0.066631
-1.40897
-2.30662
-2.86178
-3.17711
-3.33146
-3.37911
-3.3558
-3.28484
-3.18167
-3.05686
-2.91797
-2.77056
-2.61885
-2.46606
-2.31463
-2.16643
-2.0228
-1.88469
-1.75276
-1.62739
-1.50879
-1.397
-1.29197
-1.19354
-1.10154
-1.0157
-0.935757
-0.861437
-0.792445
-0.72849
-0.669283
-0.614545
-0.564004
-0.5174
-0.474487
-0.435032
-0.398813
-0.365624
-0.335272
-0.307578
-0.282375
-0.259508
-0.238836
-0.220227
-0.203562
-0.188731
-0.175635
-0.164184
-0.154296
-0.145898
-0.138925
-0.133317
13.123
12.9287
12.8181
12.3836
11.9965
11.2896
10.6255
9.67245
8.75003
7.62354
6.51065
5.33237
4.15014
3.05729
1.9452
1.04434
0.113255
-0.55163
-1.25218
-1.69982
-2.18207
-2.46214
-2.77082
-2.93316
-3.11651
-3.19921
-3.29616
-3.32542
-3.36378
-3.35692
-3.35561
-3.32405
-3.29573
-3.24717
-3.20039
-3.14021
-3.08094
-3.01303
-2.94553
-2.87283
-2.80023
-2.72496
-2.64963
-2.57351
-2.49723
-2.42157
-2.34569
-2.27147
-2.19701
-2.12495
-2.05263
-1.98326
-1.91361
-1.84726
-1.78064
-1.71754
-1.65416
-1.59441
-1.53441
-1.47805
-1.42144
-1.36846
-1.31524
-1.26556
-1.21566
-1.1692
-1.12251
-1.07915
-1.03557
-0.995176
-0.954576
-0.917002
-0.879239
-0.844346
-0.809276
-0.77692
-0.744397
-0.714434
-0.684315
-0.656606
-0.62875
-0.603158
-0.57743
-0.553826
-0.530095
-0.508355
-0.486497
-0.466504
-0.4464
-0.428043
-0.409583
-0.392759
-0.375838
-0.360449
-0.34497
-0.330926
-0.316798
-0.304014
-0.291153
-0.279552
-0.267879
-0.25739
-0.246833
-0.237389
-0.227883
-0.219423
-0.210906
-0.203376
-0.195793
-0.189142
-0.182442
-0.176625
-0.170762
-0.165738
-0.160671
-0.156401
-0.152093
-0.148546
-0.144964
-0.14211
-0.139222
13.2638
12.9569
12.1309
10.7579
8.88852
6.66492
4.32317
2.1285
0.290194
-1.09777
-2.05925
-2.68111
-3.05687
-3.26164
-3.34912
-3.35599
-3.30709
-3.21951
-3.10533
-2.97334
-2.83009
-2.68056
-2.52851
-2.37682
-2.22763
-2.0825
-1.94254
-1.80852
-1.68092
-1.56
-1.44586
-1.33848
-1.23774
-1.14346
-1.05542
-0.973364
-0.89701
-0.826076
-0.760274
-0.699318
-0.642928
-0.59083
-0.542765
-0.498482
-0.457746
-0.420333
-0.386033
-0.354649
-0.326
-0.299914
-0.276234
-0.254815
-0.235523
-0.218236
-0.202841
-0.189236
-0.177328
-0.167033
-0.158277
-0.150991
-0.145115
13.4111
13.2161
13.1024
12.6648
12.2722
11.5645
10.897
9.95046
9.0327
7.92119
6.82265
5.66141
4.49674
3.41216
2.30982
1.4009
0.46386
-0.224776
-0.946716
-1.42668
-1.93927
-2.25279
-2.59366
-2.78614
-2.99902
-3.10678
-3.22857
-3.27755
-3.33565
-3.34367
-3.35736
-3.33663
-3.31928
-3.27834
-3.23931
-3.18429
-3.13028
-3.0657
-3.0016
-2.93087
-2.86031
-2.78604
-2.71176
-2.63594
-2.56
-2.48415
-2.40811
-2.33335
-2.25836
-2.18552
-2.11243
-2.04211
-1.97152
-1.90411
-1.83643
-1.7722
-1.70769
-1.64678
-1.5856
-1.52806
-1.47027
-1.41611
-1.3617
-1.31087
-1.2598
-1.2122
-1.16438
-1.11992
-1.07524
-1.03378
-0.992117
-0.953529
-0.914745
-0.878885
-0.842841
-0.809565
-0.776116
-0.745282
-0.714287
-0.685755
-0.657071
-0.630705
-0.604197
-0.579866
-0.555403
-0.532982
-0.510437
-0.489807
-0.469062
-0.450111
-0.431054
-0.413676
-0.396199
-0.380297
-0.364302
-0.349782
-0.335176
-0.321953
-0.30865
-0.296645
-0.284566
-0.273705
-0.262775
-0.252991
-0.243143
-0.234374
-0.225546
-0.217735
-0.209869
-0.202965
-0.19601
-0.189966
-0.183875
-0.178648
-0.173377
-0.16893
-0.164442
-0.16074
-0.157001
-0.154014
-0.150992
13.5592
13.2487
12.4145
11.0373
9.17783
6.98038
4.66886
2.48857
0.634727
-0.798035
-1.82109
-2.50759
-2.94227
-3.19641
-3.32295
-3.35938
-3.33201
-3.25956
-3.15559
-3.03013
-2.89074
-2.74312
-2.5916
-2.43947
-2.28914
-2.14239
-2.0005
-1.86433
-1.73445
-1.61117
-1.49465
-1.3849
-1.28182
-1.18527
-1.09502
-1.01084
-0.93245
-0.859575
-0.791929
-0.729227
-0.671188
-0.617538
-0.568016
-0.522368
-0.480356
-0.441753
-0.406346
-0.373935
-0.344334
-0.317369
-0.29288
-0.270719
-0.250747
-0.23284
-0.216883
-0.202771
-0.190408
-0.179709
-0.170595
-0.162999
-0.156856
13.7144
13.5188
13.4021
12.9618
12.5639
11.8552
11.1844
10.2429
9.32858
8.22887
7.14154
5.99307
4.84165
3.76184
2.66562
1.74719
0.802586
0.090568
-0.652585
-1.1638
-1.70578
-2.05177
-2.42388
-2.64577
-2.88744
-3.01973
-3.16584
-3.23415
-3.31157
-3.33416
-3.3625
-3.35233
-3.34566
-3.31209
-3.28057
-3.23047
-3.18151
-3.12005
-3.05916
-2.99024
-2.92155
-2.84815
-2.77477
-2.69915
-2.62343
-2.5473
-2.47099
-2.39563
-2.32004
-2.24637
-2.17244
-2.10113
-2.02954
-1.96104
-1.89227
-1.82688
-1.76122
-1.69912
-1.63675
-1.57802
-1.51902
-1.46368
-1.40808
-1.35607
-1.30383
-1.2551
-1.20613
-1.16056
-1.11477
-1.07226
-1.02953
-0.989923
-0.950119
-0.913291
-0.876273
-0.842078
-0.807706
-0.776002
-0.744131
-0.714778
-0.685269
-0.65813
-0.630845
-0.605789
-0.580596
-0.557495
-0.534267
-0.513002
-0.491619
-0.472076
-0.452423
-0.434495
-0.416464
-0.40005
-0.383541
-0.368548
-0.353466
-0.339806
-0.326064
-0.313656
-0.301172
-0.289941
-0.27864
-0.268518
-0.25833
-0.249253
-0.240114
-0.232024
-0.223877
-0.216721
-0.209512
-0.203242
-0.196923
-0.191495
-0.186022
-0.181397
-0.17673
-0.172874
-0.168979
-0.165859
-0.162703
13.8705
13.5566
12.7145
11.3327
9.48026
7.30268
5.0131
2.84028
0.967769
-0.509504
-1.59236
-2.34167
-2.83384
-3.13629
-3.30106
-3.36635
-3.35992
-3.30206
-3.20783
-3.08849
-2.9526
-2.8066
-2.65539
-2.50261
-2.351
-2.20252
-2.0586
-1.92021
-1.78798
-1.66231
-1.54337
-1.43123
-1.3258
-1.22696
-1.1345
-1.04818
-0.967757
-0.892941
-0.823453
-0.759007
-0.699323
-0.644126
-0.593151
-0.546142
-0.502859
-0.463071
-0.426561
-0.393127
-0.362579
-0.33474
-0.309446
-0.286544
-0.265896
-0.247373
-0.230856
-0.216239
-0.203424
-0.192322
-0.182853
-0.174946
-0.168538
14.0341
13.838
13.7185
13.2754
12.8724
12.1622
11.4878
10.5498
9.63749
8.54644
7.46722
6.32754
5.18535
4.10701
3.01349
2.08402
1.13017
0.39489
-0.369547
-0.911172
-1.48183
-1.8594
-2.26192
-2.51254
-2.7823
-2.93861
-3.10848
-3.19569
-3.292
-3.32879
-3.37142
-3.37149
-3.37518
-3.3487
-3.32438
-3.27898
-3.2348
-3.17626
-3.11836
-3.05107
-2.98406
-2.91138
-2.83875
-2.76321
-2.68758
-2.61108
-2.53441
-2.45836
-2.38209
-2.30752
-2.23269
-2.16034
-2.08772
-2.01809
-1.94818
-1.88161
-1.81476
-1.75145
-1.68787
-1.62793
-1.56772
-1.51117
-1.45436
-1.40118
-1.34775
-1.29788
-1.24776
-1.20109
-1.15419
-1.11061
-1.06681
-1.02619
-0.985361
-0.947565
-0.909575
-0.874462
-0.839165
-0.806593
-0.773849
-0.743677
-0.713343
-0.685434
-0.657374
-0.631594
-0.605673
-0.581896
-0.557987
-0.536089
-0.514069
-0.493937
-0.47369
-0.455214
-0.436631
-0.419709
-0.402688
-0.387223
-0.371667
-0.357573
-0.343392
-0.330584
-0.317697
-0.306099
-0.294427
-0.283968
-0.273442
-0.264058
-0.254611
-0.246243
-0.237816
-0.230409
-0.222947
-0.216452
-0.209906
-0.204278
-0.198603
-0.193802
-0.188957
-0.184947
-0.180897
-0.177645
-0.174355
14.199
13.8817
13.0318
11.6442
9.79562
7.6317
5.35628
3.18438
1.28991
-0.232045
-1.37335
-2.18385
-2.73216
-3.08183
-3.28392
-3.37729
-3.3911
-3.34723
-3.2622
-3.14854
-3.01576
-2.87107
-2.7199
-2.56628
-2.41322
-2.26288
-2.11683
-1.97614
-1.84151
-1.7134
-1.59202
-1.47745
-1.36966
-1.26851
-1.17383
-1.08538
-1.00292
-0.926163
-0.854834
-0.788648
-0.727323
-0.670582
-0.618159
-0.569795
-0.525245
-0.484277
-0.44667
-0.412217
-0.380727
-0.352017
-0.325921
-0.302284
-0.280963
-0.261825
-0.244752
-0.229633
-0.216367
-0.204864
-0.195042
-0.186827
-0.180153
14.3716
14.175
14.0527
13.6067
13.1986
12.4862
11.8076
10.8713
9.95934
8.87385
7.79967
6.665
5.52822
4.44818
3.35413
2.41201
1.44717
0.688501
-0.0974749
-0.668882
-1.26768
-1.67609
-2.10828
-2.38698
-2.68417
-2.86395
-3.05702
-3.1627
-3.2774
-3.328
-3.38449
-3.39445
-3.40812
-3.38842
-3.37098
-3.32999
-3.29032
-3.23445
-3.1793
-3.11345
-3.04792
-2.9758
-2.90376
-2.82816
-2.75249
-2.67551
-2.59837
-2.52155
-2.44451
-2.36898
-2.2932
-2.21975
-2.14604
-2.07524
-2.00416
-1.93638
-1.86831
-1.80377
-1.73895
-1.67778
-1.61633
-1.55858
-1.50055
-1.44618
-1.39156
-1.34053
-1.28926
-1.24148
-1.19346
-1.14881
-1.10394
-1.06231
-1.02046
-0.981695
-0.942731
-0.906701
-0.870482
-0.837043
-0.803426
-0.772436
-0.741281
-0.712603
-0.68377
-0.657269
-0.630623
-0.606171
-0.581583
-0.559055
-0.536402
-0.515682
-0.494845
-0.475822
-0.45669
-0.439261
-0.421731
-0.405798
-0.38977
-0.375242
-0.360626
-0.347419
-0.334131
-0.322167
-0.310127
-0.299334
-0.28847
-0.278782
-0.269027
-0.260383
-0.251677
-0.24402
-0.236307
-0.229588
-0.222817
-0.21699
-0.211114
-0.206137
-0.201115
-0.196952
-0.192747
-0.189363
-0.185941
14.5459
14.2255
13.3672
11.9725
10.1241
7.9677
5.69904
3.52178
1.60194
0.0347027
-1.1641
-2.03448
-2.63768
-3.03349
-3.27197
-3.39259
-3.42588
-3.39532
-3.31891
-3.21043
-3.08036
-2.93665
-2.78524
-2.63056
-2.47588
-2.32355
-2.17526
-2.03218
-1.8951
-1.76449
-1.64063
-1.52361
-1.41343
-1.30997
-1.21305
-1.12247
-1.03796
-0.959265
-0.886096
-0.818171
-0.755207
-0.696926
-0.643058
-0.593342
-0.54753
-0.505386
-0.466686
-0.431219
-0.398789
-0.369213
-0.342319
-0.317949
-0.295958
-0.27621
-0.258583
-0.242963
-0.229249
-0.217347
-0.207172
-0.19865
-0.191712
14.7284
14.5313
14.4063
13.957
13.5435
12.8279
12.1444
11.2079
10.2944
9.2114
8.13921
7.00595
5.87092
4.78615
3.6884
2.73197
1.75431
0.971948
0.163937
-0.436798
-1.06344
-1.50203
-1.96334
-2.26949
-2.59352
-2.79625
-3.01198
-3.13564
-3.26824
-3.33222
-3.40212
-3.42158
-3.44482
-3.43155
-3.42062
-3.38375
-3.34827
-3.29483
-3.24217
-3.17754
-3.11328
-3.04154
-2.9699
-2.89411
-2.81826
-2.74069
-2.66296
-2.58529
-2.50739
-2.43083
-2.35401
-2.27943
-2.20456
-2.13256
-2.06026
-1.99123
-1.92191
-1.85612
-1.79004
-1.72762
-1.66492
-1.60593
-1.54667
-1.49111
-1.43528
-1.3831
-1.33066
-1.28176
-1.23262
-1.18691
-1.14096
-1.09831
-1.05543
-1.0157
-0.975764
-0.938817
-0.901675
-0.867369
-0.832881
-0.801075
-0.769098
-0.739653
-0.710048
-0.682828
-0.655459
-0.630334
-0.60507
-0.581914
-0.558628
-0.537323
-0.515898
-0.496331
-0.476652
-0.458719
-0.44068
-0.42428
-0.407783
-0.392824
-0.377774
-0.364171
-0.350483
-0.338155
-0.325748
-0.314622
-0.303423
-0.293431
-0.283371
-0.274451
-0.265468
-0.257562
-0.249599
-0.242657
-0.235662
-0.229636
-0.223561
-0.218408
-0.21321
-0.208894
-0.204535
-0.20102
-0.197465
14.9128
14.5891
13.7217
12.3178
10.4658
8.31078
6.04173
3.85302
1.90425
0.290776
-0.964937
-1.89407
-2.55099
-2.99185
-3.26569
-3.41262
-3.46456
-3.44656
-3.37814
-3.27429
-3.14649
-3.00338
-2.85144
-2.69548
-2.53899
-2.38452
-2.23389
-2.08834
-1.94872
-1.81557
-1.68919
-1.5697
-1.45711
-1.35131
-1.25216
-1.15943
-1.07287
-0.992232
-0.917223
-0.847561
-0.782961
-0.723143
-0.667834
-0.616771
-0.569702
-0.526386
-0.486597
-0.45012
-0.416756
-0.386317
-0.358628
-0.33353
-0.310871
-0.290516
-0.272337
-0.25622
-0.24206
-0.22976
-0.219235
-0.210406
-0.203204
15.1057
14.9079
14.7804
14.3272
13.9079
13.1879
12.4984
11.5597
10.6428
9.55914
8.48591
7.35056
6.21374
5.12128
4.01678
3.0443
2.05194
1.24542
0.414736
-0.215057
-0.869393
-1.33762
-1.82757
-2.16062
-2.51093
-2.73606
-2.97388
-3.11501
-3.26499
-3.34187
-3.42468
-3.4532
-3.48557
-3.47835
-3.47354
-3.44046
-3.40882
-3.35754
-3.30706
-3.24343
-3.1802
-3.10866
-3.03724
-2.96111
-2.88492
-2.80664
-2.72821
-2.64959
-2.57074
-2.49308
-2.41515
-2.33937
-2.26329
-2.19004
-2.11647
-2.04617
-1.97556
-1.90849
-1.84112
-1.77744
-1.71346
-1.65323
-1.59272
-1.53595
-1.47891
-1.42556
-1.37194
-1.32193
-1.27166
-1.22488
-1.17786
-1.13418
-1.09028
-1.04958
-1.00866
-0.9708
-0.932735
-0.897563
-0.862205
-0.829584
-0.796788
-0.766577
-0.736202
-0.708265
-0.680175
-0.654379
-0.62844
-0.604658
-0.580743
-0.558855
-0.536843
-0.516735
-0.496511
-0.478075
-0.459531
-0.442666
-0.425701
-0.410313
-0.394832
-0.380833
-0.366748
-0.354057
-0.341286
-0.329828
-0.318296
-0.308001
-0.297637
-0.288443
-0.279184
-0.271031
-0.262819
-0.255655
-0.248437
-0.242213
-0.235939
-0.230613
-0.225239
-0.22077
-0.216258
-0.212613
-0.208924
15.3007
14.974
14.0961
12.6807
10.8209
8.66113
6.38473
4.17859
2.19722
0.536231
-0.776127
-1.7631
-2.47264
-2.95743
-3.26557
-3.43779
-3.50744
-3.50119
-3.44004
-3.34024
-3.21422
-3.07133
-2.91857
-2.76106
-2.60258
-2.44583
-2.29273
-2.14462
-2.00241
-1.86666
-1.73771
-1.61571
-1.50069
-1.39255
-1.29114
-1.19625
-1.10765
-1.02507
-0.948216
-0.876818
-0.810585
-0.749233
-0.692488
-0.640082
-0.591759
-0.547276
-0.506402
-0.46892
-0.434625
-0.403328
-0.374849
-0.349025
-0.325703
-0.304742
-0.286015
-0.269403
-0.254798
-0.242104
-0.231229
-0.222096
-0.21463
15.5038
15.3063
15.1762
14.7185
14.2925
13.567
12.8701
11.9271
11.0046
9.91739
8.83995
7.69921
6.55706
5.45407
4.33974
3.34946
2.34045
1.50913
0.654994
-0.00375889
-0.685767
-1.18325
-1.70142
-2.06088
-2.4369
-2.68393
-2.94324
-3.10135
-3.26809
-3.3574
-3.45254
-3.4897
-3.53066
-3.5291
-3.52994
-3.50031
-3.47213
-3.42272
-3.37411
-3.31125
-3.24878
-3.17725
-3.10584
-3.02921
-2.95252
-2.87342
-2.79415
-2.71449
-2.63459
-2.55575
-2.47663
-2.3996
-2.32225
-2.2477
-2.17282
-2.10121
-2.02928
-1.9609
-1.89221
-1.82724
-1.76196
-1.70048
-1.6387
-1.58072
-1.52245
-1.46792
-1.41313
-1.36199
-1.31059
-1.26273
-1.21462
-1.16992
-1.12499
-1.08332
-1.04143
-1.00265
-0.963661
-0.927624
-0.891396
-0.85796
-0.824346
-0.793371
-0.762229
-0.733576
-0.704767
-0.678301
-0.65169
-0.627284
-0.602743
-0.580273
-0.557678
-0.537029
-0.516264
-0.497326
-0.47828
-0.460952
-0.443522
-0.427706
-0.411796
-0.397404
-0.382924
-0.369872
-0.356738
-0.34495
-0.333086
-0.32249
-0.311824
-0.302356
-0.292824
-0.284424
-0.275965
-0.26858
-0.261139
-0.254719
-0.248248
-0.242747
-0.2372
-0.232578
-0.227915
-0.224138
-0.220316
15.711
15.3815
14.4916
13.0618
11.1896
9.0189
6.7282
4.49862
2.4808
0.770727
-0.598269
-1.64229
-2.40337
-2.93091
-3.27213
-3.46851
-3.55484
-3.55943
-3.50479
-3.4084
-3.28364
-3.14057
-2.98664
-2.82735
-2.66667
-2.50748
-2.3518
-2.20103
-2.05615
-1.91775
-1.78619
-1.66166
-1.54418
-1.43367
-1.33
-1.23295
-1.14229
-1.05776
-0.979071
-0.905938
-0.838074
-0.775193
-0.717015
-0.663269
-0.613698
-0.568053
-0.526099
-0.487616
-0.452395
-0.420243
-0.390977
-0.364431
-0.340449
-0.318887
-0.299614
-0.28251
-0.267463
-0.254375
-0.243154
-0.233716
-0.225981
10.4939
10.3604
10.274
9.96489
9.67824
9.19031
8.72281
8.09117
7.47398
6.74722
6.02719
5.26428
4.50005
3.76
3.01149
2.34297
1.66064
1.09441
0.511409
0.0579167
-0.412669
-0.758894
-1.12034
-1.37302
-1.63791
-1.81311
-1.99739
-2.11052
-2.23004
-2.29474
-2.36375
-2.39159
-2.4222
-2.42263
-2.42478
-2.40534
-2.38692
-2.35352
-2.32066
-2.2778
-2.23517
-2.18623
-2.13733
-2.08482
-2.03223
-1.97799
-1.9236
-1.86897
-1.81414
-1.76007
-1.70578
-1.65295
-1.59988
-1.54875
-1.49739
-1.44828
-1.39893
-1.35204
-1.30491
-1.26036
-1.21558
-1.17341
-1.13102
-1.09125
-1.05127
-1.01387
-0.976272
-0.941187
-0.905914
-0.873076
-0.84006
-0.809386
-0.778545
-0.749945
-0.721187
-0.694566
-0.667796
-0.643055
-0.618176
-0.595217
-0.572129
-0.550856
-0.529462
-0.509779
-0.489984
-0.4718
-0.453512
-0.436739
-0.419869
-0.404424
-0.388887
-0.37469
-0.360408
-0.347383
-0.33428
-0.322357
-0.310362
-0.299477
-0.288523
-0.278614
-0.26864
-0.259649
-0.250599
-0.242474
-0.234294
-0.226986
-0.219628
-0.213093
-0.206511
-0.200709
-0.194863
-0.189755
-0.184607
-0.18016
-0.175676
-0.17186
-0.168008
-0.164794
-0.161545
-0.158914
-0.156231
5.16932
5.0594
4.75839
4.27629
3.64698
2.91889
2.15139
1.40424
0.727199
0.152453
-0.308077
-0.65878
-0.913047
-1.08726
-1.19746
-1.25797
-1.28093
-1.27621
-1.25167
-1.21338
-1.16593
-1.11275
-1.05637
-0.998603
-0.940772
-0.883802
-0.828341
-0.774829
-0.723557
-0.674703
-0.628364
-0.584575
-0.543327
-0.504579
-0.468267
-0.434309
-0.402612
-0.373078
-0.345601
-0.320077
-0.2964
-0.274469
-0.254182
-0.235444
-0.218161
-0.202247
-0.187617
-0.174194
-0.161904
-0.15068
-0.140456
-0.131175
-0.122781
-0.115224
-0.108458
-0.102441
-0.0971334
-0.0925011
-0.0885115
-0.0851347
-0.0823425
5.27973
5.21314
5.16761
5.00899
4.86019
4.60976
4.36839
4.04442
3.72692
3.35444
2.98519
2.59441
2.20347
1.82447
1.44226
1.09989
0.751987
0.462164
0.165455
-0.0661419
-0.304916
-0.480818
-0.663268
-0.790458
-0.923043
-1.0099
-1.10088
-1.15555
-1.21322
-1.24293
-1.27476
-1.28563
-1.29796
-1.29499
-1.29299
-1.28012
-1.26789
-1.24817
-1.22886
-1.20461
-1.1806
-1.15352
-1.12659
-1.09795
-1.06937
-1.04008
-1.01081
-0.98151
-0.952205
-0.92337
-0.894504
-0.866451
-0.838352
-0.811298
-0.78419
-0.758279
-0.732307
-0.707625
-0.682879
-0.659474
-0.636003
-0.613889
-0.591711
-0.570884
-0.549993
-0.530432
-0.510808
-0.492478
-0.474087
-0.456948
-0.439749
-0.423753
-0.407699
-0.392795
-0.377836
-0.363971
-0.350055
-0.337176
-0.324248
-0.312302
-0.30031
-0.289245
-0.278136
-0.267902
-0.257626
-0.248172
-0.23868
-0.229962
-0.221207
-0.213178
-0.205116
-0.197736
-0.190324
-0.183553
-0.176752
-0.170553
-0.164326
-0.158664
-0.152976
-0.147819
-0.142638
-0.137956
-0.133252
-0.129018
-0.124763
-0.120952
-0.117121
-0.113708
-0.110277
-0.107242
-0.10419
-0.101513
-0.0988209
-0.0964847
-0.0941338
-0.0921217
-0.0900962
-0.0883933
-0.0866778
-0.0852733
-0.0838506
5.38996
5.27556
4.96173
4.46025
3.80665
3.05131
2.25541
1.48017
0.776702
0.178413
-0.301778
-0.667769
-0.933044
-1.11451
-1.22898
-1.29153
-1.31498
-1.30975
-1.28409
-1.24433
-1.19526
-1.14041
-1.08236
-1.02299
-0.963621
-0.90519
-0.848349
-0.793537
-0.741043
-0.691043
-0.643629
-0.598835
-0.556649
-0.517026
-0.479898
-0.44518
-0.412778
-0.382586
-0.354501
-0.328412
-0.304212
-0.281797
-0.261063
-0.241911
-0.224246
-0.20798
-0.193026
-0.179306
-0.166743
-0.155268
-0.144815
-0.135325
-0.126741
-0.119013
-0.112092
-0.105936
-0.100504
-0.0957623
-0.0916767
-0.0882166
-0.0853544
5.50023
5.43174
5.38358
5.21901
5.06334
4.80359
4.55218
4.21633
3.88644
3.50045
3.11749
2.71245
2.30739
1.91415
1.51812
1.16224
0.801437
0.499499
0.19138
-0.0503792
-0.298644
-0.482465
-0.672287
-0.805179
-0.943072
-1.03369
-1.12817
-1.18504
-1.24477
-1.27554
-1.30834
-1.31948
-1.33203
-1.32881
-1.32654
-1.31311
-1.30032
-1.27987
-1.25982
-1.23475
-1.20993
-1.18202
-1.15424
-1.12477
-1.09537
-1.06527
-1.03519
-1.00512
-0.975049
-0.945482
-0.915887
-0.887141
-0.858354
-0.830649
-0.802892
-0.776368
-0.749787
-0.72453
-0.699213
-0.675268
-0.651262
-0.628645
-0.605966
-0.584669
-0.563311
-0.54331
-0.52325
-0.504511
-0.485714
-0.468193
-0.450616
-0.434265
-0.41786
-0.402626
-0.387341
-0.37317
-0.358951
-0.345788
-0.33258
-0.320371
-0.308119
-0.296811
-0.285461
-0.275002
-0.264503
-0.254842
-0.245144
-0.236234
-0.227289
-0.219084
-0.210847
-0.203305
-0.195732
-0.188811
-0.181862
-0.175526
-0.169163
-0.163375
-0.157562
-0.152291
-0.146996
-0.142209
-0.137401
-0.133072
-0.128723
-0.124825
-0.120908
-0.117418
-0.11391
-0.110805
-0.107684
-0.104945
-0.102191
-0.0997991
-0.0973937
-0.0953333
-0.0932601
-0.0915153
-0.0897584
-0.0883175
-0.0868611
5.61025
5.49132
5.16467
4.64386
3.96603
3.1835
2.35923
1.55596
0.82611
0.204316
-0.295524
-0.676809
-0.9531
-1.14183
-1.26055
-1.32514
-1.34907
-1.34332
-1.31653
-1.2753
-1.22459
-1.16806
-1.10836
-1.04737
-0.986462
-0.926568
-0.868345
-0.812233
-0.758517
-0.70737
-0.658883
-0.613085
-0.569961
-0.529463
-0.49152
-0.456043
-0.422934
-0.392087
-0.363393
-0.33674
-0.312018
-0.289119
-0.267937
-0.248372
-0.230326
-0.213709
-0.198431
-0.184413
-0.171577
-0.159852
-0.149171
-0.139473
-0.130699
-0.122799
-0.115723
-0.109428
-0.103873
-0.0990211
-0.0948395
-0.0912961
-0.0883636
5.72041
5.64992
5.59919
5.42859
5.26611
4.99702
4.73564
4.38792
4.0457
3.64622
3.24958
2.83033
2.41112
2.00373
1.59383
1.22454
0.850788
0.536838
0.217242
-0.0345962
-0.292425
-0.484104
-0.681362
-0.819915
-0.963167
-1.05751
-1.15553
-1.21459
-1.27638
-1.3082
-1.34198
-1.35338
-1.36615
-1.36267
-1.36013
-1.34614
-1.33276
-1.31158
-1.2908
-1.26491
-1.23927
-1.21051
-1.1819
-1.15159
-1.12136
-1.09045
-1.05957
-1.02873
-0.997886
-0.967587
-0.93726
-0.907824
-0.878346
-0.849989
-0.821582
-0.794447
-0.767255
-0.741425
-0.715535
-0.691054
-0.666511
-0.643392
-0.620211
-0.598444
-0.576617
-0.556179
-0.535682
-0.516535
-0.49733
-0.47943
-0.461474
-0.44477
-0.428013
-0.412451
-0.396838
-0.382363
-0.367839
-0.354395
-0.340904
-0.328435
-0.315921
-0.304371
-0.29278
-0.282097
-0.271375
-0.261507
-0.251603
-0.242502
-0.233367
-0.224986
-0.216573
-0.208869
-0.201134
-0.194065
-0.186968
-0.180495
-0.173995
-0.168082
-0.162145
-0.156759
-0.15135
-0.146459
-0.141547
-0.137123
-0.132679
-0.128695
-0.124693
-0.121125
-0.11754
-0.114365
-0.111175
-0.108374
-0.105558
-0.103111
-0.100651
-0.0985428
-0.0964217
-0.0946352
-0.0928367
-0.0913597
-0.089869
5.83031
5.70677
5.36727
4.82718
4.12516
3.31548
2.46288
1.6316
0.875406
0.230137
-0.289338
-0.68592
-0.973234
-1.16923
-1.29221
-1.35881
-1.38321
-1.37693
-1.34899
-1.30628
-1.25394
-1.19572
-1.13435
-1.07175
-1.00929
-0.947937
-0.888332
-0.830918
-0.77598
-0.723687
-0.674127
-0.627325
-0.583263
-0.54189
-0.503132
-0.466897
-0.433083
-0.401581
-0.372278
-0.345061
-0.319817
-0.296435
-0.274806
-0.254828
-0.236402
-0.219433
-0.203832
-0.189517
-0.176408
-0.164433
-0.153524
-0.143617
-0.134654
-0.126582
-0.119352
-0.112918
-0.107239
-0.102277
-0.098
-0.0943733
-0.0913703
5.94038
5.86778
5.81452
5.63784
5.46857
5.19013
4.91884
4.55923
4.20473
3.79176
3.38147
2.94804
2.51469
2.09319
1.66939
1.28676
0.900017
0.574126
0.243009
-0.0188484
-0.286288
-0.485782
-0.690522
-0.834705
-0.983351
-1.0814
-1.18298
-1.2442
-1.30808
-1.34092
-1.37569
-1.38732
-1.40032
-1.39657
-1.39376
-1.37919
-1.36524
-1.34331
-1.32178
-1.29508
-1.26862
-1.23902
-1.20956
-1.17842
-1.14735
-1.11563
-1.08394
-1.05233
-1.02071
-0.989684
-0.958624
-0.928497
-0.898327
-0.869321
-0.840262
-0.812516
-0.784713
-0.75831
-0.731846
-0.706829
-0.681749
-0.658128
-0.634445
-0.61221
-0.589914
-0.569039
-0.548104
-0.52855
-0.508938
-0.490659
-0.472324
-0.455267
-0.438157
-0.422268
-0.406327
-0.391549
-0.376721
-0.362995
-0.349222
-0.336492
-0.323717
-0.311926
-0.300093
-0.289186
-0.278241
-0.268167
-0.258057
-0.248765
-0.23944
-0.230883
-0.222295
-0.214429
-0.206533
-0.199315
-0.192069
-0.18546
-0.178824
-0.172786
-0.166724
-0.161224
-0.155701
-0.150706
-0.14569
-0.141171
-0.136633
-0.132563
-0.128475
-0.12483
-0.121167
-0.117923
-0.114663
-0.1118
-0.108923
-0.106421
-0.103906
-0.10175
-0.0995811
-0.097753
-0.0959128
-0.0943999
-0.0928743
6.05021
5.92198
5.56959
5.01026
4.28409
3.44728
2.56635
1.70708
0.924566
0.255847
-0.283254
-0.695132
-0.993469
-1.19673
-1.32395
-1.39255
-1.41741
-1.41057
-1.38148
-1.33728
-1.28329
-1.22338
-1.16033
-1.09612
-1.03212
-0.969296
-0.908308
-0.849593
-0.793432
-0.739993
-0.689359
-0.641554
-0.596555
-0.554308
-0.514735
-0.477742
-0.443223
-0.411066
-0.381156
-0.353376
-0.32761
-0.303745
-0.281669
-0.261279
-0.242472
-0.225152
-0.209229
-0.194616
-0.181235
-0.169011
-0.157873
-0.147758
-0.138606
-0.130363
-0.122978
-0.116405
-0.110602
-0.105531
-0.101158
-0.0974483
-0.0943743
6.16025
6.08541
6.02964
5.84681
5.67079
5.38298
5.10184
4.73032
4.36357
3.93712
3.51318
3.06558
2.61807
2.18249
1.74479
1.34885
0.949097
0.611312
0.268647
-0.0031872
-0.28027
-0.487546
-0.699799
-0.849584
-1.00365
-1.10538
-1.21053
-1.2739
-1.33987
-1.37372
-1.40947
-1.42133
-1.43455
-1.43052
-1.42743
-1.41227
-1.39774
-1.37507
-1.35279
-1.32526
-1.29798
-1.26753
-1.23722
-1.20524
-1.17333
-1.14081
-1.10831
-1.07593
-1.04353
-1.01177
-0.979979
-0.949162
-0.918298
-0.888643
-0.858932
-0.830576
-0.802159
-0.775185
-0.748147
-0.722594
-0.696976
-0.672855
-0.648669
-0.625967
-0.603201
-0.58189
-0.560517
-0.540557
-0.520537
-0.501879
-0.483164
-0.465756
-0.448293
-0.432077
-0.415809
-0.400727
-0.385595
-0.371588
-0.357534
-0.344542
-0.331507
-0.319474
-0.3074
-0.29627
-0.285102
-0.274822
-0.264505
-0.255023
-0.245507
-0.236776
-0.228012
-0.219985
-0.211927
-0.204561
-0.197167
-0.190421
-0.183649
-0.177487
-0.1713
-0.165686
-0.160048
-0.15495
-0.149829
-0.145216
-0.140583
-0.136428
-0.132254
-0.128532
-0.124792
-0.121479
-0.118149
-0.115224
-0.112285
-0.109729
-0.107159
-0.104955
-0.102738
-0.100869
-0.0989866
-0.0974379
-0.0958771
6.27007
6.13702
5.77171
5.19317
4.44284
3.57891
2.66965
1.78238
0.973558
0.281406
-0.277309
-0.704478
-1.01383
-1.22434
-1.35578
-1.42638
-1.45167
-1.44427
-1.41399
-1.36829
-1.31265
-1.25104
-1.18632
-1.12048
-1.05494
-0.990647
-0.928275
-0.868257
-0.810874
-0.756288
-0.704581
-0.655773
-0.609837
-0.566716
-0.526329
-0.488578
-0.453355
-0.420544
-0.390027
-0.361684
-0.335396
-0.311048
-0.288527
-0.267725
-0.248537
-0.230867
-0.214621
-0.199712
-0.186058
-0.173584
-0.162219
-0.151896
-0.142555
-0.134141
-0.126601
-0.11989
-0.113963
-0.108783
-0.104314
-0.100521
-0.0973758
6.38012
6.30289
6.24462
6.05559
5.87283
5.57564
5.28468
4.90122
4.52226
4.08231
3.64473
3.18295
2.72128
2.27162
1.81999
1.41078
0.997991
0.64835
0.294114
0.0123395
-0.274413
-0.489437
-0.709227
-0.864587
-1.02409
-1.12947
-1.23821
-1.3037
-1.37176
-1.4066
-1.44334
-1.45541
-1.46884
-1.46452
-1.46114
-1.44539
-1.43028
-1.40684
-1.38382
-1.35546
-1.32734
-1.29604
-1.26489
-1.23207
-1.19932
-1.16599
-1.13267
-1.09952
-1.06635
-1.03386
-1.00132
-0.969818
-0.93826
-0.907955
-0.877591
-0.848626
-0.819595
-0.79205
-0.764436
-0.738349
-0.712193
-0.687571
-0.662882
-0.639713
-0.616478
-0.594731
-0.57292
-0.552554
-0.532126
-0.513091
-0.493996
-0.476237
-0.458421
-0.441879
-0.425283
-0.409898
-0.394462
-0.380174
-0.365838
-0.352587
-0.33929
-0.327017
-0.3147
-0.303349
-0.291956
-0.281471
-0.270948
-0.261277
-0.25157
-0.242664
-0.233725
-0.225537
-0.217317
-0.209803
-0.20226
-0.195379
-0.188471
-0.182184
-0.175872
-0.170144
-0.164392
-0.15919
-0.153966
-0.149258
-0.14453
-0.14029
-0.13603
-0.132231
-0.128413
-0.125031
-0.121633
-0.118646
-0.115644
-0.113034
-0.11041
-0.108157
-0.105893
-0.103982
-0.102058
-0.100474
-0.0988773
6.48998
6.35195
5.97367
5.37595
4.60147
3.71038
2.77276
1.85748
1.02235
0.306773
-0.271546
-0.713995
-1.03435
-1.25209
-1.38774
-1.46029
-1.486
-1.47801
-1.44655
-1.39933
-1.34202
-1.27871
-1.21231
-1.14484
-1.07775
-1.01199
-0.948231
-0.886911
-0.828304
-0.772572
-0.719793
-0.669981
-0.623108
-0.579114
-0.537913
-0.499405
-0.463478
-0.430013
-0.39889
-0.369984
-0.343176
-0.318346
-0.295379
-0.274165
-0.254597
-0.236577
-0.220008
-0.204803
-0.190878
-0.178154
-0.166561
-0.156031
-0.146501
-0.137915
-0.130222
-0.123371
-0.117321
-0.112032
-0.107467
-0.103591
-0.100375
6.60011
6.52032
6.45954
6.26424
6.07475
5.76817
5.46743
5.072
4.68083
4.22735
3.77614
3.30015
2.8243
2.36056
1.89498
1.47251
1.04666
0.685198
0.319365
0.0276867
-0.268759
-0.491497
-0.718848
-0.879746
-1.0447
-1.15371
-1.26604
-1.33362
-1.40378
-1.43958
-1.47731
-1.48956
-1.50321
-1.49858
-1.49491
-1.47856
-1.46285
-1.43865
-1.41487
-1.38567
-1.35672
-1.32457
-1.29256
-1.2589
-1.22531
-1.19116
-1.15703
-1.1231
-1.08916
-1.05593
-1.02266
-0.990465
-0.958211
-0.927258
-0.896239
-0.866665
-0.83702
-0.808904
-0.780715
-0.754093
-0.727398
-0.702278
-0.677085
-0.65345
-0.629744
-0.607563
-0.585313
-0.564542
-0.543706
-0.524294
-0.504819
-0.486709
-0.46854
-0.451673
-0.434748
-0.419062
-0.403321
-0.388754
-0.374135
-0.360624
-0.347066
-0.334553
-0.321995
-0.310421
-0.298805
-0.288115
-0.277385
-0.267525
-0.257628
-0.248547
-0.239432
-0.231084
-0.222703
-0.215041
-0.207349
-0.200333
-0.193288
-0.186877
-0.18044
-0.174599
-0.168733
-0.163427
-0.158099
-0.153297
-0.148475
-0.144149
-0.139804
-0.135927
-0.132032
-0.128581
-0.125113
-0.122065
-0.119001
-0.116337
-0.113657
-0.111358
-0.109045
-0.107093
-0.105127
-0.103507
-0.101875
6.71007
6.56685
6.17556
5.55868
4.75999
3.84172
2.87569
1.93236
1.0709
0.3319
-0.26601
-0.723724
-1.05506
-1.28
-1.41982
-1.49431
-1.52041
-1.5118
-1.47914
-1.43039
-1.37141
-1.30638
-1.23829
-1.1692
-1.10055
-1.03332
-0.968177
-0.905554
-0.845724
-0.788846
-0.734993
-0.684178
-0.63637
-0.591502
-0.549488
-0.510224
-0.473593
-0.439475
-0.407745
-0.378278
-0.350949
-0.325637
-0.302225
-0.280599
-0.260652
-0.242282
-0.225391
-0.20989
-0.195693
-0.182721
-0.1709
-0.160162
-0.150444
-0.141687
-0.133839
-0.126851
-0.120677
-0.115279
-0.110618
-0.10666
-0.103371
6.82035
6.73778
6.67447
6.47284
6.27664
5.96065
5.65016
5.24269
4.83934
4.37227
3.90742
3.41719
2.92713
2.4493
1.96973
1.53401
1.09507
0.721813
0.344351
0.0428123
-0.26336
-0.493763
-0.728703
-0.895091
-1.06552
-1.17811
-1.29405
-1.36368
-1.43594
-1.47267
-1.51139
-1.5238
-1.53766
-1.53269
-1.52874
-1.51176
-1.49546
-1.47048
-1.44594
-1.4159
-1.38612
-1.3531
-1.32023
-1.28573
-1.25129
-1.21633
-1.18138
-1.14668
-1.11195
-1.078
-1.04399
-1.0111
-0.978152
-0.946551
-0.914876
-0.884694
-0.854434
-0.825748
-0.796982
-0.769827
-0.742593
-0.716974
-0.691277
-0.667176
-0.643
-0.620385
-0.597696
-0.576521
-0.555275
-0.535488
-0.515632
-0.497173
-0.47865
-0.461458
-0.444205
-0.428218
-0.412172
-0.397326
-0.382424
-0.368655
-0.354835
-0.342083
-0.329283
-0.317488
-0.305648
-0.294753
-0.283816
-0.273768
-0.26368
-0.254426
-0.245134
-0.236626
-0.228083
-0.220274
-0.212434
-0.205282
-0.198101
-0.191566
-0.185004
-0.17905
-0.173069
-0.167661
-0.162228
-0.157333
-0.152415
-0.148005
-0.143573
-0.13962
-0.135648
-0.132128
-0.128591
-0.125481
-0.122355
-0.119636
-0.116902
-0.114555
-0.112194
-0.110201
-0.108194
-0.106538
-0.104869
6.93049
6.7818
6.37744
5.7414
4.91847
3.97293
2.97842
2.00697
1.11916
0.356737
-0.260754
-0.733712
-1.076
-1.30811
-1.45207
-1.52845
-1.5549
-1.54566
-1.51177
-1.46148
-1.40081
-1.33406
-1.26428
-1.19355
-1.12335
-1.05465
-0.988114
-0.924186
-0.863132
-0.805108
-0.750182
-0.698365
-0.649621
-0.603881
-0.561054
-0.521033
-0.483699
-0.448929
-0.416593
-0.386564
-0.358716
-0.332922
-0.309065
-0.287029
-0.266702
-0.247982
-0.23077
-0.214973
-0.200505
-0.187284
-0.175235
-0.16429
-0.154383
-0.145456
-0.137454
-0.130327
-0.124031
-0.118523
-0.113767
-0.109726
-0.106365
7.04093
6.95525
6.88941
6.68135
6.4785
6.15305
5.83286
5.41327
4.99776
4.51703
4.03853
3.53402
3.02972
2.53778
2.04417
1.59523
1.14315
0.758148
0.369003
0.0576741
-0.258276
-0.496266
-0.738844
-0.91064
-1.08659
-1.20267
-1.32226
-1.39386
-1.46827
-1.50586
-1.54558
-1.5581
-1.57219
-1.56685
-1.56262
-1.54499
-1.5281
-1.50233
-1.47703
-1.44613
-1.41551
-1.38163
-1.3479
-1.31255
-1.27726
-1.24149
-1.20572
-1.17025
-1.13474
-1.10005
-1.0653
-1.03172
-0.998074
-0.965826
-0.933494
-0.902705
-0.871828
-0.842574
-0.81323
-0.785544
-0.757769
-0.731653
-0.705451
-0.680887
-0.656238
-0.633191
-0.610063
-0.588485
-0.56683
-0.546668
-0.526431
-0.507624
-0.488746
-0.471231
-0.45365
-0.437362
-0.421011
-0.405887
-0.390702
-0.376676
-0.362594
-0.349603
-0.33656
-0.324545
-0.312481
-0.301383
-0.290239
-0.280003
-0.269723
-0.260296
-0.250829
-0.242161
-0.233456
-0.225501
-0.217511
-0.210225
-0.202907
-0.196249
-0.189562
-0.183495
-0.1774
-0.171889
-0.166351
-0.161363
-0.156351
-0.151855
-0.147338
-0.143309
-0.139259
-0.135671
-0.132063
-0.128893
-0.125705
-0.122932
-0.120143
-0.117748
-0.115339
-0.113305
-0.111257
-0.109565
-0.107859
7.15142
6.99688
6.57943
5.92421
5.07695
4.10405
3.08095
2.0813
1.16708
0.381222
-0.25584
-0.744014
-1.09722
-1.33645
-1.4845
-1.56274
-1.5895
-1.5796
-1.54445
-1.4926
-1.43023
-1.36175
-1.29026
-1.2179
-1.14614
-1.07596
-1.00804
-0.942807
-0.880529
-0.821358
-0.76536
-0.71254
-0.66286
-0.616248
-0.572609
-0.531832
-0.493797
-0.458374
-0.425433
-0.394843
-0.366475
-0.340201
-0.315899
-0.293452
-0.272747
-0.253678
-0.236144
-0.220052
-0.205312
-0.191843
-0.179567
-0.168415
-0.15832
-0.149222
-0.141066
-0.133801
-0.127381
-0.121764
-0.116913
-0.11279
-0.109355
7.26223
7.17298
7.10463
6.88998
6.68061
6.34556
6.01577
5.58389
5.15629
4.66176
4.16962
3.65073
3.13215
2.62606
2.11834
1.6562
1.19087
0.794202
0.393274
0.0722556
-0.253573
-0.499032
-0.74934
-0.926425
-1.10798
-1.22744
-1.35074
-1.42422
-1.5008
-1.53918
-1.57995
-1.59251
-1.60685
-1.60109
-1.5966
-1.57828
-1.56081
-1.53421
-1.50817
-1.47639
-1.44494
-1.41018
-1.3756
-1.33939
-1.30325
-1.26666
-1.23007
-1.19382
-1.15752
-1.1221
-1.08661
-1.05235
-1.01799
-0.9851
-0.952109
-0.920715
-0.889218
-0.859398
-0.829474
-0.801258
-0.772939
-0.74633
-0.719619
-0.694594
-0.669471
-0.645995
-0.622424
-0.600446
-0.578379
-0.557844
-0.537225
-0.518072
-0.498838
-0.481001
-0.463089
-0.446503
-0.429846
-0.414445
-0.398976
-0.384694
-0.370348
-0.357121
-0.343834
-0.3316
-0.319311
-0.30801
-0.296658
-0.286235
-0.275764
-0.266165
-0.256521
-0.247694
-0.238827
-0.230726
-0.222586
-0.215167
-0.207711
-0.200931
-0.194118
-0.187939
-0.181729
-0.176116
-0.170473
-0.165392
-0.160284
-0.155705
-0.151101
-0.146996
-0.142869
-0.139212
-0.135535
-0.132304
-0.129053
-0.126227
-0.123382
-0.120941
-0.118483
-0.116409
-0.114319
-0.112592
-0.110847
7.37309
7.21221
6.78165
6.1072
5.23551
4.2351
3.18328
2.15531
1.21461
0.405282
-0.251345
-0.754704
-1.11877
-1.36506
-1.51715
-1.59719
-1.62422
-1.61362
-1.57719
-1.52376
-1.45967
-1.38945
-1.31625
-1.24225
-1.16892
-1.09727
-1.02796
-0.961416
-0.897914
-0.837595
-0.780524
-0.726703
-0.676088
-0.628604
-0.584153
-0.542621
-0.503883
-0.467809
-0.434263
-0.403113
-0.374226
-0.347472
-0.322726
-0.299868
-0.278785
-0.259367
-0.241512
-0.225125
-0.210114
-0.196397
-0.183895
-0.172535
-0.162252
-0.152984
-0.144674
-0.137271
-0.130728
-0.125003
-0.120056
-0.115851
-0.112342
7.48444
7.39092
7.32017
7.09867
6.88304
6.53813
6.19893
5.75451
5.31492
4.80641
4.30066
3.76727
3.23437
2.71409
2.19216
1.71687
1.23816
0.82994
0.417069
0.0865312
-0.249341
-0.502075
-0.760273
-0.942448
-1.12974
-1.2524
-1.37953
-1.45473
-1.53359
-1.57261
-1.6145
-1.627
-1.64165
-1.63539
-1.63067
-1.61161
-1.59359
-1.56613
-1.53935
-1.50666
-1.47439
-1.43873
-1.4033
-1.36622
-1.32924
-1.29182
-1.25441
-1.21738
-1.1803
-1.14415
-1.10791
-1.07296
-1.0379
-1.00437
-0.970711
-0.938715
-0.906596
-0.876213
-0.845704
-0.816963
-0.788097
-0.760997
-0.733775
-0.708292
-0.682692
-0.658789
-0.634773
-0.612399
-0.589916
-0.569013
-0.548007
-0.528511
-0.508919
-0.490764
-0.472519
-0.455638
-0.438672
-0.422996
-0.407241
-0.392705
-0.378095
-0.364633
-0.351101
-0.33865
-0.326134
-0.314633
-0.303071
-0.292463
-0.281799
-0.272029
-0.262207
-0.253224
-0.244192
-0.235947
-0.227657
-0.220105
-0.212511
-0.20561
-0.19867
-0.19238
-0.186054
-0.18034
-0.174592
-0.169419
-0.164215
-0.159552
-0.154862
-0.150681
-0.146475
-0.142751
-0.139003
-0.135712
-0.132399
-0.129519
-0.126619
-0.124131
-0.121624
-0.11951
-0.117378
-0.115616
-0.113833
7.59583
7.42796
6.98428
6.29051
5.39423
4.36613
3.28539
2.22895
1.26166
0.428817
-0.247373
-0.765877
-1.14075
-1.39403
-1.55007
-1.63184
-1.6591
-1.64774
-1.61001
-1.55496
-1.48914
-1.41716
-1.34224
-1.26659
-1.19169
-1.11856
-1.04786
-0.980012
-0.915284
-0.853819
-0.795675
-0.740852
-0.689302
-0.640947
-0.595685
-0.553398
-0.513959
-0.477233
-0.443084
-0.411374
-0.381968
-0.354734
-0.329545
-0.306278
-0.284817
-0.26505
-0.246875
-0.230193
-0.214912
-0.200946
-0.188218
-0.176652
-0.166181
-0.156742
-0.148279
-0.140738
-0.134073
-0.128238
-0.123196
-0.118909
-0.115325
7.70802
7.60911
7.53626
7.30738
7.08601
6.73077
6.3825
5.92512
5.47379
4.95096
4.43171
3.88363
3.33636
2.80188
2.26557
1.77723
1.28491
0.86536
0.440262
0.100503
-0.245713
-0.50539
-0.771765
-0.9587
-1.15199
-1.27755
-1.40872
-1.48538
-1.56669
-1.60616
-1.64929
-1.66157
-1.67661
-1.66975
-1.66486
-1.64497
-1.62644
-1.59807
-1.57057
-1.53695
-1.50388
-1.4673
-1.43102
-1.39306
-1.35524
-1.31699
-1.27875
-1.24094
-1.20307
-1.16619
-1.1292
-1.09357
-1.0578
-1.02362
-0.989298
-0.956708
-0.923957
-0.893019
-0.861919
-0.832659
-0.803239
-0.775655
-0.747915
-0.721982
-0.695898
-0.671575
-0.647108
-0.624343
-0.601441
-0.580174
-0.558777
-0.538944
-0.518988
-0.50052
-0.481937
-0.464766
-0.447487
-0.431542
-0.415497
-0.400711
-0.385832
-0.372139
-0.358359
-0.345694
-0.332948
-0.32125
-0.309477
-0.298687
-0.287827
-0.277889
-0.267887
-0.258749
-0.249552
-0.241164
-0.232722
-0.225039
-0.217306
-0.210285
-0.203217
-0.196817
-0.190375
-0.18456
-0.178706
-0.173442
-0.168141
-0.163397
-0.158618
-0.154364
-0.150078
-0.146288
-0.142469
-0.139118
-0.135741
-0.132809
-0.129852
-0.127319
-0.124763
-0.12261
-0.120435
-0.118639
-0.116814
7.82016
7.64437
7.1876
6.47434
5.55324
4.4972
3.38728
2.30215
1.30812
0.451683
-0.244075
-0.777679
-1.16327
-1.42345
-1.58335
-1.66677
-1.69416
-1.682
-1.64291
-1.58621
-1.51863
-1.44489
-1.36824
-1.29093
-1.21446
-1.13985
-1.06775
-0.998592
-0.932638
-0.870025
-0.810809
-0.754984
-0.7025
-0.653274
-0.607202
-0.564162
-0.524022
-0.486646
-0.451893
-0.419624
-0.389701
-0.361988
-0.336356
-0.31268
-0.290841
-0.270727
-0.252231
-0.235255
-0.219703
-0.205491
-0.192536
-0.180763
-0.170105
-0.160497
-0.15188
-0.144202
-0.137413
-0.13147
-0.126332
-0.121964
-0.118304
7.93372
7.82751
7.75325
7.51602
7.28989
6.92339
6.56675
6.09567
5.63307
5.0954
4.56285
3.99981
3.43813
2.88941
2.33848
1.83732
1.33097
0.900491
0.462669
0.114205
-0.242883
-0.508936
-0.784002
-0.975141
-1.17489
-1.30285
-1.43845
-1.51614
-1.60021
-1.63978
-1.68439
-1.6962
-1.71181
-1.70414
-1.6992
-1.67836
-1.6594
-1.63002
-1.60187
-1.56726
-1.53339
-1.49587
-1.45875
-1.41991
-1.38123
-1.34215
-1.30309
-1.2645
-1.22583
-1.18823
-1.15047
-1.11417
-1.07768
-1.04288
-1.00787
-0.974694
-0.941301
-0.909819
-0.878114
-0.848348
-0.818363
-0.790307
-0.762038
-0.735665
-0.709087
-0.684355
-0.659426
-0.636281
-0.612949
-0.591329
-0.569533
-0.54937
-0.529043
-0.51027
-0.491343
-0.473888
-0.456289
-0.440082
-0.423741
-0.408712
-0.393559
-0.37964
-0.365607
-0.352734
-0.339754
-0.327863
-0.315874
-0.304906
-0.293847
-0.283745
-0.273559
-0.26427
-0.254904
-0.246378
-0.23778
-0.22997
-0.222094
-0.214956
-0.207758
-0.201252
-0.19469
-0.188778
-0.182815
-0.177463
-0.172063
-0.167238
-0.16237
-0.158044
-0.153677
-0.149822
-0.14593
-0.142522
-0.13908
-0.136097
-0.133082
-0.130505
-0.127897
-0.125706
-0.123489
-0.121659
-0.11979
8.04696
7.8619
7.39207
6.65902
5.71278
4.62841
3.48894
2.3748
1.35381
0.473661
-0.241687
-0.790332
-1.18654
-1.45348
-1.61711
-1.70205
-1.72949
-1.71644
-1.67593
-1.61755
-1.54818
-1.47264
-1.39425
-1.31527
-1.23722
-1.16111
-1.08762
-1.01715
-0.949972
-0.886211
-0.825923
-0.769097
-0.715679
-0.665584
-0.618702
-0.574908
-0.534069
-0.496044
-0.460689
-0.427862
-0.397421
-0.36923
-0.343156
-0.319072
-0.296856
-0.276395
-0.25758
-0.24031
-0.224489
-0.210029
-0.196848
-0.18487
-0.174024
-0.164246
-0.155477
-0.147661
-0.14075
-0.134698
-0.129465
-0.125016
-0.121278
8.16285
8.046
7.97176
7.72436
7.4953
7.11585
6.75214
6.26605
5.79305
5.23965
4.69421
4.11577
3.53966
2.97672
2.41075
1.89717
1.3761
0.935412
0.483994
0.127733
-0.241164
-0.512617
-0.797282
-0.991678
-1.19871
-1.32821
-1.46893
-1.54694
-1.63432
-1.67342
-1.71993
-1.73084
-1.74732
-1.73854
-1.73377
-1.71176
-1.6925
-1.66198
-1.63325
-1.59756
-1.56296
-1.52444
-1.48651
-1.44675
-1.40724
-1.36732
-1.32742
-1.28806
-1.24858
-1.21026
-1.17173
-1.13477
-1.09753
-1.06213
-1.02641
-0.992677
-0.958619
-0.926614
-0.894286
-0.864034
-0.833462
-0.804954
-0.776136
-0.749343
-0.722253
-0.69713
-0.671723
-0.648214
-0.624437
-0.602479
-0.580268
-0.559792
-0.53908
-0.520016
-0.500731
-0.483006
-0.465076
-0.448618
-0.43197
-0.416709
-0.401272
-0.387138
-0.372842
-0.35977
-0.346548
-0.334473
-0.32226
-0.311121
-0.299857
-0.289598
-0.279222
-0.269788
-0.260248
-0.251588
-0.242831
-0.234898
-0.226876
-0.219625
-0.212293
-0.205684
-0.198999
-0.192994
-0.186918
-0.181481
-0.175979
-0.171078
-0.166117
-0.161721
-0.157271
-0.153354
-0.149386
-0.145924
-0.142414
-0.139383
-0.136308
-0.133689
-0.131028
-0.128801
-0.126538
-0.124679
-0.122761
8.27783
8.08134
7.59846
6.84511
5.87321
4.75994
3.59036
2.44674
1.39844
0.494389
-0.240589
-0.804199
-1.21087
-1.48439
-1.65156
-1.73785
-1.76519
-1.75114
-1.70912
-1.64899
-1.57778
-1.50042
-1.42026
-1.3396
-1.25996
-1.18236
-1.10746
-1.03569
-0.967277
-0.902369
-0.841009
-0.783183
-0.728833
-0.677869
-0.630178
-0.585633
-0.544096
-0.505423
-0.469467
-0.436083
-0.405126
-0.376458
-0.349943
-0.325452
-0.302861
-0.282053
-0.262919
-0.245356
-0.229266
-0.21456
-0.201153
-0.18897
-0.177937
-0.16799
-0.159068
-0.151115
-0.144081
-0.137921
-0.132594
-0.128063
-0.124246
8.39783
8.26425
8.19292
7.93194
7.70325
7.30778
6.93938
6.43601
5.95422
5.38356
4.82602
4.23148
3.64091
3.06384
2.48215
1.95691
1.41991
0.970295
0.50375
0.141283
-0.241072
-0.516231
-0.812093
-1.00812
-1.22386
-1.35347
-1.5005
-1.57765
-1.66928
-1.707
-1.75612
-1.76542
-1.78328
-1.7729
-1.76864
-1.74513
-1.72581
-1.69392
-1.66476
-1.62786
-1.5926
-1.55301
-1.5143
-1.47359
-1.43325
-1.39249
-1.35174
-1.31162
-1.2713
-1.2323
-1.19295
-1.15537
-1.11736
-1.08138
-1.04492
-1.01066
-0.975902
-0.943411
-0.910421
-0.87972
-0.848527
-0.819602
-0.790202
-0.763022
-0.735387
-0.709904
-0.68399
-0.660147
-0.635897
-0.613628
-0.590977
-0.570213
-0.549092
-0.52976
-0.510096
-0.492122
-0.473841
-0.457152
-0.440179
-0.424704
-0.408967
-0.394634
-0.380061
-0.366804
-0.353326
-0.34108
-0.328632
-0.317335
-0.305853
-0.295448
-0.284873
-0.275305
-0.265581
-0.256797
-0.247871
-0.239824
-0.231647
-0.224292
-0.216818
-0.210114
-0.2033
-0.197207
-0.191014
-0.185497
-0.179889
-0.174915
-0.169857
-0.165397
-0.160859
-0.156884
-0.152837
-0.149324
-0.145743
-0.142667
-0.139529
-0.136871
-0.134154
-0.131895
-0.129583
-0.127697
-0.125725
8.51576
8.30414
7.80807
7.03356
6.03515
4.89208
3.69153
2.51767
1.44153
0.513267
-0.241418
-0.819887
-1.23679
-1.5166
-1.68702
-1.77442
-1.80143
-1.78621
-1.74256
-1.68058
-1.60747
-1.52823
-1.44628
-1.36391
-1.28267
-1.20357
-1.12727
-1.05418
-0.984542
-0.918487
-0.856056
-0.79723
-0.741949
-0.690118
-0.641622
-0.596327
-0.554094
-0.514775
-0.47822
-0.44428
-0.41281
-0.383667
-0.356712
-0.331815
-0.308849
-0.287697
-0.268245
-0.25039
-0.234032
-0.21908
-0.20545
-0.193061
-0.181843
-0.171727
-0.162652
-0.154562
-0.147407
-0.141139
-0.135717
-0.131105
-0.127205
8.64322
8.48159
8.41879
8.13788
7.91551
7.49851
7.12978
6.60508
6.1174
5.52686
4.95865
4.34685
3.74186
3.15088
2.55226
2.01679
1.46173
1.00547
0.521112
0.155229
-0.243475
-0.519405
-0.82926
-1.02414
-1.25106
-1.37834
-1.53377
-1.60804
-1.70556
-1.74032
-1.79327
-1.79982
-1.81994
-1.80713
-1.80399
-1.77842
-1.75941
-1.72582
-1.69644
-1.65813
-1.62234
-1.58157
-1.54213
-1.50044
-1.45926
-1.41766
-1.37603
-1.3352
-1.29398
-1.25435
-1.21413
-1.17599
-1.13713
-1.10064
-1.06338
-1.02866
-0.99313
-0.960219
-0.926503
-0.895415
-0.863539
-0.834258
-0.804218
-0.776708
-0.748474
-0.722686
-0.696212
-0.672085
-0.647314
-0.624782
-0.601648
-0.580638
-0.559068
-0.539508
-0.519428
-0.501242
-0.482576
-0.465689
-0.448361
-0.432701
-0.416635
-0.402132
-0.387255
-0.37384
-0.360082
-0.347689
-0.334983
-0.32355
-0.311832
-0.3013
-0.290508
-0.280821
-0.270898
-0.262006
-0.252897
-0.24475
-0.236406
-0.228959
-0.221332
-0.214544
-0.20759
-0.20142
-0.1951
-0.189513
-0.183789
-0.178752
-0.173589
-0.169072
-0.164438
-0.160414
-0.156281
-0.152723
-0.149064
-0.145951
-0.142742
-0.140052
-0.137273
-0.134987
-0.132621
-0.130715
-0.128681
8.7664
8.53296
8.02315
7.22601
6.19965
5.02531
3.79238
2.58711
1.48223
0.529267
-0.245257
-0.838418
-1.2652
-1.55086
-1.72408
-1.81216
-1.83851
-1.82185
-1.77636
-1.71239
-1.63728
-1.5561
-1.4723
-1.3882
-1.30534
-1.22473
-1.14702
-1.07261
-1.00174
-0.934541
-0.871041
-0.811219
-0.75501
-0.702316
-0.653016
-0.606975
-0.564049
-0.524087
-0.486936
-0.452445
-0.420464
-0.390847
-0.363456
-0.338155
-0.314817
-0.293321
-0.273553
-0.255407
-0.238783
-0.223587
-0.209733
-0.197141
-0.185737
-0.175453
-0.166227
-0.158001
-0.150724
-0.144348
-0.138832
-0.134138
-0.130155
8.45269
8.2839
8.19501
7.86499
7.58001
7.09205
6.63495
6.01588
5.42545
4.72581
4.05343
3.33011
2.63263
1.94105
1.27281
0.65947
0.064977
-0.438204
-0.929437
-1.30807
-1.68361
-1.94004
-2.20282
-2.35184
-2.51549
-2.5784
-2.66181
-2.66106
-2.6839
-2.63961
-2.61949
-2.54784
-2.49914
-2.41215
-2.34581
-2.25186
-2.17576
-2.08034
-1.9999
-1.90642
-1.82525
-1.73567
-1.65602
-1.57137
-1.49462
-1.41534
-1.34227
-1.26844
-1.19942
-1.13092
-1.06612
-1.00273
-0.94213
-0.883577
-0.82708
-0.773068
-0.720524
-0.670757
-0.621985
-0.576171
-0.530972
-0.488829
-0.447
-0.408262
-0.369596
-0.334011
-0.298307
-0.265636
-0.232697
-0.202718
-0.172356
-0.144859
-0.116893
-0.0916869
-0.0659465
-0.0428501
-0.0191745
0.00197801
0.0237398
0.0431017
0.0630907
0.0808032
0.0991508
0.115344
0.132172
0.146964
0.162385
0.175885
0.190004
0.202312
0.215224
0.226431
0.238225
0.248414
0.25917
0.268415
0.278208
0.286579
0.295477
0.303035
0.311099
0.317901
0.325186
0.331282
0.337841
0.343277
0.349155
0.353973
0.359211
0.363446
0.368082
0.371767
0.375835
0.378998
0.382527
0.385194
0.388209
0.390403
0.392926
0.394664
0.396934
0.939508
0.856711
0.83301
0.77304
0.689392
0.586214
0.466958
0.335127
0.194967
0.0518813
-0.087696
-0.216943
-0.329598
-0.420866
-0.487953
-0.530128
-0.548391
-0.544957
-0.522728
-0.484862
-0.434462
-0.374393
-0.307181
-0.234991
-0.159629
-0.0825776
-0.00503425
0.072047
0.147916
0.221994
0.293841
0.363131
0.429633
0.493193
0.553717
0.61116
0.66552
0.716822
0.765119
0.810479
0.852987
0.892735
0.929824
0.964357
0.99644
1.02618
1.05368
1.07904
1.10236
1.12374
1.14326
1.16101
1.17708
1.19153
1.20444
1.21588
1.2259
1.23457
1.24192
1.24802
1.25271
4.17914
4.11198
4.10004
3.99532
3.93339
3.78485
3.67722
3.49109
3.34454
3.13274
2.95802
2.73377
2.54314
2.3199
2.12543
1.91544
1.7276
1.54057
1.36728
1.2095
1.05581
0.929859
0.798212
0.703444
0.594356
0.527888
0.440561
0.398399
0.331233
0.309124
0.26007
0.25401
0.220817
0.227292
0.207675
0.223722
0.215483
0.238669
0.239775
0.268133
0.276759
0.308718
0.323269
0.357589
0.376697
0.412404
0.434918
0.471257
0.496223
0.532609
0.559245
0.595235
0.622906
0.658167
0.686364
0.720649
0.748968
0.7821
0.810223
0.84208
0.869757
0.900259
0.9273
0.9564
0.982661
1.01034
1.03571
1.06196
1.08638
1.11122
1.13462
1.15807
1.18043
1.20253
1.22382
1.24462
1.26484
1.28437
1.30353
1.32184
1.33996
1.35709
1.37418
1.39019
1.40628
1.42122
1.43633
1.45024
1.4644
1.47733
1.49058
1.50258
1.51494
1.52605
1.53756
1.54781
1.55851
1.56795
1.57785
1.58653
1.59567
1.60361
1.61202
1.61925
1.62697
1.63353
1.64057
1.64649
1.65288
1.65818
1.66395
1.66866
1.67382
1.67797
1.68256
1.68616
1.69019
1.69327
1.69675
1.69933
1.70261
2.32146
2.31836
2.29483
2.26891
2.23533
2.19434
2.14658
2.09297
2.03465
1.97299
1.90952
1.84589
1.78374
1.72448
1.6693
1.61913
1.57468
1.53644
1.50472
1.4796
1.46101
1.4487
1.4423
1.44138
1.44541
1.45384
1.46614
1.48175
1.50017
1.52089
1.54347
1.5675
1.59262
1.61848
1.64479
1.67131
1.6978
1.72407
1.74997
1.77534
1.80007
1.82407
1.84726
1.86956
1.89094
1.91135
1.93077
1.94918
1.96656
1.98292
1.99825
2.01257
2.02587
2.03817
2.0495
2.05986
2.06928
2.07777
2.08537
2.09209
2.09784
3.33579
3.31424
3.31958
3.30682
3.30571
3.2835
3.27433
3.24664
3.22991
3.19754
3.17362
3.13729
3.1068
3.06717
3.03104
2.98873
2.94819
2.90384
2.86035
2.81469
2.76974
2.7237
2.67865
2.63333
2.58933
2.54594
2.50387
2.46354
2.42409
2.38775
2.35142
2.3197
2.28685
2.26005
2.2309
2.20906
2.18374
2.1667
2.14519
2.13264
2.11487
2.1064
2.0922
2.0874
2.07655
2.07495
2.06719
2.06837
2.06343
2.06697
2.06454
2.07007
2.06987
2.07705
2.07879
2.08731
2.09073
2.1003
2.10515
2.11556
2.1216
2.13263
2.13965
2.15112
2.15894
2.17069
2.17914
2.19104
2.19997
2.21191
2.22118
2.23307
2.24257
2.25431
2.26394
2.27548
2.28515
2.29643
2.30606
2.31703
2.32656
2.33719
2.34656
2.35682
2.36599
2.37586
2.38479
2.39424
2.40289
2.41193
2.42028
2.42888
2.43691
2.44508
2.45276
2.4605
2.46782
2.47512
2.48209
2.48896
2.49555
2.50199
2.50821
2.51423
2.52007
2.52568
2.53114
2.53635
2.54143
2.54624
2.55096
2.55538
2.55972
2.56378
2.56775
2.57144
2.57506
2.5784
2.58167
2.58467
2.5878
3.40378
3.39242
3.38739
3.37629
3.36047
3.34056
3.31718
3.29097
3.26253
3.23242
3.20113
3.16902
3.13645
3.10378
3.07139
3.03968
3.00905
2.97987
2.95246
2.92707
2.90392
2.88315
2.86485
2.84907
2.83579
2.82499
2.81657
2.81044
2.80646
2.8045
2.8044
2.806
2.80912
2.81362
2.81932
2.82607
2.83371
2.84212
2.85114
2.86067
2.87057
2.88076
2.89112
2.90158
2.91206
2.92248
2.93278
2.94291
2.95283
2.96249
2.97186
2.98091
2.98961
2.99796
3.00593
3.01352
3.02072
3.02753
3.03396
3.04
3.0456
4.12912
4.12357
4.12536
4.11701
4.11557
4.10513
4.10129
4.08839
4.08217
4.06692
4.05844
4.04109
4.03051
4.0114
3.99884
3.97837
3.96398
3.9426
3.92652
3.9047
3.88712
3.86525
3.84645
3.82486
3.80517
3.78411
3.7639
3.74353
3.72319
3.70366
3.68353
3.66496
3.64535
3.62787
3.60901
3.59275
3.57485
3.55991
3.54313
3.52959
3.51404
3.50197
3.48771
3.47714
3.46423
3.45515
3.4436
3.43598
3.42579
3.41958
3.41073
3.40585
3.3983
3.39468
3.38836
3.3859
3.38076
3.37936
3.37533
3.3749
3.37188
3.37232
3.37025
3.37145
3.37024
3.37213
3.3717
3.37417
3.37444
3.37742
3.37831
3.38172
3.38316
3.38693
3.38885
3.39291
3.39523
3.39953
3.4022
3.40668
3.40964
3.41425
3.41745
3.42214
3.42554
3.43027
3.43382
3.43857
3.44221
3.44695
3.45066
3.45535
3.45911
3.46373
3.46749
3.47203
3.47577
3.48021
3.48391
3.48823
3.49187
3.49606
3.49963
3.50369
3.50717
3.51108
3.51445
3.51822
3.52148
3.52509
3.52823
3.5317
3.53471
3.53803
3.54091
3.54407
3.54682
3.54984
3.55246
3.55534
3.55791
4.42055
4.41862
4.41465
4.40913
4.40152
4.39192
4.3804
4.36705
4.352
4.33545
4.3176
4.2987
4.27904
4.25886
4.2384
4.21788
4.1975
4.17741
4.15779
4.13877
4.12049
4.10306
4.08658
4.07113
4.05677
4.04356
4.03152
4.02066
4.011
4.00252
3.99519
3.98898
3.98386
3.97976
3.97665
3.97445
3.97312
3.97257
3.97277
3.97363
3.9751
3.97712
3.97962
3.98256
3.98587
3.98952
3.99344
3.9976
4.00196
4.00647
4.01112
4.01586
4.02068
4.02554
4.03044
4.03535
4.04027
4.04517
4.05007
4.05494
4.05978
5.04024
5.03579
5.03671
5.03335
5.03314
5.02824
5.02662
5.02059
5.0176
5.0105
5.00619
4.99813
4.99258
4.98366
4.97698
4.96729
4.95961
4.94924
4.9407
4.92975
4.92049
4.90905
4.89921
4.8874
4.87709
4.86504
4.85436
4.84221
4.83125
4.81916
4.80802
4.7961
4.78487
4.77325
4.76203
4.75079
4.73969
4.72891
4.71801
4.70775
4.69715
4.68746
4.67722
4.66815
4.65834
4.64991
4.64059
4.63282
4.62402
4.61692
4.60869
4.60227
4.59462
4.58887
4.58182
4.57672
4.57028
4.56583
4.55998
4.55615
4.55091
4.54767
4.54301
4.54034
4.53623
4.5341
4.53054
4.52891
4.52587
4.5247
4.52215
4.52142
4.51933
4.51899
4.51733
4.51737
4.51611
4.51647
4.51559
4.51625
4.51571
4.51664
4.51641
4.51758
4.51763
4.51901
4.51933
4.52089
4.52144
4.52317
4.52392
4.52579
4.52672
4.52871
4.52981
4.53189
4.53313
4.5353
4.53667
4.53891
4.54038
4.54267
4.54423
4.54658
4.54821
4.55059
4.55229
4.5547
4.55645
4.55888
4.56067
4.56311
4.56495
4.5674
4.56926
4.57172
4.57361
4.57608
4.57798
4.58046
4.5824
5.42709
5.4249
5.42309
5.41982
5.41525
5.40946
5.40251
5.3945
5.38551
5.37564
5.36497
5.3536
5.3416
5.32909
5.31615
5.30289
5.28941
5.27583
5.26224
5.24874
5.23541
5.22235
5.20961
5.19726
5.18538
5.17399
5.16315
5.1529
5.14325
5.13423
5.12586
5.11814
5.11108
5.10467
5.09891
5.09378
5.08927
5.08536
5.08204
5.07927
5.07704
5.07533
5.0741
5.07333
5.07299
5.07306
5.07351
5.07432
5.07547
5.07693
5.07868
5.08071
5.08299
5.08551
5.08825
5.0912
5.09435
5.09769
5.10121
5.1049
5.10876
5.99552
5.99359
5.99417
5.99212
5.99193
5.98925
5.98841
5.98506
5.98355
5.97955
5.9774
5.97279
5.97
5.96483
5.96142
5.95576
5.95176
5.94566
5.9411
5.93462
5.92954
5.92276
5.9172
5.91017
5.9042
5.89698
5.89065
5.88329
5.87667
5.86922
5.86238
5.85489
5.84788
5.8404
5.83328
5.82586
5.81868
5.81136
5.80417
5.797
5.78986
5.78287
5.77581
5.76905
5.76211
5.7556
5.74882
5.74259
5.736
5.73008
5.72371
5.71811
5.71198
5.70671
5.70086
5.69593
5.69036
5.68578
5.68051
5.67629
5.67132
5.66745
5.6628
5.65928
5.65496
5.65178
5.64777
5.64493
5.64125
5.63874
5.63537
5.63318
5.63012
5.62824
5.62548
5.62389
5.62144
5.62013
5.61796
5.61692
5.61502
5.61424
5.61261
5.61207
5.61069
5.61038
5.60924
5.60914
5.60823
5.60833
5.60764
5.60793
5.60745
5.60791
5.60762
5.60825
5.60814
5.60892
5.60899
5.60991
5.61014
5.6112
5.61158
5.61276
5.61328
5.61458
5.61524
5.61665
5.61744
5.61895
5.61985
5.62147
5.62249
5.6242
5.62532
5.62712
5.62835
5.63023
5.63156
5.63353
5.63493
6.4285
6.42753
6.42628
6.42432
6.42157
6.41808
6.41386
6.40895
6.40337
6.39718
6.39041
6.38312
6.37537
6.36721
6.35871
6.34991
6.34087
6.33166
6.32232
6.31291
6.30348
6.29408
6.28476
6.27556
6.26654
6.25771
6.24913
6.24082
6.23282
6.22514
6.21781
6.21084
6.20426
6.19807
6.19228
6.1869
6.18193
6.17738
6.17324
6.16951
6.16618
6.16325
6.16072
6.15857
6.1568
6.1554
6.15435
6.15364
6.15328
6.15323
6.15351
6.15409
6.15496
6.15612
6.15755
6.15925
6.16121
6.16342
6.16587
6.16856
6.1715
6.97406
6.97273
6.97306
6.9719
6.97184
6.97024
6.96976
6.96778
6.96688
6.96452
6.96321
6.9605
6.95879
6.95575
6.95366
6.9503
6.94785
6.9442
6.94141
6.9375
6.93439
6.93024
6.92684
6.92247
6.91882
6.91426
6.91037
6.90566
6.90155
6.89673
6.89243
6.88752
6.88306
6.8781
6.87351
6.86851
6.86382
6.85883
6.85407
6.8491
6.84429
6.83938
6.83455
6.82971
6.82489
6.82014
6.81535
6.81072
6.80599
6.80149
6.79683
6.79248
6.78792
6.78373
6.77928
6.77527
6.77095
6.76712
6.76294
6.7593
6.75528
6.75185
6.74799
6.74476
6.74108
6.73806
6.73456
6.73176
6.72844
6.72585
6.72273
6.72035
6.71743
6.71527
6.71254
6.71059
6.70806
6.70631
6.70398
6.70244
6.70031
6.69897
6.69703
6.69589
6.69414
6.69319
6.69164
6.69087
6.6895
6.68891
6.68773
6.68731
6.68631
6.68606
6.68523
6.68515
6.68449
6.68456
6.68406
6.68429
6.68395
6.68433
6.68414
6.68466
6.68463
6.68528
6.68539
6.68618
6.68643
6.68734
6.68773
6.68877
6.68929
6.69045
6.6911
6.69237
6.69315
6.69453
6.69543
6.69692
6.6979
7.43408
7.43339
7.43264
7.43137
7.4296
7.42734
7.42461
7.42143
7.41781
7.41379
7.40938
7.40461
7.39951
7.3941
7.38843
7.38252
7.3764
7.3701
7.36367
7.35713
7.35051
7.34386
7.33719
7.33054
7.32393
7.3174
7.31097
7.30467
7.29851
7.29253
7.28673
7.28113
7.27575
7.27062
7.26572
7.26109
7.25672
7.25263
7.24882
7.2453
7.24206
7.23912
7.23647
7.23411
7.23205
7.23028
7.2288
7.22761
7.2267
7.22607
7.22572
7.22564
7.22582
7.22627
7.22698
7.22794
7.22914
7.23059
7.23227
7.23419
7.23634
7.96736
7.96659
7.9668
7.96606
7.96601
7.96502
7.96473
7.96349
7.96294
7.96146
7.96066
7.95894
7.9579
7.95597
7.95468
7.95254
7.95102
7.94869
7.94695
7.94443
7.94248
7.9398
7.93765
7.93483
7.93249
7.92953
7.92702
7.92394
7.92127
7.9181
7.91529
7.91204
7.90911
7.90578
7.90274
7.89937
7.89624
7.89284
7.88963
7.88621
7.88294
7.87952
7.87621
7.8728
7.86947
7.86609
7.86274
7.85941
7.85606
7.85278
7.84946
7.84624
7.84295
7.83981
7.83656
7.83351
7.83031
7.82736
7.82424
7.82139
7.81834
7.81561
7.81265
7.81004
7.80717
7.80468
7.80192
7.79957
7.79691
7.7947
7.79216
7.79008
7.78766
7.78573
7.78343
7.78164
7.77948
7.77784
7.77581
7.77431
7.77241
7.77106
7.7693
7.7681
7.76648
7.76542
7.76394
7.76302
7.76168
7.76091
7.75971
7.75908
7.75802
7.75753
7.75661
7.75626
7.75547
7.75525
7.7546
7.75452
7.75401
7.75405
7.75367
7.75384
7.75359
7.75389
7.75377
7.75419
7.7542
7.75474
7.75487
7.75552
7.75577
7.75654
7.75692
7.7578
7.75829
7.75927
7.75988
7.76097
7.76165
8.44502
8.4446
8.44409
8.44326
8.4421
8.44062
8.43882
8.43672
8.43433
8.43166
8.42872
8.42552
8.4221
8.41846
8.41462
8.4106
8.40642
8.4021
8.39767
8.39313
8.38851
8.38384
8.37913
8.37439
8.36966
8.36495
8.36027
8.35565
8.35111
8.34664
8.34229
8.33804
8.33393
8.32996
8.32614
8.32249
8.31901
8.31572
8.31261
8.3097
8.30699
8.30448
8.30219
8.30011
8.29825
8.29661
8.29519
8.29399
8.29302
8.29226
8.29173
8.29141
8.29131
8.29143
8.29175
8.29229
8.29304
8.29398
8.29513
8.29647
8.29802
8.97187
8.97136
8.97149
8.97102
8.97099
8.97035
8.97016
8.96936
8.969
8.96805
8.96753
8.96642
8.96574
8.96449
8.96365
8.96227
8.96127
8.95976
8.95862
8.95698
8.9557
8.95394
8.95253
8.95066
8.94913
8.94717
8.94551
8.94346
8.9417
8.93957
8.9377
8.93551
8.93355
8.9313
8.92926
8.92697
8.92485
8.92252
8.92035
8.91799
8.91576
8.91338
8.91111
8.90873
8.90643
8.90405
8.90172
8.89935
8.89701
8.89467
8.89232
8.89001
8.88767
8.88539
8.88306
8.88083
8.87853
8.87635
8.87408
8.87196
8.86972
8.86767
8.86548
8.8635
8.86136
8.85946
8.85738
8.85556
8.85355
8.85181
8.84987
8.84822
8.84636
8.84481
8.84302
8.84157
8.83987
8.83851
8.8369
8.83565
8.83413
8.83298
8.83155
8.83051
8.82918
8.82824
8.82701
8.82618
8.82505
8.82433
8.8233
8.82268
8.82176
8.82125
8.82043
8.82003
8.81932
8.81902
8.81842
8.81823
8.81772
8.81764
8.81724
8.81726
8.81696
8.81708
8.81689
8.81711
8.81702
8.81734
8.81735
8.81777
8.81788
8.81839
8.81861
8.81921
8.81952
8.82021
8.82062
8.8214
8.82187
9.46155
9.46126
9.46093
9.46037
9.4596
9.4586
9.4574
9.45599
9.45438
9.45258
9.45059
9.44844
9.44612
9.44365
9.44103
9.43828
9.43542
9.43245
9.42939
9.42624
9.42303
9.41977
9.41647
9.41313
9.40979
9.40644
9.4031
9.39979
9.39651
9.39327
9.3901
9.38699
9.38396
9.38102
9.37817
9.37543
9.37281
9.3703
9.36792
9.36568
9.36357
9.36161
9.3598
9.35814
9.35664
9.3553
9.35412
9.3531
9.35225
9.35156
9.35104
9.35069
9.3505
9.35048
9.35062
9.35093
9.35139
9.35202
9.3528
9.35373
9.35482
9.98474
9.98441
9.98449
9.98418
9.98416
9.98374
9.98361
9.98309
9.98285
9.98222
9.98188
9.98115
9.9807
9.97987
9.97931
9.97839
9.97774
9.97673
9.97597
9.97488
9.97403
9.97285
9.97191
9.97067
9.96964
9.96832
9.96721
9.96583
9.96465
9.96321
9.96196
9.96047
9.95915
9.95762
9.95623
9.95467
9.95323
9.95163
9.95014
9.94852
9.94699
9.94535
9.94379
9.94214
9.94055
9.93888
9.93727
9.93561
9.93398
9.93233
9.93069
9.92905
9.92741
9.92578
9.92414
9.92254
9.92091
9.91934
9.91772
9.91619
9.91459
9.91309
9.91152
9.91007
9.90852
9.90712
9.90561
9.90426
9.90279
9.90149
9.90006
9.89882
9.89745
9.89627
9.89495
9.89383
9.89256
9.89152
9.89031
9.88934
9.88819
9.88729
9.8862
9.88538
9.88436
9.88361
9.88266
9.88199
9.88111
9.88051
9.87971
9.87919
9.87846
9.87803
9.87737
9.87701
9.87644
9.87616
9.87566
9.87546
9.87504
9.87492
9.87458
9.87454
9.87427
9.87431
9.87413
9.87424
9.87413
9.87433
9.87429
9.87456
9.87461
9.87495
9.87507
9.87549
9.87568
9.87617
9.87644
9.87699
9.87731
10.4828
10.4826
10.4824
10.482
10.4815
10.4808
10.48
10.4791
10.478
10.4768
10.4754
10.474
10.4724
10.4707
10.4689
10.467
10.4651
10.463
10.4609
10.4587
10.4565
10.4543
10.452
10.4496
10.4473
10.4449
10.4426
10.4402
10.4379
10.4356
10.4334
10.4311
10.429
10.4268
10.4248
10.4228
10.4209
10.419
10.4173
10.4156
10.4141
10.4126
10.4113
10.41
10.4089
10.4078
10.4069
10.4061
10.4055
10.4049
10.4045
10.4042
10.404
10.4039
10.404
10.4042
10.4045
10.4049
10.4054
10.4061
10.4068
11.0038
11.0036
11.0036
11.0034
11.0034
11.0031
11.003
11.0027
11.0025
11.0021
11.0019
11.0014
11.0011
11.0005
11.0002
10.9996
10.9991
10.9984
10.9979
10.9972
10.9966
10.9958
10.9952
10.9944
10.9937
10.9928
10.992
10.9911
10.9903
10.9893
10.9885
10.9875
10.9866
10.9855
10.9846
10.9835
10.9826
10.9815
10.9805
10.9793
10.9783
10.9772
10.9761
10.975
10.9739
10.9727
10.9716
10.9705
10.9693
10.9682
10.967
10.9659
10.9648
10.9636
10.9625
10.9614
10.9602
10.9591
10.958
10.9569
10.9558
10.9547
10.9536
10.9526
10.9515
10.9505
10.9494
10.9484
10.9474
10.9464
10.9454
10.9445
10.9435
10.9427
10.9417
10.9409
10.94
10.9392
10.9384
10.9376
10.9368
10.9361
10.9353
10.9347
10.934
10.9334
10.9327
10.9322
10.9316
10.9311
10.9305
10.9301
10.9296
10.9292
10.9287
10.9285
10.928
10.9278
10.9274
10.9273
10.9269
10.9268
10.9266
10.9265
10.9263
10.9263
10.9261
10.9262
10.9261
10.9262
10.9262
10.9264
10.9264
10.9266
10.9267
10.927
10.9271
10.9275
10.9276
10.928
10.9282
11.5078
11.5077
11.5075
11.5072
11.5069
11.5064
11.5059
11.5052
11.5045
11.5037
11.5028
11.5018
11.5007
11.4996
11.4983
11.4971
11.4957
11.4943
11.4929
11.4914
11.4899
11.4883
11.4868
11.4851
11.4835
11.4819
11.4803
11.4787
11.477
11.4754
11.4739
11.4723
11.4708
11.4693
11.4678
11.4664
11.4651
11.4638
11.4625
11.4614
11.4602
11.4592
11.4582
11.4573
11.4565
11.4558
11.4551
11.4545
11.454
11.4536
11.4533
11.4531
11.4529
11.4529
11.4529
11.453
11.4532
11.4535
11.4538
11.4543
11.4548
12.0271
12.0269
12.027
12.0268
12.0268
12.0266
12.0266
12.0263
12.0262
12.026
12.0258
12.0255
12.0253
12.0249
12.0247
12.0243
12.024
12.0235
12.0232
12.0227
12.0223
12.0218
12.0214
12.0208
12.0204
12.0198
12.0193
12.0186
12.0181
12.0175
12.0169
12.0162
12.0156
12.0149
12.0143
12.0136
12.0129
12.0122
12.0115
12.0108
12.0101
12.0093
12.0086
12.0078
12.0071
12.0063
12.0055
12.0048
12.004
12.0032
12.0025
12.0017
12.0009
12.0001
11.9994
11.9986
11.9978
11.997
11.9963
11.9955
11.9948
11.994
11.9933
11.9926
11.9918
11.9911
11.9904
11.9897
11.989
11.9883
11.9876
11.987
11.9863
11.9857
11.9851
11.9845
11.9839
11.9833
11.9827
11.9822
11.9816
11.9812
11.9806
11.9802
11.9797
11.9793
11.9788
11.9784
11.978
11.9777
11.9772
11.977
11.9766
11.9763
11.976
11.9758
11.9755
11.9753
11.975
11.9749
11.9747
11.9746
11.9744
11.9744
11.9742
11.9742
11.9741
11.9742
11.9741
11.9742
11.9742
11.9743
11.9743
11.9745
11.9745
11.9747
11.9748
11.975
11.9752
11.9754
11.9756
12.5351
12.5351
12.535
12.5348
12.5346
12.5343
12.5339
12.5335
12.533
12.5324
12.5318
12.5312
12.5305
12.5297
12.5289
12.5281
12.5272
12.5263
12.5253
12.5243
12.5233
12.5223
12.5212
12.5202
12.5191
12.518
12.5169
12.5158
12.5148
12.5137
12.5126
12.5116
12.5106
12.5096
12.5086
12.5076
12.5067
12.5058
12.505
12.5042
12.5035
12.5028
12.5021
12.5015
12.5009
12.5004
12.5
12.4996
12.4993
12.499
12.4988
12.4986
12.4985
12.4985
12.4985
12.4986
12.4988
12.499
12.4992
12.4996
12.4999
13.0527
13.0526
13.0527
13.0526
13.0526
13.0524
13.0524
13.0523
13.0522
13.052
13.0519
13.0517
13.0516
13.0514
13.0512
13.051
13.0508
13.0505
13.0503
13.05
13.0497
13.0494
13.0492
13.0488
13.0485
13.0481
13.0478
13.0474
13.0471
13.0467
13.0463
13.0459
13.0455
13.0451
13.0447
13.0443
13.0438
13.0434
13.043
13.0425
13.042
13.0416
13.0411
13.0406
13.0402
13.0397
13.0392
13.0387
13.0382
13.0377
13.0372
13.0367
13.0363
13.0358
13.0353
13.0348
13.0343
13.0338
13.0333
13.0329
13.0324
13.0319
13.0314
13.031
13.0305
13.0301
13.0296
13.0292
13.0287
13.0283
13.0278
13.0275
13.027
13.0266
13.0262
13.0259
13.0255
13.0251
13.0247
13.0244
13.024
13.0238
13.0234
13.0231
13.0228
13.0226
13.0222
13.022
13.0217
13.0215
13.0213
13.0211
13.0209
13.0207
13.0205
13.0204
13.0202
13.0201
13.0199
13.0199
13.0197
13.0197
13.0196
13.0195
13.0194
13.0195
13.0194
13.0194
13.0194
13.0195
13.0195
13.0196
13.0196
13.0197
13.0197
13.0199
13.0199
13.0201
13.0202
13.0204
13.0205
13.5635
13.5635
13.5634
13.5633
13.5632
13.563
13.5628
13.5625
13.5622
13.5619
13.5616
13.5612
13.5608
13.5603
13.5598
13.5593
13.5588
13.5583
13.5577
13.5571
13.5565
13.5559
13.5553
13.5547
13.554
13.5534
13.5527
13.5521
13.5515
13.5508
13.5502
13.5496
13.549
13.5484
13.5478
13.5473
13.5468
13.5462
13.5458
13.5453
13.5449
13.5445
13.5441
13.5438
13.5434
13.5432
13.5429
13.5427
13.5425
13.5424
13.5423
13.5422
13.5422
13.5422
13.5423
13.5424
13.5425
13.5426
13.5428
13.5431
13.5433
14.0787
14.0786
14.0786
14.0786
14.0786
14.0785
14.0785
14.0784
14.0784
14.0783
14.0783
14.0782
14.0781
14.078
14.0779
14.0778
14.0777
14.0776
14.0775
14.0773
14.0772
14.077
14.0769
14.0768
14.0766
14.0764
14.0763
14.0761
14.0759
14.0757
14.0756
14.0754
14.0752
14.075
14.0748
14.0746
14.0744
14.0741
14.0739
14.0737
14.0735
14.0733
14.0731
14.0728
14.0726
14.0724
14.0721
14.0719
14.0717
14.0714
14.0712
14.071
14.0708
14.0705
14.0703
14.0701
14.0698
14.0696
14.0694
14.0692
14.0689
14.0687
14.0685
14.0683
14.0681
14.0679
14.0676
14.0674
14.0672
14.067
14.0668
14.0667
14.0665
14.0663
14.0661
14.0659
14.0658
14.0656
14.0654
14.0653
14.0651
14.065
14.0648
14.0647
14.0646
14.0645
14.0644
14.0643
14.0642
14.0641
14.064
14.0639
14.0638
14.0638
14.0637
14.0637
14.0636
14.0636
14.0635
14.0635
14.0634
14.0635
14.0634
14.0634
14.0634
14.0635
14.0635
14.0635
14.0635
14.0636
14.0636
14.0637
14.0637
14.0638
14.0638
14.064
14.064
14.0641
14.0642
14.0643
14.0644
14.5911
14.5911
14.5911
14.591
14.591
14.5909
14.5909
14.5908
14.5907
14.5906
14.5905
14.5903
14.5902
14.5901
14.5899
14.5897
14.5896
14.5894
14.5892
14.589
14.5888
14.5886
14.5885
14.5883
14.5881
14.5879
14.5877
14.5875
14.5873
14.5871
14.5869
14.5867
14.5866
14.5864
14.5863
14.5861
14.586
14.5858
14.5857
14.5856
14.5855
14.5854
14.5854
14.5853
14.5853
14.5852
14.5852
14.5852
14.5852
14.5853
14.5853
14.5853
14.5854
14.5855
14.5856
14.5857
14.5858
14.5859
14.5861
14.5862
14.5864
15.1022
15.1021
15.1021
15.1021
15.1022
15.1021
15.1022
15.1022
15.1022
15.1022
15.1022
15.1022
15.1022
15.1022
15.1023
15.1023
15.1023
15.1023
15.1024
15.1024
15.1024
15.1024
15.1025
15.1025
15.1025
15.1026
15.1026
15.1026
15.1027
15.1027
15.1028
15.1028
15.1029
15.1029
15.1029
15.103
15.103
15.1031
15.1031
15.1032
15.1032
15.1033
15.1034
15.1034
15.1035
15.1035
15.1036
15.1036
15.1037
15.1038
15.1038
15.1039
15.104
15.104
15.1041
15.1042
15.1042
15.1043
15.1044
15.1044
15.1045
15.1046
15.1047
15.1047
15.1048
15.1049
15.105
15.105
15.1051
15.1052
15.1053
15.1054
15.1054
15.1055
15.1056
15.1057
15.1057
15.1058
15.1059
15.106
15.1061
15.1062
15.1062
15.1063
15.1064
15.1065
15.1066
15.1067
15.1067
15.1068
15.1069
15.107
15.107
15.1071
15.1072
15.1073
15.1074
15.1075
15.1075
15.1076
15.1077
15.1078
15.1078
15.1079
15.108
15.1081
15.1081
15.1082
15.1083
15.1084
15.1084
15.1085
15.1086
15.1087
15.1087
15.1088
15.1088
15.1089
15.109
15.1091
15.1091
15.6154
15.6154
15.6154
15.6154
15.6155
15.6156
15.6157
15.6158
15.616
15.6162
15.6164
15.6166
15.6168
15.617
15.6173
15.6175
15.6178
15.6181
15.6184
15.6188
15.6191
15.6194
15.6198
15.6202
15.6205
15.6209
15.6213
15.6217
15.6221
15.6225
15.6229
15.6233
15.6237
15.6241
15.6244
15.6248
15.6252
15.6256
15.626
15.6263
15.6267
15.627
15.6274
15.6277
15.628
15.6283
15.6286
15.6289
15.6291
15.6294
15.6296
15.6298
15.63
15.6302
15.6304
15.6306
15.6307
15.6308
15.6309
15.631
15.6311
16.1209
16.1209
16.1209
16.1209
16.121
16.121
16.1211
16.1212
16.1213
16.1214
16.1215
16.1216
16.1218
16.1219
16.1221
16.1223
16.1225
16.1227
16.1229
16.1232
16.1234
16.1236
16.1239
16.1242
16.1245
16.1248
16.1251
16.1254
16.1257
16.1261
16.1264
16.1268
16.1271
16.1275
16.1279
16.1282
16.1286
16.129
16.1295
16.1299
16.1303
16.1307
16.1311
16.1316
16.132
16.1325
16.1329
16.1334
16.1338
16.1343
16.1347
16.1352
16.1357
16.1361
16.1366
16.1371
16.1375
16.138
16.1385
16.139
16.1394
16.1399
16.1404
16.1408
16.1413
16.1418
16.1422
16.1427
16.1432
16.1436
16.1441
16.1445
16.1449
16.1454
16.1458
16.1462
16.1466
16.1471
16.1475
16.1479
16.1483
16.1486
16.149
16.1494
16.1498
16.1501
16.1505
16.1508
16.1511
16.1515
16.1518
16.1521
16.1524
16.1527
16.1529
16.1532
16.1535
16.1537
16.154
16.1542
16.1544
16.1546
16.1548
16.155
16.1552
16.1553
16.1555
16.1556
16.1558
16.1559
16.156
16.1561
16.1562
16.1563
16.1563
16.1564
16.1564
16.1565
16.1565
16.1565
16.1565
SCALARS Stress_Theta double 1
LOOKUP_TABLE default
-303.024
-301.878
-300.784
-298.343
-295.425
-290.693
-285.337
-277.872
-269.136
-257.755
-243.076
-233.348
-190.87
-148.222
-134.522
-118.695
-104.974
-93.9313
-83.9631
-75.7894
-68.3555
-62.1741
-56.5983
-51.7963
-47.4757
-43.6654
-40.2361
-37.1513
-34.3668
-31.8275
-29.5265
-27.408
-25.4803
-23.6945
-22.0633
-20.5459
-19.1552
-17.8581
-16.6658
-15.5515
-14.5249
-13.5638
-12.6767
-11.8448
-11.0758
-10.3535
-9.68493
-9.05569
-8.47283
-7.92309
-7.41348
-6.93178
-6.48496
-6.06165
-5.66879
-5.29571
-4.94931
-4.61957
-4.31327
-4.021
-3.7494
-3.48962
-3.24811
-3.01657
-2.8012
-2.59425
-2.40167
-2.21617
-2.04348
-1.87676
-1.72147
-1.57121
-1.43116
-1.29536
-1.16871
-1.04563
-0.930767
-0.818904
-0.714429
-0.612471
-0.51717
-0.423977
-0.336789
-0.251361
-0.171361
-0.0928244
-0.0192013
0.0532106
0.121168
0.18813
0.251047
0.313152
0.371581
0.429354
0.483781
0.537685
0.58854
0.638988
0.686653
0.73401
0.778825
0.823417
0.865685
0.907803
0.947793
0.987698
1.02565
1.06358
1.09972
1.13588
1.17039
1.20497
1.23804
1.27122
1.30301
1.33493
1.36558
1.39641
1.42606
1.45585
1.48485
-291.982
-289.804
-284.55
-274.792
-258.738
-233.939
-183.017
-129.792
-101.698
-81.3196
-66.3206
-54.977
-46.1683
-39.165
-33.4803
-28.7868
-24.8596
-21.5401
-18.7128
-16.2908
-14.2063
-12.4056
-10.8448
-9.48782
-8.30451
-7.26966
-6.36205
-5.56377
-4.85966
-4.23685
-3.6844
-3.193
-2.75469
-2.36263
-2.01099
-1.69471
-1.40946
-1.15147
-0.917475
-0.704653
-0.510538
-0.332978
-0.170095
-0.0202412
0.118028
0.245983
0.364744
0.475302
0.578531
0.675209
0.766026
0.851599
0.932477
1.00915
1.08207
1.15163
1.21819
1.28208
1.34358
1.40297
1.46064
-281.009
-279.881
-278.87
-276.52
-273.76
-269.313
-264.335
-257.133
-248.761
-238.609
-225.057
-212.67
-175.43
-139.658
-124.824
-110.346
-98.2072
-87.9358
-78.6377
-71.1393
-64.2635
-58.5404
-53.3474
-48.8828
-44.8556
-41.2964
-38.0908
-35.1999
-32.5918
-30.2057
-28.0458
-26.0508
-24.238
-22.5531
-21.0163
-19.5824
-18.2699
-17.0423
-15.9153
-14.8592
-13.8874
-12.9752
-12.1342
-11.3435
-10.6136
-9.92601
-9.29055
-8.69081
-8.13607
-7.61139
-7.12576
-6.66541
-6.23911
-5.83403
-5.45876
-5.1013
-4.77004
-4.45372
-4.16048
-3.87977
-3.61947
-3.36968
-3.13798
-2.91508
-2.70826
-2.50882
-2.3237
-2.14476
-1.97861
-1.81762
-1.66808
-1.52285
-1.38787
-1.2565
-1.13434
-1.01518
-0.904304
-0.795917
-0.695001
-0.596143
-0.504029
-0.413611
-0.329291
-0.24636
-0.168952
-0.0926738
-0.0214044
0.0489546
0.114764
0.179849
0.240796
0.301175
0.357786
0.413962
0.466702
0.51912
0.568402
0.617457
0.663645
0.709688
0.753108
0.796453
0.837395
0.878321
0.917044
0.955803
0.992538
1.02935
1.06431
1.09939
1.13276
1.16628
1.19822
1.23035
1.26103
1.29192
1.32147
1.35126
1.37979
1.40861
1.43637
-270.058
-267.96
-263.009
-253.89
-239.008
-215.521
-168.088
-120.51
-94.5734
-75.9846
-62.2111
-51.7249
-43.5449
-37.0176
-31.7035
-27.3048
-23.6162
-20.4923
-17.8269
-15.5398
-13.5684
-11.8627
-10.3822
-9.0931
-7.96744
-6.98167
-6.11595
-5.35353
-4.6802
-4.08388
-3.55432
-3.08273
-2.66162
-2.28456
-1.94602
-1.64124
-1.36609
-1.11703
-0.890951
-0.685173
-0.497351
-0.32544
-0.167651
-0.0224137
0.11165
0.235754
0.350968
0.45824
0.558406
0.652212
0.740318
0.823317
0.901734
0.976044
1.04667
1.114
1.17837
1.2401
1.29948
1.35676
1.41227
-259.14
-258.024
-257.098
-254.856
-252.295
-248.08
-243.506
-236.643
-229.139
-219.246
-206.562
-193.877
-160.872
-129.738
-115.742
-102.471
-91.0722
-81.9439
-73.3229
-66.5194
-60.1606
-54.9115
-50.098
-45.9767
-42.2328
-38.9323
-35.9436
-33.2529
-30.8149
-28.5872
-26.5636
-24.6962
-22.9943
-21.4137
-19.9682
-18.6203
-17.3837
-16.2276
-15.1641
-14.1677
-13.2492
-12.3871
-11.5911
-10.8427
-10.1507
-9.49884
-8.89557
-8.32613
-7.79876
-7.29983
-6.83754
-6.39913
-5.99278
-5.60647
-5.24831
-4.90693
-4.59038
-4.28788
-4.00733
-3.73854
-3.48922
-3.24973
-3.02755
-2.81359
-2.61505
-2.42339
-2.2455
-2.07334
-1.91352
-1.75847
-1.61448
-1.47447
-1.3444
-1.21763
-1.09981
-0.98471
-0.877691
-0.772915
-0.675438
-0.5798
-0.490767
-0.403232
-0.321684
-0.241348
-0.166445
-0.0925122
-0.0235185
0.0447086
0.10844
0.171577
0.230617
0.289205
0.344056
0.398577
0.449682
0.500561
0.548316
0.595931
0.640684
0.68537
0.727434
0.769493
0.809143
0.848842
0.886329
0.923909
0.959454
0.995131
1.02893
1.0629
1.09514
1.12758
1.15842
1.18948
1.21907
1.2489
1.27738
1.3061
1.33359
1.36132
1.38802
-248.246
-246.252
-241.608
-233.114
-219.42
-197.342
-153.774
-111.255
-87.5037
-70.7007
-58.1205
-48.4803
-40.9251
-34.8726
-29.9283
-25.8239
-22.3735
-19.445
-16.9413
-14.7889
-12.9305
-11.3198
-9.91947
-8.69827
-7.63023
-6.69352
-5.86969
-5.14313
-4.50058
-3.93078
-3.4241
-2.97233
-2.56844
-2.20638
-1.88096
-1.58767
-1.32265
-1.08252
-0.864365
-0.665637
-0.484115
-0.317859
-0.16517
-0.024554
0.1053
0.225548
0.337212
0.441193
0.538294
0.629224
0.714617
0.795038
0.870992
0.942932
1.01127
1.07636
1.13854
1.19811
1.25535
1.3105
1.36386
-237.4
-236.317
-235.47
-233.355
-230.981
-227.036
-222.817
-216.405
-209.658
-200.175
-188.404
-175.787
-146.801
-119.699
-106.609
-94.6242
-84.0236
-75.9449
-68.0619
-61.9037
-56.0784
-51.2873
-46.8584
-43.075
-39.6159
-36.5717
-33.8006
-31.3087
-29.0411
-26.971
-25.0838
-23.3435
-21.7524
-20.2757
-18.9214
-17.6593
-16.4985
-15.4137
-14.4135
-13.4768
-12.6115
-11.7995
-11.0483
-10.3421
-9.68802
-9.07192
-8.50075
-7.96161
-7.46152
-6.98838
-6.54934
-6.13293
-5.74646
-5.37895
-5.03782
-4.71259
-4.41067
-4.12205
-3.85412
-3.59731
-3.35889
-3.12976
-2.91704
-2.71207
-2.52177
-2.33792
-2.16722
-2.00189
-1.84835
-1.69928
-1.56082
-1.42606
-1.30086
-1.17872
-1.06521
-0.954211
-0.851015
-0.749884
-0.655814
-0.563428
-0.477446
-0.392825
-0.31402
-0.236307
-0.163883
-0.0923228
-0.0255803
0.0404899
0.102167
0.163332
0.220485
0.277262
0.330372
0.383218
0.432707
0.482028
0.528273
0.574429
0.617764
0.661078
0.701799
0.742556
0.780931
0.819388
0.855652
0.89204
0.926407
0.960931
0.993593
1.02644
1.05757
1.08891
1.11866
1.14864
1.17715
1.20591
1.23332
1.26098
1.2874
1.31407
1.33968
-226.545
-224.671
-220.346
-212.482
-199.95
-179.365
-139.877
-102.074
-80.526
-65.4534
-54.0429
-45.242
-38.3091
-32.7299
-28.1547
-24.3441
-21.1316
-18.3982
-16.056
-14.0383
-12.2926
-10.7769
-9.45669
-8.30333
-7.29291
-6.40524
-5.62329
-4.93258
-4.32082
-3.77753
-3.29374
-2.8618
-2.47514
-2.12809
-1.81579
-1.53401
-1.27912
-1.04793
-0.837705
-0.646033
-0.470817
-0.310223
-0.162638
-0.026649
0.0989905
0.215379
0.323487
0.424176
0.518207
0.606258
0.688935
0.766776
0.840264
0.909832
0.975869
1.03873
1.09872
1.15613
1.21123
1.26425
1.31545
-215.753
-214.723
-213.948
-211.974
-209.786
-206.132
-202.254
-196.355
-190.278
-181.374
-170.489
-158.354
-133.07
-109.519
-97.5026
-86.7633
-77.069
-69.9436
-62.831
-57.292
-52.0059
-47.6657
-43.6235
-40.1753
-37.0018
-34.2128
-31.6591
-29.3659
-27.2683
-25.356
-23.6045
-21.9917
-20.5109
-19.1384
-17.8749
-16.6988
-15.6134
-14.6002
-13.663
-12.7862
-11.9737
-11.2121
-10.5054
-9.84167
-9.22523
-8.645
-8.10578
-7.59708
-7.12415
-6.6769
-6.26101
-5.8667
-5.5
-5.1514
-4.82722
-4.51821
-4.23085
-3.9562
-3.70081
-3.45606
-3.22848
-3.00979
-2.80646
-2.61056
-2.42842
-2.25246
-2.08888
-1.93045
-1.78314
-1.64011
-1.50712
-1.37768
-1.25729
-1.13984
-1.03058
-0.923741
-0.824322
-0.726884
-0.636181
-0.547091
-0.464121
-0.382456
-0.306359
-0.231308
-0.16133
-0.092178
-0.0276556
0.0362241
0.0958749
0.155037
0.210332
0.265268
0.316662
0.367805
0.415702
0.463439
0.508197
0.552872
0.594808
0.636726
0.676126
0.71556
0.752676
0.789872
0.824931
0.860108
0.893312
0.926667
0.958201
0.989911
1.01994
1.05017
1.07883
1.10772
1.13517
1.16285
1.18919
1.21578
1.24115
1.26674
1.29127
-204.966
-203.226
-199.233
-192.013
-180.623
-161.624
-126.299
-92.9679
-73.6351
-60.234
-49.9779
-42.0115
-35.6981
-30.5908
-26.3836
-22.8662
-19.8911
-17.3524
-15.1714
-13.2882
-11.6551
-10.2342
-8.99404
-7.90845
-6.95557
-6.11692
-5.37681
-4.72194
-4.14096
-3.62416
-3.16326
-2.75115
-2.38172
-2.04968
-1.7505
-1.48024
-1.23547
-1.01323
-0.810939
-0.626327
-0.457422
-0.302492
-0.160016
-0.0286569
0.092765
0.205291
0.309842
0.407234
0.498193
0.583364
0.663323
0.738582
0.809603
0.876798
0.940538
1.00116
1.05896
1.11421
1.16717
1.21805
1.2671
-194.207
-193.247
-192.539
-190.719
-188.717
-185.371
-181.835
-176.479
-171.012
-162.836
-152.842
-141.487
-119.607
-99.2494
-88.4264
-78.8853
-70.2003
-63.9533
-57.621
-52.6878
-47.9438
-44.0491
-40.3947
-37.2793
-34.3916
-31.8568
-29.5204
-27.4255
-25.4975
-23.7429
-22.1267
-20.6413
-19.2704
-18.0022
-16.8291
-15.7392
-14.7288
-13.7873
-12.9128
-12.0959
-11.3362
-10.6249
-9.96268
-9.34142
-8.76253
-8.21825
-7.71086
-7.23267
-6.78678
-6.3655
-5.97266
-5.60051
-5.2535
-4.92388
-4.61656
-4.32385
-4.05098
-3.79036
-3.54745
-3.31481
-3.09801
-2.88982
-2.69583
-2.50904
-2.33501
-2.16701
-2.01049
-1.859
-1.71788
-1.58095
-1.45338
-1.32929
-1.21368
-1.10096
-0.995924
-0.893274
-0.797599
-0.70389
-0.616521
-0.530761
-0.450774
-0.372095
-0.298678
-0.226317
-0.158759
-0.0920431
-0.0297167
0.0319473
0.0895947
0.146731
0.200187
0.25326
0.302958
0.352379
0.398701
0.444836
0.488123
0.531298
0.571853
0.612359
0.650451
0.688547
0.724418
0.760338
0.794205
0.828157
0.860212
0.892384
0.922802
0.953364
0.982302
1.01141
1.039
1.06679
1.09318
1.11977
1.14506
1.17057
1.19488
1.2194
1.24285
-183.473
-181.876
-178.227
-171.671
-161.416
-144.113
-112.955
-83.9066
-66.8054
-55.0301
-45.9204
-38.7853
-33.0898
-28.4533
-24.6136
-21.3889
-18.651
-16.3069
-14.287
-12.5381
-11.0177
-9.69149
-8.53129
-7.51345
-6.61812
-5.82847
-5.13022
-4.51119
-3.96098
-3.4707
-3.0327
-2.64043
-2.28822
-1.97121
-1.68516
-1.42642
-1.19179
-0.97851
-0.784154
-0.606609
-0.444019
-0.294759
-0.157397
-0.0306716
0.0865287
0.195188
0.296178
0.390271
0.478155
0.560443
0.63768
0.710356
0.778907
0.843726
0.905167
0.963547
1.01915
1.07225
1.12306
1.17181
1.21871
-172.762
-171.886
-171.242
-169.586
-167.769
-164.746
-161.556
-156.761
-151.878
-144.528
-135.448
-125.128
-106.366
-88.8977
-79.3888
-71.0047
-63.394
-57.9772
-52.4277
-48.0922
-43.8911
-40.4377
-37.1719
-34.387
-31.7853
-29.5037
-27.3843
-25.4873
-23.7284
-22.1315
-20.6502
-19.2922
-18.0308
-16.867
-15.784
-14.7803
-13.8447
-12.9748
-12.1629
-11.406
-10.6988
-10.038
-9.41998
-8.84126
-8.2998
-7.79152
-7.31585
-6.86822
-6.4493
-6.05404
-5.68417
-5.33425
-5.00686
-4.69627
-4.40576
-4.12939
-3.87095
-3.62442
-3.39393
-3.17346
-2.96739
-2.76974
-2.58504
-2.40742
-2.24146
-2.08145
-1.93197
-1.78746
-1.65249
-1.52169
-1.39951
-1.28082
-1.16996
-1.062
-0.961157
-0.862729
-0.770775
-0.680821
-0.596765
-0.514361
-0.437336
-0.361668
-0.290913
-0.221265
-0.156109
-0.0918496
-0.0317031
0.0277259
0.0833849
0.138477
0.19011
0.241302
0.289317
0.337
0.38176
0.426278
0.468106
0.509768
0.548951
0.588032
0.624827
0.661574
0.69621
0.730843
0.763525
0.796243
0.827156
0.858136
0.887446
0.91685
0.944706
0.972678
0.999214
1.02589
1.05122
1.07671
1.10096
1.12538
1.14865
1.17208
1.19447
-162.072
-160.627
-157.332
-151.456
-142.341
-126.844
-99.8072
-74.8786
-60.0249
-49.8419
-41.872
-35.5651
-30.4853
-26.3185
-22.8456
-19.9132
-17.4121
-15.2622
-13.4032
-11.7884
-10.3805
-9.14896
-8.06869
-7.11856
-6.28072
-5.54005
-4.88363
-4.30043
-3.781
-3.31722
-2.90211
-2.52967
-2.19471
-1.89272
-1.6198
-1.37258
-1.14809
-0.943768
-0.757354
-0.586877
-0.430606
-0.287017
-0.15477
-0.0326817
0.0802951
0.185086
0.282513
0.373306
0.458114
0.537517
0.612032
0.682122
0.748203
0.810646
0.869786
0.925926
0.979338
1.03027
1.07894
1.12555
1.17031
-151.422
-150.638
-150.056
-148.572
-146.941
-144.25
-141.411
-137.193
-132.883
-126.43
-118.305
-109.2
-93.3092
-78.4911
-70.3818
-63.1317
-56.6371
-52.0191
-47.2517
-43.5073
-39.8498
-36.8336
-33.9565
-31.5002
-29.1842
-27.1548
-25.252
-23.5524
-21.9622
-20.5227
-19.1759
-17.9453
-16.793
-15.7334
-14.7401
-13.8226
-12.9615
-12.1634
-11.4137
-10.7169
-10.062
-9.45159
-8.87774
-8.34155
-7.8374
-7.36512
-6.92109
-6.50404
-6.112
-5.74278
-5.39581
-5.06812
-4.7603
-4.46876
-4.195
-3.93501
-3.69095
-3.45852
-3.24042
-3.03214
-2.83677
-2.64968
-2.47425
-2.3058
-2.1479
-1.99589
-1.85342
-1.71592
-1.58708
-1.46241
-1.34561
-1.23233
-1.1262
-1.02302
-0.926355
-0.832165
-0.743913
-0.657732
-0.576972
-0.497939
-0.423862
-0.351218
-0.28311
-0.216188
-0.153422
-0.0916314
-0.0336527
0.0235296
0.0772114
0.130248
0.180067
0.22937
0.275712
0.321647
0.364854
0.407746
0.448123
0.488264
0.526084
0.563732
0.599237
0.634627
0.668035
0.701374
0.732879
0.764356
0.794134
0.823917
0.852124
0.880365
0.907144
0.93398
0.959458
0.985013
1.00931
1.03369
1.0569
1.08022
1.10245
1.12479
1.14613
-140.758
-139.472
-136.537
-131.355
-123.392
-109.807
-86.82
-65.8714
-53.2817
-44.6682
-37.8326
-32.3506
-27.8848
-24.1865
-21.0796
-18.439
-16.1743
-14.2184
-12.5201
-11.0393
-9.74364
-8.60667
-7.60625
-6.72375
-5.94338
-5.25166
-4.63705
-4.08966
-3.60099
-3.1637
-2.77149
-2.41889
-2.10115
-1.81419
-1.55441
-1.31871
-1.10436
-0.908997
-0.730527
-0.567121
-0.41717
-0.279255
-0.152126
-0.0346753
0.0740762
0.174997
0.26886
0.35635
0.438081
0.514598
0.58639
0.653894
0.717502
0.777568
0.834407
0.888306
0.939522
0.988288
1.03481
1.07929
1.1219
-130.149
-129.463
-128.942
-127.635
-126.191
-123.844
-121.359
-117.73
-113.994
-108.488
-101.371
-93.6124
-80.3892
-68.0297
-61.3855
-55.2618
-49.9091
-46.0713
-42.0863
-38.9281
-35.815
-33.2331
-30.745
-28.6159
-26.5857
-24.8078
-23.1214
-21.6191
-20.1973
-18.915
-17.7025
-16.5992
-15.5558
-14.6005
-13.6968
-12.8654
-12.0787
-11.3523
-10.6648
-10.028
-9.42531
-8.86536
-8.33557
-7.84194
-7.37504
-6.93879
-6.52635
-6.13989
-5.7747
-5.43153
-5.10744
-4.80201
-4.51372
-4.24127
-3.98423
-3.74063
-3.51094
-3.29263
-3.0869
-2.89083
-2.70614
-2.52963
-2.36345
-2.20421
-2.05433
-1.91035
-1.77488
-1.6444
-1.52167
-1.40317
-1.29173
-1.18387
-1.08246
-0.984073
-0.891572
-0.801634
-0.717075
-0.634678
-0.557206
-0.481554
-0.410416
-0.340808
-0.27534
-0.211154
-0.15077
-0.091457
-0.0356392
0.0192878
0.0709988
0.121973
0.169984
0.21739
0.262064
0.306243
0.347903
0.389162
0.428094
0.466707
0.503168
0.539378
0.573598
0.607625
0.639808
0.671849
0.702181
0.732411
0.761057
0.789637
0.816746
0.843819
0.869525
0.89522
0.919643
0.944077
0.967328
0.990606
1.01278
1.035
1.05619
1.07743
1.09773
-119.541
-118.417
-115.847
-111.369
-104.574
-92.9924
-73.9725
-56.8824
-46.5708
-39.5113
-33.8041
-29.1434
-25.2895
-22.0584
-19.3165
-16.967
-14.9382
-13.1759
-11.6379
-10.2909
-9.10737
-8.0648
-7.14411
-6.32917
-5.60619
-4.96336
-4.39052
-3.87891
-3.42098
-3.01017
-2.64084
-2.30806
-2.00755
-1.7356
-1.48895
-1.26477
-1.06057
-0.874161
-0.703634
-0.547299
-0.403668
-0.271428
-0.149417
-0.0366053
0.0679202
0.164971
0.255268
0.339456
0.418108
0.491739
0.560807
0.625724
0.686861
0.744549
0.799087
0.850745
0.899766
0.946369
0.990752
1.03309
1.07356
-108.949
-108.366
-107.906
-106.781
-105.523
-103.526
-101.398
-98.3682
-95.208
-90.6937
-84.64
-78.298
-67.585
-57.544
-52.3907
-47.3989
-43.2079
-40.1369
-36.9337
-34.357
-31.7888
-29.6384
-27.5392
-25.7358
-23.9913
-22.4641
-20.9939
-19.6881
-18.4347
-17.3093
-16.2307
-15.2545
-14.3199
-13.4686
-12.6544
-11.909
-11.1966
-10.5418
-9.91648
-9.33957
-8.78908
-8.27953
-7.79373
-7.34262
-6.91294
-6.51269
-6.1318
-5.77591
-5.43753
-5.12042
-4.81917
-4.536
-4.26723
-4.01384
-3.77352
-3.54631
-3.33097
-3.12679
-2.93341
-2.74955
-2.57553
-2.40961
-2.25266
-2.10263
-1.96078
-1.82483
-1.69634
-1.57289
-1.45626
-1.34393
-1.23785
-1.13542
-1.03872
-0.945135
-0.856793
-0.771113
-0.690241
-0.611634
-0.537443
-0.46518
-0.396975
-0.330408
-0.267574
-0.206129
-0.148123
-0.0912933
-0.0376317
0.0150351
0.0647797
0.113686
0.159894
0.205397
0.248408
0.290828
0.330944
0.370566
0.408056
0.445137
0.480243
0.515011
0.547948
0.580609
0.611571
0.64231
0.671471
0.700453
0.727969
0.755344
0.781356
0.807259
0.831893
0.856445
0.879816
0.903126
0.925336
0.947504
0.968646
0.989761
1.00992
1.03006
1.04932
-98.3806
-97.4215
-95.222
-91.4546
-85.8435
-76.35
-61.2207
-47.8926
-39.8772
-34.3647
-29.7816
-25.9401
-22.6968
-19.9321
-17.5548
-15.496
-13.7028
-12.1339
-10.7561
-9.5427
-8.47126
-7.52303
-6.68203
-5.93462
-5.26901
-4.67507
-4.14398
-3.66815
-3.24095
-2.85663
-2.51017
-2.19721
-1.91394
-1.65701
-1.4235
-1.21084
-1.01678
-0.839334
-0.676753
-0.527492
-0.390185
-0.263622
-0.146731
-0.0385606
0.0617368
0.154915
0.241645
0.322528
0.398101
0.468844
0.535186
0.597515
0.656178
0.711487
0.763723
0.813139
0.859964
0.904402
0.94664
0.986846
1.02517
-87.8215
-87.3433
-86.9452
-86.0028
-84.9329
-83.2903
-81.5201
-79.0968
-76.5198
-73.0214
-68.0774
-63.2142
-54.8752
-47.0323
-43.4019
-39.5486
-36.526
-34.2153
-31.7943
-29.7944
-27.7709
-26.0496
-24.3389
-22.86
-21.4006
-20.1234
-18.8691
-17.7596
-16.6741
-15.7053
-14.7606
-13.9112
-13.0851
-12.3378
-11.6128
-10.9534
-10.3152
-9.73191
-9.16856
-8.65153
-8.15315
-7.69394
-7.25209
-6.84346
-6.45095
-6.08667
-5.7373
-5.41197
-5.10039
-4.80931
-4.53089
-4.26997
-4.02069
-3.78638
-3.56275
-3.35193
-3.15093
-2.96088
-2.77985
-2.60821
-2.44484
-2.28952
-2.1418
-2.00098
-1.86714
-1.73923
-1.61772
-1.50131
-1.39078
-1.28463
-1.18389
-1.0869
-0.994902
-0.906127
-0.82194
-0.740524
-0.663335
-0.588525
-0.517612
-0.448742
-0.383468
-0.319947
-0.259745
-0.201047
-0.145415
-0.0910735
-0.0395663
0.0108362
0.0586161
0.10545
0.149857
0.193455
0.234803
0.275461
0.314034
0.352017
0.388066
0.423613
0.457364
0.490687
0.522343
0.553636
0.583378
0.612812
0.640803
0.668534
0.694922
0.72109
0.746006
0.770737
0.794301
0.817708
0.840026
0.862212
0.883382
0.904439
0.924548
0.944559
0.963685
0.982725
1.00094
-77.281
-76.4889
-74.6613
-71.6079
-67.1967
-59.8577
-48.5479
-38.9027
-33.1998
-29.2303
-25.767
-22.7422
-20.108
-17.8088
-15.7954
-14.0268
-12.4688
-11.0929
-9.87512
-8.79515
-7.83563
-6.98163
-6.22025
-5.54029
-4.93201
-4.3869
-3.89755
-3.45748
-3.06099
-2.70314
-2.37955
-2.08641
-1.82036
-1.57844
-1.35806
-1.15692
-0.973005
-0.80452
-0.649885
-0.507697
-0.376712
-0.255826
-0.144056
-0.0405263
0.0555429
0.144848
0.228011
0.30559
0.378083
0.445937
0.509554
0.569295
0.625484
0.678414
0.728347
0.775521
0.820149
0.862423
0.902516
0.940586
0.976767
-66.7652
-66.3933
-66.0561
-65.2979
-64.4154
-63.1295
-61.7158
-59.9052
-57.9181
-55.4529
-51.6569
-48.3148
-42.241
-36.5022
-34.4185
-31.7134
-29.8623
-28.3085
-26.6696
-25.2427
-23.7628
-22.4689
-21.1457
-19.9901
-18.8153
-17.7873
-16.7484
-15.8344
-14.9166
-14.104
-13.2928
-12.57
-11.8523
-11.2087
-10.5728
-9.99912
-9.43491
-8.92303
-8.42159
-7.96432
-7.51796
-7.109
-6.71103
-6.34482
-5.98942
-5.66107
-5.34317
-5.04836
-4.76353
-4.49845
-4.24283
-4.00413
-3.77433
-3.55907
-3.35212
-3.15768
-2.97099
-2.79507
-2.62637
-2.46693
-2.31421
-2.16948
-2.03097
-1.89937
-1.77353
-1.65365
-1.53912
-1.42974
-1.32531
-1.22532
-1.12993
-1.03838
-0.951084
-0.867115
-0.78708
-0.709927
-0.636418
-0.565404
-0.497767
-0.43229
-0.369944
-0.309469
-0.251897
-0.195946
-0.142687
-0.0908331
-0.0414781
0.00665927
0.0524767
0.0972384
0.139845
0.181536
0.221225
0.260119
0.297151
0.333494
0.368103
0.402115
0.434513
0.466392
0.496767
0.526691
0.555214
0.583344
0.610167
0.636646
0.661907
0.686867
0.710689
0.734247
0.756742
0.779003
0.800271
0.821332
0.841464
0.861409
0.880485
0.899392
0.917487
0.935424
0.952597
-56.2353
-55.6106
-54.1553
-51.8159
-48.616
-43.482
-35.9315
-29.9102
-26.535
-24.1074
-21.7598
-19.5496
-17.5233
-15.6885
-14.0382
-12.5592
-11.2361
-10.053
-8.99491
-8.04821
-7.20046
-6.44059
-5.75874
-5.14618
-4.59517
-4.09887
-3.65122
-3.24687
-2.88109
-2.54968
-2.24895
-1.97562
-1.72678
-1.49988
-1.29263
-1.10301
-0.929231
-0.769705
-0.623014
-0.487898
-0.363236
-0.248027
-0.141377
-0.0424883
0.0493525
0.134785
0.214381
0.288654
0.358067
0.423032
0.483924
0.541076
0.594791
0.645342
0.692972
0.737903
0.780334
0.820444
0.858393
0.894325
0.928364
-45.7451
-45.4796
-45.2033
-44.6295
-43.9341
-43.0051
-41.9468
-40.752
-39.3614
-37.9414
-35.3252
-33.5361
-29.6448
-25.941
-25.4263
-23.8827
-23.2057
-22.4091
-21.5532
-20.6969
-19.76
-18.8923
-17.9561
-17.1232
-16.2327
-15.4533
-14.6296
-13.9109
-13.1605
-12.5039
-11.8261
-11.2296
-10.6202
-10.0801
-9.5333
-9.04525
-8.55502
-8.11444
-7.67489
-7.27732
-6.88297
-6.52421
-6.17011
-5.84628
-5.52799
-5.23553
-4.9491
-4.68478
-4.42671
-4.18762
-3.95479
-3.73831
-3.52799
-3.33176
-3.1415
-2.96342
-2.79106
-2.62924
-2.47288
-2.32565
-2.18357
-2.04943
-1.92014
-1.79774
-1.67992
-1.56807
-1.46052
-1.35817
-1.25983
-1.16602
-1.07597
-0.989865
-0.907268
-0.828106
-0.752223
-0.679334
-0.609506
-0.54229
-0.477929
-0.415847
-0.356429
-0.299002
-0.24406
-0.190857
-0.139972
-0.0906075
-0.0434052
0.0024659
0.0463202
0.0890083
0.129815
0.169599
0.207626
0.244756
0.280246
0.314948
0.348118
0.380593
0.411638
0.442071
0.471166
0.49972
0.527024
0.553847
0.579502
0.604729
0.628862
0.652613
0.675341
0.697725
0.719151
0.740266
0.760483
0.780418
0.799511
0.818343
0.836388
0.854189
0.871252
0.888087
0.90422
-35.2359
-34.7781
-33.6938
-32.0651
-30.0826
-27.1886
-23.3501
-20.9132
-19.88
-18.9952
-17.76
-16.3624
-14.9425
-13.5712
-12.2833
-11.0935
-10.0047
-9.01403
-8.11548
-7.30188
-6.56577
-5.89991
-5.2975
-4.75227
-4.25848
-3.81094
-3.40496
-3.03632
-2.70122
-2.39625
-2.11837
-1.86483
-1.63321
-1.42131
-1.22718
-1.04908
-0.885441
-0.734872
-0.596125
-0.468082
-0.349742
-0.240209
-0.13868
-0.0444325
0.0431797
0.124738
0.200767
0.271735
0.338067
0.400144
0.458309
0.512872
0.564113
0.612284
0.657611
0.7003
0.740533
0.778478
0.814283
0.848078
0.879974
-24.76
-24.5997
-24.3844
-23.9937
-23.4847
-22.9107
-22.2055
-21.626
-20.8366
-20.4675
-19.0539
-18.841
-17.0696
-15.3507
-16.426
-16.0581
-16.5565
-16.5194
-16.4463
-16.1593
-15.764
-15.3219
-14.7718
-14.2609
-13.6541
-13.1228
-12.5139
-11.9899
-11.4069
-10.9058
-10.3613
-9.8908
-9.38959
-8.95278
-8.49502
-8.09238
-7.67611
-7.30667
-6.92898
-6.59098
-6.24862
-5.93997
-5.62973
-5.34819
-5.067
-4.81037
-4.5554
-4.32152
-4.0902
-3.87705
-3.66702
-3.47272
-3.28187
-3.10465
-2.93106
-2.76933
-2.61129
-2.46357
-2.31954
-2.1845
-2.05307
-1.9295
-1.80943
-1.69623
-1.58641
-1.48259
-1.38201
-1.28668
-1.19444
-1.1068
-1.0221
-0.941421
-0.863527
-0.789166
-0.717436
-0.648807
-0.58266
-0.519237
-0.458152
-0.399462
-0.342973
-0.288591
-0.236278
-0.185821
-0.137309
-0.0904321
-0.0453824
-0.00177573
0.0401155
0.0807317
0.119738
0.157616
0.193982
0.229349
0.263298
0.296359
0.32809
0.35903
0.388722
0.417709
0.445524
0.472709
0.498793
0.524312
0.548798
0.572773
0.595779
0.618322
0.639955
0.661166
0.681522
0.701492
0.720658
0.739467
0.757521
0.775241
0.792253
0.80895
0.824981
0.840714
0.855806
-14.2867
-13.9939
-13.2776
-12.3527
-11.587
-10.9512
-10.7891
-11.9144
-13.236
-13.8953
-13.7691
-13.1822
-12.3671
-11.458
-10.5316
-9.63017
-8.77529
-7.97667
-7.2373
-6.55654
-5.93186
-5.35986
-4.83677
-4.35876
-3.92211
-3.52327
-3.15891
-2.82593
-2.52147
-2.24291
-1.98785
-1.7541
-1.53967
-1.34276
-1.16175
-0.99515
-0.841643
-0.700026
-0.569218
-0.448242
-0.336221
-0.232362
-0.135951
-0.0463436
0.0370416
0.114729
0.18719
0.254855
0.318107
0.377295
0.432735
0.484711
0.533479
0.579271
0.622296
0.662742
0.70078
0.736562
0.770222
0.801882
0.831636
-3.80793
-3.75043
-3.59628
-3.38581
-3.06241
-2.83861
-2.48369
-2.51399
-2.32785
-3.00832
-2.81412
-4.18992
-4.49594
-4.73274
-7.41475
-8.24012
-9.91309
-10.6404
-11.348
-11.6304
-11.7747
-11.758
-11.5927
-11.4033
-11.0796
-10.7957
-10.4014
-10.0716
-9.65564
-9.30954
-8.89836
-8.55344
-8.16042
-7.82657
-7.45783
-7.14037
-6.79806
-6.49957
-6.18374
-5.90516
-5.61481
-5.35613
-5.08975
-4.85041
-4.60634
-4.38544
-4.16195
-3.95845
-3.75389
-3.56663
-3.37941
-3.20723
-3.03586
-2.87762
-2.72072
-2.5753
-2.4316
-2.29794
-2.16625
-2.04337
-1.9226
-1.80958
-1.69875
-1.59473
-1.49292
-1.39711
-1.30351
-1.2152
-1.12906
-1.04757
-0.968219
-0.892966
-0.819781
-0.750214
-0.682642
-0.618266
-0.555804
-0.496169
-0.438365
-0.383061
-0.329505
-0.278163
-0.228484
-0.180769
-0.134633
-0.0902403
-0.047346
-0.00600099
0.0339247
0.0724713
0.109675
0.145649
0.180353
0.213958
0.246364
0.277786
0.308076
0.337482
0.36582
0.393363
0.419896
0.445713
0.470577
0.494791
0.518107
0.540832
0.562709
0.584045
0.604583
0.624622
0.643908
0.662732
0.680847
0.698531
0.715545
0.732154
0.748134
0.763727
0.778724
0.793357
0.807406
6.65205
6.78259
7.13489
7.36405
6.91819
5.28771
1.7908
-2.89849
-6.59201
-8.80025
-9.78247
-10.0054
-9.7945
-9.34696
-8.78155
-8.16813
-7.54684
-6.94006
-6.3597
-5.81166
-5.29833
-4.82012
-4.37629
-3.96546
-3.58592
-3.23575
-2.91298
-2.61565
-2.34183
-2.08967
-1.85742
-1.64344
-1.4462
-1.26428
-1.09638
-0.941286
-0.797908
-0.665241
-0.542369
-0.428461
-0.322758
-0.224572
-0.133279
-0.0483099
0.0308486
0.104664
0.17356
0.23792
0.298092
0.354393
0.407107
0.456494
0.502788
0.546201
0.586924
0.625128
0.66097
0.694587
0.726103
0.755626
0.783236
17.1056
17.064
17.1569
17.1911
17.3304
17.2114
17.2198
16.5897
16.1733
14.4534
13.4249
10.4409
8.08963
5.9167
1.5999
-0.432839
-3.27699
-4.77512
-6.26027
-7.11261
-7.79392
-8.20238
-8.42045
-8.55185
-8.5105
-8.47319
-8.29309
-8.15666
-7.90769
-7.71599
-7.43797
-7.21815
-6.93327
-6.70198
-6.42225
-6.18963
-5.92129
-5.69348
-5.43952
-5.22015
-4.9818
-4.77294
-4.55043
-4.35315
-4.14619
-3.96093
-3.76892
-3.5957
-3.4179
-3.25646
-3.09205
-2.94194
-2.79006
-2.65074
-2.51054
-2.38138
-2.25202
-2.13239
-2.01305
-1.9023
-1.7922
-1.6897
-1.5881
-1.49324
-1.39945
-1.31163
-1.22503
-1.1437
-1.06367
-0.988328
-0.91433
-0.844488
-0.776015
-0.711232
-0.647822
-0.58769
-0.528918
-0.473062
-0.418542
-0.366618
-0.315998
-0.26769
-0.220648
-0.175669
-0.131913
-0.0899999
-0.0492639
-0.0101761
0.0277815
0.0642624
0.0996611
0.133735
0.166774
0.198621
0.229482
0.259268
0.288115
0.31599
0.342971
0.369072
0.394323
0.418774
0.442417
0.465329
0.487474
0.508949
0.529698
0.549828
0.569269
0.588138
0.606353
0.624034
0.641097
0.657657
0.673632
0.689131
0.704077
0.718568
0.732532
0.746066
0.759071
27.5726
27.5449
27.5392
27.0842
25.4402
21.5524
14.4031
6.13107
0.0502013
-3.71171
-5.80192
-6.8339
-7.22606
-7.23921
-7.03402
-6.70807
-6.31994
-5.90466
-5.48308
-5.06756
-4.66543
-4.28089
-3.91622
-3.57251
-3.25001
-2.94846
-2.66725
-2.40553
-2.16231
-1.93653
-1.72707
-1.53286
-1.35279
-1.18585
-1.03105
-0.887455
-0.7542
-0.630478
-0.51554
-0.408695
-0.309307
-0.216792
-0.130615
-0.0502833
0.0246499
0.0945948
0.159925
0.220982
0.278075
0.331489
0.381478
0.428278
0.472099
0.513133
0.551553
0.587516
0.621161
0.652614
0.681987
0.709373
0.734838
38.0177
37.8823
37.9134
37.7766
37.7328
37.2805
36.9451
35.7303
34.7125
31.9688
29.7177
25.1081
20.7264
16.6167
10.6347
7.37461
3.36276
1.08302
-1.1753
-2.60113
-3.81686
-4.65144
-5.25176
-5.70375
-5.94429
-6.15303
-6.18703
-6.24336
-6.16146
-6.12355
-5.97889
-5.88365
-5.70712
-5.57796
-5.38743
-5.23933
-5.04511
-4.88772
-4.69577
-4.53539
-4.34916
-4.18994
-4.0114
-3.85605
-3.68628
-3.53655
-3.37608
-3.23306
-3.08207
-2.94637
-2.80481
-2.67671
-2.54436
-2.42391
-2.30044
-2.18751
-2.07251
-1.96688
-1.85991
-1.76127
-1.66185
-1.56985
-1.4775
-1.39177
-1.30603
-1.22618
-1.14658
-1.07222
-0.998322
-0.929101
-0.860474
-0.796028
-0.732281
-0.672268
-0.613032
-0.557132
-0.50206
-0.449973
-0.398748
-0.350194
-0.302518
-0.257237
-0.212839
-0.170589
-0.12922
-0.0897795
-0.0512082
-0.014372
0.0216116
0.056032
0.0896206
0.121798
0.153168
0.183261
0.212572
0.240726
0.268126
0.294474
0.320095
0.344757
0.368722
0.391809
0.414227
0.435839
0.456811
0.47704
0.496656
0.515583
0.533925
0.551625
0.568767
0.585307
0.601315
0.616754
0.631686
0.646077
0.659987
0.673378
0.686306
0.698744
0.710699
48.4815
48.301
47.9445
46.8193
43.9983
37.8774
27.0703
15.1776
6.69348
1.37203
-1.82704
-3.66754
-4.66188
-5.13482
-5.28914
-5.25006
-5.09465
-4.87054
-4.60746
-4.32427
-4.03318
-3.74218
-3.45658
-3.17989
-2.91437
-2.66139
-2.4217
-2.19555
-1.98291
-1.78348
-1.59681
-1.42233
-1.25943
-1.10746
-0.96575
-0.833645
-0.710508
-0.595726
-0.488717
-0.388932
-0.295857
-0.20901
-0.127946
-0.0522505
0.0184587
0.0845342
0.1463
0.204054
0.25807
0.308596
0.355861
0.400073
0.441422
0.480078
0.516196
0.549917
0.581367
0.610656
0.637885
0.663136
0.686454
58.9288
58.707
58.675
58.3744
58.1481
57.3754
56.6978
54.9199
53.3031
49.5605
46.0934
39.8422
33.4334
27.3701
19.69
15.179
10.0064
6.9306
3.9064
1.90159
0.154981
-1.1071
-2.08825
-2.86052
-3.38251
-3.83644
-4.08457
-4.3327
-4.4181
-4.5331
-4.5221
-4.55069
-4.4828
-4.45517
-4.3541
-4.29002
-4.17014
-4.08278
-3.95302
-3.85133
-3.71737
-3.60754
-3.47308
-3.35945
-3.22697
-3.11259
-2.98376
-2.87078
-2.74669
-2.6366
-2.51797
-2.41177
-2.299
-2.19733
-2.09063
-1.99385
-1.89326
-1.80155
-1.70699
-1.62039
-1.5317
-1.45014
-1.36709
-1.29044
-1.21276
-1.14084
-1.06827
-1.00086
-0.9331
-0.869973
-0.806736
-0.747657
-0.688654
-0.633386
-0.578339
-0.52665
-0.475293
-0.426955
-0.379036
-0.333835
-0.289115
-0.246845
-0.205102
-0.165568
-0.126594
-0.0896138
-0.053215
-0.0186196
0.015383
0.0477524
0.0795245
0.109815
0.139509
0.167856
0.195612
0.222141
0.248089
0.272915
0.297173
0.320402
0.343076
0.364805
0.385995
0.406313
0.426108
0.445094
0.463575
0.481303
0.498543
0.515078
0.531144
0.546546
0.561496
0.575817
0.589705
0.602991
0.615862
0.628156
0.640046
0.651392
0.66229
69.3734
69.0471
68.3487
66.5696
62.6006
54.2884
39.81
24.2405
13.3378
6.45038
2.14063
-0.50799
-2.10344
-3.03509
-3.54796
-3.79499
-3.87171
-3.8383
-3.73337
-3.58223
-3.40194
-3.2043
-2.99763
-2.78785
-2.57921
-2.37471
-2.17646
-1.98584
-1.80373
-1.63061
-1.46668
-1.31192
-1.16616
-1.02914
-0.900503
-0.779874
-0.666842
-0.56099
-0.461902
-0.36917
-0.2824
-0.201217
-0.125262
-0.0541982
0.0122906
0.0744999
0.132704
0.187158
0.238098
0.285739
0.330282
0.371909
0.410787
0.447066
0.480884
0.512366
0.541621
0.568749
0.593835
0.616951
0.638121
79.8389
79.5412
79.4434
78.9887
78.5793
77.5034
76.4833
74.1721
71.9589
67.2536
62.5834
54.6759
46.2335
38.1806
28.7692
22.9777
16.657
12.7658
8.98706
6.3947
4.12234
2.43031
1.07025
-0.022222
-0.825183
-1.52331
-1.98577
-2.42449
-2.67766
-2.94443
-3.06761
-3.21905
-3.26032
-3.3334
-3.32223
-3.34151
-3.29635
-3.27849
-3.21123
-3.16779
-3.08635
-3.02556
-2.93539
-2.8632
-2.76818
-2.68893
-2.59186
-2.50874
-2.41166
-2.32703
-2.23141
-2.14697
-2.05388
-1.97086
-1.88102
-1.80028
-1.71418
-1.6363
-1.55422
-1.47958
-1.40166
-1.33048
-1.25676
-1.18913
-1.11957
-1.05552
-0.990023
-0.929506
-0.867927
-0.810854
-0.753037
-0.699291
-0.645058
-0.594505
-0.543671
-0.496164
-0.448543
-0.403932
-0.359338
-0.317468
-0.275722
-0.236443
-0.19737
-0.160535
-0.12397
-0.0894357
-0.0552222
-0.0228539
0.0091562
0.039487
0.0694321
0.0978461
0.125855
0.152466
0.178659
0.203572
0.228061
0.251373
0.274259
0.296063
0.317441
0.337819
0.357775
0.376803
0.395416
0.413165
0.430506
0.44704
0.463174
0.478549
0.493535
0.507803
0.521693
0.534899
0.547739
0.559924
0.571753
0.582955
0.593802
0.60406
0.613897
90.2858
89.8221
88.7913
86.3755
81.2934
70.8452
52.6674
33.3373
19.9952
11.5315
6.10609
2.64803
0.451591
-0.93822
-1.80909
-2.34177
-2.65023
-2.80724
-2.86023
-2.84096
-2.77136
-2.66698
-2.53914
-2.3962
-2.24439
-2.08834
-1.93149
-1.77636
-1.62475
-1.47792
-1.33672
-1.20166
-1.07303
-0.950942
-0.835374
-0.726212
-0.623278
-0.526349
-0.435176
-0.349492
-0.269025
-0.193501
-0.122651
-0.0562166
0.00605429
0.0643994
0.119044
0.1702
0.218064
0.262822
0.304644
0.343686
0.380093
0.413996
0.445514
0.474756
0.501818
0.526783
0.549727
0.570709
0.589727
100.741
100.38
100.213
99.6156
99.023
97.6633
96.3025
93.4905
90.6923
85.062
79.2227
69.6303
59.1466
49.0533
37.8641
30.7678
23.3103
18.5853
14.0646
10.8756
8.08331
5.95882
4.22195
2.80969
1.72616
0.785233
0.108088
-0.519616
-0.941206
-1.35824
-1.61631
-1.88931
-2.04038
-2.21311
-2.29241
-2.39419
-2.42422
-2.47516
-2.47078
-2.48505
-2.45643
-2.44424
-2.39861
-2.36749
-2.31014
-2.2657
-2.20057
-2.14706
-2.07713
-2.01774
-1.94527
-1.88241
-1.8091
-1.74458
-1.67169
-1.60686
-1.53532
-1.47116
-1.40162
-1.33885
-1.27176
-1.21087
-1.14654
-1.08787
-1.02647
-0.970233
-0.911843
-0.858163
-0.802803
-0.751732
-0.69937
-0.650913
-0.601481
-0.555604
-0.509011
-0.465654
-0.421793
-0.380877
-0.339631
-0.301066
-0.262312
-0.226002
-0.189617
-0.155459
-0.121319
-0.0892128
-0.0571981
-0.027041
0.00296454
0.0312707
0.0593782
0.0859285
0.112244
0.137129
0.161751
0.185057
0.208079
0.229887
0.251395
0.271781
0.291856
0.31089
0.329607
0.347353
0.364779
0.381297
0.397494
0.412839
0.427863
0.442083
0.455986
0.469125
0.481951
0.494048
0.505836
0.516925
0.527708
0.537824
0.547629
0.556797
0.565575
111.209
110.619
109.268
106.237
100.088
87.5821
65.6679
42.4656
26.6627
16.6134
10.0674
5.79868
3.00157
1.15437
-0.073694
-0.891325
-1.43098
-1.77797
-1.98855
-2.1009
-2.14176
-2.13048
-2.08134
-2.00514
-1.91006
-1.80237
-1.68687
-1.56718
-1.44603
-1.32546
-1.20694
-1.09156
-0.980034
-0.872863
-0.770344
-0.672635
-0.579787
-0.491771
-0.408504
-0.32986
-0.255688
-0.185818
-0.12007
-0.0582595
-0.00020289
0.0542813
0.105369
0.153229
0.198021
0.239897
0.278999
0.315458
0.349396
0.380924
0.410144
0.437148
0.462016
0.48482
0.505622
0.524475
0.541339
121.683
121.259
121.028
120.29
119.527
117.89
116.211
112.908
109.574
103.023
96.096
84.7509
72.224
60.016
46.9743
38.5677
29.9609
24.4009
19.1388
15.3508
12.0402
9.48258
7.36958
5.63818
4.27394
3.09148
2.19906
1.38374
0.792991
0.22694
-0.166782
-0.560263
-0.821838
-1.09332
-1.2637
-1.44725
-1.553
-1.67214
-1.73108
-1.80256
-1.82714
-1.86313
-1.86235
-1.87196
-1.85253
-1.84264
-1.80965
-1.78552
-1.74291
-1.70857
-1.65939
-1.61796
-1.56454
-1.5184
-1.46255
-1.41352
-1.35662
-1.30609
-1.24916
-1.19818
-1.14199
-1.09133
-1.03643
-0.986661
-0.933457
-0.884988
-0.833742
-0.786863
-0.737747
-0.692651
-0.645764
-0.602573
-0.557959
-0.516738
-0.4744
-0.435177
-0.395087
-0.357854
-0.319964
-0.284695
-0.248941
-0.215591
-0.181898
-0.150413
-0.118702
-0.0890184
-0.0592052
-0.0312563
-0.00325685
0.0230265
0.0492958
0.0739832
0.0986039
0.121764
0.144815
0.166514
0.18807
0.208373
0.228505
0.247471
0.266246
0.283934
0.301413
0.317875
0.334116
0.349401
0.364456
0.37861
0.392527
0.405589
0.418411
0.430419
0.442183
0.453167
0.463908
0.473897
0.483643
0.492658
0.501448
0.509493
0.517248
132.159
131.458
129.803
126.191
119.042
104.578
78.8625
51.6213
33.3272
21.6882
14.021
8.94223
5.54554
3.24209
1.65784
0.55606
-0.214167
-0.750672
-1.11848
-1.36215
-1.51326
-1.59489
-1.62431
-1.61471
-1.57626
-1.51686
-1.44263
-1.35831
-1.26757
-1.17321
-1.07735
-0.981609
-0.887165
-0.794889
-0.705401
-0.61913
-0.536354
-0.457241
-0.38187
-0.310258
-0.242374
-0.178152
-0.117499
-0.0603093
-0.00646309
0.0441635
0.0916971
0.136263
0.177986
0.216982
0.253366
0.287243
0.318714
0.347868
0.374791
0.399557
0.422233
0.442879
0.461547
0.478284
0.492998
70.3912
70.1613
70.0339
69.6178
69.1899
68.2807
67.3435
65.5301
63.6734
60.0823
56.1753
49.7831
42.6317
35.4611
28.1658
23.2663
18.4559
15.242
12.2517
10.0508
8.13076
6.62749
5.37258
4.33873
3.5051
2.78476
2.22048
1.71151
1.32249
0.958534
0.686332
0.424058
0.231983
0.04264
-0.0928185
-0.22875
-0.323109
-0.419253
-0.483125
-0.549271
-0.590196
-0.633562
-0.657085
-0.683113
-0.693424
-0.706279
-0.706608
-0.709509
-0.702372
-0.697824
-0.685191
-0.675142
-0.658557
-0.644525
-0.625192
-0.608357
-0.587213
-0.568489
-0.546256
-0.526346
-0.503579
-0.483024
-0.460143
-0.439355
-0.416675
-0.395964
-0.373718
-0.353317
-0.331675
-0.311754
-0.290835
-0.271517
-0.251403
-0.232774
-0.213515
-0.195632
-0.177256
-0.160155
-0.142675
-0.126373
-0.109786
-0.094289
-0.0785843
-0.0638877
-0.0490477
-0.03514
-0.0211418
-0.00800653
0.00517556
0.0175585
0.0299523
0.041605
0.0532392
0.0641851
0.0750888
0.0853518
0.0955533
0.105157
0.114684
0.123652
0.132531
0.140886
0.149141
0.156903
0.164558
0.171748
0.178825
0.185459
0.191977
0.198074
0.20405
0.209623
0.215073
0.220135
0.225073
0.229635
0.234074
0.238141
0.242085
0.245689
0.249058
-1.7088
-1.67985
-1.56964
-1.37613
-1.08348
-0.675861
-0.202048
0.148038
0.295313
0.324392
0.303122
0.263349
0.219277
0.177399
0.140495
0.109444
0.0841537
0.0640597
0.0484164
0.0364525
0.0274553
0.0208067
0.015993
0.0125997
0.0102991
0.00883557
0.00801134
0.00767405
0.00770637
0.00801781
0.00853832
0.00921345
0.0100007
0.0108668
0.0117857
0.0127369
0.0137042
0.0146751
0.0156398
0.0165908
0.0175221
0.0184294
0.0193096
0.0201601
0.0209794
0.0217663
0.0225203
0.023241
0.0239284
0.0245825
0.0252036
0.0257922
0.0263485
0.0268731
0.0273663
0.0278286
0.0282603
0.0286618
0.0290334
0.0293756
0.0296877
-1.57049
-1.57159
-1.54271
-1.50217
-1.43502
-1.35775
-1.24617
-1.12804
-0.961138
-0.794711
-0.566615
-0.348464
-0.115925
0.0936805
0.211003
0.316926
0.344406
0.372182
0.364354
0.357011
0.336408
0.315753
0.291556
0.267152
0.24349
0.219682
0.198381
0.177071
0.158804
0.14066
0.125506
0.110564
0.0983012
0.0862911
0.0765631
0.0670882
0.0594988
0.0521355
0.0463014
0.0406519
0.0362298
0.0319461
0.0286429
0.0254338
0.0230081
0.0206375
0.0188948
0.0171752
0.0159615
0.0147461
0.013941
0.0131157
0.0126255
0.0121019
0.011854
0.0115638
0.0115017
0.011392
0.0114719
0.0115012
0.0116889
0.0118248
0.0120936
0.0123107
0.0126394
0.0129174
0.0132894
0.0136123
0.0140145
0.0143696
0.0147914
0.0151685
0.0156019
0.0159929
0.0164313
0.0168296
0.0172679
0.0176685
0.0181027
0.0185015
0.0189285
0.0193223
0.0197397
0.0201261
0.020532
0.020909
0.0213022
0.0216682
0.0220477
0.0224018
0.0227668
0.023108
0.0234581
0.0237859
0.0241208
0.0244348
0.0247543
0.0250542
0.0253583
0.0256439
0.0259327
0.0262038
0.0264773
0.0267341
0.0269924
0.0272348
0.027478
0.027706
0.0279343
0.028148
0.0283615
0.0285609
0.0287597
0.0289449
0.0291291
0.0293
0.0294698
0.0296264
0.0297821
0.0299238
0.0300651
-1.43292
-1.40603
-1.30089
-1.11681
-0.839525
-0.458335
-0.0303677
0.273951
0.39348
0.404303
0.369677
0.319744
0.267686
0.219349
0.177102
0.141558
0.112441
0.08906
0.0705759
0.0561459
0.0450007
0.0364761
0.0300207
0.0251877
0.021622
0.0190448
0.0172382
0.0160326
0.015296
0.014925
0.0148386
0.014973
0.0152773
0.0157113
0.0162426
0.0168455
0.0174992
0.018187
0.0188956
0.0196143
0.0203346
0.0210497
0.0217543
0.0224441
0.0231159
0.0237671
0.0243958
0.0250005
0.0255802
0.0261341
0.0266616
0.0271624
0.0276362
0.0280828
0.0285022
0.0288943
0.0292591
0.0295964
0.0299062
0.0301885
0.0304424
-1.29553
-1.29678
-1.26976
-1.23054
-1.16719
-1.09293
-0.987865
-0.874828
-0.718416
-0.561142
-0.350742
-0.152074
0.0543654
0.23719
0.336257
0.424698
0.442158
0.45904
0.44403
0.429164
0.402852
0.376734
0.347906
0.31935
0.291886
0.264792
0.240331
0.216338
0.195417
0.17503
0.157625
0.140779
0.126594
0.112947
0.101568
0.0906766
0.0816616
0.0730663
0.0659972
0.0592723
0.0537769
0.0485521
0.0443137
0.0402796
0.0370368
0.0339417
0.0314836
0.0291266
0.0272851
0.0255081
0.0241508
0.0228298
0.0218529
0.0208909
0.020213
0.0195345
0.0190918
0.0186372
0.0183795
0.018102
0.0179896
0.0178521
0.0178534
0.0178263
0.0179162
0.0179757
0.0181341
0.018261
0.0184716
0.0186505
0.0189003
0.0191187
0.0193971
0.0196447
0.0199433
0.020212
0.0205238
0.0208069
0.0211264
0.0214184
0.0217412
0.0220377
0.0223601
0.0226576
0.0229769
0.0232725
0.0235864
0.0238777
0.0241844
0.0244696
0.0247677
0.0250454
0.0253337
0.0256028
0.0258804
0.0261399
0.0264063
0.0266554
0.02691
0.0271482
0.0273907
0.0276175
0.0278476
0.0280627
0.0282801
0.0284831
0.0286878
0.0288786
0.0290703
0.0292486
0.0294273
0.029593
0.0297586
0.0299115
0.0300638
0.0302037
0.0303427
0.0304695
0.0305951
0.0307083
0.03082
-1.15871
-1.13396
-1.03401
-0.85953
-0.59806
-0.244134
0.13855
0.398554
0.490804
0.483729
0.436002
0.376048
0.31607
0.261301
0.213721
0.173685
0.14074
0.11407
0.092743
0.0758449
0.0625502
0.0521488
0.0440509
0.0377777
0.0329467
0.0292555
0.0264664
0.0243924
0.0228866
0.0218331
0.0211398
0.0207333
0.0205546
0.0205564
0.0207001
0.0209547
0.0212947
0.0216993
0.0221518
0.0226382
0.0231475
0.0236703
0.0241993
0.0247284
0.0252527
0.0257681
0.0262715
0.0267602
0.0272322
0.0276859
0.0281197
0.0285327
0.028924
0.0292927
0.0296383
0.0299603
0.030258
0.0305312
0.0307792
0.0310017
0.0311976
-1.02229
-1.02426
-0.998657
-0.961308
-0.901341
-0.830787
-0.731712
-0.624787
-0.478291
-0.331397
-0.138202
0.04079
0.222002
0.37958
0.460321
0.532344
0.539174
0.545865
0.523288
0.501287
0.469099
0.437682
0.404177
0.371515
0.340258
0.309871
0.282281
0.255577
0.232036
0.209375
0.189754
0.170972
0.154894
0.139585
0.126578
0.114249
0.103829
0.0939834
0.0856962
0.0778811
0.0713262
0.0651485
0.0599861
0.0551172
0.0510668
0.0472391
0.0440733
0.0410723
0.0386096
0.0362652
0.0343614
0.0325397
0.0310809
0.0296763
0.0285726
0.027502
0.0266823
0.0258797
0.0252875
0.0247005
0.0242907
0.0238773
0.0236137
0.0233401
0.0231935
0.0230324
0.0229791
0.0229082
0.0229291
0.0229302
0.0230095
0.0230677
0.0231926
0.0232957
0.0234556
0.0235936
0.02378
0.0239445
0.0241503
0.0243346
0.024554
0.0247524
0.0249808
0.0251886
0.025422
0.0256355
0.0258707
0.0260867
0.0263211
0.0265371
0.0267687
0.0269825
0.0272094
0.0274193
0.0276401
0.0278447
0.0280583
0.0282563
0.0284618
0.0286523
0.0288488
0.029031
0.029218
0.029391
0.0295679
0.0297314
0.0298977
0.030051
0.0302064
0.0303491
0.0304933
0.030625
0.0307575
0.0308779
0.0309986
0.0311073
0.0312157
0.0313124
0.0314084
0.0314926
0.0315753
-0.88637
-0.863842
-0.769199
-0.60451
-0.359286
-0.0332533
0.304926
0.522083
0.587506
0.562811
0.502167
0.432285
0.36443
0.303249
0.250343
0.205816
0.169042
0.139082
0.114911
0.0955444
0.0800997
0.0678213
0.0580809
0.0503674
0.0442711
0.039466
0.0356943
0.032752
0.0304772
0.0287412
0.0274409
0.0264935
0.0258319
0.0254015
0.0251576
0.0250639
0.0250901
0.0252116
0.025408
0.0256622
0.0259604
0.026291
0.0266444
0.0270127
0.0273895
0.0277691
0.0281472
0.0285199
0.0288843
0.0292377
0.0295779
0.0299031
0.0302118
0.0305026
0.0307744
0.0310262
0.031257
0.031466
0.0316522
0.0318151
0.031953
-0.750937
-0.753909
-0.729556
-0.694359
-0.637605
-0.571186
-0.477882
-0.377738
-0.240917
-0.105264
0.0710342
0.230322
0.387187
0.520833
0.583395
0.639779
0.635639
0.632592
0.602242
0.573344
0.535203
0.498585
0.460387
0.423646
0.388606
0.354922
0.324223
0.294792
0.268655
0.2437
0.221883
0.201146
0.183195
0.166206
0.151589
0.137808
0.125996
0.114889
0.105394
0.0964804
0.0888744
0.0817368
0.0756573
0.0699481
0.0650956
0.0605307
0.0566621
0.0530131
0.0499331
0.0470182
0.0445711
0.042246
0.0403082
0.0384586
0.0369317
0.0354668
0.0342724
0.0331198
0.0321952
0.0312969
0.0305915
0.0299007
0.0293737
0.0288524
0.0284705
0.0280877
0.027824
0.0275543
0.0273864
0.0272088
0.0271185
0.0270158
0.0269879
0.0269457
0.0269678
0.0269744
0.0270361
0.0270814
0.0271742
0.0272502
0.0273668
0.0274666
0.0276013
0.0277191
0.0278669
0.0279981
0.0281549
0.0282954
0.0284579
0.0286043
0.0287696
0.0289193
0.029085
0.0292356
0.0293998
0.0295493
0.0297103
0.0298571
0.0300136
0.0301562
0.030307
0.0304443
0.0305883
0.0307193
0.0308557
0.0309794
0.0311076
0.0312233
0.0313425
0.0314495
0.0315592
0.0316569
0.0317565
0.0318443
0.0319334
0.0320107
0.0320888
0.0321552
0.0322218
0.0322768
0.0323308
-0.615981
-0.59576
-0.506543
-0.351869
-0.123312
0.174351
0.468942
0.644705
0.683732
0.641635
0.56821
0.48847
0.412769
0.345187
0.28696
0.237944
0.197342
0.164092
0.137077
0.115241
0.0976468
0.0834915
0.0721088
0.0629554
0.0555939
0.0496752
0.0449212
0.0411106
0.0380669
0.0356485
0.0337414
0.0322533
0.0311087
0.0302461
0.0296148
0.0291727
0.0288853
0.0287237
0.0286639
0.028686
0.0287731
0.0289115
0.0290893
0.029297
0.0295261
0.02977
0.0300228
0.0302796
0.0305363
0.0307894
0.031036
0.0312734
0.0314996
0.0317125
0.0319106
0.0320922
0.032256
0.0324008
0.0325253
0.0326285
0.0327085
-0.481546
-0.485663
-0.462503
-0.429627
-0.376044
-0.314036
-0.226454
-0.133553
-0.0063635
0.11744
0.277028
0.416708
0.550093
0.660949
0.705621
0.746947
0.731674
0.719186
0.680963
0.64532
0.601196
0.559437
0.516547
0.475744
0.436933
0.399949
0.366156
0.333987
0.305269
0.278007
0.254008
0.231306
0.211492
0.192815
0.176596
0.161355
0.148159
0.135785
0.125089
0.115071
0.106419
0.098318
0.0913258
0.0847729
0.079122
0.0738172
0.0692487
0.0649496
0.0612548
0.0577674
0.0547793
0.0519492
0.0495342
0.0472381
0.0452896
0.0434292
0.0418615
0.0403579
0.0391019
0.0378915
0.0368915
0.0359225
0.035133
0.0343632
0.033747
0.0331419
0.0326684
0.0321992
0.0318432
0.0314865
0.0312271
0.030963
0.0307829
0.0305951
0.0304797
0.0303545
0.0302919
0.0302178
0.0301978
0.0301652
0.0301794
0.0301803
0.0302217
0.0302492
0.0303118
0.0303603
0.030439
0.0305037
0.0305945
0.0306712
0.0307705
0.0308558
0.0309606
0.0310517
0.0311594
0.0312537
0.0313623
0.0314577
0.0315653
0.03166
0.031765
0.0318574
0.0319586
0.0320474
0.0321435
0.0322274
0.0323175
0.0323955
0.0324786
0.0325498
0.0326251
0.0326887
0.0327555
0.0328106
0.0328682
0.0329141
0.0329619
0.032998
0.0330352
0.0330608
0.0330863
-0.347574
-0.329736
-0.246076
-0.10165
0.109827
0.378756
0.630757
0.766536
0.779579
0.720253
0.634154
0.544607
0.461085
0.387114
0.32357
0.270066
0.225637
0.189097
0.159238
0.134934
0.11519
0.0991583
0.0861337
0.0755407
0.0669145
0.0598824
0.0541464
0.0494678
0.0456553
0.0425547
0.040041
0.0380121
0.0363848
0.0350902
0.0340713
0.0332811
0.0326801
0.0322354
0.0319195
0.0317094
0.0315856
0.0315317
0.031534
0.031581
0.0316627
0.0317708
0.0318983
0.0320391
0.0321882
0.0323411
0.032494
0.0326437
0.0327873
0.0329224
0.0330466
0.0331581
0.0332549
0.0333356
0.0333984
0.0334419
0.0334641
-0.214131
-0.219476
-0.197508
-0.167062
-0.116672
-0.0592705
0.022548
0.107871
0.225356
0.336875
0.479867
0.60013
0.710868
0.799945
0.827099
0.853817
0.827361
0.805628
0.759495
0.717206
0.667095
0.620237
0.572663
0.527809
0.485237
0.444952
0.408075
0.373164
0.341873
0.312298
0.286126
0.261452
0.239783
0.219411
0.201597
0.184892
0.170316
0.156672
0.144778
0.133654
0.12396
0.114893
0.10699
0.0995922
0.0931451
0.087099
0.0818325
0.076882
0.072574
0.0685132
0.0649854
0.0616493
0.0587584
0.0560151
0.0536459
0.0513894
0.0494491
0.047594
0.0460075
0.0444844
0.0431904
0.0419428
0.0408913
0.0398728
0.0390226
0.0381948
0.037512
0.0368432
0.0362995
0.0357632
0.0353351
0.0349095
0.0345773
0.0342437
0.0339911
0.033734
0.0335473
0.0333536
0.033221
0.0330798
0.0329917
0.0328936
0.0328417
0.032779
0.0327563
0.0327222
0.0327229
0.0327117
0.0327309
0.0327378
0.0327711
0.0327921
0.032836
0.0328675
0.0329189
0.0329579
0.0330141
0.0330581
0.0331169
0.0331636
0.033223
0.0332704
0.0333288
0.0333753
0.0334312
0.0334753
0.0335273
0.0335676
0.0336147
0.03365
0.033691
0.0337204
0.0337544
0.0337768
0.033803
0.0338175
0.0338349
0.0338407
0.0338487
0.0338449
0.0338419
-0.0811462
-0.0657686
0.0122047
0.146142
0.340137
0.580059
0.790513
0.887663
0.87511
0.7987
0.700012
0.600702
0.509378
0.429027
0.36017
0.30218
0.253924
0.214095
0.181392
0.154621
0.132728
0.114821
0.100155
0.088123
0.0782325
0.0700874
0.0633695
0.0578232
0.0532423
0.0494596
0.0463393
0.04377
0.04166
0.0399334
0.0385272
0.0373888
0.0364743
0.0357466
0.0351747
0.0347324
0.0343976
0.0341516
0.0339785
0.0338647
0.033799
0.0337714
0.0337736
0.0337985
0.0338399
0.0338926
0.0339519
0.0340139
0.034075
0.0341322
0.0341826
0.0342239
0.0342539
0.0342703
0.0342714
0.0342553
0.0342197
0.0513123
0.0446853
0.0654399
0.0933785
0.140523
0.193168
0.269133
0.34662
0.454264
0.553187
0.67966
0.78076
0.869647
0.937846
0.947904
0.960373
0.922755
0.891912
0.837865
0.789003
0.732913
0.680987
0.628737
0.579844
0.533518
0.489935
0.44998
0.412324
0.378467
0.346576
0.318235
0.291586
0.268066
0.245997
0.226591
0.208419
0.192468
0.177551
0.164462
0.152231
0.141496
0.131461
0.122651
0.114406
0.107164
0.100376
0.094413
0.0888105
0.0838904
0.0792556
0.075189
0.0713465
0.0679804
0.0647895
0.0620003
0.0593474
0.0570352
0.0548283
0.0529116
0.0510756
0.0494881
0.0479617
0.0466486
0.045381
0.0442973
0.0432466
0.0423547
0.0414861
0.0407549
0.0400391
0.0394425
0.0388551
0.0383712
0.0378916
0.037502
0.0371129
0.0368022
0.0364888
0.0362438
0.0359939
0.0358036
0.0356065
0.0354615
0.0353083
0.0352006
0.0350837
0.0350065
0.0349194
0.034867
0.0348041
0.0347716
0.0347281
0.0347112
0.0346831
0.0346782
0.0346619
0.0346658
0.0346583
0.0346684
0.034667
0.0346809
0.0346833
0.034699
0.0347032
0.0347188
0.034723
0.034737
0.0347396
0.0347506
0.0347502
0.0347569
0.0347521
0.0347533
0.034743
0.0347377
0.0347208
0.0347079
0.0346834
0.0346621
0.0346288
0.0345975
0.183315
0.196162
0.268318
0.391527
0.567655
0.778373
0.948336
1.00815
0.970372
0.876997
0.765793
0.656757
0.557648
0.470925
0.396758
0.334285
0.282203
0.239085
0.20354
0.174302
0.150261
0.130479
0.114172
0.100702
0.0895474
0.0802897
0.0725905
0.0661767
0.0608275
0.056363
0.0526364
0.0495267
0.0469341
0.0447757
0.0429822
0.0414958
0.0402678
0.0392572
0.0384294
0.037755
0.0372093
0.0367712
0.0364226
0.0361482
0.035935
0.0357717
0.0356487
0.0355577
0.0354915
0.035444
0.0354097
0.0353839
0.0353625
0.0353418
0.0353185
0.0352897
0.0352527
0.035205
0.0351444
0.0350687
0.0349753
0.3148
0.306852
0.326364
0.35173
0.395566
0.44333
0.513329
0.582773
0.680409
0.766512
0.876524
0.958763
1.02655
1.07469
1.06809
1.06661
1.01789
0.978037
0.916093
0.860711
0.798657
0.741689
0.684771
0.63185
0.581777
0.534898
0.49187
0.451469
0.41505
0.380841
0.350334
0.321709
0.29634
0.272573
0.251577
0.231938
0.214612
0.198421
0.18414
0.1708
0.159026
0.148024
0.138306
0.129215
0.12118
0.113649
0.10699
0.100735
0.0952038
0.0899947
0.08539
0.081041
0.0772001
0.0735615
0.0703528
0.0673033
0.0646195
0.0620606
0.0598142
0.0576652
0.0557845
0.053979
0.0524046
0.0508879
0.0495708
0.0482973
0.0471965
0.046128
0.0452095
0.0443141
0.0435491
0.0427999
0.0421644
0.0415388
0.0410123
0.0404912
0.0400566
0.0396235
0.0392662
0.0389075
0.0386151
0.0383189
0.0380808
0.0378372
0.0376445
0.0374449
0.0372899
0.0371268
0.0370029
0.0368702
0.0367718
0.0366639
0.0365862
0.0364985
0.0364372
0.0363657
0.0363173
0.0362583
0.0362197
0.0361703
0.0361386
0.036096
0.036069
0.0360309
0.0360063
0.0359707
0.0359467
0.0359115
0.0358865
0.0358502
0.0358226
0.0357837
0.0357521
0.0357091
0.0356724
0.0356241
0.0355809
0.035526
0.0354754
0.0354128
0.0353531
0.445831
0.456082
0.522294
0.634541
0.792439
0.973822
1.10434
1.12803
1.06539
0.955161
0.831502
0.712773
0.605896
0.512808
0.433335
0.366379
0.310472
0.264067
0.225681
0.193976
0.167789
0.146132
0.128186
0.113277
0.100859
0.0904893
0.081809
0.0745281
0.0684109
0.0632648
0.058932
0.0552821
0.0522071
0.049617
0.0474364
0.0456021
0.0440607
0.0427672
0.0416835
0.0407771
0.0400206
0.0393903
0.0388663
0.0384314
0.0380707
0.0377718
0.0375236
0.0373167
0.0371429
0.0369952
0.0368674
0.0367539
0.03665
0.0365514
0.0364544
0.0363554
0.0362515
0.0361397
0.0360174
0.0358821
0.0357308
0.576356
0.567054
0.585291
0.608027
0.648488
0.691262
0.755177
0.816401
0.903856
0.976981
1.07059
1.13429
1.1817
1.2105
1.1877
1.17253
1.1128
1.06401
0.994194
0.932335
0.864332
0.802344
0.740769
0.683829
0.630013
0.579843
0.533745
0.4906
0.45162
0.415094
0.382423
0.351821
0.324604
0.299138
0.276555
0.255448
0.236749
0.219285
0.203811
0.189362
0.176551
0.164581
0.153957
0.144019
0.135191
0.126918
0.119563
0.112656
0.106514
0.100731
0.0955882
0.0907326
0.0864175
0.082331
0.0787031
0.075257
0.072202
0.069291
0.0667152
0.0642531
0.0620793
0.0599949
0.0581594
0.0563936
0.0548433
0.0533468
0.0520373
0.0507689
0.0496632
0.0485881
0.0476549
0.046744
0.0459569
0.0451853
0.044522
0.0438688
0.0433104
0.0427576
0.042288
0.0418206
0.0414261
0.0410309
0.0406998
0.0403658
0.0400881
0.0398057
0.0395729
0.0393339
0.0391385
0.038936
0.0387718
0.0385995
0.038461
0.0383137
0.0381961
0.0380693
0.0379686
0.0378582
0.0377708
0.0376734
0.0375962
0.0375086
0.0374388
0.0373585
0.0372937
0.0372182
0.0371562
0.0370834
0.0370223
0.0369502
0.0368883
0.0368152
0.0367509
0.0366752
0.036607
0.0365273
0.0364538
0.0363686
0.0362887
0.0361967
0.0361086
0.706427
0.714021
0.774166
0.875228
1.01456
1.16654
1.25865
1.24736
1.1602
1.0332
0.897146
0.768754
0.654122
0.554676
0.4699
0.398463
0.338733
0.289041
0.247814
0.213644
0.185311
0.16178
0.142194
0.125848
0.112168
0.100686
0.0910251
0.0828774
0.0759924
0.0701649
0.0652262
0.0610362
0.057479
0.0544573
0.0518896
0.0497075
0.0478528
0.0462765
0.044937
0.0437987
0.0428313
0.0420091
0.0413097
0.0407142
0.0402062
0.0397716
0.0393982
0.0390755
0.0387942
0.0385463
0.0383249
0.0381237
0.0379373
0.0377609
0.0375901
0.0374211
0.0372502
0.0370743
0.0368903
0.0366954
0.0364863
0.836004
0.825322
0.842253
0.862307
0.899325
0.937012
0.994722
1.04758
1.12468
1.18472
1.26199
1.3075
1.33519
1.34534
1.30677
1.27814
1.20751
1.14983
1.07218
1.00388
0.929944
0.862957
0.796733
0.735783
0.678229
0.624771
0.575605
0.529718
0.488179
0.449335
0.414501
0.381922
0.35286
0.325695
0.301524
0.278949
0.258878
0.24014
0.223476
0.207918
0.194069
0.181132
0.169602
0.158818
0.149197
0.140182
0.132133
0.124574
0.117821
0.111463
0.105784
0.100421
0.0956323
0.0910981
0.0870512
0.0832086
0.0797825
0.0765196
0.0736144
0.0708394
0.0683727
0.0660094
0.0639129
0.0618979
0.0601145
0.0583951
0.0568771
0.0554087
0.0541159
0.0528613
0.0517599
0.0506872
0.0497486
0.048831
0.048031
0.0472457
0.0465636
0.0458912
0.0453093
0.0447331
0.0442366
0.0437424
0.0433183
0.0428939
0.0425313
0.0421661
0.0418555
0.0415406
0.0412738
0.0410014
0.0407714
0.0405347
0.0403355
0.0401286
0.0399548
0.0397727
0.0396197
0.0394579
0.0393218
0.0391763
0.0390536
0.0389211
0.0388086
0.038686
0.0385809
0.0384656
0.0383656
0.0382551
0.038158
0.0380501
0.0379539
0.0378466
0.0377496
0.0376412
0.0375416
0.0374304
0.0373267
0.0372112
0.037102
0.0369806
0.0368641
0.965128
0.970009
1.02397
1.11364
1.2341
1.35665
1.41135
1.36617
1.25481
1.11114
0.962729
0.824702
0.702329
0.596529
0.506453
0.430536
0.366984
0.314006
0.26994
0.233306
0.202827
0.177423
0.156199
0.138416
0.123473
0.11088
0.100239
0.0912244
0.0835719
0.0770633
0.0715187
0.066789
0.0627496
0.0592965
0.0563419
0.053812
0.0516441
0.0497852
0.0481899
0.0468197
0.0456416
0.0446274
0.0437527
0.0429966
0.0423413
0.0417711
0.0412726
0.040834
0.0404452
0.0400972
0.0397822
0.0394933
0.0392245
0.0389703
0.0387258
0.0384866
0.0382489
0.0380088
0.0377631
0.0375086
0.0372418
1.09377
1.08169
1.09728
1.11461
1.14812
1.18062
1.23202
1.27637
1.34296
1.38984
1.45085
1.47854
1.48713
1.47924
1.42532
1.38345
1.30203
1.23551
1.15006
1.07535
0.995498
0.923529
0.852664
0.787714
0.726425
0.669683
0.617452
0.568824
0.524726
0.483566
0.44657
0.412014
0.381106
0.352243
0.326485
0.302442
0.281
0.260989
0.243134
0.226468
0.211582
0.197677
0.185243
0.173612
0.163199
0.153442
0.144698
0.136487
0.129124
0.122193
0.115976
0.110107
0.104845
0.0998628
0.0953971
0.091158
0.087361
0.0837462
0.0805119
0.0774239
0.0746645
0.0720223
0.0696649
0.0674009
0.0653845
0.0634423
0.0617157
0.0600475
0.0585677
0.0571334
0.055864
0.0546295
0.0535395
0.052476
0.0515393
0.050622
0.0498162
0.0490241
0.0483301
0.0476451
0.0470466
0.0464534
0.0459364
0.0454215
0.044974
0.0445262
0.0441378
0.043747
0.0434088
0.0430665
0.0427708
0.0424697
0.0422097
0.0419433
0.0417132
0.0414758
0.0412706
0.0410573
0.0408726
0.0406791
0.0405108
0.0403333
0.0401781
0.0400133
0.0398681
0.0397129
0.0395749
0.0394267
0.0392936
0.0391499
0.0390194
0.038878
0.0387482
0.0386071
0.0384761
0.0383335
0.0381995
0.0380537
0.0379152
0.0377644
0.0376195
1.22196
1.22408
1.27175
1.34983
1.45114
1.5443
1.56255
1.48447
1.34924
1.18897
1.02826
0.880618
0.750516
0.638369
0.542994
0.462599
0.395225
0.338962
0.292057
0.25296
0.220337
0.193061
0.170199
0.15098
0.134775
0.121071
0.10945
0.0995691
0.0911494
0.0839599
0.0778098
0.0725403
0.068019
0.0641345
0.0607931
0.0579156
0.0554347
0.0532931
0.0514422
0.0498401
0.0484514
0.0472452
0.0461952
0.0452787
0.0444761
0.0437703
0.0431467
0.0425923
0.042096
0.0416478
0.0412393
0.0408628
0.0405116
0.0401795
0.0398613
0.0395521
0.0392474
0.0389433
0.0386359
0.0383218
0.0379972
1.34969
1.33618
1.35041
1.36496
1.3949
1.42215
1.46712
1.50285
1.55879
1.59248
1.63732
1.64753
1.63761
1.61224
1.54338
1.48846
1.39637
1.32105
1.22784
1.14674
1.061
0.984065
0.908565
0.839623
0.774603
0.714582
0.659284
0.607918
0.561261
0.517787
0.478627
0.442096
0.409342
0.378781
0.351438
0.325928
0.303114
0.28183
0.262785
0.245011
0.229089
0.214217
0.200878
0.188402
0.177197
0.166698
0.15726
0.148397
0.140425
0.132919
0.126165
0.119791
0.114054
0.108625
0.103741
0.0991052
0.0949375
0.090971
0.0874076
0.0840067
0.0809547
0.0780337
0.0754155
0.0729026
0.0706532
0.0684882
0.0665532
0.0646852
0.0630184
0.0614047
0.0599671
0.058571
0.0573297
0.0561202
0.0550468
0.0539976
0.0530681
0.0521564
0.0513502
0.0505566
0.0498561
0.0491639
0.048554
0.0479488
0.0474164
0.0468858
0.0464197
0.045953
0.0455434
0.0451314
0.0447699
0.0444044
0.0440837
0.0437577
0.0434714
0.0431787
0.0429213
0.0426566
0.0424231
0.0421817
0.0419679
0.0417455
0.0415476
0.0413405
0.0411551
0.04096
0.0407841
0.0405982
0.0404291
0.0402495
0.0400848
0.0399093
0.0397467
0.0395729
0.0394105
0.0392365
0.0390723
0.0388961
0.0387284
0.0385483
0.0383749
1.47696
1.47627
1.51755
1.58385
1.66578
1.72963
1.71233
1.6023
1.44351
1.26671
1.09373
0.936506
0.798685
0.680195
0.579524
0.494652
0.423457
0.36391
0.314168
0.272608
0.237841
0.208694
0.184194
0.16354
0.146073
0.131259
0.118658
0.107912
0.0987249
0.0908547
0.0840991
0.0782902
0.073287
0.0689714
0.0652434
0.0620183
0.0592244
0.0568003
0.0546937
0.05286
0.0512606
0.0498625
0.0486373
0.0475604
0.0466106
0.0457693
0.0450205
0.0443503
0.0437465
0.0431983
0.0426963
0.0422322
0.0417985
0.0413887
0.0409968
0.0406175
0.0402459
0.0398777
0.0395086
0.039135
0.0387525
1.60378
1.58883
1.60167
1.6134
1.63972
1.66163
1.70008
1.72709
1.77226
1.79274
1.82153
1.81461
1.78673
1.7444
1.66099
1.5932
1.49055
1.40648
1.30554
1.21808
1.12645
1.04457
0.96444
0.891514
0.822764
0.759467
0.701104
0.647002
0.597786
0.551998
0.510675
0.47217
0.43757
0.405312
0.376381
0.349405
0.32522
0.302665
0.282429
0.263548
0.24659
0.230752
0.216508
0.203186
0.19119
0.17995
0.169818
0.160304
0.151721
0.143642
0.136352
0.129471
0.123261
0.117385
0.112082
0.10705
0.102512
0.0981937
0.0943014
0.0905878
0.0872433
0.0840435
0.0811646
0.0784028
0.0759206
0.0735329
0.0713895
0.0693218
0.0674681
0.0656749
0.0640694
0.0625116
0.0611189
0.0597637
0.0585536
0.0573724
0.0563193
0.055288
0.0543697
0.0534674
0.052665
0.0518739
0.0511711
0.0504755
0.0498583
0.049245
0.0487012
0.0481587
0.0476777
0.0471958
0.0467686
0.0463388
0.0459574
0.0455718
0.0452293
0.0448814
0.0445718
0.0442556
0.0439735
0.0436841
0.0434248
0.0431574
0.0429168
0.0426675
0.0424419
0.0422071
0.0419932
0.0417695
0.0415645
0.0413491
0.0411501
0.0409405
0.0407452
0.0405387
0.0403449
0.0401395
0.039945
0.0397385
0.0395416
0.039332
0.0391302
1.73015
1.72661
1.7614
1.81576
1.8781
1.91276
1.86081
1.71968
1.53762
1.34436
1.15916
0.992369
0.846838
0.722009
0.616044
0.526695
0.45168
0.38885
0.33627
0.292249
0.255339
0.224322
0.198185
0.176096
0.157368
0.141444
0.127864
0.116252
0.106298
0.0977475
0.0903868
0.0840385
0.0785538
0.0738071
0.0696925
0.06612
0.0630132
0.0603067
0.0579446
0.0558792
0.0540692
0.0524794
0.051079
0.0498417
0.0487446
0.0477679
0.0468941
0.0461081
0.0453969
0.0447486
0.0441531
0.0436014
0.0430853
0.0425977
0.0421321
0.0416827
0.0412443
0.040812
0.0403813
0.0399481
0.0395078
1.85608
1.83968
1.8511
1.85998
1.88262
1.89913
1.93096
1.94916
1.98347
1.99074
2.00362
1.97991
1.93458
1.87576
1.77815
1.69767
1.58459
1.49178
1.38315
1.28935
1.19186
1.10504
1.02029
0.943387
0.870909
0.804341
0.742912
0.686076
0.6343
0.586199
0.542713
0.502234
0.465788
0.431834
0.401317
0.372876
0.347319
0.323492
0.302067
0.282079
0.264086
0.247281
0.232133
0.217966
0.205179
0.193198
0.182372
0.172207
0.163015
0.154362
0.146535
0.139149
0.132465
0.126142
0.120421
0.114993
0.110084
0.105414
0.101193
0.0971671
0.0935301
0.0900518
0.0869122
0.0839016
0.0811867
0.0785763
0.0762246
0.0739572
0.0719167
0.0699441
0.0681706
0.0664513
0.0649073
0.0634062
0.0620596
0.0607466
0.0595699
0.058419
0.0573886
0.0563777
0.0554734
0.0545833
0.0537876
0.0530018
0.0522997
0.0516038
0.0509823
0.0503639
0.0498116
0.04926
0.0487671
0.0482728
0.0478308
0.0473857
0.046987
0.0465838
0.046222
0.0458545
0.0455237
0.0451862
0.0448815
0.0445692
0.0442859
0.0439944
0.0437286
0.0434539
0.0432021
0.0429408
0.0426997
0.0424486
0.0422154
0.0419715
0.0417435
0.0415044
0.0412792
0.0410423
0.0408176
0.0405809
0.0403546
0.0401158
0.0398855
1.98157
1.97513
2.00335
2.04562
2.08821
2.09384
2.00805
1.83663
1.63158
1.42194
1.22455
1.04821
0.894976
0.763811
0.652553
0.558728
0.479894
0.413782
0.358366
0.311884
0.272831
0.239944
0.212172
0.188648
0.16866
0.151626
0.137067
0.124589
0.113869
0.104638
0.0966728
0.0897854
0.0838191
0.0786416
0.0741405
0.0702208
0.0668011
0.0638123
0.0611948
0.0588978
0.0568773
0.0550957
0.0535202
0.0521226
0.0508783
0.0497661
0.0487673
0.0478657
0.047047
0.0462987
0.0456097
0.0449704
0.0443719
0.0438065
0.0432673
0.0427479
0.0422426
0.0417463
0.0412539
0.0407611
0.0402631
2.10663
2.08876
2.09874
2.10472
2.12365
2.13468
2.15983
2.16914
2.19252
2.1866
2.18372
2.14355
2.08125
2.00637
1.8949
1.8019
1.67848
1.57699
1.4607
1.36057
1.25722
1.16548
1.07612
0.995246
0.919039
0.849204
0.784708
0.725141
0.670804
0.620393
0.574742
0.53229
0.493998
0.458348
0.426244
0.396338
0.36941
0.344313
0.321698
0.300604
0.281575
0.263805
0.247753
0.232741
0.219163
0.206441
0.194922
0.184106
0.174304
0.165079
0.156716
0.148824
0.141667
0.134896
0.128757
0.122934
0.117654
0.112633
0.108083
0.103745
0.0998152
0.0960584
0.0926583
0.089399
0.0864514
0.0836184
0.0810584
0.0785915
0.0763642
0.0742122
0.0722709
0.0703901
0.0686949
0.067048
0.0655648
0.0641199
0.0628197
0.0615493
0.0604069
0.0592874
0.0582812
0.0572922
0.0564037
0.0555276
0.0547407
0.0539622
0.0532629
0.0525688
0.0519451
0.0513238
0.0507651
0.0502066
0.0497038
0.0491992
0.0487444
0.048286
0.047872
0.0474531
0.0470736
0.0466882
0.046338
0.0459808
0.0456548
0.0453211
0.0450152
0.0447007
0.0444109
0.0441119
0.0438349
0.0435479
0.0432805
0.0430025
0.0427418
0.04247
0.0422134
0.0419452
0.0416902
0.0414232
0.0411677
0.0408995
0.0406407
2.23124
2.22189
2.24345
2.2735
2.29621
2.27299
2.15416
1.95318
1.72542
1.49946
1.2899
1.10402
0.943099
0.805602
0.689052
0.590752
0.508099
0.438705
0.380453
0.331511
0.290317
0.255561
0.226154
0.201196
0.179948
0.161804
0.146267
0.132924
0.121438
0.111528
0.102957
0.0955307
0.0890831
0.0834748
0.0785875
0.0743205
0.0705882
0.0673171
0.0644443
0.0619157
0.0596848
0.0577115
0.0559609
0.0544031
0.0530117
0.051764
0.0506402
0.0496229
0.0486968
0.0478485
0.0470661
0.0463392
0.0456584
0.0450153
0.0444024
0.043813
0.0432409
0.0426804
0.0421265
0.0415741
0.0410183
2.35545
2.3361
2.34464
2.34767
2.36285
2.36833
2.38676
2.38709
2.3995
2.38042
2.36196
2.30564
2.22682
2.13627
2.01125
1.90589
1.77225
1.6621
1.53817
1.43175
1.32255
1.2259
1.13192
1.04709
0.967155
0.894059
0.826493
0.764199
0.707298
0.654578
0.606761
0.562339
0.522198
0.484855
0.451163
0.419794
0.391494
0.365127
0.341323
0.319124
0.299058
0.280324
0.263368
0.247512
0.233143
0.21968
0.207468
0.196001
0.185591
0.175793
0.166893
0.158495
0.150866
0.143649
0.137091
0.130872
0.125222
0.11985
0.114971
0.11032
0.106099
0.102063
0.0984028
0.0948949
0.0917147
0.0886592
0.085891
0.0832246
0.0808106
0.0784793
0.0763701
0.0743278
0.0724815
0.0706888
0.0690692
0.0674925
0.0660688
0.0646789
0.0634245
0.0621964
0.0610884
0.0600005
0.0590193
0.0580528
0.0571812
0.05632
0.0555432
0.0547732
0.0540782
0.0533871
0.0527629
0.05214
0.0515766
0.0510125
0.0505015
0.0499879
0.0495217
0.0490514
0.0486234
0.04819
0.0477943
0.0473921
0.0470236
0.0466476
0.0463016
0.0459473
0.0456196
0.0452829
0.0449699
0.0446472
0.0443455
0.0440334
0.04374
0.0434355
0.0431475
0.0428479
0.0425628
0.0422654
0.0419806
0.0416832
0.0413959
2.4792
2.46693
2.48177
2.49948
2.5022
2.45036
2.29922
2.06934
1.81913
1.57691
1.35521
1.15982
0.99121
0.847382
0.725541
0.622767
0.536295
0.46362
0.402534
0.351132
0.307798
0.271173
0.240131
0.213739
0.191232
0.17198
0.155464
0.141257
0.129005
0.118415
0.10924
0.101274
0.0943457
0.0883068
0.0830333
0.0784193
0.0743743
0.0708211
0.067693
0.064933
0.0624917
0.0603268
0.0584012
0.0566831
0.0551446
0.0537616
0.0525128
0.0513799
0.0503464
0.0493981
0.0485224
0.0477079
0.0469447
0.0462239
0.0455374
0.044878
0.044239
0.0436146
0.042999
0.0423871
0.0417735
2.60259
2.58172
2.58884
2.58886
2.6003
2.60013
2.61182
2.60309
2.60454
2.57232
2.5385
2.46629
2.37138
2.26551
2.12723
2.00966
1.86589
1.74713
1.61559
1.50289
1.38785
1.28631
1.18771
1.09893
1.01526
0.938906
0.868268
0.803249
0.743782
0.688757
0.638771
0.59238
0.55039
0.511355
0.476074
0.443242
0.413571
0.385935
0.36094
0.337637
0.316536
0.296837
0.278977
0.262277
0.247118
0.232916
0.22001
0.207893
0.196873
0.186503
0.177067
0.168164
0.160062
0.152398
0.145423
0.138808
0.132788
0.127065
0.121857
0.116894
0.11238
0.108067
0.104146
0.100389
0.0969766
0.0936986
0.0907224
0.0878564
0.0852559
0.0827452
0.0804684
0.0782646
0.0762672
0.0743288
0.0725728
0.0708642
0.0693171
0.0678077
0.0664414
0.0651047
0.063895
0.0627082
0.0616343
0.0605775
0.0596212
0.0586774
0.057823
0.0569772
0.056211
0.0554501
0.0547603
0.054073
0.0534491
0.0528254
0.0522583
0.0516895
0.0511712
0.0506495
0.0501729
0.0496915
0.0492504
0.0488033
0.0483922
0.0479739
0.0475878
0.0471937
0.0468282
0.0464537
0.0461049
0.0457463
0.0454104
0.0450642
0.0447381
0.0444009
0.0440816
0.0437506
0.0434352
0.0431076
0.0427936
0.0424668
0.0421511
2.72551
2.7103
2.71835
2.72363
2.70631
2.62609
2.44331
2.18515
1.91271
1.65429
1.42049
1.2156
1.03931
0.889152
0.76202
0.654773
0.564483
0.488527
0.424607
0.370747
0.325273
0.28678
0.254104
0.226279
0.202513
0.182153
0.164659
0.149587
0.13657
0.1253
0.11552
0.107017
0.0996069
0.0931375
0.087478
0.082517
0.0781596
0.0743242
0.070941
0.0679496
0.0652981
0.0629415
0.060841
0.0589627
0.0572772
0.0557588
0.0543852
0.0531366
0.0519958
0.0509475
0.0499784
0.0490764
0.0482309
0.0474323
0.0466722
0.0459428
0.0452371
0.0445486
0.0438714
0.0432
0.0425287
2.84813
2.82565
2.83142
2.82832
2.83606
2.83012
2.83511
2.81719
2.80777
2.76239
2.71346
2.6256
2.51502
2.39415
2.24286
2.11325
1.95941
1.8321
1.69293
1.57401
1.4531
1.3467
1.24347
1.15076
1.06335
0.983749
0.910032
0.842294
0.780257
0.722929
0.670772
0.622414
0.578574
0.537847
0.500978
0.466684
0.435641
0.406736
0.380552
0.356144
0.334008
0.313345
0.294582
0.277039
0.261089
0.246147
0.232548
0.219781
0.208153
0.19721
0.187238
0.17783
0.169255
0.161145
0.153752
0.146741
0.140352
0.134277
0.128742
0.123466
0.11866
0.114068
0.109887
0.105882
0.102237
0.0987365
0.0955525
0.0924869
0.0897
0.0870099
0.0845656
0.0822003
0.080052
0.0779678
0.0760756
0.0742351
0.0725648
0.0709358
0.0694577
0.0680123
0.0667011
0.0654153
0.0642488
0.0631017
0.0620608
0.0610343
0.0601024
0.0591807
0.0583434
0.0575127
0.0567574
0.0560057
0.0553213
0.054638
0.0540149
0.0533908
0.0528204
0.0522473
0.0517222
0.0511928
0.0507064
0.0502143
0.0497606
0.0493001
0.048874
0.0484399
0.0480366
0.0476244
0.0472397
0.0468453
0.0464753
0.0460949
0.0457362
0.0453663
0.0450157
0.0446531
0.0443077
0.0439496
0.0436065
0.0432503
0.0429064
2.97023
2.9521
2.95331
2.94608
2.90867
2.80033
2.58652
2.3006
2.00617
1.73161
1.48573
1.27135
1.08739
0.93091
0.79849
0.686769
0.592662
0.513426
0.446673
0.390355
0.342741
0.302382
0.268072
0.238815
0.213791
0.192322
0.173851
0.157915
0.144132
0.132183
0.121799
0.112757
0.104867
0.097967
0.0919216
0.0866138
0.081944
0.0778266
0.0741883
0.0709656
0.0681038
0.0655558
0.0632803
0.0612419
0.0594094
0.0577557
0.0562572
0.054893
0.0536449
0.0524968
0.0514342
0.0504447
0.0495169
0.0486407
0.047807
0.0470076
0.0462351
0.0454826
0.0447438
0.044013
0.0432839
3.09215
3.06789
3.07249
3.06605
3.07026
3.05832
3.05676
3.02943
3.00933
2.95072
2.88701
2.78367
2.65782
2.52222
2.35814
2.21667
2.05279
1.91702
1.7702
1.64512
1.5183
1.4071
1.2992
1.20259
1.11141
1.02859
0.951782
0.881336
0.816721
0.757095
0.702764
0.652442
0.606749
0.564333
0.525873
0.490119
0.457704
0.427531
0.400157
0.374646
0.351474
0.329848
0.310182
0.291795
0.275055
0.259373
0.245082
0.231665
0.219429
0.207913
0.197406
0.187493
0.178446
0.169889
0.162079
0.154672
0.147913
0.141487
0.135624
0.130036
0.124939
0.120068
0.115627
0.111373
0.107496
0.103773
0.100382
0.0971161
0.0941432
0.0912734
0.088662
0.0861348
0.083836
0.0816057
0.0795777
0.077605
0.0758118
0.074063
0.0724735
0.0709192
0.0695067
0.0681216
0.0668629
0.0656252
0.0645
0.0633905
0.0623815
0.0613837
0.0604755
0.0595748
0.0587542
0.0579379
0.0571932
0.0564502
0.0557713
0.0550917
0.0544695
0.0538448
0.0532714
0.0526938
0.0521622
0.0516249
0.0511289
0.050626
0.05016
0.0496859
0.0492449
0.0487949
0.0483744
0.0479441
0.0475401
0.0471254
0.0467342
0.0463314
0.0459497
0.0455556
0.0451801
0.0447916
0.0444196
0.0440336
0.0436617
3.21348
3.19247
3.18676
3.16695
3.10946
2.97325
2.72894
2.41573
2.09948
1.80883
1.5509
1.32706
1.13544
0.972652
0.834948
0.718756
0.620833
0.538318
0.468732
0.409957
0.360205
0.317979
0.282036
0.251348
0.225065
0.202489
0.18304
0.166241
0.151693
0.139064
0.128077
0.118497
0.110125
0.102795
0.0963642
0.0907097
0.0857276
0.0813284
0.077435
0.073981
0.0709091
0.0681696
0.0657193
0.0635208
0.0615413
0.0597524
0.058129
0.0566493
0.0552939
0.0540458
0.05289
0.051813
0.0508029
0.049849
0.0489418
0.0480724
0.0472331
0.0464166
0.0456163
0.044826
0.0440394
6.91551
6.86063
6.86617
6.83852
6.83345
6.78271
6.75314
6.6552
6.56965
6.38919
6.1941
5.91073
5.58182
5.24096
4.84884
4.52013
4.15176
3.85718
3.54182
3.28138
3.0172
2.79054
2.57005
2.3754
2.19132
2.02549
1.87157
1.731
1.60209
1.48335
1.37525
1.27516
1.18442
1.10014
1.02389
0.952945
0.888791
0.829025
0.774962
0.724538
0.678894
0.636263
0.597641
0.561508
0.528749
0.498038
0.470181
0.444005
0.420255
0.397878
0.377577
0.358396
0.340999
0.324513
0.309569
0.295363
0.282495
0.270225
0.259121
0.248499
0.238895
0.229679
0.221356
0.213343
0.206115
0.199133
0.192842
0.186746
0.18126
0.175926
0.171131
0.166453
0.162252
0.15814
0.154451
0.150828
0.147581
0.144379
0.141512
0.138675
0.136137
0.133615
0.13136
0.129111
0.1271
0.125087
0.123286
0.121477
0.119857
0.118224
0.11676
0.115278
0.113948
0.112596
0.11138
0.110139
0.10902
0.107875
0.106838
0.105773
0.104806
0.103808
0.102898
0.101956
0.101093
0.100197
0.0993714
0.0985119
0.0977157
0.0968844
0.0961098
0.0952992
0.0945392
0.0937423
0.0929906
0.092201
0.0914517
0.0906633
0.0899106
0.0891185
0.0883553
10.6138
10.5298
10.4604
10.3049
9.98046
9.36353
8.40678
7.28913
6.2361
5.31969
4.53404
3.86503
3.29813
2.81897
2.4146
2.07368
1.78647
1.54458
1.34078
1.16894
1.02384
0.901073
0.796982
0.708504
0.633105
0.568685
0.513504
0.466122
0.42534
0.39016
0.359745
0.333395
0.310517
0.290614
0.273262
0.258099
0.244821
0.233163
0.222902
0.213845
0.205825
0.1987
0.192347
0.186658
0.181542
0.176916
0.172712
0.168868
0.165329
0.16205
0.158987
0.156104
0.153369
0.150751
0.148224
0.145764
0.143349
0.14096
0.138578
0.136184
0.133762
10.7305
10.6387
10.6395
10.5837
10.5578
10.4564
10.3828
10.2016
10.0354
9.73036
9.40417
8.96113
8.45474
7.94366
7.35563
6.86746
6.3148
5.8775
5.40285
5.01532
4.61691
4.27796
3.9447
3.65199
3.37297
3.12229
2.88825
2.67475
2.4781
2.29696
2.13153
1.97824
1.83895
1.70944
1.59205
1.48269
1.38366
1.29128
1.20763
1.12951
1.05874
0.992554
0.932573
0.876372
0.825423
0.777584
0.734205
0.693376
0.656356
0.621415
0.589746
0.559766
0.53261
0.506821
0.483481
0.461244
0.441138
0.421919
0.404561
0.387913
0.372897
0.358446
0.345428
0.332856
0.321547
0.310588
0.300743
0.291168
0.28258
0.274197
0.266688
0.259332
0.25275
0.24628
0.240497
0.234791
0.229697
0.224651
0.220151
0.215675
0.211686
0.207704
0.204156
0.2006
0.197432
0.194244
0.191404
0.188534
0.185976
0.18338
0.181063
0.178703
0.176594
0.174436
0.172504
0.170519
0.168737
0.1669
0.165244
0.163531
0.161981
0.160373
0.158911
0.157389
0.155999
0.154547
0.153213
0.151817
0.150527
0.149173
0.147915
0.146592
0.145355
0.144052
0.142825
0.141532
0.140307
0.139014
0.137782
0.13648
0.135231
10.8425
10.7467
10.6526
10.4583
10.0889
9.44557
8.50582
7.42626
6.39705
5.48819
4.70094
4.02497
3.4481
2.95765
2.54164
2.18937
1.8914
1.63948
1.4265
1.24629
1.09361
0.964035
0.853827
0.759872
0.679573
0.610775
0.551685
0.500811
0.456908
0.418938
0.386026
0.35744
0.332557
0.310853
0.291881
0.27526
0.260666
0.247819
0.23648
0.226446
0.217537
0.209603
0.202509
0.196143
0.190403
0.185204
0.18047
0.176134
0.172139
0.168434
0.164972
0.161715
0.158626
0.155673
0.152828
0.150064
0.147358
0.144688
0.142034
0.139377
0.136699
10.9562
10.86
10.8554
10.7894
10.75
10.6324
10.5381
10.3383
10.149
9.83257
9.49439
9.05635
8.5612
8.06379
7.49699
7.01745
6.47793
6.0436
5.57248
5.1847
4.78437
4.4428
4.10491
3.80796
3.52308
3.26729
3.02697
2.80801
2.60513
2.41853
2.24716
2.08862
1.94379
1.80934
1.68686
1.57293
1.46927
1.3727
1.28488
1.20295
1.12842
1.05879
0.995444
0.936146
0.882184
0.831563
0.785495
0.742173
0.702754
0.665582
0.631773
0.599797
0.570733
0.543159
0.518118
0.494283
0.472659
0.452011
0.433298
0.41537
0.399142
0.383542
0.36944
0.355838
0.343558
0.331673
0.320956
0.310548
0.301176
0.292043
0.283828
0.275795
0.268577
0.261494
0.255137
0.248876
0.243262
0.237712
0.232739
0.227806
0.223388
0.218988
0.215049
0.211111
0.207586
0.204049
0.200881
0.197691
0.194831
0.19194
0.189346
0.186713
0.184347
0.181937
0.179767
0.177547
0.175544
0.173488
0.171626
0.169708
0.167965
0.166164
0.16452
0.162817
0.161255
0.159631
0.158135
0.156576
0.155131
0.153622
0.152215
0.150744
0.149364
0.147918
0.146554
0.145123
0.143765
0.142338
0.140976
0.139544
0.13817
11.0673
10.9617
10.845
10.6159
10.2079
9.54373
8.61878
7.57068
6.5615
5.65859
4.86888
4.18549
3.59841
3.09649
2.66874
2.30502
1.99622
1.73425
1.51205
1.32347
1.16322
1.02684
0.910521
0.811098
0.725913
0.652749
0.58976
0.535404
0.48839
0.447639
0.412239
0.381423
0.354542
0.331043
0.310457
0.292383
0.276477
0.262444
0.250033
0.239024
0.22923
0.220487
0.212656
0.205613
0.199253
0.193482
0.18822
0.183394
0.178944
0.174814
0.170954
0.167323
0.163881
0.160594
0.157432
0.154365
0.151368
0.148419
0.145494
0.142574
0.13964
11.1801
11.0795
11.0699
10.9944
10.9429
10.8103
10.698
10.4818
10.2731
9.94711
9.59979
9.16585
8.68052
8.19412
7.64512
7.17262
6.64439
6.21228
5.74404
5.35556
4.95301
4.60856
4.26585
3.96453
3.67364
3.41265
3.16595
2.94148
2.7323
2.5402
2.36282
2.199
2.04858
1.90917
1.78158
1.66306
1.55476
1.454
1.36198
1.27624
1.19796
1.12489
1.05817
0.995776
0.938805
0.885406
0.836654
0.790843
0.74903
0.709631
0.673689
0.639721
0.608756
0.579401
0.552663
0.527236
0.504099
0.482024
0.46196
0.442755
0.42532
0.408576
0.393393
0.378764
0.365515
0.352707
0.341121
0.329884
0.31973
0.309849
0.300931
0.292222
0.284371
0.276677
0.269748
0.262933
0.256801
0.250749
0.245306
0.239915
0.23507
0.230253
0.225925
0.221606
0.217725
0.213839
0.210345
0.206835
0.203675
0.200489
0.197619
0.194714
0.192093
0.18943
0.187023
0.18457
0.182346
0.180071
0.178003
0.175881
0.173945
0.171952
0.170127
0.168243
0.16651
0.164715
0.163056
0.161334
0.159735
0.158071
0.156517
0.154896
0.153375
0.151786
0.150286
0.148716
0.147226
0.145665
0.144175
0.142613
0.141114
11.2907
11.1762
11.0388
10.7784
10.3374
9.65655
8.74432
7.72224
6.7298
5.83132
5.03828
4.34692
3.7493
3.23567
2.79601
2.42072
2.10101
1.82894
1.59749
1.4005
1.23269
1.08949
0.967074
0.862193
0.772129
0.69461
0.627732
0.569903
0.519788
0.476264
0.438383
0.405346
0.376472
0.351185
0.32899
0.309467
0.292254
0.27704
0.263558
0.251578
0.240901
0.231354
0.222787
0.215071
0.208091
0.20175
0.195961
0.190648
0.185743
0.181189
0.176933
0.172929
0.169135
0.165516
0.162036
0.158667
0.15538
0.152151
0.148957
0.145775
0.142586
11.4037
11.2993
11.2851
11.2011
11.1382
10.9925
10.8637
10.6336
10.408
10.0744
9.71968
9.28917
8.81215
8.33453
7.80042
7.33336
6.81483
6.38393
5.9181
5.52818
5.12324
4.77547
4.42782
4.12186
3.82486
3.55852
3.30534
3.07526
2.85967
2.66202
2.47857
2.30942
2.15337
2.00897
1.87623
1.75311
1.64014
1.53518
1.43896
1.34941
1.26735
1.19084
1.12075
1.05527
0.995289
0.93912
0.887683
0.83939
0.795186
0.753567
0.715494
0.679541
0.646677
0.615547
0.587117
0.560102
0.535455
0.51196
0.490548
0.470071
0.451431
0.433546
0.417286
0.401633
0.387419
0.373691
0.361239
0.349174
0.338243
0.327616
0.317997
0.308615
0.300132
0.29183
0.284329
0.276963
0.270314
0.263762
0.25785
0.252004
0.246732
0.241501
0.236783
0.232086
0.22785
0.223617
0.219797
0.215967
0.212509
0.209029
0.205883
0.202707
0.199831
0.196917
0.194274
0.191587
0.189143
0.18665
0.184378
0.182052
0.179924
0.177739
0.175733
0.173668
0.171764
0.169799
0.167978
0.166094
0.164341
0.162522
0.16082
0.159052
0.157389
0.155658
0.154021
0.152314
0.150692
0.148998
0.14738
0.145687
0.144063
11.5147
11.3923
11.236
10.9476
10.478
9.7836
8.88194
7.8811
6.90229
6.00672
5.20942
4.50951
3.90093
3.37533
2.92355
2.53655
2.20582
1.92357
1.68283
1.47743
1.30202
1.15201
1.02349
0.91316
0.818226
0.736359
0.665601
0.604309
0.551101
0.504811
0.464458
0.429206
0.398346
0.371276
0.347478
0.32651
0.307994
0.291603
0.277055
0.264108
0.25255
0.242201
0.232901
0.224513
0.216917
0.210007
0.203692
0.197892
0.192535
0.187558
0.182907
0.178531
0.174387
0.170435
0.166639
0.162968
0.159393
0.155885
0.152422
0.148979
0.145535
11.629
11.5215
11.5029
11.411
11.3379
11.1803
11.0368
10.7946
10.5544
10.2144
9.85366
9.42585
8.95567
8.48494
7.96303
7.50005
6.98958
6.559
6.09492
5.70293
5.29529
4.94376
4.59099
4.28011
3.97687
3.70498
3.44521
3.2094
2.98733
2.78403
2.59443
2.41991
2.25817
2.10875
1.97081
1.84307
1.72541
1.61624
1.5158
1.42243
1.3366
1.25665
1.18319
1.11462
1.05163
0.992689
0.938571
0.887801
0.841208
0.797375
0.757175
0.719242
0.684483
0.651584
0.621465
0.592868
0.566716
0.541805
0.519049
0.497305
0.477463
0.458443
0.441107
0.424436
0.409259
0.394616
0.3813
0.368411
0.356703
0.345334
0.335016
0.324965
0.315851
0.306943
0.298873
0.290959
0.283794
0.276744
0.270364
0.264065
0.258368
0.252724
0.247619
0.242544
0.237953
0.233374
0.22923
0.225083
0.221326
0.217554
0.214134
0.210687
0.207557
0.204393
0.201514
0.198594
0.195931
0.193221
0.190744
0.188215
0.185895
0.18352
0.181334
0.179089
0.177015
0.174879
0.172897
0.170851
0.168944
0.166971
0.165123
0.163206
0.161403
0.159529
0.157757
0.155912
0.154159
0.152331
0.150586
0.148764
0.147015
11.7417
11.612
11.4384
11.125
10.6306
9.92469
9.03139
8.04744
7.0793
6.18505
5.38252
4.67339
4.05342
3.51552
3.05139
2.65252
2.31066
2.01816
1.76807
1.55422
1.37121
1.21439
1.07977
0.963988
0.864192
0.777987
0.703359
0.638613
0.58232
0.533276
0.490457
0.452997
0.420159
0.391312
0.365917
0.343511
0.323697
0.306133
0.290522
0.276611
0.264177
0.253028
0.242997
0.23394
0.225729
0.218253
0.211415
0.20513
0.199321
0.193924
0.188878
0.184131
0.179638
0.175354
0.171244
0.167272
0.163408
0.159624
0.155892
0.152188
0.14849
11.8581
11.748
11.7252
11.6264
11.5436
11.3756
11.2187
10.966
10.7131
10.3675
10.0016
9.57572
9.111
8.64545
8.13337
7.67316
7.16918
6.73805
6.275
5.88026
5.46959
5.11381
4.75571
4.43958
4.12993
3.85229
3.5858
3.3441
3.11543
2.90638
2.71056
2.53059
2.36309
2.20861
2.06543
1.93304
1.81065
1.69725
1.59257
1.49538
1.40575
1.32237
1.24552
1.17386
1.10786
1.04615
0.989353
0.936108
0.88713
0.841083
0.79876
0.75885
0.722201
0.687535
0.655732
0.625555
0.597901
0.571578
0.547481
0.524472
0.503433
0.48328
0.464873
0.447185
0.431048
0.415492
0.401314
0.387605
0.375123
0.363013
0.351999
0.34128
0.331538
0.322026
0.313388
0.304927
0.297248
0.289702
0.282856
0.276106
0.269984
0.263928
0.258437
0.252986
0.248042
0.243118
0.238651
0.234186
0.230133
0.226069
0.222374
0.218658
0.215275
0.211861
0.208747
0.205595
0.202714
0.199788
0.197106
0.194374
0.191864
0.189298
0.186932
0.184508
0.182264
0.179958
0.177815
0.175608
0.173548
0.171421
0.169426
0.167362
0.165418
0.163403
0.161495
0.159514
0.157629
0.155669
0.153795
0.151844
0.149971
11.9733
11.8373
11.6479
11.3118
10.7957
10.0797
9.19259
8.22166
7.26136
6.36679
5.55798
4.83892
4.20705
3.65648
3.17973
2.76878
2.41564
2.11279
1.85329
1.63095
1.44031
1.27666
1.13594
1.01471
0.910057
0.819519
0.741027
0.672834
0.613464
0.56167
0.516393
0.476732
0.441921
0.411302
0.384314
0.360474
0.339367
0.320633
0.303964
0.289091
0.275783
0.263837
0.253079
0.243354
0.23453
0.226489
0.21913
0.21236
0.206102
0.200285
0.194846
0.18973
0.184887
0.180274
0.175849
0.171578
0.167426
0.163364
0.159365
0.155401
0.15145
12.0929
11.9806
11.9539
11.8488
11.7571
11.5797
11.4107
11.1488
10.8846
10.534
10.1635
9.73866
9.27803
8.81612
8.31168
7.85304
7.35396
6.92144
6.4586
6.06046
5.64634
5.28583
4.92212
4.60041
4.28415
4.00051
3.72715
3.4794
3.24401
3.02911
2.82696
2.64146
2.46814
2.30854
2.16008
2.023
1.89586
1.7782
1.66926
1.56823
1.47481
1.38797
1.30774
1.23298
1.16397
1.0995
1.04002
0.984298
0.932937
0.884681
0.840238
0.798355
0.759818
0.723389
0.689905
0.658154
0.629001
0.60127
0.575836
0.551567
0.529333
0.508051
0.488575
0.469874
0.45278
0.436314
0.421278
0.40675
0.393497
0.38065
0.368942
0.357556
0.347189
0.337075
0.327872
0.318866
0.310675
0.302633
0.295323
0.288123
0.281579
0.275113
0.269236
0.26341
0.258114
0.252847
0.248057
0.243277
0.238927
0.234572
0.230605
0.22662
0.222985
0.219322
0.215974
0.212591
0.209492
0.20635
0.203465
0.200531
0.19783
0.195074
0.192529
0.189926
0.187513
0.185038
0.182734
0.180366
0.178153
0.175873
0.173732
0.171521
0.169437
0.16728
0.165237
0.163119
0.161104
0.159012
0.157011
0.154931
0.152934
12.2116
12.0699
11.8659
11.5094
10.9739
10.2486
9.36547
8.40401
7.44881
6.55226
5.73605
5.00627
4.36192
3.79827
3.3086
2.88535
2.52079
2.20747
1.93849
1.70761
1.50932
1.33883
1.192
1.06532
0.955809
0.860944
0.778595
0.706962
0.644522
0.589986
0.542257
0.500402
0.463624
0.43124
0.402665
0.377396
0.354999
0.3351
0.317375
0.301545
0.287366
0.274626
0.263142
0.252753
0.243318
0.234714
0.226835
0.219583
0.212877
0.206641
0.20081
0.195325
0.190135
0.185192
0.180455
0.175884
0.171446
0.167108
0.162842
0.158619
0.154416
12.3352
12.2211
12.1908
12.0798
11.98
11.794
11.614
11.3437
11.0694
10.7141
10.3392
9.9146
9.45677
8.99706
8.49827
8.04003
7.54432
7.10959
6.64609
6.2439
5.82583
5.46009
5.09046
4.7628
4.43971
4.14981
3.86939
3.61541
3.37317
3.15228
2.9437
2.75258
2.57337
2.40859
2.25479
2.11299
1.98105
1.85911
1.74589
1.64101
1.54377
1.45347
1.36985
1.292
1.21997
1.15272
1.09057
1.03237
0.978633
0.928168
0.881608
0.837754
0.797335
0.759146
0.723986
0.690662
0.660015
0.630879
0.604112
0.578585
0.555161
0.532753
0.512212
0.492501
0.474454
0.45708
0.441189
0.425845
0.411823
0.398241
0.385841
0.373793
0.362802
0.352089
0.342322
0.332772
0.324071
0.315537
0.307764
0.300115
0.29315
0.286275
0.280015
0.273815
0.268169
0.262559
0.257448
0.252354
0.247708
0.243064
0.238824
0.234572
0.230685
0.226774
0.223193
0.219579
0.216263
0.212906
0.209818
0.206683
0.203792
0.200847
0.198123
0.195342
0.19276
0.190116
0.187653
0.185124
0.182759
0.180326
0.178039
0.175682
0.173458
0.17116
0.168982
0.166729
0.164583
0.162358
0.160231
0.158023
0.155902
12.4582
12.3113
12.0939
11.7187
11.1656
10.4313
9.55009
8.5948
7.64206
6.74179
5.91701
5.17566
4.51821
3.94102
3.43809
3.0023
2.62613
2.30223
2.02369
1.78422
1.57825
1.40089
1.24794
1.11581
1.00145
0.902263
0.816062
0.740996
0.675493
0.618223
0.568049
0.524007
0.485268
0.451124
0.420967
0.394274
0.370592
0.349532
0.330757
0.313972
0.298925
0.285395
0.273187
0.262136
0.252092
0.242928
0.23453
0.226798
0.219644
0.212991
0.20677
0.200918
0.195381
0.19011
0.18506
0.180192
0.175468
0.170855
0.166322
0.161841
0.157386
12.5865
12.4711
12.4373
12.321
12.2135
12.0196
11.8296
11.5515
11.2681
10.9081
10.5289
10.1036
9.64732
9.18844
8.69346
8.23448
7.74068
7.30288
6.83783
6.43092
6.00835
5.63686
5.26095
4.92695
4.59676
4.30033
4.01266
3.75223
3.503
3.27596
3.06085
2.86401
2.67883
2.50879
2.3496
2.20302
2.06625
1.94
1.82248
1.71372
1.61265
1.51888
1.43186
1.3509
1.27585
1.20584
1.141
1.08034
1.02422
0.971546
0.922873
0.87705
0.834751
0.794805
0.757972
0.72308
0.690943
0.660404
0.632308
0.605528
0.580917
0.557385
0.535783
0.515065
0.496067
0.47779
0.461046
0.444889
0.430101
0.415787
0.402698
0.389988
0.378376
0.367065
0.356737
0.346646
0.337437
0.328411
0.320177
0.312082
0.304697
0.297415
0.290772
0.2842
0.278205
0.272254
0.266823
0.261415
0.256476
0.251542
0.247032
0.242513
0.238375
0.234217
0.230403
0.22656
0.223027
0.219456
0.216166
0.21283
0.20975
0.206617
0.203715
0.200756
0.198005
0.195194
0.19257
0.189882
0.187365
0.184779
0.182347
0.179845
0.177481
0.175043
0.17273
0.170341
0.168065
0.16571
0.163456
0.161119
0.158875
12.7147
12.5632
12.3332
11.9408
11.3715
10.6281
9.74659
8.79438
7.84151
6.93575
6.10115
5.3473
4.67608
4.08484
3.56829
3.11968
2.73172
2.3971
2.10891
1.86079
1.6471
1.46285
1.30378
1.1662
1.04698
0.943475
0.853429
0.774936
0.706378
0.646379
0.593768
0.547544
0.506851
0.470954
0.439221
0.411108
0.386146
0.36393
0.344106
0.326372
0.31046
0.296141
0.283214
0.271502
0.260852
0.251129
0.242215
0.234004
0.226405
0.219336
0.212725
0.206508
0.200626
0.195028
0.189667
0.184501
0.179492
0.174604
0.169807
0.165068
0.160362
12.8487
12.732
12.6949
12.5737
12.4591
12.2579
12.0584
11.7731
11.4812
11.1164
10.7327
10.3058
9.84983
9.39048
8.89759
8.43675
7.94344
7.50171
7.03417
6.62185
6.1942
5.81641
5.43381
5.09307
4.75548
4.4522
4.15706
3.88997
3.63357
3.40024
3.17847
2.9758
2.78455
2.60917
2.44453
2.29312
2.15149
2.02088
1.89903
1.78637
1.68146
1.58421
1.49378
1.40971
1.33164
1.25885
1.19133
1.12819
1.06969
1.01482
0.964032
0.916242
0.872067
0.830366
0.791865
0.755406
0.721783
0.689845
0.660424
0.632392
0.606598
0.581946
0.559287
0.537565
0.517619
0.49844
0.480848
0.463879
0.448329
0.433285
0.419509
0.406141
0.393909
0.382003
0.371116
0.360486
0.350771
0.341256
0.332562
0.324022
0.31622
0.308531
0.301508
0.294565
0.288222
0.281931
0.276181
0.270461
0.265228
0.260008
0.255227
0.250442
0.246055
0.24165
0.237605
0.233532
0.229784
0.226
0.222508
0.218973
0.215703
0.212383
0.209303
0.206167
0.203249
0.20027
0.197487
0.19464
0.191971
0.189234
0.186657
0.184009
0.181506
0.178928
0.176482
0.173958
0.171552
0.169065
0.166685
0.164221
0.161854
12.9827
12.8269
12.5853
12.1767
11.592
10.8391
9.95515
9.00307
8.04756
7.13449
6.28875
5.52143
4.83569
4.22986
3.69928
3.23756
2.8376
2.49212
2.19417
1.93734
1.71588
1.52473
1.35952
1.21647
1.09241
0.984582
0.890695
0.808781
0.737174
0.674454
0.619412
0.571014
0.528372
0.490727
0.457423
0.427897
0.40166
0.378291
0.357424
0.338742
0.32197
0.306866
0.293221
0.280852
0.269598
0.259318
0.249889
0.241201
0.233159
0.225676
0.218677
0.212095
0.205868
0.199944
0.194273
0.188811
0.183518
0.178357
0.173295
0.1683
0.163344
13.123
13.0054
12.9652
12.8393
12.7179
12.5098
12.3016
12.0092
11.7091
11.3393
10.9509
10.5214
10.0645
9.60343
9.11103
8.6472
8.15299
7.70646
7.23546
6.81703
6.38365
5.999
5.60926
5.26133
4.91602
4.60558
4.30272
4.02873
3.76498
3.52518
3.29662
3.08798
2.89058
2.70978
2.53962
2.38332
2.23677
2.10178
1.97557
1.85898
1.75022
1.64945
1.55561
1.46842
1.38732
1.31175
1.24156
1.17594
1.11506
1.05798
1.00509
0.955329
0.909282
0.865829
0.825662
0.78764
0.752534
0.7192
0.688458
0.659178
0.632204
0.606435
0.582721
0.559998
0.539109
0.519032
0.500593
0.482817
0.466506
0.450734
0.436275
0.422251
0.409402
0.396903
0.385459
0.374292
0.364072
0.354069
0.344918
0.335934
0.327717
0.319624
0.312221
0.304909
0.298219
0.29159
0.285522
0.279491
0.273967
0.268459
0.263409
0.25836
0.253724
0.249074
0.244798
0.240497
0.236534
0.232537
0.228845
0.22511
0.221653
0.218145
0.214888
0.211576
0.208491
0.205344
0.202404
0.199398
0.196578
0.193689
0.190968
0.188175
0.185534
0.182816
0.180236
0.177577
0.175042
0.172425
0.16992
0.167329
0.164839
13.2638
13.104
12.8512
12.4273
11.8276
11.0645
10.176
9.22126
8.26062
7.33837
6.4801
5.69826
4.99722
4.3762
3.83114
3.356
2.9438
2.5873
2.27949
2.01388
1.78461
1.58652
1.41515
1.26665
1.13772
1.02558
0.92786
0.842531
0.767881
0.702447
0.64498
0.594414
0.54983
0.510443
0.475575
0.444639
0.417132
0.392615
0.370709
0.351084
0.333454
0.317568
0.303208
0.290184
0.278328
0.267494
0.257552
0.24839
0.239905
0.23201
0.224624
0.217678
0.211109
0.20486
0.19888
0.193123
0.187547
0.182114
0.176788
0.171537
0.166332
13.4111
13.2927
13.2495
13.1191
12.9913
12.7765
12.5598
12.2606
11.9525
11.5773
11.1837
10.7507
10.2917
9.82759
9.33413
8.86619
8.36974
7.9175
7.44208
7.01678
6.57701
6.1849
5.78753
5.43196
5.07856
4.7606
4.44975
4.16861
3.89731
3.65085
3.41535
3.20063
2.99696
2.81065
2.6349
2.47364
2.32213
2.18271
2.0521
1.93157
1.81892
1.71464
1.61736
1.52703
1.44291
1.36455
1.29167
1.22357
1.16033
1.10103
1.04604
0.994314
0.946397
0.901193
0.859364
0.819781
0.783196
0.748469
0.716408
0.685883
0.657734
0.630851
0.606086
0.582365
0.560535
0.539562
0.52028
0.501699
0.484631
0.468135
0.452994
0.438316
0.424853
0.411763
0.399764
0.388062
0.37734
0.366852
0.357245
0.347819
0.339187
0.330692
0.322912
0.315231
0.308196
0.30123
0.294845
0.288505
0.28269
0.276897
0.271579
0.266266
0.261382
0.256488
0.251982
0.247454
0.243277
0.239067
0.235176
0.231243
0.227598
0.223904
0.220471
0.216982
0.21373
0.210418
0.207319
0.204155
0.201185
0.198145
0.195281
0.192343
0.189564
0.186707
0.183994
0.181201
0.178537
0.17579
0.173159
0.170442
0.167829
13.5592
13.3958
13.1323
12.6935
12.079
11.3048
10.4095
9.44931
8.48108
7.54774
6.6755
5.87802
5.16082
4.52398
3.96397
3.47506
3.05038
2.68268
2.3649
2.09042
1.85329
1.64824
1.4707
1.31672
1.18293
1.06648
0.964925
0.876186
0.798498
0.730356
0.670472
0.617743
0.571225
0.530102
0.493673
0.461334
0.432561
0.406901
0.383959
0.363395
0.344911
0.328246
0.313175
0.299498
0.287043
0.275657
0.265205
0.255569
0.246644
0.238337
0.230567
0.223259
0.216348
0.209775
0.203487
0.197436
0.191578
0.185873
0.180285
0.174779
0.169326
13.7144
13.5952
13.5491
13.4144
13.2803
13.0591
12.8342
12.528
12.212
11.8308
11.4315
10.9939
10.5316
10.0633
9.56729
9.09412
8.59409
8.13523
7.65436
7.22145
6.77455
6.37436
5.96884
5.60514
5.24327
4.91742
4.59829
4.30971
4.03064
3.77732
3.53473
3.31377
3.10373
2.91181
2.73038
2.5641
2.40758
2.26368
2.12865
2.00413
1.88758
1.77975
1.67904
1.58557
1.49841
1.41725
1.34169
1.27111
1.20548
1.14398
1.08688
1.03319
0.98341
0.936457
0.89297
0.851828
0.813767
0.77765
0.744275
0.712508
0.683186
0.655192
0.62938
0.604664
0.581897
0.560031
0.539908
0.520525
0.502703
0.485484
0.469664
0.454335
0.440261
0.426582
0.414031
0.401795
0.390573
0.379602
0.369541
0.359676
0.350631
0.341735
0.333578
0.325531
0.318152
0.31085
0.304151
0.297502
0.291397
0.28532
0.279735
0.27416
0.269029
0.263891
0.259156
0.254402
0.250012
0.245591
0.2415
0.23737
0.233538
0.229658
0.22605
0.222386
0.218968
0.21549
0.212234
0.208913
0.205793
0.202602
0.199595
0.196513
0.193596
0.190601
0.187756
0.184829
0.182037
0.17916
0.176404
0.17356
0.170826
13.8705
13.7035
13.4296
12.9762
12.3467
11.5602
10.6559
9.68762
8.70935
7.76297
6.87523
6.06094
5.32667
4.67331
4.09784
3.59479
3.15736
2.77829
2.45041
2.16698
1.92194
1.70989
1.52615
1.36668
1.22804
1.10728
1.00189
0.909744
0.829025
0.758181
0.695885
0.641002
0.592553
0.5497
0.511718
0.477981
0.447947
0.421148
0.397176
0.375676
0.356341
0.3389
0.32312
0.308795
0.295743
0.283806
0.272846
0.262738
0.253375
0.244659
0.236505
0.228836
0.221585
0.21469
0.208095
0.201751
0.195612
0.189636
0.183786
0.178027
0.172326
14.0341
13.9142
13.8653
13.7264
13.5862
13.3584
13.1255
12.8121
12.488
12.1003
11.6946
11.2515
10.7846
10.3109
9.81091
9.33137
8.82645
8.36001
7.87267
7.43137
6.97657
6.56766
6.15342
5.78107
5.4103
5.07617
4.74844
4.45214
4.16506
3.90468
3.65481
3.42747
3.21093
3.01329
2.82611
2.65474
2.49314
2.34471
2.20522
2.07668
1.95621
1.84482
1.74066
1.64402
1.55382
1.46985
1.39161
1.31854
1.25054
1.18683
1.12762
1.07197
1.02032
0.971621
0.926478
0.88378
0.844247
0.806741
0.772056
0.73905
0.708559
0.679457
0.652601
0.626892
0.603191
0.580435
0.559476
0.539293
0.520719
0.502781
0.486285
0.470307
0.455623
0.441358
0.428257
0.415491
0.403771
0.392317
0.381805
0.371501
0.362046
0.35275
0.344219
0.335807
0.328086
0.32045
0.313436
0.30648
0.300087
0.293727
0.287876
0.282039
0.276662
0.271283
0.26632
0.26134
0.256738
0.252107
0.247817
0.24349
0.239472
0.235408
0.231624
0.227786
0.224203
0.22056
0.217147
0.213669
0.210399
0.207059
0.203909
0.200684
0.19763
0.194497
0.191519
0.188459
0.185539
0.182533
0.179653
0.176684
0.173828
14.199
14.0284
13.7442
13.2763
12.6312
11.8312
10.9156
9.93653
8.94577
7.98434
7.07951
6.24716
5.49487
4.82427
4.2328
3.71521
3.26476
2.87413
2.53601
2.24355
1.99054
1.77145
1.5815
1.41654
1.27303
1.14796
1.03874
0.943195
0.859451
0.785912
0.721213
0.664181
0.61381
0.569234
0.529704
0.494574
0.463285
0.435352
0.410353
0.387922
0.36774
0.349528
0.333043
0.31807
0.304424
0.29194
0.280474
0.269897
0.260097
0.250973
0.242437
0.23441
0.226819
0.219603
0.212703
0.206067
0.199648
0.193403
0.187292
0.18128
0.175332
14.3716
14.2511
14.1993
14.0562
13.9099
13.6756
13.4345
13.1137
12.7813
12.3864
11.9735
11.5238
11.0511
10.5708
10.0653
9.57829
9.06718
8.59217
8.09732
7.64678
7.1833
6.76498
6.34143
5.9599
5.57977
5.23695
4.90027
4.59594
4.30061
4.03293
3.77562
3.54173
3.31857
3.11509
2.92208
2.74553
2.57881
2.42579
2.28181
2.14921
2.0248
1.90982
1.80219
1.70237
1.60912
1.52235
1.44141
1.36585
1.29548
1.22955
1.16825
1.11063
1.05712
1.00667
0.959879
0.915627
0.874626
0.835735
0.799743
0.765501
0.733845
0.703638
0.675742
0.649044
0.624413
0.60077
0.578977
0.557998
0.538676
0.520021
0.502852
0.486227
0.470938
0.456089
0.442439
0.429145
0.416929
0.404996
0.394034
0.383294
0.37343
0.363737
0.354833
0.346058
0.337996
0.330027
0.322701
0.315439
0.308759
0.302118
0.296002
0.289905
0.284283
0.278662
0.273472
0.268268
0.263454
0.258614
0.254127
0.249604
0.245401
0.241153
0.237194
0.233183
0.229435
0.225627
0.222059
0.218424
0.215006
0.211517
0.208224
0.204856
0.201666
0.198396
0.195287
0.192094
0.189046
0.185912
0.182908
0.179813
0.176837
14.5459
14.372
14.0774
13.5947
12.9334
12.1183
11.1891
10.1966
9.1909
8.21236
7.28879
6.43706
5.66571
4.97707
4.36901
3.83647
3.3727
2.97027
2.62178
2.32019
2.05914
1.83298
1.63678
1.46631
1.31793
1.18854
1.0755
0.976558
0.889793
0.813564
0.746466
0.687291
0.635004
0.588709
0.547637
0.51112
0.47858
0.449517
0.423496
0.400138
0.379112
0.360131
0.342943
0.327327
0.313089
0.30006
0.28809
0.277045
0.26681
0.25728
0.248364
0.239979
0.232051
0.224514
0.21731
0.210383
0.203685
0.197172
0.190802
0.184538
0.178344
14.7284
14.6072
14.5527
14.4053
14.2529
14.0118
13.7624
13.4337
13.0926
12.6897
12.2689
11.8115
11.3317
10.8434
10.3312
9.83546
9.31682
8.83226
8.32878
7.86818
7.39514
6.96673
6.53321
6.14192
5.75194
5.39999
5.054
4.7413
4.43745
4.16223
3.89728
3.65666
3.42675
3.21731
3.01837
2.83655
2.66465
2.50698
2.35847
2.22177
2.09339
1.97479
1.86368
1.76068
1.66437
1.57477
1.49114
1.41307
1.34033
1.27219
1.20878
1.1492
1.09383
1.04164
0.993194
0.947388
0.904923
0.864648
0.827353
0.791876
0.759059
0.72775
0.698817
0.671132
0.645574
0.621047
0.598423
0.57665
0.556583
0.537213
0.519374
0.502106
0.486212
0.470781
0.456586
0.442765
0.430056
0.417645
0.406236
0.395062
0.38479
0.374701
0.365426
0.356289
0.347887
0.339587
0.331951
0.324384
0.317418
0.310496
0.304117
0.297761
0.291895
0.286034
0.280618
0.27519
0.270166
0.265117
0.260434
0.255715
0.251328
0.246896
0.242764
0.23858
0.234668
0.230697
0.226972
0.223182
0.219616
0.215978
0.212544
0.209034
0.205707
0.202301
0.19906
0.195735
0.192561
0.189298
0.186171
0.182951
0.179855
14.9128
14.7354
14.4303
13.9323
13.2539
12.422
11.4769
10.4683
9.44511
8.44732
7.50328
6.63078
5.83928
5.13178
4.50652
3.95857
3.48115
3.06673
2.7077
2.39688
2.12773
1.89445
1.69199
1.51599
1.36273
1.22902
1.11216
1.00982
0.920042
0.841129
0.771638
0.710327
0.656129
0.608123
0.565514
0.527615
0.49383
0.463642
0.436603
0.412322
0.390456
0.37071
0.352822
0.336565
0.321739
0.308167
0.295694
0.284184
0.273516
0.263582
0.254287
0.245546
0.237281
0.229426
0.221919
0.214702
0.207727
0.200946
0.194317
0.187802
0.181365
15.1057
14.9836
14.9266
14.7747
14.6161
14.3679
14.11
13.7729
13.4225
13.0109
12.5811
12.1149
11.6268
11.1294
10.6089
10.1033
9.57575
9.0806
8.56739
8.09583
7.61237
7.17311
6.72893
6.32729
5.92694
5.56539
5.2097
4.88829
4.57563
4.2926
4.01982
3.77229
3.53548
3.31995
3.11499
2.92781
2.75065
2.58828
2.43519
2.29435
2.16198
2.03973
1.92513
1.81891
1.71953
1.62709
1.54077
1.4602
1.38508
1.31472
1.24921
1.18766
1.13044
1.0765
1.02641
0.979051
0.935124
0.893469
0.854873
0.818165
0.78419
0.751781
0.721814
0.693147
0.666664
0.641256
0.617805
0.595241
0.574431
0.55435
0.535843
0.517933
0.501438
0.485428
0.47069
0.456345
0.443144
0.430258
0.418402
0.406796
0.396119
0.385636
0.375991
0.366495
0.357755
0.349125
0.341179
0.33331
0.326059
0.318858
0.312216
0.305602
0.299493
0.293393
0.287752
0.282102
0.276868
0.271612
0.266732
0.26182
0.257248
0.252634
0.248329
0.243973
0.239898
0.235763
0.231884
0.227939
0.224225
0.22044
0.216864
0.213212
0.20975
0.206207
0.202836
0.19938
0.196078
0.192688
0.189438
0.186095
0.182879
15.3007
15.1199
14.804
14.2901
13.5934
12.7429
11.7794
10.752
9.70881
8.68961
7.72328
6.82855
6.01575
5.28851
4.6454
4.08158
3.59018
3.16352
2.7938
2.47364
2.19632
1.95588
1.74712
1.56558
1.40743
1.26941
1.14872
1.04299
0.950197
0.868605
0.796728
0.733287
0.677184
0.627472
0.583333
0.544057
0.509032
0.477725
0.449672
0.424471
0.40177
0.381262
0.362678
0.345783
0.33037
0.316258
0.303286
0.291313
0.280214
0.269877
0.260205
0.251109
0.24251
0.234337
0.226528
0.219023
0.211771
0.204724
0.197838
0.191072
0.184392
15.5038
15.3819
15.3219
15.1658
15.0004
14.7451
14.4781
14.1322
13.7716
13.3506
12.9108
12.4346
11.9369
11.4291
10.8988
10.3821
9.84446
9.33758
8.81358
8.33005
7.83534
7.38435
6.9289
6.51618
6.10499
5.73326
5.36754
5.03696
4.71526
4.4241
4.14332
3.88863
3.64482
3.42302
3.21196
3.0193
2.83685
2.66969
2.51199
2.36696
2.23056
2.10464
1.98653
1.87707
1.77462
1.67934
1.59031
1.50723
1.42972
1.35714
1.28954
1.22602
1.16694
1.11126
1.05952
1.01062
0.965229
0.922197
0.882303
0.844368
0.809236
0.775733
0.744734
0.715088
0.687682
0.661398
0.637121
0.61377
0.592218
0.571431
0.552257
0.533711
0.516615
0.50003
0.48475
0.469884
0.456192
0.442835
0.430534
0.418499
0.407416
0.396543
0.386529
0.376676
0.367598
0.358641
0.350385
0.342216
0.334681
0.327203
0.320299
0.313429
0.307078
0.300741
0.294874
0.289004
0.28356
0.278099
0.273023
0.267918
0.263163
0.258368
0.25389
0.249363
0.245124
0.240828
0.236794
0.232695
0.228834
0.224902
0.221185
0.217393
0.213795
0.210118
0.206615
0.203029
0.199601
0.196084
0.192711
0.189245
0.185909
15.711
15.526
15.1989
14.6683
13.9522
13.0811
12.0968
11.048
9.98235
8.93955
7.9491
7.03064
6.19535
5.44744
4.78579
4.20558
3.69985
3.2607
2.88012
2.5505
2.26492
2.01726
1.80218
1.61508
1.45204
1.30969
1.18517
1.07606
0.980257
0.895992
0.821734
0.756169
0.698169
0.646757
0.601092
0.560446
0.524186
0.491763
0.462702
0.436586
0.413053
0.391787
0.37251
0.35498
0.338984
0.324333
0.310864
0.29843
0.286902
0.276165
0.266117
0.256668
0.247735
0.239247
0.231137
0.223345
0.215818
0.208505
0.201362
0.194348
0.187425
10.4939
10.4123
10.3708
10.2682
10.1563
9.98773
9.80863
9.58021
9.3398
9.06177
8.76959
8.45493
8.12463
7.78818
7.4359
7.09218
6.73385
6.395
6.04426
5.71939
5.3867
5.08228
4.77463
4.49494
4.21612
3.96336
3.71457
3.48915
3.2697
3.07066
2.87866
2.70415
2.53707
2.38477
2.23983
2.10726
1.98171
1.86644
1.75771
1.6575
1.56326
1.47609
1.39431
1.31838
1.2473
1.18108
1.11918
1.06132
1.00732
0.956682
0.909479
0.865081
0.823741
0.784744
0.74847
0.714154
0.682265
0.652013
0.623925
0.597208
0.572422
0.548782
0.526868
0.505911
0.486498
0.467885
0.450654
0.434089
0.418763
0.40399
0.39033
0.377129
0.364926
0.353102
0.342177
0.331563
0.321757
0.312206
0.303383
0.294766
0.286806
0.279012
0.27181
0.26474
0.258205
0.251773
0.245823
0.239953
0.234519
0.229144
0.224163
0.219223
0.214641
0.210084
0.205852
0.201632
0.197706
0.193783
0.190125
0.186461
0.183038
0.1796
0.176381
0.173141
0.170099
0.167029
0.164139
0.161217
0.158457
0.155661
0.153011
0.150321
0.147764
0.145161
0.14268
0.14015
0.137729
0.135256
0.132882
0.130452
0.128114
5.16932
5.11073
5.0111
4.8496
4.63139
4.36507
4.06225
3.73667
3.40209
3.07054
2.75158
2.45221
2.17695
1.92803
1.7058
1.50924
1.33651
1.18534
1.05333
0.938152
0.837642
0.749861
0.6731
0.605874
0.546897
0.495067
0.449436
0.40919
0.373629
0.342152
0.314238
0.289441
0.267371
0.247693
0.230113
0.214378
0.200267
0.187585
0.176164
0.165855
0.15653
0.148073
0.140386
0.133379
0.126974
0.121103
0.115705
0.110725
0.106116
0.101834
0.0978415
0.0941038
0.0905903
0.0872733
0.0841277
0.081131
0.0782625
0.0755035
0.0728367
0.0702466
0.0677192
5.27973
5.24065
5.21985
5.17122
5.11659
5.03622
4.9494
4.84002
4.72384
4.59011
4.44903
4.29688
4.13716
3.97341
3.80248
3.63394
3.45917
3.29175
3.1196
2.95794
2.79354
2.64111
2.48807
2.34723
2.20764
2.07972
1.95439
1.83974
1.72853
1.62681
1.52895
1.43933
1.35368
1.27508
1.20036
1.13162
1.06654
1.00648
0.949803
0.89734
0.84796
0.802105
0.759029
0.718907
0.681272
0.646116
0.613179
0.582326
0.553448
0.526324
0.500957
0.477071
0.454746
0.433674
0.41399
0.395367
0.37798
0.361492
0.346105
0.331482
0.31784
0.304847
0.29273
0.281164
0.270382
0.260068
0.250455
0.24124
0.232653
0.224405
0.216719
0.209322
0.202429
0.19578
0.189585
0.183598
0.178019
0.172615
0.167578
0.162691
0.158133
0.153702
0.149568
0.14554
0.141781
0.138111
0.134683
0.13133
0.128195
0.125122
0.122247
0.119423
0.116778
0.114175
0.111733
0.109325
0.107063
0.104827
0.102725
0.100642
0.0986791
0.0967308
0.0948918
0.0930622
0.0913316
0.0896061
0.0879705
0.0863361
0.0847831
0.0832281
0.0817466
0.0802601
0.0788402
0.0774124
0.0760447
0.0746666
0.0733429
0.0720064
0.0707189
0.0694165
0.0681587
5.38996
5.32861
5.22174
5.04889
4.81601
4.53277
4.21191
3.86818
3.51619
3.16864
2.83551
2.52393
2.23834
1.98075
1.75127
1.54866
1.37085
1.21539
1.07974
0.961454
0.858276
0.768195
0.689442
0.620483
0.559996
0.506845
0.460054
0.418788
0.382329
0.350057
0.32144
0.296017
0.273391
0.253216
0.235193
0.21906
0.20459
0.191586
0.179874
0.169302
0.159737
0.151063
0.143177
0.135988
0.129417
0.123393
0.117853
0.112742
0.108011
0.103616
0.0995179
0.0956811
0.0920742
0.0886691
0.08544
0.0823638
0.0794194
0.0765876
0.0738507
0.071193
0.0686
5.50023
5.45987
5.43745
5.38554
5.32697
5.24121
5.14846
5.03196
4.90827
4.76619
4.6166
4.45541
4.28675
4.1138
3.93395
3.75652
3.57327
3.39761
3.21773
3.04875
2.87752
2.71877
2.55984
2.41366
2.26907
2.13666
2.00714
1.88875
1.77404
1.66918
1.56839
1.47614
1.38803
1.30721
1.23042
1.15979
1.09295
1.03128
0.973109
0.919264
0.868597
0.821551
0.777364
0.73621
0.697614
0.661562
0.627789
0.596154
0.566546
0.538739
0.512733
0.488248
0.465363
0.443764
0.423587
0.4045
0.386678
0.369781
0.354009
0.339023
0.32504
0.311725
0.299305
0.287453
0.276401
0.265831
0.255977
0.246535
0.237732
0.229279
0.2214
0.213818
0.206752
0.199938
0.193586
0.18745
0.181728
0.17619
0.171025
0.166014
0.16134
0.156797
0.152557
0.148428
0.144572
0.140809
0.137292
0.133853
0.130638
0.127486
0.124537
0.12164
0.118926
0.116256
0.11375
0.111279
0.108958
0.106665
0.104507
0.10237
0.100355
0.0983565
0.0964688
0.0945917
0.0928153
0.0910451
0.0893661
0.0876893
0.0860952
0.0844999
0.0829793
0.0814543
0.079997
0.0785323
0.0771287
0.0757152
0.0743568
0.072986
0.0716652
0.0703295
0.0690395
5.61025
5.54595
5.43188
5.24774
5.00029
4.70024
4.36144
3.99965
3.63032
3.26682
2.91954
2.59576
2.29982
2.03354
1.79681
1.58812
1.40522
1.24546
1.10616
0.984764
0.878916
0.786532
0.705785
0.635092
0.573094
0.51862
0.47067
0.428385
0.391026
0.35796
0.328639
0.302592
0.279409
0.258738
0.240271
0.22374
0.208913
0.195586
0.183583
0.172747
0.162944
0.154052
0.145967
0.138597
0.131859
0.125681
0.12
0.114759
0.109906
0.105398
0.101194
0.0972579
0.0935578
0.0900645
0.086752
0.0835963
0.0805761
0.0776715
0.0748646
0.0721391
0.0694806
5.72041
5.67875
5.65459
5.5995
5.53692
5.44588
5.34714
5.22363
5.09242
4.94209
4.78398
4.61386
4.43624
4.25418
4.06542
3.87916
3.68744
3.50359
3.31597
3.13969
2.96162
2.79656
2.63172
2.4802
2.3306
2.19371
2.05997
1.93783
1.8196
1.71161
1.60788
1.51299
1.42242
1.33937
1.26051
1.18799
1.11938
1.0561
0.996425
0.941196
0.88924
0.841
0.795703
0.753515
0.713958
0.677007
0.642398
0.60998
0.579643
0.551152
0.524508
0.499423
0.475978
0.453852
0.433183
0.413631
0.395374
0.378066
0.361911
0.346561
0.332238
0.3186
0.305878
0.293739
0.282418
0.271592
0.261498
0.251826
0.242809
0.234151
0.226079
0.218313
0.211073
0.204093
0.197585
0.191299
0.185436
0.179762
0.174469
0.169336
0.164546
0.159891
0.155546
0.151314
0.147362
0.143505
0.1399
0.136376
0.133079
0.129849
0.126825
0.123856
0.121073
0.118335
0.115766
0.113233
0.110853
0.108501
0.106288
0.104097
0.102031
0.0999816
0.0980454
0.0961208
0.0942987
0.0924836
0.0907614
0.0890421
0.0874071
0.0857713
0.0842117
0.0826481
0.0811535
0.0796519
0.0782126
0.0767635
0.0753706
0.0739655
0.0726112
0.0712423
0.06992
5.83031
5.76291
5.64166
5.44628
5.18433
4.86755
4.51091
4.13113
3.74452
3.36511
3.0037
2.6677
2.36139
2.08642
1.8424
1.62763
1.43962
1.27555
1.1326
1.00808
0.899561
0.804872
0.722128
0.649701
0.58619
0.530394
0.481284
0.437979
0.399721
0.36586
0.335836
0.309163
0.285425
0.264257
0.245346
0.228417
0.213233
0.199584
0.18729
0.176191
0.166149
0.15704
0.148756
0.141204
0.1343
0.127969
0.122147
0.116774
0.111801
0.107179
0.102869
0.0988343
0.0950409
0.0914596
0.0880636
0.0848286
0.0817325
0.0787552
0.0758783
0.0730851
0.0703611
5.94038
5.89734
5.87141
5.81317
5.74656
5.65028
5.54556
5.4151
5.27638
5.11786
4.95125
4.77226
4.58569
4.3946
4.19693
4.00189
3.80169
3.60971
3.41432
3.23078
3.04584
2.87449
2.70372
2.54685
2.39222
2.25084
2.11289
1.98699
1.86523
1.75409
1.64741
1.54988
1.45683
1.37156
1.29061
1.2162
1.14583
1.08093
1.01975
0.963135
0.909888
0.860453
0.814044
0.770822
0.730302
0.692452
0.657007
0.623806
0.592739
0.563563
0.536281
0.510596
0.486591
0.463937
0.442776
0.422759
0.404068
0.386349
0.36981
0.354097
0.339434
0.325473
0.312449
0.300022
0.288432
0.277351
0.267017
0.257116
0.247883
0.23902
0.230756
0.222805
0.215392
0.208246
0.201583
0.195146
0.189143
0.183333
0.177913
0.172656
0.16775
0.162983
0.158532
0.154199
0.15015
0.1462
0.142507
0.138897
0.13552
0.132211
0.129112
0.126071
0.123219
0.120414
0.117781
0.115186
0.112747
0.110337
0.108069
0.105824
0.103706
0.101606
0.0996216
0.0976493
0.0957816
0.0939216
0.0921563
0.0903945
0.0887186
0.0870423
0.0854438
0.0838417
0.0823098
0.0807712
0.0792962
0.0778115
0.0763842
0.0749448
0.0735572
0.0721551
0.0708004
6.05021
5.97961
5.85117
5.6446
5.36821
5.03479
4.66037
4.26267
3.85883
3.46353
3.08799
2.73976
2.42307
2.13937
1.88806
1.66719
1.47405
1.30567
1.15905
1.03141
0.920212
0.823214
0.738473
0.66431
0.599286
0.542166
0.491896
0.44757
0.408414
0.373758
0.34303
0.315733
0.291438
0.269775
0.25042
0.233093
0.217551
0.203581
0.190996
0.179634
0.169352
0.160026
0.151544
0.143811
0.13674
0.130256
0.124292
0.118789
0.113694
0.10896
0.104544
0.10041
0.0965237
0.0928544
0.089375
0.0860606
0.0828887
0.0798387
0.0768918
0.0740309
0.0712415
6.16025
6.11573
6.08801
6.02662
5.95598
5.85448
5.74381
5.60641
5.46022
5.29356
5.11848
4.93066
4.73517
4.53509
4.32851
4.12475
3.91606
3.71597
3.51281
3.32203
3.1302
2.95257
2.77585
2.61364
2.45395
2.30809
2.16588
2.03623
1.91091
1.79664
1.68698
1.58682
1.49128
1.40378
1.32073
1.24443
1.17229
1.10577
1.04308
0.985082
0.930541
0.879911
0.832388
0.788131
0.746647
0.707898
0.671616
0.63763
0.605834
0.575972
0.548053
0.521766
0.497202
0.474019
0.452366
0.431884
0.41276
0.394629
0.377707
0.361629
0.346627
0.332343
0.319017
0.306303
0.294444
0.283106
0.272533
0.262402
0.252956
0.243887
0.235431
0.227296
0.21971
0.212398
0.205578
0.198992
0.192848
0.186902
0.181354
0.175975
0.170953
0.166074
0.161518
0.157082
0.152937
0.148894
0.145113
0.141418
0.137959
0.134572
0.131399
0.128285
0.125364
0.122493
0.119796
0.117139
0.11464
0.112173
0.109849
0.10755
0.105381
0.10323
0.101197
0.0991773
0.0972641
0.0953591
0.0935509
0.0917464
0.0900297
0.088313
0.0866757
0.0850349
0.0834659
0.0818903
0.0803796
0.0788594
0.0773977
0.0759239
0.0745029
0.0730677
0.0716808
6.27007
6.19613
6.06052
5.84279
5.55202
5.20202
4.80988
4.39431
3.97327
3.5621
3.17243
2.81195
2.48486
2.19241
1.93378
1.70679
1.50852
1.3358
1.18552
1.05475
0.940869
0.84156
0.754818
0.678918
0.61238
0.553937
0.502506
0.45716
0.417104
0.381654
0.350222
0.3223
0.29745
0.27529
0.255491
0.237767
0.221868
0.207576
0.1947
0.183075
0.172555
0.163011
0.154331
0.146416
0.139179
0.132542
0.126437
0.120804
0.115587
0.11074
0.106219
0.101986
0.0980059
0.0942487
0.090686
0.0872923
0.0840447
0.0809221
0.0779052
0.0749766
0.0721218
6.38012
6.33402
6.30448
6.23992
6.16529
6.05856
5.94197
5.79765
5.64402
5.46924
5.28573
5.08912
4.88473
4.67569
4.46022
4.24776
4.03057
3.82242
3.61146
3.41346
3.21471
3.03082
2.8481
2.68057
2.51579
2.36544
2.21896
2.08555
1.95666
1.83924
1.7266
1.62379
1.52576
1.43603
1.35088
1.27268
1.19876
1.13063
1.06643
1.00704
0.9512
0.899373
0.850735
0.805441
0.762993
0.723343
0.686224
0.651453
0.618928
0.588379
0.559822
0.532933
0.50781
0.484099
0.461954
0.441006
0.421448
0.402906
0.385601
0.369159
0.353817
0.33921
0.325583
0.312581
0.300454
0.288859
0.278047
0.267687
0.258026
0.248752
0.240103
0.231784
0.224025
0.216547
0.209572
0.202835
0.196551
0.190469
0.184795
0.179292
0.174155
0.169164
0.164502
0.159964
0.155724
0.151587
0.147718
0.143937
0.140398
0.136932
0.133685
0.130498
0.127509
0.12457
0.12181
0.11909
0.116533
0.114007
0.111629
0.109275
0.107055
0.104853
0.102772
0.100705
0.0987462
0.0967961
0.094945
0.093098
0.0913406
0.0895833
0.0879073
0.0862278
0.0846218
0.0830091
0.0814629
0.079907
0.078411
0.0769028
0.0754486
0.0739801
0.0725611
6.48998
6.41256
6.2698
6.04094
5.73584
5.3693
4.95949
4.52608
4.08787
3.66084
3.25701
2.88428
2.54675
2.24553
1.97956
1.74643
1.54301
1.36596
1.212
1.0781
0.961531
0.859908
0.771165
0.693526
0.625473
0.565705
0.513113
0.466747
0.425791
0.389547
0.357411
0.328865
0.303458
0.280803
0.260561
0.242439
0.226183
0.211569
0.198403
0.186515
0.175756
0.165995
0.157117
0.149021
0.141617
0.134828
0.128581
0.122817
0.117479
0.112519
0.107893
0.103561
0.0994878
0.0956427
0.0919966
0.0885237
0.0852004
0.0820052
0.0789184
0.0759222
0.0730022
6.60011
6.5523
6.52092
6.45315
6.37457
6.26258
6.14014
5.98888
5.82786
5.64497
5.45306
5.24768
5.03441
4.81644
4.59207
4.37096
4.14526
3.92906
3.71028
3.50509
3.29937
3.10923
2.92049
2.74764
2.57773
2.42291
2.27212
2.13496
2.00247
1.88191
1.76627
1.66082
1.56027
1.46831
1.38105
1.30096
1.22525
1.1555
1.08978
1.029
0.971865
0.918839
0.869084
0.822753
0.77934
0.738788
0.700832
0.665274
0.63202
0.600784
0.57159
0.544098
0.518417
0.494175
0.47154
0.450124
0.430135
0.41118
0.393493
0.376685
0.361006
0.346073
0.332147
0.318856
0.306462
0.29461
0.283559
0.272968
0.263095
0.253614
0.244774
0.236269
0.228339
0.220694
0.213564
0.206677
0.200253
0.194035
0.188234
0.182607
0.177355
0.172251
0.167486
0.162845
0.158509
0.154278
0.150322
0.146455
0.142836
0.13929
0.135969
0.132709
0.129653
0.126646
0.123823
0.121041
0.118425
0.115841
0.113408
0.111
0.108729
0.106476
0.104347
0.102232
0.100228
0.0982326
0.0963388
0.094449
0.0926511
0.0908532
0.0891386
0.0874203
0.0857774
0.0841276
0.0825459
0.0809544
0.0794242
0.0778815
0.0763941
0.0748924
0.0734415
6.71007
6.629
6.4791
6.23913
5.91972
5.53669
5.10925
4.65803
4.20265
3.75974
3.34176
2.95673
2.60874
2.29873
2.0254
1.78612
1.57754
1.39614
1.2385
1.10146
0.982198
0.878259
0.787512
0.708134
0.638565
0.577472
0.523719
0.476331
0.434476
0.397438
0.364598
0.335427
0.309465
0.286313
0.265628
0.247109
0.230496
0.21556
0.202104
0.189953
0.178955
0.168977
0.159901
0.151624
0.144054
0.137112
0.130725
0.12483
0.119371
0.114298
0.109566
0.105135
0.100969
0.0970363
0.093307
0.0897549
0.0863559
0.0830882
0.0799315
0.0768677
0.0738825
6.82035
6.77069
6.73741
6.66639
6.58392
6.46662
6.33839
6.18016
6.01183
5.8208
5.62054
5.4064
5.18426
4.95738
4.72411
4.49437
4.26013
4.03593
3.80928
3.59693
3.38419
3.18784
2.99301
2.81487
2.63978
2.4805
2.32535
2.18447
2.04834
1.92465
1.80597
1.69789
1.59481
1.50063
1.41124
1.32925
1.25175
1.18039
1.11314
1.05097
0.992535
0.938311
0.887437
0.840067
0.795688
0.754234
0.715439
0.679095
0.645111
0.613187
0.583356
0.555261
0.529022
0.504249
0.481124
0.45924
0.438819
0.419451
0.401383
0.384209
0.368192
0.352934
0.338708
0.325128
0.312468
0.300357
0.289069
0.278247
0.268162
0.258473
0.249444
0.240753
0.232652
0.224839
0.217555
0.210516
0.203954
0.197598
0.191671
0.18592
0.180554
0.175338
0.170468
0.165724
0.161293
0.156968
0.152925
0.148971
0.145273
0.141648
0.138253
0.134921
0.131796
0.128722
0.125836
0.122991
0.120316
0.117674
0.115187
0.112724
0.110402
0.108098
0.105922
0.103758
0.101709
0.099669
0.0977326
0.0958
0.0939617
0.0921231
0.09037
0.0886129
0.0869332
0.0852462
0.0836292
0.0820018
0.0804376
0.0788603
0.07734
0.0758048
0.0743222
6.93049
6.84554
6.68851
6.43745
6.10377
5.70427
5.2592
4.79017
4.31762
3.85883
3.42667
3.02932
2.67084
2.35201
2.0713
1.82584
1.61209
1.42634
1.26501
1.12482
1.00287
0.896612
0.80386
0.722741
0.651655
0.589237
0.534322
0.485914
0.443159
0.405326
0.371783
0.341987
0.315469
0.291822
0.270693
0.251777
0.234806
0.219549
0.205803
0.193389
0.182153
0.171958
0.162684
0.154226
0.14649
0.139395
0.132867
0.126841
0.121261
0.116076
0.111238
0.106709
0.10245
0.0984292
0.0946167
0.0909854
0.0875108
0.0841706
0.0809441
0.0778127
0.0747625
7.04093
6.98918
6.95398
6.87962
6.79337
6.67065
6.53676
6.37147
6.19592
5.99671
5.78816
5.56524
5.33427
5.09849
4.85631
4.61799
4.37516
4.14302
3.90841
3.68897
3.46913
3.26663
3.06562
2.88224
2.70189
2.53821
2.37864
2.23406
2.09424
1.96745
1.8457
1.73501
1.62936
1.53297
1.44143
1.35756
1.27826
1.20528
1.1365
1.07295
1.0132
0.957779
0.905784
0.857376
0.81203
0.769673
0.730041
0.692909
0.658197
0.625583
0.595116
0.566416
0.539621
0.514316
0.490703
0.468349
0.447499
0.427715
0.409268
0.391726
0.375373
0.359789
0.345266
0.331395
0.31847
0.3061
0.294575
0.283522
0.273225
0.263329
0.25411
0.245232
0.236961
0.22898
0.221543
0.214353
0.207652
0.201159
0.195107
0.189231
0.183751
0.178421
0.173448
0.168601
0.164075
0.159656
0.155527
0.151486
0.147708
0.144004
0.140536
0.13713
0.133938
0.130796
0.127847
0.124939
0.122207
0.119506
0.116965
0.114448
0.112075
0.10972
0.107496
0.105284
0.10319
0.101105
0.0991259
0.0971503
0.0952718
0.0933924
0.091601
0.089805
0.0880887
0.0863644
0.0847122
0.083049
0.0814509
0.0798389
0.0782857
0.076717
0.0752031
7.15142
7.06231
6.89816
6.63603
6.28806
5.87209
5.40939
4.92254
4.4328
3.9581
3.51171
3.10202
2.73303
2.40534
2.11724
1.8656
1.64667
1.45655
1.29153
1.14819
1.02355
0.914967
0.82021
0.737349
0.664745
0.601001
0.544924
0.495495
0.45184
0.413212
0.378966
0.348545
0.321471
0.297329
0.275757
0.256443
0.239116
0.223537
0.209501
0.196824
0.18535
0.174938
0.165466
0.156827
0.148925
0.141677
0.135008
0.128853
0.123151
0.117853
0.11291
0.108282
0.10393
0.0998218
0.0959261
0.0922157
0.0886656
0.0852529
0.0819567
0.0787578
0.0756427
7.26223
7.20803
7.17093
7.09304
7.00323
6.87487
6.73553
6.56302
6.3804
6.17289
5.95615
5.7244
5.4846
5.23995
4.98879
4.74195
4.49042
4.25044
4.00774
3.78133
3.55423
3.34569
3.13835
2.94984
2.7641
2.5961
2.43199
2.28379
2.14019
2.01035
1.88546
1.7722
1.66394
1.56536
1.47165
1.38592
1.30478
1.2302
1.15987
1.09494
1.03388
0.977262
0.924141
0.874695
0.82838
0.785118
0.744649
0.706726
0.671288
0.637981
0.606881
0.577572
0.550223
0.524383
0.500284
0.477458
0.45618
0.435979
0.417155
0.399242
0.382556
0.366643
0.351824
0.33766
0.324472
0.31184
0.300082
0.288794
0.278289
0.268183
0.258777
0.24971
0.241271
0.233119
0.225532
0.218187
0.21135
0.204718
0.198542
0.19254
0.186949
0.181504
0.176428
0.171476
0.166858
0.162343
0.158128
0.154
0.150144
0.146359
0.142819
0.139339
0.13608
0.132869
0.129859
0.126887
0.124097
0.121338
0.118743
0.11617
0.113747
0.111341
0.109069
0.106809
0.104671
0.10254
0.100519
0.0985002
0.096582
0.0946614
0.092832
0.0909967
0.0892441
0.0874823
0.0857952
0.0840959
0.0824641
0.0808173
0.0792315
0.077629
0.076084
7.37309
7.27945
7.10822
6.83499
6.47272
6.04024
5.55987
5.05514
4.54817
4.05752
3.59687
3.17479
2.79526
2.45872
2.1632
1.90538
1.68126
1.48677
1.31805
1.17157
1.04422
0.933325
0.83656
0.751957
0.677836
0.612765
0.555526
0.505075
0.460521
0.421098
0.386148
0.355103
0.327473
0.302835
0.28082
0.261109
0.243425
0.227525
0.213198
0.200259
0.188546
0.177917
0.168248
0.159428
0.15136
0.14396
0.13715
0.130864
0.125042
0.11963
0.114582
0.109855
0.105411
0.101215
0.0972358
0.0934463
0.0898207
0.0863355
0.0829696
0.0797032
0.0765234
7.48444
7.42722
7.38836
7.3066
7.21358
7.07923
6.93478
6.75474
6.56529
6.34931
6.12449
5.88384
5.63523
5.38173
5.12151
4.86626
4.60587
4.3582
4.1072
3.874
3.63941
3.42503
3.21113
3.01768
2.82633
2.65417
2.48536
2.33366
2.18615
2.05336
1.92523
1.80946
1.69853
1.59781
1.50187
1.4143
1.3313
1.25514
1.18325
1.11694
1.05456
0.99675
0.9425
0.892015
0.844732
0.800563
0.759259
0.720541
0.684379
0.650375
0.618646
0.588724
0.560826
0.534445
0.509865
0.486561
0.464861
0.444237
0.425041
0.406753
0.389739
0.373492
0.358382
0.34392
0.330475
0.317577
0.305588
0.294063
0.283352
0.273032
0.263443
0.254184
0.24558
0.237256
0.22952
0.222019
0.215047
0.208274
0.201977
0.195847
0.190145
0.184584
0.179408
0.17435
0.16964
0.165027
0.160729
0.156512
0.152579
0.148712
0.145101
0.141545
0.138221
0.134941
0.13187
0.128834
0.125987
0.123168
0.12052
0.117892
0.115419
0.11296
0.110643
0.108333
0.106152
0.103974
0.101912
0.0998491
0.0978916
0.0959294
0.0940626
0.0921876
0.0903992
0.0885993
0.0868779
0.085142
0.0834771
0.081795
0.080177
0.0785402
0.0769649
7.59583
7.49719
7.31888
7.03453
6.65788
6.2088
5.71067
5.18799
4.6637
4.15702
3.68207
3.24758
2.85749
2.51208
2.20915
1.94514
1.71584
1.51699
1.34457
1.19495
1.06491
0.951685
0.852913
0.766568
0.690928
0.624531
0.566129
0.514657
0.469203
0.428985
0.393331
0.361661
0.333476
0.308342
0.285883
0.265775
0.247734
0.231513
0.216896
0.203694
0.191743
0.180897
0.17103
0.162029
0.153795
0.146242
0.139291
0.132875
0.126932
0.121408
0.116254
0.111429
0.106891
0.102607
0.0985455
0.0946769
0.0909758
0.0874183
0.0839826
0.0806488
0.0774044
7.70802
7.64676
7.60657
7.52027
7.4247
7.28371
7.13473
6.94664
6.7508
6.52598
6.29332
6.0436
5.78621
5.52388
5.25445
4.99098
4.72143
4.46638
4.20669
3.96707
3.72456
3.50472
3.28386
3.08581
2.88849
2.71248
2.53866
2.38371
2.23206
2.0965
1.96496
1.84682
1.73309
1.63032
1.53207
1.44273
1.35782
1.28011
1.20662
1.13896
1.07524
1.01625
0.960861
0.909337
0.861088
0.816006
0.773872
0.734352
0.697475
0.662764
0.630415
0.59987
0.571432
0.544501
0.519449
0.495659
0.473545
0.452489
0.43293
0.414258
0.396924
0.380335
0.364942
0.350175
0.336479
0.323308
0.311096
0.299327
0.288417
0.277878
0.26811
0.258654
0.24989
0.241388
0.233508
0.225847
0.218746
0.211827
0.205413
0.199151
0.193342
0.187661
0.182388
0.177221
0.172422
0.16771
0.16333
0.159022
0.155014
0.151063
0.147384
0.14375
0.140363
0.137011
0.133881
0.130779
0.127878
0.124996
0.122297
0.119612
0.117092
0.114579
0.112216
0.109857
0.107633
0.105407
0.103305
0.101197
0.0992015
0.0971967
0.0952934
0.0933779
0.0915545
0.0897159
0.0879608
0.0861877
0.0844903
0.0827723
0.0811228
0.0794511
0.0778461
7.82016
7.7159
7.53049
7.23491
6.84374
6.37791
5.86185
5.32104
4.7793
4.25651
3.76719
3.32025
2.9196
2.56533
2.25502
1.98484
1.75038
1.54718
1.37108
1.21832
1.08559
0.970047
0.86927
0.781183
0.704026
0.636303
0.576738
0.524244
0.477889
0.436876
0.400518
0.368223
0.339481
0.313851
0.290949
0.270444
0.252045
0.235502
0.220595
0.20713
0.19494
0.183878
0.173813
0.16463
0.156231
0.148524
0.141433
0.134886
0.128822
0.123185
0.117927
0.113002
0.108372
0.104
0.0998555
0.0959079
0.0921312
0.0885013
0.084996
0.0815948
0.0782858
7.93372
7.86654
7.82602
7.73396
7.637
7.48824
7.33572
7.13867
6.93714
6.70289
6.46276
6.20372
5.93757
5.66648
5.38756
5.11619
4.83698
4.57508
4.30605
4.06064
3.80952
3.58486
3.35636
3.15432
2.95045
2.77109
2.59179
2.43399
2.27783
2.13981
2.0046
1.8843
1.76758
1.66291
1.56223
1.4712
1.38431
1.3051
1.22998
1.161
1.09592
1.03575
0.979226
0.92666
0.877449
0.831445
0.788493
0.748157
0.710579
0.675146
0.642192
0.611007
0.582047
0.554548
0.529041
0.504747
0.482237
0.460733
0.440826
0.421755
0.404115
0.387171
0.371507
0.356423
0.342487
0.329033
0.316609
0.304584
0.293485
0.282717
0.272781
0.263119
0.254204
0.245515
0.2375
0.22967
0.222447
0.215376
0.208851
0.20245
0.196541
0.190734
0.18537
0.180088
0.175206
0.170389
0.165933
0.161529
0.15745
0.153412
0.149668
0.145953
0.142505
0.139079
0.135893
0.132722
0.129769
0.126823
0.124076
0.121331
0.118764
0.116196
0.11379
0.111379
0.109114
0.106839
0.104698
0.102545
0.100512
0.0984633
0.0965247
0.0945675
0.0927102
0.0908318
0.0890442
0.0872328
0.085504
0.083749
0.0820692
0.0803615
0.0787279
8.04696
7.93618
7.74355
7.43656
7.03061
6.54772
6.01342
5.45423
4.89482
4.35576
3.852
3.3926
2.98141
2.61834
2.30069
2.0244
1.78482
1.57731
1.39756
1.24167
1.10626
0.988413
0.885635
0.795809
0.717135
0.648085
0.587357
0.533841
0.486585
0.444776
0.407713
0.374792
0.345494
0.319366
0.296021
0.275117
0.256361
0.239496
0.224297
0.21057
0.198141
0.186861
0.176598
0.167234
0.158668
0.150809
0.143576
0.136899
0.130714
0.124964
0.1196
0.114577
0.109854
0.105394
0.101166
0.0971395
0.0932873
0.089585
0.0860101
0.0825415
0.079168
8.16285
8.08621
8.04758
7.94739
7.85117
7.6926
7.5383
7.3307
7.12472
6.87999
6.63302
6.36421
6.08933
5.8096
5.52071
5.24205
4.95229
4.68446
4.40498
4.15489
3.89396
3.66562
3.42834
3.22336
3.01194
2.83013
2.64453
2.4846
2.3233
2.18336
2.04401
1.92195
1.80193
1.69561
1.59231
1.49975
1.41075
1.33014
1.25332
1.18306
1.11659
1.05526
0.997596
0.943981
0.893823
0.846877
0.80313
0.761952
0.7237
0.687515
0.653987
0.622133
0.592678
0.564583
0.53865
0.513824
0.490943
0.468965
0.448735
0.429241
0.411319
0.393995
0.378085
0.362661
0.348507
0.334748
0.322131
0.309833
0.298563
0.287549
0.27746
0.267575
0.258525
0.249636
0.241498
0.233488
0.226154
0.218919
0.212294
0.205745
0.199745
0.193803
0.188356
0.182951
0.177994
0.173065
0.168539
0.164032
0.15989
0.155757
0.151954
0.148153
0.14465
0.141144
0.137908
0.134663
0.131662
0.128648
0.125856
0.123047
0.120439
0.117812
0.115366
0.112899
0.110596
0.10827
0.106093
0.103891
0.101823
0.0997286
0.097757
0.095756
0.093867
0.0919467
0.0901285
0.088277
0.0865187
0.084725
0.0830164
0.0812712
0.0796105
8.27783
8.15916
7.95891
7.64014
7.21894
6.71847
6.16542
5.58738
5.00995
4.45439
3.93609
3.46423
3.04259
2.67082
2.34597
2.06367
1.81907
1.60732
1.42396
1.26499
1.12693
1.00679
0.902016
0.810455
0.730267
0.659891
0.598
0.54346
0.495302
0.452695
0.414925
0.381378
0.351521
0.324896
0.301104
0.279802
0.260687
0.243499
0.228008
0.214016
0.201348
0.18985
0.179388
0.169843
0.16111
0.153097
0.145723
0.138915
0.132608
0.126745
0.121276
0.116153
0.111337
0.10679
0.102478
0.0983725
0.0944447
0.09067
0.0870254
0.0834894
0.0800512
8.39783
8.30497
8.27277
8.16005
8.06831
7.89642
7.74333
7.52246
7.31411
7.05714
6.80439
6.52506
6.24152
5.95338
5.65366
5.36876
5.06693
4.79482
4.50296
4.25012
3.97732
3.7473
3.49928
3.2932
3.07251
2.88982
2.69652
2.53571
2.3682
2.22727
2.08302
1.95984
1.836
1.72848
1.62221
1.5284
1.4371
1.35524
1.27662
1.20514
1.13725
1.07477
1.01598
0.961296
0.910221
0.862296
0.817798
0.775729
0.736855
0.699865
0.665816
0.633237
0.603343
0.574596
0.54829
0.522879
0.49968
0.477177
0.456673
0.436708
0.418549
0.400803
0.384686
0.368882
0.354549
0.340448
0.327673
0.315068
0.303658
0.292367
0.282155
0.272021
0.26286
0.253746
0.245509
0.237295
0.229872
0.222453
0.215747
0.209031
0.202959
0.196865
0.191351
0.185808
0.180789
0.175734
0.171152
0.166531
0.162335
0.158098
0.154245
0.150349
0.1468
0.143206
0.139926
0.1366
0.133558
0.13047
0.127639
0.124762
0.122116
0.119425
0.116944
0.114417
0.112081
0.109699
0.10749
0.105235
0.103137
0.100992
0.0989912
0.0969431
0.0950255
0.0930603
0.0912145
0.08932
0.087535
0.0856998
0.0839651
0.0821801
0.0804944
8.51576
8.38683
8.17801
7.84673
7.40947
6.89053
6.31784
5.72018
5.12415
4.55174
4.01875
3.53449
3.10255
2.72232
2.39049
2.10241
1.85296
1.63711
1.45024
1.28826
1.14758
1.02517
0.918428
0.825141
0.743442
0.671741
0.608686
0.55312
0.504057
0.46065
0.422171
0.387993
0.357576
0.33045
0.306211
0.284507
0.265032
0.247518
0.231734
0.217477
0.204568
0.19285
0.182188
0.17246
0.163559
0.155392
0.147876
0.140936
0.134507
0.128531
0.122955
0.117733
0.112824
0.108188
0.103793
0.099608
0.0956045
0.0917572
0.0880427
0.084439
0.0809358
8.64322
8.52121
8.50436
8.37094
8.29038
8.09897
7.95223
7.71344
7.50626
7.23406
6.97732
6.68626
6.39407
6.09799
5.78597
5.49669
5.18017
4.90661
4.59906
4.34685
4.05865
3.83039
3.56827
3.36427
3.13137
2.95051
2.74713
2.58759
2.41205
2.27175
2.12128
1.99813
1.86957
1.7616
1.6518
1.5572
1.46327
1.38042
1.29984
1.22726
1.1579
1.09429
1.03439
0.978594
0.926668
0.877686
0.832526
0.789472
0.750074
0.712178
0.677711
0.644304
0.614071
0.584574
0.55799
0.531901
0.508472
0.485357
0.464662
0.444145
0.425826
0.407582
0.39133
0.375078
0.36063
0.346125
0.333251
0.320281
0.308786
0.297166
0.286879
0.276449
0.267221
0.25784
0.249544
0.241088
0.233612
0.225974
0.21922
0.212306
0.206189
0.199916
0.194361
0.188655
0.183597
0.178395
0.173777
0.169021
0.164791
0.160432
0.156547
0.152539
0.148958
0.145262
0.141952
0.138533
0.135462
0.132288
0.129428
0.126472
0.123799
0.121035
0.118527
0.115932
0.11357
0.111125
0.108891
0.106576
0.104454
0.102254
0.100229
0.098128
0.0961872
0.094172
0.0923035
0.0903613
0.088554
0.0866731
0.0849158
0.0830879
0.0813797
8.7664
8.62284
8.40335
8.05815
7.60339
7.06444
6.47063
5.85207
5.23648
4.64664
4.09878
3.60222
3.16032
2.77203
2.43366
2.14018
1.8862
1.6665
1.4763
1.31142
1.16822
1.04359
0.934902
0.839905
0.756701
0.683676
0.619453
0.562858
0.512885
0.468672
0.429479
0.394666
0.363682
0.336051
0.31136
0.28925
0.26941
0.251568
0.235488
0.220962
0.207809
0.19587
0.185006
0.175092
0.166022
0.1577
0.15004
0.142967
0.136415
0.130324
0.124641
0.11932
0.114316
0.109592
0.105113
0.100848
0.0967681
0.092848
0.0890634
0.0853911
0.0818221
8.45269
8.31688
8.28331
8.08896
7.94201
7.66823
7.4262
7.07949
6.75933
6.36398
5.99031
5.57471
5.17604
4.76855
4.37308
3.99812
3.62983
3.30476
2.98044
2.71384
2.44183
2.23376
2.01464
1.85883
1.68772
1.57462
1.44385
1.36334
1.26468
1.20775
1.13368
1.09318
1.03748
1.00814
0.965984
0.944148
0.911922
0.895132
0.870218
0.856879
0.837393
0.826482
0.811074
0.801928
0.789625
0.781811
0.771899
0.765118
0.757069
0.75111
0.744521
0.739226
0.733789
0.729034
0.724509
0.720197
0.716394
0.712446
0.709217
0.705571
0.702795
0.699401
0.696985
0.693803
0.691671
0.688668
0.686761
0.683913
0.682183
0.679469
0.67788
0.675284
0.673806
0.671315
0.669925
0.667529
0.666207
0.663896
0.662629
0.660396
0.659171
0.65701
0.655817
0.653721
0.652554
0.650517
0.649368
0.647386
0.646249
0.644316
0.643187
0.641299
0.640173
0.638324
0.637197
0.635383
0.634253
0.632468
0.63133
0.629569
0.62842
0.626679
0.625515
0.623788
0.622605
0.620887
0.619682
0.617967
0.616736
0.615018
0.613756
0.61203
0.610734
0.608992
0.607657
0.605894
0.604513
0.602722
0.601291
0.599462
0.598123
0.939508
0.878653
0.955986
1.05732
1.18191
1.31874
1.45493
1.57796
1.67779
1.74831
1.78796
1.79924
1.78757
1.75965
1.72209
1.68047
1.63895
1.60032
1.56617
1.53723
1.51359
1.495
1.48098
1.47096
1.46436
1.46061
1.45919
1.45965
1.46158
1.46463
1.46852
1.473
1.47786
1.48294
1.48808
1.49319
1.49816
1.50293
1.50744
1.51165
1.51551
1.51902
1.52214
1.52487
1.5272
1.52912
1.53064
1.53175
1.53246
1.53277
1.53268
1.53219
1.53131
1.53003
1.52836
1.52629
1.52383
1.52098
1.51772
1.51405
1.50982
4.17914
4.1137
4.10924
4.01636
3.97176
3.84484
3.76313
3.6085
3.49581
3.32515
3.19158
3.01744
2.87451
2.70913
2.56799
2.4218
2.29172
2.17203
2.05937
1.96968
1.87754
1.81754
1.74616
1.71256
1.66018
1.64795
1.61174
1.61544
1.59224
1.60687
1.59368
1.61512
1.60937
1.63449
1.63405
1.66065
1.66388
1.69045
1.69613
1.72172
1.72892
1.753
1.76107
1.78333
1.79181
1.81215
1.8207
1.83912
1.84752
1.86408
1.87218
1.88698
1.89467
1.90783
1.91506
1.9267
1.93343
1.94369
1.94991
1.9589
1.9646
1.97244
1.97765
1.98444
1.98916
1.99502
1.99926
2.00427
2.00807
2.01232
2.0157
2.01927
2.02225
2.0252
2.0278
2.0302
2.03246
2.03436
2.03629
2.03775
2.03938
2.04043
2.04177
2.04247
2.04354
2.04392
2.04474
2.04482
2.04541
2.04522
2.04559
2.04516
2.04531
2.04467
2.04462
2.04377
2.04354
2.0425
2.04208
2.04087
2.04028
2.0389
2.03814
2.03661
2.03568
2.034
2.0329
2.03108
2.02983
2.02786
2.02645
2.02434
2.02277
2.02053
2.01879
2.01641
2.01451
2.01199
2.00993
2.00726
2.0053
2.32146
2.32532
2.32185
2.32797
2.33821
2.35173
2.36778
2.38561
2.40447
2.42356
2.44221
2.45983
2.47592
2.49003
2.50182
2.51108
2.51779
2.52211
2.52432
2.52479
2.52391
2.52204
2.51953
2.51664
2.5136
2.51056
2.50763
2.5049
2.5024
2.50014
2.49812
2.49633
2.49473
2.49331
2.49202
2.49084
2.48972
2.48864
2.48757
2.48647
2.48532
2.4841
2.48278
2.48134
2.47976
2.47803
2.47614
2.47406
2.47179
2.46931
2.46662
2.4637
2.46055
2.45716
2.45351
2.44961
2.44543
2.44099
2.43625
2.43123
2.42581
3.33579
3.3165
3.32216
3.31682
3.32056
3.31024
3.31016
3.2978
3.29425
3.28014
3.27314
3.25747
3.24714
3.23005
3.21668
3.19835
3.18251
3.16318
3.14565
3.12573
3.10737
3.08746
3.06911
3.04997
3.03232
3.01477
2.99835
2.98313
2.96829
2.95589
2.94285
2.93351
2.92233
2.91602
2.9067
2.90319
2.89562
2.89457
2.8886
2.8896
2.88506
2.88768
2.88439
2.88825
2.886
2.89074
2.88937
2.89469
2.89403
2.89969
2.89958
2.90537
2.90569
2.91147
2.91211
2.91774
2.91861
2.92401
2.92502
2.93013
2.93122
2.93599
2.93712
2.94152
2.94263
2.94665
2.94772
2.95134
2.95234
2.95557
2.95647
2.95932
2.96011
2.96259
2.96326
2.96537
2.96591
2.96767
2.96807
2.96951
2.96976
2.97088
2.97099
2.97182
2.97178
2.97232
2.97213
2.9724
2.97207
2.97208
2.9716
2.97138
2.97075
2.9703
2.96953
2.96886
2.96794
2.96706
2.966
2.96493
2.96372
2.96246
2.96111
2.95967
2.95818
2.95656
2.95492
2.95314
2.95135
2.9494
2.94747
2.94536
2.94327
2.94101
2.93877
2.93635
2.93396
2.93139
2.92883
2.92611
2.92356
3.40378
3.39409
3.39726
3.40004
3.40323
3.40699
3.41138
3.41642
3.42208
3.42826
3.43479
3.44145
3.44801
3.45426
3.46004
3.46528
3.4699
3.47389
3.47724
3.47993
3.48199
3.48345
3.48434
3.48471
3.48461
3.4841
3.48324
3.48207
3.48065
3.47901
3.4772
3.47523
3.47315
3.47096
3.46868
3.46633
3.4639
3.4614
3.45884
3.45621
3.4535
3.45072
3.44786
3.44491
3.44186
3.43872
3.43547
3.43211
3.42863
3.42502
3.42128
3.4174
3.41337
3.40919
3.40486
3.40035
3.39568
3.39084
3.38581
3.38061
3.37515
4.12912
4.12407
4.12702
4.12134
4.12289
4.11682
4.11763
4.11086
4.11088
4.10348
4.10273
4.09482
4.09332
4.08509
4.08286
4.07452
4.07157
4.06335
4.05969
4.05179
4.04744
4.04002
4.03507
4.02821
4.02281
4.01655
4.01084
4.00517
3.99934
3.99424
3.98843
3.9839
3.97825
3.97429
3.9689
3.96551
3.96046
3.95766
3.95298
3.95077
3.9465
3.94486
3.94101
3.93992
3.93647
3.93589
3.93283
3.9327
3.93001
3.93027
3.92792
3.92851
3.92646
3.92732
3.92553
3.9266
3.92505
3.92626
3.92491
3.92621
3.92503
3.92638
3.92533
3.92669
3.92575
3.92707
3.92621
3.92748
3.92667
3.92785
3.92708
3.92816
3.9274
3.92836
3.9276
3.92842
3.92765
3.92833
3.92753
3.92805
3.92721
3.92758
3.92669
3.9269
3.92595
3.926
3.92499
3.92487
3.92379
3.92351
3.92235
3.92192
3.92068
3.92009
3.91876
3.91801
3.91659
3.91569
3.91418
3.91313
3.91152
3.91033
3.90862
3.90729
3.90548
3.904
3.90208
3.90047
3.89844
3.8967
3.89456
3.89268
3.89044
3.88843
3.88606
3.88393
3.88145
3.87918
3.87659
3.8742
3.87156
4.42055
4.41975
4.41979
4.42079
4.42218
4.42392
4.42593
4.42811
4.43039
4.43271
4.43503
4.43732
4.43957
4.44177
4.44389
4.44591
4.44778
4.44947
4.45095
4.4522
4.45319
4.45393
4.45439
4.45459
4.45453
4.45421
4.45365
4.45285
4.45183
4.4506
4.44917
4.44756
4.44578
4.44385
4.44177
4.43955
4.43721
4.43475
4.43217
4.42949
4.4267
4.42382
4.42084
4.41777
4.4146
4.41133
4.40798
4.40453
4.40099
4.39735
4.39361
4.38978
4.38584
4.38181
4.37767
4.37342
4.36907
4.36461
4.36004
4.35537
4.35056
5.04024
5.03622
5.03742
5.03561
5.03663
5.03429
5.03487
5.03227
5.03242
5.02959
5.02931
5.0263
5.02562
5.02246
5.02142
5.01814
5.01679
5.01341
5.01181
5.00835
5.00655
5.00305
5.00108
4.99757
4.99547
4.992
4.98978
4.98641
4.98409
4.98086
4.97844
4.9754
4.97291
4.97009
4.96754
4.96496
4.96239
4.96004
4.95747
4.95537
4.95283
4.95096
4.94846
4.94682
4.94439
4.94297
4.94062
4.93941
4.93714
4.93612
4.93394
4.9331
4.93102
4.93033
4.92835
4.9278
4.92591
4.92547
4.92367
4.92334
4.92162
4.92136
4.91971
4.91953
4.91794
4.91779
4.91626
4.91614
4.91466
4.91455
4.91311
4.91299
4.91157
4.91144
4.91004
4.90988
4.90849
4.90829
4.9069
4.90665
4.90526
4.90495
4.90355
4.90317
4.90175
4.9013
4.89986
4.89933
4.89786
4.89725
4.89574
4.89505
4.89351
4.89273
4.89114
4.89027
4.88863
4.88767
4.88599
4.88494
4.88319
4.88206
4.88025
4.87903
4.87716
4.87584
4.87392
4.87251
4.87052
4.86902
4.86697
4.86538
4.86326
4.86159
4.85939
4.85764
4.85537
4.85353
4.8512
4.84927
4.84688
5.42709
5.42542
5.42573
5.42603
5.42639
5.42684
5.42738
5.42801
5.42871
5.42948
5.4303
5.43114
5.43197
5.43277
5.43351
5.43418
5.43477
5.43525
5.43563
5.43589
5.43603
5.43603
5.43589
5.43562
5.4352
5.43463
5.43392
5.43307
5.43206
5.43092
5.42964
5.42823
5.42668
5.42501
5.42322
5.42131
5.41929
5.41716
5.41493
5.4126
5.41017
5.40766
5.40505
5.40235
5.39958
5.39672
5.39378
5.39077
5.38768
5.38451
5.38127
5.37797
5.37459
5.37114
5.36762
5.36404
5.36039
5.35667
5.35289
5.34904
5.34514
5.99552
5.99379
5.99461
5.99339
5.99399
5.99268
5.99314
5.99167
5.99198
5.99036
5.9905
5.98877
5.98874
5.98691
5.9867
5.98479
5.98441
5.98244
5.98189
5.97989
5.97917
5.97716
5.97627
5.97428
5.97324
5.97127
5.97011
5.96817
5.96689
5.96499
5.96362
5.96177
5.96032
5.95852
5.95702
5.95528
5.95373
5.95206
5.95047
5.94888
5.94726
5.94575
5.94412
5.94269
5.94104
5.9397
5.93804
5.93678
5.93513
5.93395
5.93231
5.93121
5.92958
5.92855
5.92693
5.92598
5.92438
5.92349
5.9219
5.92107
5.9195
5.91872
5.91717
5.91643
5.9149
5.9142
5.91268
5.91201
5.9105
5.90985
5.90836
5.90772
5.90624
5.90561
5.90414
5.90351
5.90204
5.9014
5.89993
5.89928
5.89781
5.89715
5.89567
5.89498
5.8935
5.89278
5.89129
5.89054
5.88903
5.88825
5.88673
5.88591
5.88437
5.88351
5.88194
5.88104
5.87945
5.87851
5.87689
5.8759
5.87426
5.87322
5.87155
5.87046
5.86876
5.86762
5.86589
5.8647
5.86294
5.8617
5.85991
5.85862
5.85679
5.85546
5.85359
5.85222
5.85032
5.8489
5.84696
5.84549
5.84351
6.4285
6.42786
6.42786
6.42795
6.42807
6.42822
6.42839
6.42857
6.42875
6.42893
6.42909
6.42924
6.42937
6.42947
6.42954
6.42957
6.42955
6.42948
6.42935
6.42915
6.42888
6.42853
6.4281
6.42758
6.42698
6.42629
6.4255
6.42463
6.42366
6.4226
6.42145
6.42021
6.41887
6.41745
6.41594
6.41435
6.41268
6.41092
6.40908
6.40717
6.40519
6.40313
6.40101
6.39881
6.39656
6.39424
6.39186
6.38942
6.38693
6.38438
6.38178
6.37913
6.37643
6.37369
6.3709
6.36807
6.3652
6.36229
6.35935
6.35637
6.35337
6.97406
6.97286
6.97331
6.97266
6.97304
6.97229
6.97257
6.97174
6.97192
6.97101
6.97109
6.97012
6.97009
6.96906
6.96893
6.96785
6.96762
6.96649
6.96617
6.965
6.96459
6.96339
6.9629
6.96167
6.9611
6.95985
6.9592
6.95794
6.95722
6.95595
6.95516
6.9539
6.95305
6.9518
6.95088
6.94965
6.94868
6.94747
6.94645
6.94527
6.9442
6.94304
6.94194
6.94082
6.93968
6.93858
6.93742
6.93636
6.93517
6.93414
6.93293
6.93193
6.93071
6.92974
6.9285
6.92757
6.92631
6.92541
6.92415
6.92327
6.922
6.92115
6.91988
6.91905
6.91777
6.91696
6.91568
6.91489
6.9136
6.91282
6.91153
6.91077
6.90947
6.90872
6.90742
6.90667
6.90537
6.90462
6.90331
6.90257
6.90125
6.90051
6.89919
6.89843
6.89711
6.89634
6.89501
6.89424
6.8929
6.89211
6.89076
6.88997
6.88861
6.88779
6.88642
6.88559
6.88421
6.88336
6.88197
6.8811
6.87969
6.8788
6.87738
6.87647
6.87504
6.87411
6.87267
6.87171
6.87026
6.86928
6.86781
6.86681
6.86533
6.86431
6.86282
6.86178
6.86028
6.85922
6.85771
6.85662
6.85507
7.43408
7.43359
7.43359
7.43359
7.43358
7.43356
7.43354
7.43351
7.43347
7.43341
7.43334
7.43325
7.43314
7.433
7.43283
7.43263
7.43239
7.43211
7.43178
7.43141
7.431
7.43053
7.43001
7.42943
7.4288
7.42811
7.42737
7.42656
7.42569
7.42476
7.42377
7.42272
7.42161
7.42044
7.41921
7.41792
7.41657
7.41517
7.41371
7.4122
7.41064
7.40903
7.40736
7.40565
7.4039
7.4021
7.40026
7.39837
7.39645
7.39449
7.3925
7.39047
7.38842
7.38633
7.38421
7.38208
7.37991
7.37773
7.37552
7.3733
7.37108
7.96736
7.96667
7.96696
7.96654
7.96677
7.96631
7.96649
7.96597
7.96609
7.96552
7.96558
7.96497
7.96497
7.96431
7.96425
7.96355
7.96343
7.9627
7.96252
7.96176
7.96152
7.96074
7.96043
7.95963
7.95927
7.95844
7.95803
7.95719
7.95672
7.95587
7.95535
7.95449
7.95393
7.95306
7.95245
7.95158
7.95093
7.95006
7.94937
7.94851
7.94777
7.94692
7.94615
7.9453
7.9445
7.94366
7.94283
7.94199
7.94114
7.94031
7.93943
7.93862
7.93772
7.93692
7.93599
7.9352
7.93426
7.93348
7.93252
7.93176
7.93078
7.93003
7.92904
7.9283
7.9273
7.92656
7.92555
7.92483
7.9238
7.92309
7.92206
7.92135
7.92031
7.9196
7.91855
7.91786
7.9168
7.91611
7.91504
7.91435
7.91328
7.91259
7.91152
7.91083
7.90974
7.90906
7.90797
7.90728
7.90618
7.90549
7.90439
7.9037
7.90259
7.90189
7.90078
7.90008
7.89896
7.89826
7.89714
7.89642
7.8953
7.89458
7.89345
7.89272
7.89159
7.89086
7.88972
7.88898
7.88785
7.8871
7.88596
7.88521
7.88407
7.88331
7.88217
7.88141
7.88027
7.8795
7.87836
7.87759
7.87642
8.44502
8.44472
8.4447
8.44467
8.44463
8.44457
8.44449
8.4444
8.44429
8.44417
8.44402
8.44385
8.44366
8.44345
8.44321
8.44294
8.44265
8.44233
8.44197
8.44158
8.44116
8.44071
8.44021
8.43968
8.43911
8.43851
8.43786
8.43717
8.43645
8.43568
8.43487
8.43402
8.43313
8.4322
8.43123
8.43022
8.42917
8.42809
8.42696
8.4258
8.42461
8.42338
8.42212
8.42082
8.4195
8.41814
8.41676
8.41535
8.41391
8.41245
8.41097
8.40947
8.40794
8.4064
8.40485
8.40328
8.40169
8.4001
8.3985
8.39689
8.39528
8.97187
8.97141
8.97159
8.97133
8.97148
8.97118
8.97129
8.97096
8.97103
8.97066
8.9707
8.9703
8.9703
8.96987
8.96982
8.96937
8.96928
8.9688
8.96868
8.96818
8.96801
8.96749
8.96728
8.96674
8.9665
8.96594
8.96566
8.96509
8.96477
8.96418
8.96383
8.96323
8.96285
8.96224
8.96182
8.9612
8.96075
8.96013
8.95965
8.95902
8.95851
8.95788
8.95734
8.95671
8.95614
8.95551
8.95492
8.95429
8.95368
8.95305
8.95241
8.95178
8.95113
8.9505
8.94983
8.94921
8.94851
8.9479
8.94718
8.94657
8.94584
8.94524
8.94449
8.94389
8.94313
8.94254
8.94177
8.94118
8.9404
8.93981
8.93902
8.93843
8.93763
8.93705
8.93624
8.93567
8.93485
8.93428
8.93345
8.93288
8.93205
8.93148
8.93065
8.93008
8.92924
8.92868
8.92784
8.92727
8.92643
8.92587
8.92501
8.92445
8.9236
8.92304
8.92219
8.92163
8.92077
8.92021
8.91936
8.9188
8.91794
8.91738
8.91653
8.91597
8.91511
8.91456
8.9137
8.91314
8.91229
8.91174
8.91089
8.91033
8.90949
8.90893
8.90809
8.90754
8.90671
8.90615
8.90533
8.90477
8.90393
9.46155
9.46134
9.46132
9.46129
9.46124
9.46117
9.46109
9.46099
9.46087
9.46074
9.46059
9.46042
9.46023
9.46003
9.4598
9.45955
9.45928
9.45899
9.45867
9.45833
9.45797
9.45758
9.45717
9.45673
9.45626
9.45577
9.45525
9.4547
9.45412
9.45352
9.45289
9.45224
9.45155
9.45084
9.4501
9.44934
9.44855
9.44773
9.44689
9.44602
9.44513
9.44422
9.44329
9.44233
9.44135
9.44036
9.43934
9.43831
9.43726
9.4362
9.43512
9.43403
9.43293
9.43182
9.4307
9.42957
9.42843
9.42729
9.42615
9.425
9.42386
9.98474
9.98444
9.98456
9.98438
9.98448
9.98428
9.98436
9.98413
9.98418
9.98394
9.98396
9.98369
9.98369
9.9834
9.98337
9.98307
9.98301
9.98269
9.9826
9.98226
9.98215
9.98179
9.98165
9.98128
9.98112
9.98073
9.98054
9.98014
9.97993
9.97952
9.97928
9.97886
9.97859
9.97817
9.97788
9.97744
9.97713
9.97669
9.97635
9.97591
9.97555
9.9751
9.97472
9.97426
9.97386
9.9734
9.97299
9.97253
9.97209
9.97163
9.97117
9.97071
9.97024
9.96977
9.96929
9.96882
9.96832
9.96786
9.96734
9.96688
9.96635
9.96589
9.96535
9.96489
9.96433
9.96388
9.96331
9.96286
9.96228
9.96183
9.96125
9.96079
9.9602
9.95975
9.95916
9.95871
9.9581
9.95766
9.95705
9.95661
9.95599
9.95555
9.95493
9.95449
9.95387
9.95343
9.9528
9.95237
9.95174
9.95131
9.95068
9.95025
9.94962
9.94919
9.94856
9.94813
9.9475
9.94708
9.94644
9.94603
9.94539
9.94498
9.94435
9.94393
9.94331
9.9429
9.94227
9.94186
9.94124
9.94084
9.94022
9.93982
9.93921
9.93881
9.9382
9.93781
9.93721
9.93682
9.93623
9.93584
9.93524
10.4828
10.4827
10.4827
10.4826
10.4826
10.4825
10.4825
10.4824
10.4823
10.4822
10.4821
10.4819
10.4818
10.4816
10.4814
10.4812
10.481
10.4808
10.4805
10.4803
10.48
10.4797
10.4794
10.479
10.4787
10.4783
10.4779
10.4775
10.4771
10.4766
10.4762
10.4757
10.4752
10.4747
10.4741
10.4736
10.473
10.4724
10.4718
10.4712
10.4705
10.4699
10.4692
10.4685
10.4678
10.4671
10.4664
10.4656
10.4649
10.4641
10.4634
10.4626
10.4618
10.461
10.4602
10.4594
10.4586
10.4578
10.457
10.4562
10.4554
11.0038
11.0036
11.0037
11.0036
11.0036
11.0035
11.0035
11.0034
11.0034
11.0033
11.0033
11.0031
11.0031
11.0029
11.0029
11.0027
11.0026
11.0024
11.0024
11.0021
11.0021
11.0018
11.0017
11.0015
11.0014
11.0011
11.001
11.0007
11.0006
11.0003
11.0001
10.9999
10.9997
10.9994
10.9992
10.9989
10.9987
10.9984
10.9982
10.9978
10.9976
10.9973
10.997
10.9967
10.9964
10.9961
10.9958
10.9955
10.9952
10.9949
10.9946
10.9942
10.9939
10.9936
10.9933
10.9929
10.9926
10.9922
10.9919
10.9916
10.9912
10.9909
10.9905
10.9901
10.9898
10.9894
10.989
10.9887
10.9883
10.988
10.9876
10.9872
10.9868
10.9865
10.9861
10.9857
10.9853
10.985
10.9845
10.9842
10.9838
10.9835
10.983
10.9827
10.9822
10.9819
10.9815
10.9812
10.9807
10.9804
10.9799
10.9796
10.9792
10.9789
10.9784
10.9781
10.9776
10.9773
10.9769
10.9766
10.9761
10.9758
10.9754
10.9751
10.9746
10.9743
10.9739
10.9736
10.9732
10.9729
10.9724
10.9721
10.9717
10.9714
10.971
10.9707
10.9703
10.97
10.9696
10.9693
10.9689
11.5078
11.5077
11.5077
11.5077
11.5076
11.5076
11.5075
11.5075
11.5074
11.5073
11.5073
11.5072
11.5071
11.5069
11.5068
11.5067
11.5065
11.5064
11.5062
11.506
11.5059
11.5056
11.5054
11.5052
11.505
11.5047
11.5045
11.5042
11.5039
11.5036
11.5033
11.5029
11.5026
11.5022
11.5019
11.5015
11.5011
11.5007
11.5003
11.4999
11.4994
11.499
11.4985
11.498
11.4976
11.4971
11.4966
11.4961
11.4955
11.495
11.4945
11.4939
11.4934
11.4928
11.4923
11.4917
11.4912
11.4906
11.49
11.4895
11.4889
12.0271
12.0269
12.027
12.0269
12.027
12.0269
12.0269
12.0268
12.0268
12.0267
12.0268
12.0266
12.0266
12.0265
12.0265
12.0264
12.0264
12.0262
12.0262
12.0261
12.026
12.0259
12.0258
12.0257
12.0256
12.0254
12.0254
12.0252
12.0251
12.0249
12.0248
12.0247
12.0246
12.0244
12.0243
12.0241
12.0239
12.0238
12.0236
12.0234
12.0233
12.0231
12.0229
12.0227
12.0225
12.0223
12.0222
12.022
12.0218
12.0216
12.0214
12.0212
12.021
12.0207
12.0205
12.0203
12.0201
12.0199
12.0197
12.0194
12.0192
12.019
12.0187
12.0185
12.0183
12.0181
12.0178
12.0176
12.0173
12.0171
12.0168
12.0166
12.0163
12.0161
12.0158
12.0156
12.0153
12.0151
12.0148
12.0146
12.0143
12.0141
12.0138
12.0136
12.0133
12.0131
12.0128
12.0126
12.0123
12.0121
12.0118
12.0115
12.0112
12.011
12.0107
12.0105
12.0102
12.01
12.0097
12.0095
12.0091
12.0089
12.0086
12.0084
12.0081
12.0079
12.0076
12.0074
12.0071
12.0069
12.0066
12.0064
12.0061
12.0059
12.0056
12.0054
12.0051
12.0049
12.0046
12.0044
12.0041
12.5351
12.5351
12.5351
12.5351
12.5351
12.535
12.535
12.535
12.535
12.535
12.5349
12.5349
12.5348
12.5348
12.5347
12.5347
12.5346
12.5345
12.5345
12.5344
12.5343
12.5342
12.5341
12.534
12.5339
12.5337
12.5336
12.5335
12.5333
12.5332
12.533
12.5328
12.5326
12.5324
12.5322
12.532
12.5318
12.5315
12.5313
12.531
12.5308
12.5305
12.5302
12.5299
12.5296
12.5293
12.529
12.5287
12.5283
12.528
12.5277
12.5273
12.5269
12.5266
12.5262
12.5258
12.5254
12.525
12.5246
12.5243
12.5239
13.0527
13.0526
13.0527
13.0526
13.0527
13.0526
13.0526
13.0526
13.0526
13.0526
13.0526
13.0525
13.0525
13.0525
13.0525
13.0524
13.0524
13.0524
13.0524
13.0523
13.0523
13.0522
13.0522
13.0521
13.0521
13.052
13.052
13.0519
13.0519
13.0518
13.0518
13.0517
13.0517
13.0516
13.0516
13.0515
13.0514
13.0513
13.0513
13.0512
13.0511
13.051
13.051
13.0509
13.0508
13.0507
13.0507
13.0506
13.0505
13.0504
13.0503
13.0502
13.0501
13.05
13.0499
13.0498
13.0497
13.0496
13.0495
13.0494
13.0493
13.0492
13.0491
13.049
13.0488
13.0487
13.0486
13.0485
13.0484
13.0483
13.0481
13.048
13.0479
13.0478
13.0476
13.0475
13.0474
13.0472
13.0471
13.047
13.0468
13.0467
13.0465
13.0464
13.0462
13.0461
13.046
13.0458
13.0457
13.0455
13.0454
13.0452
13.0451
13.0449
13.0448
13.0446
13.0444
13.0443
13.0441
13.044
13.0438
13.0437
13.0435
13.0434
13.0432
13.043
13.0428
13.0427
13.0425
13.0424
13.0422
13.042
13.0418
13.0417
13.0415
13.0414
13.0412
13.041
13.0408
13.0407
13.0405
13.5635
13.5635
13.5635
13.5635
13.5635
13.5635
13.5636
13.5636
13.5636
13.5636
13.5637
13.5637
13.5637
13.5638
13.5638
13.5638
13.5639
13.5639
13.564
13.564
13.564
13.5641
13.5641
13.5641
13.5642
13.5642
13.5642
13.5642
13.5642
13.5642
13.5642
13.5642
13.5642
13.5642
13.5641
13.5641
13.564
13.564
13.5639
13.5638
13.5637
13.5636
13.5635
13.5634
13.5633
13.5631
13.563
13.5628
13.5627
13.5625
13.5623
13.5621
13.5619
13.5617
13.5615
13.5612
13.561
13.5607
13.5605
13.5602
13.5599
14.0787
14.0786
14.0786
14.0786
14.0786
14.0786
14.0787
14.0786
14.0787
14.0787
14.0787
14.0787
14.0787
14.0787
14.0788
14.0788
14.0788
14.0788
14.0789
14.0789
14.0789
14.0789
14.079
14.079
14.079
14.079
14.0791
14.0791
14.0792
14.0792
14.0792
14.0793
14.0793
14.0793
14.0794
14.0794
14.0795
14.0795
14.0795
14.0796
14.0796
14.0796
14.0797
14.0797
14.0798
14.0798
14.0798
14.0799
14.0799
14.0799
14.08
14.08
14.0801
14.0801
14.0801
14.0802
14.0802
14.0802
14.0802
14.0803
14.0803
14.0803
14.0804
14.0804
14.0804
14.0804
14.0804
14.0805
14.0805
14.0805
14.0805
14.0805
14.0805
14.0805
14.0805
14.0805
14.0805
14.0805
14.0805
14.0805
14.0805
14.0805
14.0805
14.0805
14.0804
14.0804
14.0804
14.0804
14.0803
14.0803
14.0802
14.0802
14.0802
14.0801
14.0801
14.08
14.08
14.0799
14.0799
14.0798
14.0797
14.0797
14.0796
14.0796
14.0795
14.0794
14.0793
14.0792
14.0791
14.0791
14.079
14.0789
14.0788
14.0787
14.0786
14.0785
14.0784
14.0783
14.0782
14.0781
14.0779
14.5911
14.5911
14.5911
14.5912
14.5912
14.5913
14.5913
14.5914
14.5915
14.5917
14.5918
14.5919
14.5921
14.5922
14.5924
14.5926
14.5928
14.593
14.5932
14.5934
14.5936
14.5938
14.594
14.5943
14.5945
14.5947
14.5949
14.5952
14.5954
14.5956
14.5958
14.596
14.5962
14.5964
14.5966
14.5968
14.597
14.5971
14.5973
14.5974
14.5975
14.5977
14.5978
14.5978
14.5979
14.598
14.598
14.598
14.5981
14.5981
14.598
14.598
14.598
14.5979
14.5978
14.5977
14.5976
14.5975
14.5973
14.5972
14.597
15.1022
15.1021
15.1022
15.1022
15.1022
15.1022
15.1023
15.1023
15.1023
15.1024
15.1025
15.1025
15.1026
15.1027
15.1028
15.1028
15.1029
15.103
15.1031
15.1032
15.1034
15.1035
15.1036
15.1037
15.1039
15.104
15.1042
15.1043
15.1045
15.1046
15.1048
15.105
15.1051
15.1053
15.1055
15.1057
15.1059
15.106
15.1062
15.1064
15.1066
15.1068
15.107
15.1072
15.1074
15.1076
15.1079
15.1081
15.1083
15.1085
15.1087
15.1089
15.1091
15.1094
15.1096
15.1098
15.11
15.1102
15.1104
15.1106
15.1109
15.1111
15.1113
15.1115
15.1117
15.1119
15.1121
15.1123
15.1125
15.1127
15.1129
15.1131
15.1133
15.1135
15.1136
15.1138
15.114
15.1142
15.1143
15.1145
15.1146
15.1148
15.1149
15.1151
15.1152
15.1154
15.1155
15.1156
15.1157
15.1159
15.116
15.1161
15.1162
15.1163
15.1164
15.1165
15.1165
15.1166
15.1167
15.1167
15.1168
15.1168
15.1169
15.1169
15.1169
15.117
15.117
15.117
15.117
15.117
15.117
15.117
15.117
15.117
15.1169
15.1169
15.1169
15.1168
15.1168
15.1167
15.1167
15.6154
15.6154
15.6154
15.6155
15.6156
15.6157
15.6159
15.6161
15.6163
15.6166
15.6169
15.6172
15.6175
15.6179
15.6183
15.6187
15.6191
15.6195
15.62
15.6205
15.621
15.6215
15.622
15.6225
15.623
15.6236
15.6241
15.6247
15.6252
15.6258
15.6263
15.6269
15.6274
15.6279
15.6285
15.629
15.6295
15.63
15.6305
15.6309
15.6314
15.6318
15.6322
15.6326
15.6329
15.6333
15.6336
15.6339
15.6341
15.6344
15.6346
15.6348
15.6349
15.6351
15.6352
15.6352
15.6353
15.6353
15.6353
15.6353
15.6352
16.1209
16.1209
16.1209
16.1209
16.121
16.121
16.1211
16.1212
16.1213
16.1214
16.1215
16.1216
16.1218
16.1219
16.1221
16.1223
16.1225
16.1227
16.1229
16.1232
16.1234
16.1236
16.1239
16.1242
16.1245
16.1248
16.1251
16.1254
16.1257
16.1261
16.1264
16.1268
16.1271
16.1275
16.1279
16.1282
16.1286
16.129
16.1295
16.1299
16.1303
16.1307
16.1311
16.1316
16.132
16.1325
16.1329
16.1334
16.1338
16.1343
16.1347
16.1352
16.1357
16.1361
16.1366
16.1371
16.1375
16.138
16.1385
16.139
16.1394
16.1399
16.1404
16.1408
16.1413
16.1418
16.1422
16.1427
16.1432
16.1436
16.1441
16.1445
16.1449
16.1454
16.1458
16.1462
16.1466
16.1471
16.1475
16.1479
16.1483
16.1486
16.149
16.1494
16.1498
16.1501
16.1505
16.1508
16.1511
16.1515
16.1518
16.1521
16.1524
16.1527
16.1529
16.1532
16.1535
16.1537
16.154
16.1542
16.1544
16.1546
16.1548
16.155
16.1552
16.1553
16.1555
16.1556
16.1558
16.1559
16.156
16.1561
16.1562
16.1563
16.1563
16.1564
16.1564
16.1565
16.1565
16.1565
16.1565
SCALARS Stress_Z double 1
LOOKUP_TABLE default
-79.0555
-79.013
-79.0083
-79.0229
-79.0896
-78.9609
-78.8185
-79.3038
-78.6206
-79.2178
-72.2358
-85.7658
-38.6741
5.6596
-5.20071
0.0181491
-0.255752
0.186103
-0.0957272
-0.0239158
0.0302085
0.0116364
0.00277098
0.000555886
0.00360291
0.00285355
-0.000401317
0.00173906
-0.000971341
0.00152731
-0.00129323
0.00114568
-0.00117292
0.000891559
-0.000995253
0.000684125
-0.000814167
0.000532034
-0.00067523
0.000418418
-0.00057963
0.000334367
-0.000520414
0.000271362
-0.000486666
0.000223392
-0.000468728
0.000186052
-0.0004592
0.000156295
-0.000453106
0.000132031
-0.000447433
0.000111843
-0.000440597
9.47635e-05
-0.000431956
8.01274e-05
-0.000421426
6.746e-05
-0.000409222
5.64159e-05
-0.000395688
4.67324e-05
-0.000381199
3.82026e-05
-0.000366105
3.06601e-05
-0.000350711
2.39667e-05
-0.000335269
1.80076e-05
-0.000319981
1.26846e-05
-0.000305
7.91343e-06
-0.000290446
3.62441e-06
-0.000276406
-2.44867e-07
-0.000262942
-3.74656e-06
-0.000250094
-6.92706e-06
-0.00023789
-9.82627e-06
-0.000226344
-1.24777e-05
-0.000215458
-1.4913e-05
-0.000205232
-1.71581e-05
-0.000195655
-1.92356e-05
-0.000186711
-2.11676e-05
-0.000178386
-2.29726e-05
-0.000170657
-2.46667e-05
-0.000163505
-2.6265e-05
-0.000156904
-2.7783e-05
-0.000150837
-2.92267e-05
-0.000145263
-3.06302e-05
-0.000140218
-3.19202e-05
-0.000135477
-3.34e-05
-0.000131873
-3.39008e-05
-0.000127063
-3.70409e-05
-0.000134846
-2.49195e-05
-0.000124545
-4.65556e-05
-0.000104764
-78.9945
-78.986
-78.99
-78.8663
-77.971
-73.1578
-38.422
-4.49295
-0.651906
-0.0547625
0.007467
0.00759349
0.00544469
0.00454899
0.00458769
0.00498795
0.00547526
0.00591934
0.00627826
0.00654954
0.00674708
0.00688863
0.00699047
0.00706547
0.00712297
0.00716928
0.00720848
0.00724305
0.00727444
0.00730347
0.00733058
0.00735599
0.00737983
0.00740219
0.00742312
0.00744269
0.00746096
0.00747799
0.00749384
0.00750859
0.00752229
0.00753501
0.00754681
0.00755775
0.00756789
0.00757728
0.00758598
0.00759402
0.00760146
0.00760834
0.00761469
0.00762057
0.00762599
0.00763101
0.00763564
0.0076399
0.00764374
0.00764657
0.00764373
0.00760919
0.00761021
-79.0148
-78.9204
-78.9805
-78.9005
-78.9775
-78.8835
-78.9722
-78.8831
-78.1502
-79.4818
-74.3128
-82.9877
-38.3586
3.10743
-3.53807
0.363592
-0.497327
-0.0415493
0.0400082
-0.0223717
0.0281145
-0.00623156
0.0229273
0.00559719
0.0151389
0.0108129
0.0131189
0.0134658
0.0123159
0.0145823
0.0124088
0.0150164
0.0127358
0.0151362
0.0131186
0.0151449
0.0134555
0.0151297
0.0137244
0.0151251
0.0139279
0.0151388
0.0140793
0.0151678
0.0141931
0.015206
0.0142813
0.0152476
0.0143531
0.0152881
0.0144148
0.0153249
0.0144701
0.0153566
0.0145213
0.0153828
0.0145698
0.0154037
0.0146161
0.0154198
0.0146604
0.0154318
0.0147027
0.0154402
0.0147431
0.0154457
0.0147815
0.0154489
0.0148179
0.0154502
0.0148522
0.0154501
0.0148845
0.0154488
0.0149149
0.0154466
0.0149433
0.0154437
0.0149699
0.0154404
0.0149947
0.0154367
0.0150179
0.0154328
0.0150394
0.0154287
0.0150594
0.0154246
0.015078
0.0154204
0.0150952
0.0154164
0.0151112
0.0154123
0.0151259
0.0154084
0.0151396
0.0154046
0.0151522
0.015401
0.0151638
0.0153975
0.0151744
0.0153941
0.0151842
0.0153909
0.0151933
0.0153878
0.0152015
0.0153849
0.0152091
0.0153821
0.0152161
0.0153793
0.0152222
0.015377
0.015229
0.0153726
0.0152164
0.0153752
0.0152627
-78.9655
-78.8842
-78.8917
-78.8939
-78.501
-74.1748
-38.3238
-3.61675
-0.178769
0.0538777
0.0297194
0.0192622
0.0174746
0.0177501
0.0184301
0.0191055
0.0196811
0.0201479
0.0205229
0.0208268
0.0210775
0.0212886
0.0214697
0.0216274
0.0217663
0.0218897
0.0219999
0.0220987
0.0221874
0.0222673
0.0223394
0.0224044
0.0224632
0.0225164
0.0225646
0.0226083
0.022648
0.0226841
0.0227169
0.0227467
0.022774
0.0227988
0.0228215
0.0228422
0.0228612
0.0228786
0.0228946
0.0229092
0.0229227
0.0229352
0.0229466
0.0229572
0.022967
0.0229761
0.0229846
0.0229925
0.0230001
0.0230085
0.0230237
0.0230613
0.0231651
-78.9129
-78.7006
-78.8101
-78.6564
-78.7867
-78.5759
-78.824
-78.3916
-78.4242
-78.5231
-75.0509
-80.8748
-38.2572
1.49455
-2.83895
-0.219739
-0.157995
-0.262931
0.063058
-0.112617
0.0170355
-0.0482543
0.0180738
-0.0110268
0.0184028
0.00756372
0.0210705
0.0175813
0.0228519
0.0226619
0.0242826
0.0252562
0.025314
0.0265892
0.0260931
0.0273372
0.0266931
0.0278307
0.0271746
0.0282238
0.0275739
0.0285772
0.0279144
0.028909
0.0282105
0.0292192
0.0284709
0.0295033
0.0287014
0.029757
0.0289063
0.0299784
0.0290887
0.0301676
0.0292512
0.0303266
0.029396
0.0304584
0.0295253
0.0305662
0.0296407
0.0306535
0.0297439
0.0307233
0.0298364
0.0307787
0.0299192
0.030822
0.0299936
0.0308554
0.0300605
0.0308807
0.0301207
0.0308994
0.0301749
0.0309126
0.0302239
0.0309215
0.0302681
0.0309269
0.0303082
0.0309294
0.0303444
0.0309297
0.0303773
0.0309283
0.0304072
0.0309255
0.0304343
0.0309217
0.030459
0.0309172
0.0304815
0.0309122
0.030502
0.0309068
0.0305208
0.0309012
0.0305379
0.0308955
0.0305536
0.0308899
0.030568
0.0308844
0.0305812
0.030879
0.0305934
0.0308738
0.0306046
0.0308689
0.0306149
0.0308642
0.0306247
0.0308596
0.0306342
0.030855
0.0306504
0.0308431
0.0306847
0.0307984
0.0307987
-78.7887
-78.64
-78.5967
-78.557
-78.4281
-75.096
-38.1533
-2.67662
-0.0443183
-0.0139306
-0.0181965
-0.00251133
0.0104258
0.0188281
0.0240527
0.0273192
0.0294193
0.0308447
0.0318847
0.0327022
0.0333842
0.0339751
0.0344966
0.0349599
0.0353711
0.035735
0.0360556
0.0363371
0.0365838
0.0367996
0.0369884
0.0371535
0.0372981
0.0374249
0.0375362
0.0376342
0.0377205
0.0377968
0.0378642
0.0379239
0.0379769
0.0380241
0.0380661
0.0381036
0.0381371
0.0381672
0.0381942
0.0382185
0.0382404
0.0382603
0.0382783
0.0382947
0.0383097
0.0383234
0.0383361
0.0383477
0.0383584
0.0383686
0.0383826
0.0384243
0.038552
-78.6734
-78.3733
-78.5091
-78.293
-78.4259
-78.1335
-78.3681
-77.816
-78.1572
-77.539
-75.4804
-77.7707
-38.0697
-0.90863
-2.26322
-0.763465
-0.138103
-0.486844
-0.0634871
-0.235764
-0.0537037
-0.112507
-0.0165414
-0.0412881
0.00474505
-0.00353235
0.0185507
0.0169277
0.0265389
0.027624
0.0313818
0.033233
0.0343512
0.0362406
0.0362976
0.0380021
0.0376812
0.0391982
0.0387574
0.0401501
0.0396553
0.0409912
0.0404376
0.0417649
0.0411323
0.0424776
0.0417518
0.0431239
0.0423026
0.0436983
0.0427894
0.0441988
0.043217
0.0446274
0.0435906
0.0449893
0.0439157
0.045291
0.044198
0.0455401
0.0444427
0.0457441
0.0446549
0.0459098
0.0448389
0.0460433
0.0449987
0.0461502
0.0451376
0.0462349
0.0452586
0.0463013
0.045364
0.0463527
0.0454562
0.0463918
0.0455368
0.0464207
0.0456075
0.0464415
0.0456696
0.0464556
0.0457242
0.0464643
0.0457724
0.0464688
0.045815
0.0464699
0.0458526
0.0464683
0.0458861
0.0464647
0.0459159
0.0464596
0.0459425
0.0464534
0.0459663
0.0464465
0.0459877
0.0464391
0.046007
0.0464315
0.0460245
0.0464239
0.0460404
0.0464164
0.046055
0.0464091
0.0460683
0.0464022
0.0460806
0.0463956
0.0460921
0.0463894
0.0461025
0.0463841
0.0461164
0.0463747
0.0461506
0.0463246
0.0462751
-78.4642
-78.265
-78.1478
-77.9794
-77.8542
-75.2967
-37.9207
-2.23102
-0.207077
-0.188138
-0.111439
-0.0484469
-0.0102125
0.012098
0.0249848
0.0324724
0.0369451
0.0397882
0.0417718
0.0433032
0.0445846
0.0457085
0.0467137
0.0476149
0.0484185
0.0491294
0.0497533
0.050297
0.0507686
0.0511762
0.0515278
0.0518308
0.052092
0.0523172
0.0525117
0.0526797
0.0528252
0.0529512
0.0530606
0.0531557
0.0532385
0.0533107
0.0533737
0.0534288
0.0534771
0.0535196
0.053557
0.05359
0.0536193
0.0536453
0.0536685
0.0536893
0.053708
0.053725
0.0537404
0.0537544
0.0537673
0.0537789
0.053791
0.0538224
0.0539443
-78.2805
-77.9295
-78.0686
-77.8001
-77.9075
-77.5349
-77.6856
-77.0839
-77.445
-76.4931
-75.1871
-74.3309
-37.8094
-3.4872
-2.17808
-1.27655
-0.374262
-0.751417
-0.280408
-0.398883
-0.165198
-0.20031
-0.073941
-0.086026
-0.0219518
-0.0237362
0.00835461
0.0101313
0.025454
0.0281581
0.0352274
0.0377825
0.0409306
0.0430832
0.0444811
0.0462726
0.0469186
0.0484787
0.0487886
0.0502395
0.0503553
0.0517838
0.0517363
0.0531913
0.0529777
0.0544784
0.0540947
0.0556408
0.0550925
0.0566726
0.0559752
0.0575728
0.0567487
0.0583464
0.0574212
0.0590029
0.0580022
0.0595543
0.0585022
0.0600138
0.0589313
0.060394
0.0592989
0.060707
0.0596138
0.0609633
0.0598836
0.0611721
0.0601149
0.0613414
0.0603133
0.0614779
0.0604837
0.0615871
0.0606302
0.0616737
0.0607563
0.0617416
0.0608649
0.0617942
0.0609585
0.0618341
0.0610395
0.0618636
0.0611094
0.0618848
0.0611701
0.0618991
0.0612227
0.0619079
0.0612684
0.0619124
0.0613083
0.0619135
0.0613432
0.0619119
0.0613739
0.0619083
0.0614008
0.0619033
0.0614247
0.0618973
0.061446
0.0618906
0.061465
0.0618836
0.0614821
0.0618765
0.0614976
0.0618694
0.0615118
0.0618626
0.0615248
0.0618561
0.0615365
0.0618504
0.0615485
0.0618437
0.0615738
0.0618011
0.0616878
-78.0187
-77.782
-77.5754
-77.2369
-76.9374
-74.7287
-37.6358
-2.34626
-0.574463
-0.432041
-0.241126
-0.115256
-0.0424755
-0.00110512
0.0221674
0.0352711
0.0428283
0.0474685
0.0506237
0.0530337
0.0550541
0.0568396
0.0584485
0.0598985
0.0611943
0.0623397
0.0633416
0.0642104
0.0649586
0.0655999
0.0661478
0.0666149
0.0670129
0.0673518
0.0676404
0.0678864
0.0680961
0.068275
0.0684276
0.0685581
0.0686695
0.0687648
0.0688464
0.0689163
0.0689763
0.0690279
0.0690723
0.0691107
0.069144
0.0691729
0.0691983
0.0692206
0.0692403
0.069258
0.0692739
0.0692884
0.0693016
0.0693137
0.0693246
0.0693455
0.0694513
-77.7558
-77.3856
-77.5079
-77.196
-77.2524
-76.8013
-76.8391
-76.1795
-76.4003
-75.339
-74.2326
-70.8063
-37.4865
-6.0343
-2.55746
-1.80129
-0.797869
-1.07671
-0.556932
-0.598431
-0.311743
-0.309754
-0.151371
-0.143895
-0.0602854
-0.052389
-0.00861989
-0.00237099
0.020143
0.0245826
0.0361928
0.03918
0.0453375
0.0473749
0.050888
0.0524003
0.0546302
0.0559195
0.0574815
0.0587333
0.0598779
0.0611885
0.0620056
0.0634117
0.0639318
0.0654341
0.065674
0.0672548
0.0672349
0.0688688
0.068617
0.0702777
0.0698271
0.0714908
0.0708766
0.0725235
0.0717804
0.0733947
0.0725547
0.0741245
0.0732156
0.0747324
0.0737785
0.0752366
0.0742575
0.0756531
0.0746649
0.075996
0.0750113
0.0762773
0.075306
0.0765072
0.0755568
0.0766942
0.0757703
0.0768454
0.0759521
0.076967
0.076107
0.0770639
0.076239
0.0771404
0.0763516
0.0772
0.0764476
0.0772457
0.0765296
0.07728
0.0765996
0.077305
0.0766595
0.0773224
0.0767109
0.0773339
0.076755
0.0773405
0.076793
0.0773434
0.0768258
0.0773433
0.0768543
0.0773411
0.0768792
0.0773374
0.0769011
0.0773325
0.0769204
0.0773269
0.0769377
0.0773208
0.0769532
0.0773147
0.0769673
0.0773086
0.07698
0.077303
0.0769914
0.0772977
0.0770087
0.0772653
0.0771053
-77.4463
-77.1794
-76.8697
-76.3379
-75.7594
-73.4952
-37.2937
-2.92885
-1.0776
-0.728708
-0.402806
-0.20094
-0.0856322
-0.0207941
0.0152129
0.0351726
0.0464795
0.0532969
0.0578704
0.0613465
0.0642676
0.0668631
0.0692142
0.0713408
0.0732451
0.074929
0.0764006
0.077674
0.0787675
0.0797011
0.0804951
0.0811686
0.081739
0.0822217
0.0826299
0.0829752
0.0832671
0.0835139
0.0837226
0.0838989
0.0840478
0.0841736
0.0842799
0.0843696
0.0844454
0.0845094
0.0845636
0.0846095
0.0846485
0.0846817
0.0847102
0.0847348
0.0847561
0.0847748
0.0847914
0.0848063
0.0848198
0.0848322
0.0848429
0.0848567
0.0849441
-77.1344
-76.766
-76.8561
-76.5073
-76.4917
-75.9617
-75.866
-75.128
-75.1359
-74.0218
-72.7129
-67.3962
-37.1186
-8.39645
-3.3426
-2.3974
-1.34461
-1.46165
-0.882138
-0.830958
-0.488379
-0.438482
-0.246215
-0.213636
-0.10856
-0.088592
-0.0313838
-0.0198916
0.0112616
0.017482
0.0347765
0.0379531
0.0480103
0.0496132
0.0559372
0.0568639
0.0612293
0.061985
0.065246
0.0660818
0.0686265
0.069641
0.0716384
0.0728458
0.0743736
0.0757473
0.0768527
0.0783507
0.0790755
0.080654
0.0810427
0.0826629
0.0827624
0.0843928
0.0842505
0.0858666
0.0855278
0.0871118
0.0866179
0.0881568
0.0875442
0.0890295
0.0883292
0.0897553
0.0889934
0.090357
0.0895548
0.0908543
0.090029
0.091264
0.0904294
0.0916006
0.0907674
0.0918759
0.0910527
0.0921002
0.0912932
0.092282
0.0914961
0.0924283
0.091667
0.0925451
0.091811
0.0926376
0.0919322
0.0927098
0.0920341
0.0927655
0.0921199
0.0928075
0.092192
0.0928384
0.0922527
0.0928604
0.0923038
0.0928752
0.092347
0.0928843
0.0923835
0.0928889
0.0924145
0.0928901
0.0924411
0.0928888
0.0924639
0.0928856
0.0924837
0.0928812
0.0925011
0.0928759
0.0925165
0.0928702
0.0925305
0.0928643
0.0925431
0.0928587
0.092554
0.0928538
0.0925659
0.0928302
0.0926443
-76.7683
-76.4745
-76.0481
-75.304
-74.3857
-71.7563
-36.9021
-3.85828
-1.67636
-1.06982
-0.592354
-0.303039
-0.13847
-0.0464514
0.00431452
0.0322412
0.0479255
0.0573007
0.0635513
0.0682934
0.0722852
0.075843
0.0790746
0.0820033
0.0846283
0.0869501
0.0889782
0.0907313
0.0922344
0.0935152
0.0946019
0.0955212
0.0962974
0.0969519
0.0975034
0.0979679
0.0983587
0.0986874
0.0989637
0.0991956
0.0993902
0.0995532
0.0996897
0.0998038
0.0998991
0.0999786
0.100045
0.1001
0.100147
0.100185
0.100218
0.100245
0.100269
0.100289
0.100306
0.100322
0.100335
0.100348
0.100359
0.100369
0.100438
-76.423
-76.0698
-76.1168
-75.735
-75.6304
-75.0228
-74.7752
-73.9394
-73.6961
-72.5168
-70.7709
-64.1507
-36.7087
-10.5357
-4.4166
-3.08218
-1.97972
-1.89842
-1.24796
-1.09083
-0.690863
-0.583996
-0.356144
-0.294002
-0.165818
-0.13177
-0.0597044
-0.0422026
-0.00129471
0.00689759
0.0307385
0.0340488
0.0486687
0.0496977
0.0593485
0.0595399
0.0664499
0.0665396
0.0718325
0.0721433
0.0763657
0.0769955
0.0804103
0.0813454
0.0840874
0.0852685
0.0874219
0.0887787
0.0904111
0.091879
0.0930546
0.0945807
0.0953627
0.0969068
0.0973565
0.0988896
0.0990643
0.100566
0.100518
0.101975
0.101749
0.103154
0.10279
0.104136
0.103667
0.104952
0.104405
0.105628
0.105025
0.106186
0.105547
0.106647
0.105984
0.107025
0.106351
0.107334
0.106658
0.107586
0.106916
0.10779
0.10713
0.107954
0.10731
0.108085
0.107459
0.108189
0.107583
0.10827
0.107686
0.108332
0.107772
0.108379
0.107842
0.108413
0.107901
0.108438
0.107949
0.108454
0.107989
0.108465
0.108023
0.10847
0.108051
0.108472
0.108074
0.108471
0.108094
0.108468
0.108111
0.108464
0.108126
0.108459
0.108139
0.108454
0.108151
0.108449
0.108162
0.108444
0.10817
0.108427
0.108232
-76.0031
-75.6834
-75.1286
-74.1543
-72.8572
-69.658
-36.4696
-5.02468
-2.34746
-1.44917
-0.805458
-0.419117
-0.199817
-0.0775528
-0.0103015
0.0265805
0.04723
0.0595392
0.0677328
0.073949
0.0791871
0.0838612
0.0881106
0.0919635
0.0954173
0.0984712
0.101138
0.103441
0.105413
0.107092
0.108515
0.109716
0.110729
0.111581
0.112297
0.112899
0.113404
0.113827
0.114181
0.114478
0.114725
0.114931
0.115103
0.115245
0.115363
0.115461
0.115541
0.115608
0.115662
0.115708
0.115745
0.115776
0.115802
0.115823
0.115842
0.115857
0.115871
0.115884
0.115895
0.115903
0.115956
-75.6175
-75.2876
-75.2843
-74.8716
-74.6656
-73.982
-73.566
-72.6199
-72.1019
-70.8158
-68.5192
-61.0833
-36.2564
-12.4381
-5.67984
-3.85491
-2.67906
-2.376
-1.6473
-1.37269
-0.914452
-0.743758
-0.478866
-0.383836
-0.231202
-0.181497
-0.0934663
-0.0692721
-0.0177507
-0.00733906
0.0237092
0.0272006
0.0468936
0.0473176
0.0606954
0.0600991
0.069875
0.0692486
0.0768377
0.0765833
0.0827063
0.0829207
0.087945
0.0885841
0.0927087
0.0936776
0.0970283
0.0982261
0.1009
0.102239
0.104322
0.105736
0.107309
0.108748
0.109888
0.111317
0.112095
0.113493
0.113972
0.115326
0.115561
0.116862
0.116901
0.118145
0.11803
0.119215
0.118979
0.120104
0.119775
0.120841
0.120442
0.121452
0.121002
0.121955
0.12147
0.12237
0.12186
0.122709
0.122187
0.122986
0.122458
0.123211
0.122683
0.123392
0.12287
0.123537
0.123025
0.123652
0.123152
0.123743
0.123257
0.123813
0.123343
0.123866
0.123414
0.123905
0.123472
0.123934
0.123519
0.123954
0.123557
0.123967
0.123589
0.123975
0.123615
0.123979
0.123637
0.12398
0.123655
0.123979
0.12367
0.123976
0.123684
0.123972
0.123696
0.123968
0.123706
0.123964
0.123714
0.123953
0.12376
-75.1763
-74.831
-74.1383
-72.9166
-71.2116
-67.3267
-36.0084
-6.34122
-3.07622
-1.86068
-1.03766
-0.546697
-0.268358
-0.113368
-0.0281791
0.018527
0.0446857
0.0602938
0.0706967
0.0785966
0.0852551
0.0911948
0.0965912
0.10148
0.105859
0.109727
0.113101
0.116013
0.118503
0.120621
0.122412
0.123922
0.125193
0.126261
0.127156
0.127906
0.128533
0.129057
0.129495
0.129859
0.130162
0.130413
0.13062
0.130792
0.130932
0.131048
0.131142
0.131219
0.131281
0.131332
0.131373
0.131406
0.131433
0.131456
0.131474
0.13149
0.131503
0.131515
0.131525
0.131533
0.131571
-74.7379
-74.4373
-74.3791
-73.9363
-73.619
-72.8624
-72.2645
-71.1967
-70.3791
-68.9568
-66.0929
-58.1692
-35.7698
-14.1477
-7.0361
-4.69851
-3.43356
-2.88677
-2.07294
-1.67128
-1.1552
-0.915134
-0.612058
-0.481465
-0.303615
-0.236775
-0.132109
-0.100441
-0.0378147
-0.0247575
0.0138713
0.0177834
0.0428301
0.0427973
0.0601187
0.058838
0.0716516
0.0703901
0.0804166
0.079665
0.0878082
0.087666
0.0944037
0.0947973
0.100397
0.101196
0.105827
0.1069
0.11069
0.111929
0.114988
0.11631
0.118736
0.120084
0.121972
0.123308
0.12474
0.126041
0.127094
0.128346
0.129086
0.130283
0.130766
0.131905
0.13218
0.13326
0.133368
0.13439
0.134365
0.13533
0.135201
0.136111
0.1359
0.136758
0.136484
0.137292
0.136972
0.137733
0.137378
0.138094
0.137716
0.13839
0.137996
0.13863
0.138228
0.138824
0.138419
0.13898
0.138577
0.139103
0.138705
0.139201
0.138811
0.139277
0.138896
0.139335
0.138966
0.139379
0.139022
0.139411
0.139068
0.139434
0.139105
0.13945
0.139135
0.139461
0.13916
0.139466
0.13918
0.139469
0.139196
0.139469
0.139211
0.139468
0.139223
0.139466
0.139233
0.139462
0.139241
0.139456
0.139272
-74.2772
-73.9066
-73.0701
-71.5884
-69.4542
-64.843
-35.5158
-7.73206
-3.84731
-2.29599
-1.28418
-0.683607
-0.343334
-0.153838
-0.0495985
0.00764915
0.0398028
0.0590607
0.0719434
0.0817478
0.0900142
0.0973821
0.104068
0.110119
0.115532
0.120311
0.124477
0.12807
0.131143
0.133753
0.135962
0.137823
0.139388
0.140701
0.141803
0.142724
0.143495
0.144138
0.144674
0.14512
0.14549
0.145796
0.146048
0.146256
0.146426
0.146564
0.146677
0.146769
0.146842
0.146902
0.146949
0.146987
0.147018
0.147043
0.147063
0.147079
0.147093
0.147105
0.147115
0.147122
0.147147
-73.8131
-73.5447
-73.4286
-72.9559
-72.5222
-71.6923
-70.9012
-69.707
-68.5734
-66.9733
-63.5611
-55.4369
-35.2649
-15.6629
-8.44823
-5.60716
-4.2265
-3.42133
-2.51955
-1.98313
-1.40833
-1.09556
-0.753304
-0.585402
-0.381566
-0.296599
-0.174706
-0.135
-0.0608213
-0.0447906
0.00175966
0.00629249
0.0369565
0.0365984
0.058072
0.0562014
0.0722216
0.0703982
0.0830016
0.0818123
0.0920935
0.0916438
0.100196
0.100384
0.107546
0.108208
0.114195
0.11517
0.120143
0.121301
0.125393
0.126637
0.129969
0.131236
0.133916
0.135164
0.137292
0.138498
0.140161
0.141312
0.142588
0.143678
0.144634
0.145663
0.146354
0.147324
0.147799
0.148711
0.149011
0.149867
0.150025
0.150829
0.150873
0.151628
0.151581
0.15229
0.152172
0.152837
0.152663
0.153287
0.15307
0.153657
0.153407
0.153958
0.153685
0.154203
0.153914
0.154401
0.154102
0.154559
0.154255
0.154684
0.154379
0.154783
0.15448
0.15486
0.154561
0.154919
0.154626
0.154964
0.154679
0.154996
0.15472
0.15502
0.154754
0.155036
0.15478
0.155047
0.154802
0.155053
0.154819
0.155056
0.154834
0.155057
0.154846
0.155056
0.154856
0.155054
0.154864
0.155051
0.154883
-73.3216
-72.926
-71.943
-70.193
-67.6134
-62.2839
-35.0003
-9.14509
-4.64762
-2.7472
-1.54038
-0.827448
-0.423515
-0.198337
-0.0742321
-0.00586362
0.0327134
0.0559516
0.0715797
0.0835084
0.0935689
0.102525
0.110638
0.11797
0.124522
0.130302
0.135337
0.139679
0.143391
0.146546
0.149214
0.151464
0.153355
0.154944
0.156275
0.15739
0.158322
0.1591
0.159748
0.160287
0.160734
0.161104
0.161409
0.16166
0.161865
0.162032
0.162168
0.162278
0.162366
0.162436
0.162493
0.162538
0.162573
0.162602
0.162624
0.162642
0.162657
0.162669
0.16268
0.162688
0.1627
-72.8457
-72.6112
-72.4362
-71.9339
-71.3817
-70.4791
-69.4884
-68.1657
-66.7036
-64.8984
-60.9874
-52.8733
-34.7446
-17.0003
-9.86538
-6.55679
-5.04299
-3.96915
-2.97824
-2.30261
-1.66903
-1.28202
-0.900269
-0.694125
-0.464021
-0.360269
-0.220888
-0.172681
-0.0867319
-0.0673928
-0.0127387
-0.00733516
0.0290975
0.0286074
0.0543597
0.0520531
0.0713867
0.0691266
0.0843985
0.0828744
0.0953727
0.0947009
0.105136
0.10519
0.113974
0.114558
0.121954
0.12288
0.129082
0.130199
0.135366
0.136566
0.140839
0.142052
0.145557
0.146739
0.149591
0.150719
0.153017
0.154081
0.155915
0.156911
0.158358
0.159287
0.160412
0.161277
0.162136
0.162942
0.163581
0.164332
0.16479
0.165491
0.165801
0.166455
0.166645
0.167255
0.167347
0.167917
0.167931
0.168464
0.168415
0.168914
0.168815
0.169283
0.169145
0.169583
0.169415
0.169826
0.169637
0.170022
0.169817
0.170179
0.169963
0.170303
0.17008
0.1704
0.170175
0.170476
0.17025
0.170534
0.17031
0.170577
0.170357
0.170609
0.170395
0.170632
0.170424
0.170648
0.170447
0.170658
0.170466
0.170665
0.170481
0.170668
0.170493
0.170669
0.170503
0.170668
0.170512
0.170668
0.170518
-72.3245
-71.9044
-70.7749
-68.7533
-65.7183
-59.709
-34.4702
-10.542
-5.46377
-3.20635
-1.80187
-0.975946
-0.50773
-0.246263
-0.101762
-0.0218255
0.0235486
0.0510791
0.0697137
0.0839866
0.0960267
0.106728
0.116403
0.12513
0.132918
0.139782
0.145759
0.150911
0.155317
0.159061
0.162229
0.1649
0.167148
0.169036
0.17062
0.171946
0.173056
0.173983
0.174755
0.175398
0.175931
0.176372
0.176736
0.177036
0.177281
0.177481
0.177643
0.177774
0.177879
0.177963
0.17803
0.178083
0.178125
0.178158
0.178184
0.178205
0.178221
0.178234
0.178245
0.178255
0.178255
-71.8374
-71.6372
-71.4037
-70.8724
-70.2025
-69.2284
-68.0367
-66.5855
-64.7885
-62.7633
-58.4175
-50.4642
-34.2109
-18.1761
-11.2506
-7.5241
-5.86785
-4.5203
-3.44049
-2.62448
-1.9329
-1.47173
-1.05083
-0.806246
-0.55005
-0.427159
-0.27034
-0.213258
-0.11553
-0.0925401
-0.0297455
-0.0231729
0.0190768
0.0187068
0.0487898
0.0462572
0.0689555
0.0664328
0.0844215
0.082707
0.0974668
0.0966926
0.109051
0.109072
0.119514
0.120103
0.128942
0.129888
0.137349
0.138484
0.144754
0.145959
0.151198
0.152398
0.156751
0.157903
0.161498
0.162578
0.165531
0.166532
0.168942
0.169864
0.171818
0.172664
0.174237
0.175014
0.176268
0.176982
0.177971
0.178628
0.179396
0.180002
0.180588
0.181148
0.181583
0.182102
0.182412
0.182893
0.183102
0.183548
0.183673
0.184088
0.184145
0.184532
0.184534
0.184895
0.184854
0.185191
0.185115
0.185431
0.185328
0.185623
0.1855
0.185777
0.185638
0.185899
0.185749
0.185994
0.185838
0.186069
0.185908
0.186125
0.185963
0.186168
0.186007
0.186199
0.186041
0.186222
0.186067
0.186238
0.186088
0.186248
0.186104
0.186255
0.186117
0.186258
0.186127
0.186259
0.186137
0.186263
0.186131
-71.3004
-70.8568
-69.5836
-67.2924
-63.7995
-57.1669
-33.9331
-11.8937
-6.28126
-3.66524
-2.06436
-1.12686
-0.594823
-0.297029
-0.131883
-0.0400603
0.0124319
0.0445494
0.0664486
0.0832862
0.0974918
0.110094
0.121461
0.131693
0.140811
0.148837
0.155821
0.16184
0.166987
0.171362
0.175064
0.178188
0.180818
0.183028
0.184883
0.186437
0.187738
0.188825
0.189732
0.190488
0.191115
0.191634
0.192062
0.192415
0.192704
0.19294
0.193131
0.193286
0.19341
0.19351
0.193589
0.193651
0.1937
0.193739
0.193769
0.193792
0.193811
0.193825
0.193836
0.193847
0.193835
-70.7911
-70.6247
-70.3343
-69.7752
-68.9914
-67.9483
-66.5598
-64.982
-62.8516
-60.6028
-55.8922
-48.2009
-33.6661
-19.203
-12.5717
-8.48424
-6.68357
-5.06392
-3.8969
-2.94294
-2.19518
-1.66158
-1.20268
-0.920185
-0.63861
-0.496517
-0.322682
-0.256423
-0.147168
-0.120152
-0.0493643
-0.0412556
0.00672761
0.00680622
0.0411744
0.0386968
0.064737
0.0621865
0.0828827
0.0811723
0.0981923
0.0974769
0.111762
0.111882
0.123989
0.124696
0.134984
0.136045
0.144774
0.146007
0.153387
0.154667
0.16088
0.162128
0.167336
0.168509
0.172856
0.173934
0.177548
0.178527
0.181519
0.182402
0.184869
0.185665
0.18769
0.188406
0.190061
0.190707
0.192051
0.192635
0.193719
0.194249
0.195116
0.195598
0.196283
0.196723
0.197256
0.19766
0.198067
0.198437
0.19874
0.199081
0.199297
0.199612
0.199758
0.200049
0.200136
0.200407
0.200446
0.200698
0.200699
0.200934
0.200905
0.201124
0.201071
0.201276
0.201204
0.201396
0.201311
0.201491
0.201395
0.201565
0.201462
0.201621
0.201515
0.201664
0.201555
0.201696
0.201587
0.201719
0.201612
0.201735
0.201631
0.201746
0.201646
0.201753
0.201657
0.201756
0.201668
0.201764
0.201649
-70.2648
-69.7985
-68.3874
-65.8348
-61.891
-54.7008
-33.3965
-13.1754
-7.08373
-4.1152
-2.32341
-1.27791
-0.68363
-0.350054
-0.164303
-0.0604057
-0.000526565
0.0364566
0.0618767
0.0815011
0.0980593
0.112718
0.125905
0.137746
0.148279
0.15754
0.165593
0.17253
0.17846
0.183502
0.187771
0.191373
0.194408
0.196959
0.199101
0.200898
0.202402
0.20366
0.20471
0.205585
0.206312
0.206914
0.207412
0.207821
0.208157
0.208431
0.208654
0.208834
0.208979
0.209095
0.209187
0.20926
0.209317
0.209361
0.209396
0.209422
0.209443
0.209458
0.209471
0.209481
0.209456
-69.734
-69.5991
-69.2554
-68.669
-67.778
-66.668
-65.0925
-63.3895
-60.9365
-58.4646
-53.4647
-46.0815
-33.1214
-20.1084
-13.8044
-9.42054
-7.47501
-5.59276
-4.33937
-3.25385
-2.45172
-1.84907
-1.35353
-1.03437
-0.728429
-0.567293
-0.377161
-0.30141
-0.181143
-0.149615
-0.0712011
-0.061046
-0.00759411
-0.0065974
0.0318627
0.0298461
0.0590842
0.0568461
0.0801399
0.0787145
0.0979085
0.0974826
0.113626
0.114035
0.12775
0.128732
0.140421
0.141729
0.151685
0.153127
0.161583
0.163032
0.170189
0.171565
0.177603
0.178866
0.183942
0.185078
0.189333
0.190342
0.193899
0.194789
0.197754
0.198537
0.201003
0.201692
0.203736
0.204343
0.206032
0.20657
0.20796
0.208436
0.209575
0.21
0.210926
0.211307
0.212056
0.212397
0.212997
0.213305
0.21378
0.214059
0.21443
0.214683
0.214967
0.215199
0.21541
0.215622
0.215774
0.215969
0.216071
0.216251
0.216313
0.21648
0.21651
0.216664
0.216668
0.216811
0.216794
0.216928
0.216895
0.21702
0.216975
0.217092
0.217038
0.217147
0.217087
0.217189
0.217125
0.21722
0.217154
0.217243
0.217177
0.217258
0.217194
0.217269
0.217207
0.217274
0.217217
0.217287
0.217185
-69.2065
-68.7192
-67.1795
-64.3812
-60.007
-52.3336
-32.8562
-14.3586
-7.85078
-4.5463
-2.57443
-1.42701
-0.773425
-0.405299
-0.199311
-0.0833
-0.0158203
0.0262947
0.0554979
0.0781437
0.0972555
0.114139
0.129287
0.142858
0.154907
0.165489
0.174686
0.182606
0.189379
0.19514
0.20002
0.204143
0.207618
0.210543
0.213002
0.215067
0.216799
0.218249
0.219461
0.220472
0.221314
0.222012
0.222591
0.223068
0.223461
0.223782
0.224043
0.224256
0.224427
0.224564
0.224674
0.224761
0.224829
0.224883
0.224924
0.224956
0.22498
0.224999
0.225013
0.225023
0.224984
-68.6855
-68.5785
-68.1861
-67.5734
-66.5843
-65.4102
-63.6623
-61.8375
-59.0837
-56.3904
-51.1627
-44.1244
-32.5868
-20.8929
-14.9398
-10.3155
-8.22428
-6.09724
-4.76008
-3.55226
-2.69849
-2.03131
-1.50134
-1.14715
-0.818407
-0.638495
-0.433183
-0.347593
-0.2171
-0.180494
-0.0950074
-0.0822068
-0.0236788
-0.021215
0.0210543
0.0199691
0.0521969
0.0506608
0.0763942
0.0755711
0.0968155
0.0969365
0.114837
0.115746
0.130986
0.132414
0.145436
0.147132
0.158255
0.160026
0.169505
0.171223
0.179279
0.180869
0.187695
0.189123
0.194892
0.19615
0.201014
0.202108
0.206202
0.207146
0.210584
0.211397
0.21428
0.214979
0.217392
0.217994
0.220009
0.220528
0.222207
0.222656
0.224051
0.224441
0.225596
0.225935
0.226888
0.227185
0.227967
0.228227
0.228865
0.229094
0.229611
0.229814
0.230229
0.23041
0.230739
0.230901
0.231158
0.231304
0.231502
0.231634
0.231782
0.231902
0.23201
0.232119
0.232194
0.232294
0.232341
0.232433
0.232459
0.232544
0.232552
0.232631
0.232626
0.232698
0.232683
0.23275
0.232728
0.232789
0.232762
0.232818
0.232788
0.232839
0.232807
0.232853
0.232822
0.23286
0.232831
0.23288
0.232785
-68.1498
-67.6424
-65.9861
-62.9641
-58.1919
-50.1071
-32.3218
-15.4248
-8.56421
-4.94991
-2.81323
-1.57201
-0.863074
-0.462152
-0.236544
-0.108478
-0.0332143
0.014299
0.0475563
0.0734671
0.0953382
0.114616
0.131863
0.147275
0.160933
0.172913
0.183318
0.192277
0.199941
0.206462
0.211991
0.216665
0.22061
0.223934
0.226732
0.229085
0.231061
0.232718
0.234105
0.235265
0.236232
0.237037
0.237704
0.238256
0.238711
0.239085
0.239391
0.239639
0.239841
0.240003
0.240133
0.240237
0.240319
0.240383
0.240433
0.240471
0.2405
0.240522
0.240538
0.240546
0.240493
-67.6396
-67.5544
-67.1204
-66.4817
-65.4079
-64.1722
-62.275
-60.3312
-57.3138
-54.4035
-49.0138
-42.3223
-32.0582
-21.5618
-15.947
-11.1466
-8.90885
-6.56702
-5.14838
-3.83278
-2.93085
-2.20552
-1.6441
-1.25717
-0.907903
-0.70955
-0.490778
-0.394822
-0.25538
-0.212861
-0.121245
-0.104927
-0.042021
-0.0372949
0.00826132
0.00878749
0.0436079
0.0433368
0.0712021
0.071441
0.0944923
0.0955345
0.114996
0.11671
0.133313
0.135442
0.149659
0.151956
0.16413
0.166409
0.176814
0.178954
0.187824
0.189761
0.197303
0.199011
0.205409
0.206889
0.212308
0.213575
0.218156
0.219234
0.223102
0.224015
0.227277
0.228047
0.230796
0.231446
0.233759
0.234307
0.23625
0.236714
0.238343
0.238735
0.240099
0.240431
0.241569
0.241852
0.242799
0.243039
0.243825
0.24403
0.244678
0.244854
0.245387
0.245537
0.245973
0.246103
0.246456
0.246569
0.246853
0.246951
0.247178
0.247264
0.247442
0.247518
0.247656
0.247723
0.247829
0.247889
0.247967
0.248021
0.248077
0.248125
0.248165
0.248207
0.248233
0.248271
0.248286
0.248319
0.248327
0.248355
0.248357
0.248382
0.24838
0.2484
0.248397
0.248411
0.248402
0.248438
0.248343
-67.11
-66.5834
-64.8253
-61.6088
-56.4846
-48.0588
-31.7987
-16.3514
-9.20307
-5.31651
-3.03548
-1.71088
-0.951683
-0.520277
-0.275913
-0.135945
-0.0527305
0.000459779
0.0380632
0.0675016
0.0923524
0.114203
0.133691
0.151058
0.166418
0.179871
0.191546
0.201598
0.210197
0.217518
0.223729
0.228986
0.233426
0.237173
0.24033
0.242989
0.245225
0.247103
0.248678
0.249997
0.251099
0.252017
0.252782
0.253415
0.253939
0.25437
0.254723
0.255012
0.255247
0.255437
0.25559
0.255713
0.25581
0.255886
0.255946
0.255992
0.256026
0.256052
0.256071
0.256074
0.256008
-66.6008
-66.5278
-66.062
-65.3965
-64.256
-62.9601
-60.9465
-58.8843
-55.6578
-52.5344
-47.0497
-40.6824
-31.5352
-22.1156
-16.7983
-11.8934
-9.50486
-6.99262
-5.4933
-4.0904
-3.14399
-2.36887
-1.77974
-1.36286
-0.996183
-0.779627
-0.549857
-0.442674
-0.296182
-0.246523
-0.150223
-0.129137
-0.0629514
-0.0548388
-0.00683367
-0.00374242
0.0330242
0.0348039
0.0642948
0.0662356
0.0906903
0.0931744
0.11387
0.116816
0.134512
0.137693
0.152882
0.156075
0.169111
0.172148
0.183316
0.186094
0.195638
0.198108
0.206245
0.208395
0.215319
0.217165
0.223046
0.224614
0.229603
0.230925
0.235155
0.236265
0.239846
0.240775
0.243806
0.244583
0.247146
0.247793
0.249959
0.250499
0.252326
0.252776
0.254315
0.25469
0.255985
0.256297
0.257384
0.257643
0.258554
0.258769
0.25953
0.259709
0.260342
0.260491
0.261017
0.26114
0.261575
0.261677
0.262035
0.26212
0.262412
0.262483
0.262721
0.26278
0.262973
0.263022
0.263177
0.263218
0.263341
0.263375
0.263473
0.2635
0.263577
0.2636
0.26366
0.263678
0.263724
0.263738
0.263774
0.263784
0.263811
0.263817
0.263839
0.26384
0.263858
0.263856
0.263859
0.263893
0.263787
-66.1043
-65.5578
-63.7165
-60.3425
-54.9269
-46.228
-31.2915
-17.1126
-9.74411
-5.63541
-3.2365
-1.84154
-1.03843
-0.579438
-0.317432
-0.165794
-0.0744659
-0.015294
0.0269796
0.0602368
0.0883093
0.112926
0.134807
0.154248
0.171402
0.186404
0.199412
0.210607
0.220185
0.228343
0.23527
0.241136
0.246098
0.250288
0.253824
0.256805
0.259316
0.261428
0.263202
0.26469
0.265936
0.266976
0.267844
0.268564
0.269161
0.269655
0.27006
0.270393
0.270664
0.270885
0.271063
0.271206
0.27132
0.27141
0.27148
0.271535
0.271576
0.271606
0.271626
0.271623
0.271545
-65.5988
-65.5227
-65.0387
-64.3426
-63.1598
-61.8005
-59.7147
-57.5285
-54.1655
-50.8291
-45.3167
-39.2291
-31.027
-22.5606
-17.4706
-12.5419
-9.99035
-7.36861
-5.78394
-4.32222
-3.33284
-2.51931
-1.90593
-1.46277
-1.08219
-0.847662
-0.60995
-0.490322
-0.339282
-0.280785
-0.181792
-0.154225
-0.0863192
-0.073283
-0.0240487
-0.0170906
0.020664
0.0255658
0.0559218
0.0604353
0.0856817
0.0903141
0.111745
0.116498
0.134875
0.139583
0.155396
0.159881
0.173484
0.177614
0.189293
0.192994
0.202995
0.206243
0.214787
0.217593
0.224877
0.227275
0.233475
0.235506
0.240777
0.242488
0.246966
0.248401
0.252204
0.253404
0.256631
0.257633
0.260369
0.261205
0.263524
0.264219
0.266183
0.26676
0.268422
0.268901
0.270305
0.270701
0.271886
0.272213
0.273211
0.273481
0.27432
0.274541
0.275245
0.275426
0.276015
0.276163
0.276654
0.276774
0.277183
0.27728
0.277619
0.277697
0.277978
0.27804
0.278271
0.27832
0.278509
0.278548
0.278703
0.278732
0.278858
0.27888
0.278983
0.278998
0.279082
0.279091
0.279159
0.279164
0.279219
0.279219
0.279265
0.27926
0.279298
0.279289
0.279318
0.279311
0.279314
0.279355
0.279234
-65.1251
-64.5562
-62.6539
-59.168
-53.5349
-44.6331
-30.7928
-17.6789
-10.1626
-5.8945
-3.41106
-1.96209
-1.12295
-0.639976
-0.361735
-0.198751
-0.09915
-0.0336577
0.0136543
0.0510644
0.0826384
0.110247
0.134701
0.15636
0.175425
0.192072
0.206495
0.218904
0.229524
0.238575
0.246267
0.252789
0.258312
0.262983
0.266932
0.270266
0.273079
0.275449
0.277445
0.279123
0.28053
0.281709
0.282694
0.283516
0.284198
0.284764
0.285232
0.285617
0.285932
0.286189
0.286398
0.286567
0.286703
0.28681
0.286895
0.286961
0.287011
0.287047
0.287068
0.287059
0.286979
-64.654
-64.5555
-64.0691
-63.3383
-62.1396
-60.7146
-58.6029
-56.2948
-52.863
-49.3424
-43.833
-38.005
-30.5439
-22.8764
-17.9616
-13.0659
-10.3543
-7.68559
-6.01286
-4.52426
-3.49323
-2.65445
-2.02067
-1.55541
-1.16503
-0.912693
-0.670684
-0.537113
-0.384521
-0.315165
-0.215869
-0.179798
-0.112054
-0.0922858
-0.0432992
-0.0309456
0.00663264
0.0159121
0.0462072
0.0543111
0.0796041
0.0872077
0.108765
0.115995
0.13455
0.141333
0.157352
0.16358
0.177398
0.182998
0.194888
0.199831
0.210033
0.214331
0.223061
0.226757
0.234211
0.237361
0.243715
0.246384
0.251795
0.254045
0.258649
0.260541
0.264455
0.266043
0.26937
0.270699
0.273526
0.274637
0.277038
0.277965
0.280003
0.280775
0.282503
0.283146
0.28461
0.285143
0.286382
0.286824
0.287871
0.288235
0.289119
0.289418
0.290163
0.290408
0.291034
0.291234
0.291759
0.291921
0.292361
0.292491
0.292859
0.292963
0.293269
0.293351
0.293606
0.29367
0.293882
0.293931
0.294106
0.294143
0.294287
0.294314
0.294433
0.294451
0.294549
0.294559
0.294641
0.294644
0.294712
0.29471
0.294766
0.294758
0.294805
0.294793
0.294825
0.294822
0.294823
0.294863
0.294755
-64.1963
-63.6003
-61.6608
-58.1092
-52.3309
-43.2929
-30.3133
-18.048
-10.4508
-6.08659
-3.55453
-2.07014
-1.20411
-0.701333
-0.408524
-0.234624
-0.126615
-0.0544586
-0.00172358
0.0401904
0.0755587
0.106393
0.133603
0.157622
0.178712
0.197097
0.213009
0.226696
0.238412
0.248404
0.256903
0.264118
0.270235
0.275418
0.279805
0.283515
0.286652
0.289301
0.291535
0.293417
0.295
0.29633
0.297444
0.298375
0.299152
0.299798
0.300334
0.300777
0.301142
0.301441
0.301685
0.301883
0.302043
0.302171
0.302272
0.302351
0.302411
0.302453
0.302477
0.302473
0.302415
-63.7285
-63.6226
-63.1306
-62.3832
-61.1693
-59.7114
-57.5721
-55.2145
-51.6945
-48.145
-42.5572
-37.0577
-30.0963
-23.0055
-18.3121
-13.4039
-10.6254
-7.91948
-6.18846
-4.68835
-3.62503
-2.77155
-2.12218
-1.64011
-1.24303
-0.97497
-0.730745
-0.583651
-0.430958
-0.350366
-0.251823
-0.206543
-0.139765
-0.11248
-0.0643757
-0.0458811
-0.00899097
0.00532087
0.0351384
0.047382
0.0723829
0.0834049
0.104817
0.114879
0.133397
0.142535
0.158591
0.166782
0.180686
0.187924
0.199931
0.206244
0.216579
0.222025
0.230896
0.235553
0.243151
0.247105
0.253602
0.256944
0.262493
0.265307
0.270044
0.272406
0.276448
0.278426
0.281876
0.283529
0.286472
0.28785
0.290361
0.291509
0.29365
0.294603
0.296429
0.297217
0.298774
0.299424
0.300751
0.301285
0.302414
0.30285
0.303812
0.304166
0.304984
0.305269
0.305964
0.306192
0.306782
0.306963
0.307463
0.307604
0.308029
0.308136
0.308496
0.308577
0.308881
0.308939
0.309197
0.309237
0.309456
0.30948
0.309666
0.309677
0.309835
0.309836
0.30997
0.309963
0.310078
0.310062
0.310161
0.310139
0.310224
0.310197
0.310271
0.310238
0.310303
0.310266
0.310341
0.310269
0.310331
-63.2795
-62.6754
-60.7142
-57.1182
-51.2335
-42.142
-29.8749
-18.2975
-10.6663
-6.23306
-3.67101
-2.16464
-1.27968
-0.761251
-0.455813
-0.271769
-0.155544
-0.0766472
-0.018314
0.0282977
0.0676378
0.101847
0.131934
0.15841
0.181601
0.201783
0.219236
0.234243
0.247091
0.258053
0.267385
0.275316
0.282048
0.287759
0.2926
0.296701
0.300173
0.30311
0.305592
0.307687
0.309452
0.310938
0.312186
0.313232
0.314106
0.314836
0.315443
0.315946
0.316362
0.316705
0.316985
0.317214
0.317399
0.317547
0.317665
0.317757
0.317827
0.317879
0.317921
0.317979
0.318007
-62.8467
-62.7342
-62.2407
-61.4826
-60.2846
-58.7967
-56.701
-54.2815
-50.8934
-47.1656
-41.9089
-36.2609
-29.6514
-23.1308
-18.1352
-13.6179
-10.6487
-8.06885
-6.27955
-4.80656
-3.72143
-2.86513
-2.2095
-1.71335
-1.31742
-1.03219
-0.792127
-0.628429
-0.480599
-0.38541
-0.29138
-0.233832
-0.170832
-0.133464
-0.0883456
-0.0616382
-0.027031
-0.00603932
0.0220643
0.0397603
0.0634823
0.0789834
0.0994374
0.113208
0.130999
0.14323
0.158724
0.169517
0.182977
0.192417
0.204065
0.212252
0.222292
0.229338
0.237962
0.243991
0.251379
0.256514
0.26283
0.267189
0.272582
0.276273
0.280874
0.283994
0.287918
0.290551
0.293897
0.296116
0.298969
0.300838
0.303269
0.30484
0.306913
0.308232
0.309997
0.311103
0.312606
0.313531
0.314811
0.315582
0.31667
0.317312
0.318237
0.318769
0.319555
0.319994
0.32066
0.321022
0.321587
0.321882
0.32236
0.3226
0.323005
0.323198
0.32354
0.323694
0.323983
0.324105
0.324349
0.324443
0.324649
0.324721
0.324894
0.324947
0.325093
0.32513
0.325253
0.325277
0.325381
0.325393
0.32548
0.325483
0.325557
0.32555
0.325612
0.325599
0.325656
0.325625
0.325682
0.325642
0.325702
-62.3855
-61.7873
-59.8419
-56.2861
-50.5668
-41.7094
-29.4751
-17.9786
-10.6174
-6.31427
-3.7667
-2.25251
-1.35516
-0.823788
-0.506441
-0.312041
-0.187042
-0.100791
-0.0363144
0.015433
0.0590781
0.0969087
0.130055
0.159125
0.184522
0.206587
0.225649
0.242037
0.256071
0.268054
0.278264
0.286952
0.294337
0.300611
0.305938
0.310459
0.314293
0.317543
0.320295
0.322622
0.324588
0.326247
0.327644
0.328818
0.329804
0.330628
0.331316
0.331889
0.332365
0.332758
0.333081
0.333346
0.333562
0.333736
0.333874
0.333983
0.334067
0.334128
0.334171
0.334202
0.334229
-61.9386
-61.8228
-61.3367
-60.571
-59.3943
-57.8919
-55.8486
-53.3943
-50.1543
-46.3232
-41.3624
-35.6557
-29.2918
-23.0338
-17.9512
-13.6952
-10.6448
-8.16271
-6.35712
-4.89949
-3.81102
-2.94913
-2.29257
-1.78445
-1.38923
-1.09062
-0.851845
-0.67559
-0.529085
-0.422956
-0.330014
-0.263282
-0.201054
-0.156108
-0.111462
-0.078547
-0.0441686
-0.0180917
0.0099589
0.0318364
0.0556206
0.0745809
0.0951645
0.111817
0.12977
0.14442
0.160086
0.172921
0.186549
0.197724
0.209528
0.219196
0.229375
0.237691
0.246437
0.253558
0.261051
0.267127
0.273533
0.278705
0.284174
0.288568
0.293234
0.296962
0.30094
0.304101
0.307491
0.310168
0.313057
0.315324
0.317784
0.319701
0.321797
0.323417
0.325201
0.326567
0.328085
0.329237
0.330527
0.331496
0.332593
0.333406
0.334337
0.335019
0.335807
0.336377
0.337045
0.33752
0.338085
0.338479
0.338956
0.339282
0.339684
0.339953
0.340292
0.340512
0.340796
0.340975
0.341214
0.341359
0.341559
0.341675
0.341842
0.341933
0.342073
0.342143
0.342259
0.342312
0.342408
0.342447
0.342525
0.342551
0.342615
0.34263
0.342681
0.342687
0.342727
0.342723
0.342759
0.342737
0.342782
-61.4915
-60.8855
-58.9462
-55.411
-49.742
-41.0174
-29.1084
-17.922
-10.6717
-6.39976
-3.85532
-2.33269
-1.42338
-0.87998
-0.551793
-0.348037
-0.215103
-0.122161
-0.0520435
0.00446889
0.0521503
0.0934096
0.129476
0.161039
0.188569
0.212462
0.233094
0.250831
0.266025
0.279008
0.29008
0.299512
0.307539
0.314367
0.320173
0.325107
0.329298
0.332856
0.335874
0.338431
0.340595
0.342425
0.343969
0.34527
0.346364
0.347282
0.348051
0.348693
0.349227
0.34967
0.350036
0.350337
0.350583
0.350782
0.350941
0.351067
0.351163
0.351234
0.351283
0.351314
0.351335
-61.0398
-60.9097
-60.4327
-59.659
-58.4961
-56.9864
-54.9704
-52.5126
-49.3265
-45.5168
-40.6705
-35.0933
-28.9273
-22.8852
-17.8973
-13.7468
-10.7023
-8.2581
-6.44459
-4.99722
-3.9005
-3.03674
-2.373
-1.85852
-1.45742
-1.15138
-0.907891
-0.72456
-0.574258
-0.461882
-0.365836
-0.293776
-0.228961
-0.179539
-0.132703
-0.0960449
-0.059791
-0.0305858
-0.000918121
0.0235814
0.0487637
0.0699306
0.0917233
0.110241
0.129239
0.145472
0.16204
0.176225
0.190629
0.202959
0.215431
0.22609
0.236843
0.246012
0.255251
0.263107
0.271023
0.277734
0.284503
0.290223
0.296004
0.300873
0.305806
0.309945
0.314152
0.317669
0.321256
0.324243
0.3273
0.329834
0.33244
0.334589
0.336808
0.33863
0.340519
0.342061
0.343669
0.344973
0.346341
0.347442
0.348604
0.349532
0.350518
0.3513
0.352135
0.352792
0.353499
0.354049
0.354648
0.355107
0.355612
0.355995
0.356421
0.356739
0.357097
0.35736
0.35766
0.357876
0.358128
0.358305
0.358516
0.358659
0.358834
0.358949
0.359095
0.359186
0.359306
0.359377
0.359476
0.35953
0.35961
0.359649
0.359712
0.359738
0.359788
0.359803
0.359841
0.359845
0.359873
0.359865
0.359891
-60.5876
-59.9792
-58.0455
-54.5296
-48.9115
-40.326
-28.7461
-17.8706
-10.7323
-6.48923
-3.94567
-2.41337
-1.49153
-0.935873
-0.596781
-0.383681
-0.242853
-0.143268
-0.0675561
-0.0063184
0.0453666
0.0900283
0.128994
0.163034
0.192684
0.218394
0.240587
0.259666
0.276016
0.289994
0.301924
0.312096
0.320762
0.328142
0.334424
0.339769
0.344316
0.34818
0.351463
0.354249
0.35661
0.35861
0.3603
0.361727
0.36293
0.363941
0.36479
0.3655
0.366093
0.366586
0.366994
0.367331
0.367606
0.36783
0.36801
0.368152
0.368261
0.368342
0.368397
0.368431
0.368447
-60.1336
-59.998
-59.5252
-58.7487
-57.5941
-56.0838
-54.0875
-51.6359
-48.4947
-44.7182
-39.98
-34.5365
-28.5664
-22.7296
-17.8471
-13.7911
-10.7645
-8.3497
-6.53501
-5.0933
-3.9912
-3.12378
-2.45375
-1.93254
-1.52551
-1.21231
-0.963687
-0.773762
-0.619141
-0.501039
-0.401382
-0.324471
-0.256625
-0.203136
-0.153737
-0.113678
-0.0752435
-0.0431879
-0.0116563
0.0152396
0.0420199
0.0652096
0.0883746
0.108606
0.128784
0.146475
0.164057
0.179486
0.194762
0.208157
0.221379
0.232951
0.244349
0.254303
0.264097
0.272629
0.281023
0.288317
0.295497
0.30172
0.307855
0.313158
0.318396
0.322911
0.327381
0.331223
0.335035
0.338303
0.341555
0.344333
0.347105
0.349465
0.351829
0.353833
0.355846
0.357546
0.359261
0.360701
0.36216
0.36338
0.36462
0.365651
0.366704
0.367574
0.368468
0.369201
0.369958
0.370574
0.371215
0.371731
0.372272
0.372704
0.373161
0.373521
0.373905
0.374204
0.374527
0.374774
0.375044
0.375248
0.375474
0.37564
0.375828
0.375963
0.376119
0.376227
0.376355
0.37644
0.376545
0.37661
0.376695
0.376744
0.376811
0.376845
0.376896
0.376917
0.376955
0.376965
0.37699
0.376989
0.377006
-59.6792
-59.0707
-57.1424
-53.6452
-48.0786
-39.6367
-28.3868
-17.8213
-10.7961
-6.58058
-4.03671
-2.49418
-1.55956
-0.991566
-0.641554
-0.419123
-0.270427
-0.164227
-0.0829461
-0.0170055
0.0386645
0.0867137
0.128567
0.165074
0.196836
0.224358
0.248107
0.268524
0.286026
0.300996
0.313782
0.324692
0.333996
0.341926
0.348683
0.354439
0.35934
0.36351
0.367057
0.37007
0.372628
0.374797
0.376634
0.378187
0.379498
0.380602
0.38153
0.382309
0.382959
0.383502
0.383952
0.384325
0.38463
0.384879
0.385079
0.385237
0.38536
0.38545
0.385512
0.385549
0.385564
-59.2243
-59.0869
-58.6162
-57.8394
-56.6905
-55.1832
-53.2025
-50.7632
-47.6616
-43.9266
-39.2924
-33.9855
-28.2083
-22.5678
-17.7978
-13.8294
-10.8289
-8.4385
-6.62668
-5.18823
-4.08233
-3.21046
-2.53453
-2.00653
-1.59348
-1.27336
-1.01932
-0.823126
-0.663855
-0.540354
-0.436771
-0.355304
-0.284153
-0.226846
-0.174657
-0.1314
-0.0906008
-0.0558602
-0.0223165
0.0068418
0.0353398
0.0604431
0.0850779
0.106934
0.128371
0.147446
0.166109
0.182719
0.198924
0.213331
0.227351
0.239791
0.251876
0.262575
0.27296
0.282134
0.291037
0.298884
0.306503
0.313203
0.319716
0.325431
0.330995
0.335865
0.340616
0.344765
0.348821
0.352353
0.355815
0.358822
0.361776
0.364334
0.366853
0.369028
0.371177
0.373024
0.374855
0.376423
0.377982
0.379312
0.380639
0.381765
0.382892
0.383844
0.384802
0.385605
0.386418
0.387094
0.387782
0.388351
0.388933
0.38941
0.389901
0.3903
0.390713
0.391045
0.391393
0.391669
0.391961
0.392188
0.392432
0.392619
0.392822
0.392974
0.393142
0.393265
0.393403
0.393501
0.393614
0.393689
0.39378
0.393837
0.393909
0.393949
0.394004
0.39403
0.39407
0.394083
0.394108
0.39411
0.394123
-58.7689
-58.1613
-56.2384
-52.7598
-47.2454
-38.9509
-28.0299
-17.7719
-10.8609
-6.67256
-4.1279
-2.57492
-1.62747
-1.04713
-0.686204
-0.454455
-0.297905
-0.185105
-0.0982686
-0.0276369
0.0320079
0.0834362
0.12817
0.167138
0.201008
0.230338
0.25564
0.277393
0.296045
0.312006
0.325647
0.337294
0.347234
0.355713
0.362945
0.36911
0.374365
0.378841
0.382652
0.385893
0.388647
0.390986
0.392968
0.394647
0.396066
0.397263
0.39827
0.399117
0.399826
0.400418
0.400911
0.401318
0.401654
0.401927
0.402148
0.402323
0.402458
0.402558
0.402627
0.402667
0.402681
-58.3137
-58.1762
-57.7067
-56.931
-55.7864
-54.2843
-52.3172
-49.8938
-46.829
-43.1416
-38.6087
-33.4403
-27.8523
-22.4006
-17.7476
-13.8625
-10.8936
-8.52503
-6.71861
-5.28224
-4.17344
-3.29682
-2.61521
-2.08049
-1.66135
-1.33449
-1.07484
-0.872599
-0.708473
-0.579777
-0.472076
-0.38623
-0.311608
-0.250631
-0.195515
-0.149181
-0.105906
-0.0685792
-0.0329338
-0.00159269
0.028695
0.055647
0.0818099
0.105237
0.127982
0.148396
0.168179
0.185934
0.203101
0.218488
0.233334
0.246615
0.259412
0.270833
0.281831
0.291626
0.301057
0.309439
0.317514
0.324674
0.331581
0.337693
0.343597
0.34881
0.353854
0.358299
0.362608
0.366396
0.370077
0.373304
0.376447
0.379195
0.381879
0.384217
0.386507
0.388497
0.39045
0.39214
0.393805
0.39524
0.396657
0.397874
0.39908
0.40011
0.401136
0.402006
0.402877
0.403612
0.40435
0.404968
0.405593
0.406113
0.406641
0.407076
0.407521
0.407884
0.408259
0.408562
0.408876
0.409126
0.40939
0.409596
0.409815
0.409983
0.410166
0.410301
0.410451
0.41056
0.410682
0.410767
0.410865
0.410929
0.411007
0.411052
0.411112
0.411141
0.411184
0.411199
0.411226
0.41123
0.41124
-57.8581
-57.2518
-55.3344
-51.8747
-46.4136
-38.2696
-27.6748
-17.7208
-10.9254
-6.7644
-4.21891
-2.65552
-1.69527
-1.10261
-0.730785
-0.48973
-0.325335
-0.205942
-0.113555
-0.0382384
0.0253763
0.0801789
0.12779
0.169216
0.205191
0.236326
0.263179
0.286266
0.306067
0.323018
0.337512
0.349896
0.360472
0.369501
0.377206
0.383782
0.38939
0.394171
0.398246
0.401715
0.404665
0.407173
0.409302
0.411106
0.412632
0.413922
0.41501
0.415924
0.416692
0.417333
0.417868
0.418311
0.418676
0.418975
0.419216
0.419407
0.419555
0.419665
0.419741
0.419785
0.419799
-57.4029
-57.2661
-56.7973
-56.0234
-54.8827
-53.387
-51.4325
-49.0275
-45.9984
-42.363
-37.9299
-32.9011
-27.498
-22.2285
-17.6952
-13.8908
-10.9575
-8.60959
-6.81017
-5.37545
-4.26428
-3.38287
-2.69572
-2.15437
-1.7291
-1.39564
-1.1303
-0.922144
-0.753039
-0.619277
-0.507339
-0.417224
-0.339028
-0.27447
-0.216343
-0.167004
-0.121185
-0.0813294
-0.0435281
-0.0100513
0.0220695
0.0508317
0.0785577
0.103524
0.127605
0.149332
0.17026
0.189137
0.207286
0.223633
0.239324
0.253429
0.266951
0.279081
0.290705
0.301109
0.311079
0.319985
0.328525
0.336138
0.343446
0.349947
0.356198
0.361747
0.367092
0.371826
0.376395
0.380432
0.384338
0.38778
0.391117
0.394051
0.396902
0.399402
0.401837
0.403964
0.406043
0.407852
0.409625
0.411163
0.412674
0.41398
0.415267
0.416373
0.417468
0.418404
0.419335
0.420126
0.420916
0.421582
0.422252
0.422813
0.423379
0.423849
0.424328
0.424721
0.425124
0.425452
0.425791
0.426063
0.426347
0.426571
0.426808
0.426991
0.427188
0.427336
0.427498
0.427617
0.427749
0.427842
0.427949
0.428019
0.428103
0.428154
0.428218
0.428251
0.428297
0.428314
0.428344
0.428348
0.428358
-56.9474
-56.3426
-54.431
-50.9907
-45.5844
-37.5936
-27.3213
-17.6671
-10.9887
-6.85564
-4.30956
-2.73591
-1.76297
-1.15803
-0.775331
-0.524978
-0.352742
-0.226758
-0.128825
-0.0488241
0.0187581
0.0769328
0.127418
0.1713
0.209378
0.242318
0.27072
0.29514
0.316088
0.334029
0.349377
0.362497
0.373708
0.383286
0.391466
0.398451
0.404413
0.4095
0.413838
0.417534
0.420682
0.423359
0.425633
0.427563
0.429198
0.43058
0.431747
0.43273
0.433556
0.434247
0.434824
0.435303
0.435698
0.436021
0.436282
0.43649
0.436651
0.436771
0.436853
0.436902
0.436916
-56.4923
-56.3565
-55.8883
-55.1166
-53.9797
-52.4913
-50.5493
-48.1644
-45.1708
-41.5907
-37.2568
-32.3677
-27.1451
-22.0519
-17.6398
-13.9146
-11.0198
-8.6923
-6.90099
-5.46786
-4.35471
-3.46858
-2.776
-2.22815
-1.79675
-1.4568
-1.1857
-0.971732
-0.797577
-0.658828
-0.542585
-0.448264
-0.366433
-0.298347
-0.237157
-0.184855
-0.136451
-0.0941005
-0.0541103
-0.0185257
0.0154544
0.046004
0.0753142
0.101801
0.127235
0.150258
0.172345
0.19233
0.211474
0.22877
0.245315
0.260234
0.274492
0.287321
0.299578
0.310583
0.3211
0.330523
0.339535
0.347594
0.355309
0.362195
0.368798
0.374678
0.380327
0.385347
0.390179
0.394463
0.398596
0.402251
0.405785
0.408903
0.411924
0.414581
0.417164
0.419428
0.421633
0.423561
0.425444
0.427083
0.428689
0.430082
0.431451
0.432632
0.433798
0.434799
0.435791
0.436637
0.43748
0.438194
0.438909
0.43951
0.440116
0.440621
0.441133
0.441556
0.441988
0.442341
0.442704
0.442997
0.443302
0.443544
0.443798
0.443997
0.444208
0.444369
0.444544
0.444673
0.444816
0.444916
0.445031
0.445108
0.445199
0.445254
0.445323
0.445359
0.445409
0.445428
0.44546
0.445464
0.445475
-56.0372
-55.434
-53.5286
-50.1084
-44.7585
-36.9234
-26.9692
-17.6099
-11.05
-6.94599
-4.39974
-2.81607
-1.83055
-1.2134
-0.819856
-0.560217
-0.380142
-0.247567
-0.144085
-0.0594014
0.0121474
0.0736929
0.12705
0.173387
0.213567
0.248309
0.278261
0.304013
0.326108
0.345038
0.361239
0.375095
0.386942
0.397068
0.405723
0.413117
0.419433
0.424825
0.429427
0.433351
0.436695
0.439542
0.441962
0.444018
0.445761
0.447236
0.448483
0.449534
0.450418
0.45116
0.451779
0.452293
0.452718
0.453066
0.453348
0.453572
0.453746
0.453875
0.453964
0.454017
0.454032
-55.5825
-55.4477
-54.9801
-54.211
-53.0779
-51.5973
-49.668
-47.3045
-44.3468
-40.8248
-36.5897
-31.8401
-26.7936
-21.8714
-17.5807
-13.9343
-11.08
-8.77318
-6.99082
-5.55946
-4.44463
-3.55393
-2.85604
-2.30178
-1.86428
-1.51793
-1.24105
-1.02134
-0.842099
-0.698414
-0.577824
-0.479337
-0.393834
-0.322249
-0.257965
-0.202725
-0.15171
-0.106885
-0.0646859
-0.0270096
0.0088456
0.041169
0.0720759
0.100072
0.126869
0.151179
0.174433
0.195518
0.215663
0.233901
0.251306
0.267034
0.282031
0.295555
0.30845
0.320052
0.331119
0.341056
0.350542
0.359044
0.367169
0.374437
0.381394
0.387603
0.393558
0.398862
0.403959
0.408488
0.41285
0.416717
0.420449
0.423749
0.426942
0.429757
0.432487
0.434887
0.437221
0.439265
0.441259
0.442999
0.444702
0.44618
0.447633
0.448888
0.450126
0.451191
0.452245
0.453146
0.454042
0.454803
0.455564
0.456205
0.456851
0.45739
0.457936
0.458388
0.458849
0.459227
0.459615
0.459929
0.460255
0.460515
0.460788
0.461001
0.461228
0.461401
0.461588
0.461727
0.46188
0.461989
0.462113
0.462195
0.462293
0.462353
0.462427
0.462466
0.46252
0.46254
0.462575
0.462578
0.46259
-55.1277
-54.5263
-52.6275
-49.2283
-43.9367
-36.2595
-26.6183
-17.5489
-11.109
-7.03526
-4.48936
-2.89596
-1.89802
-1.26873
-0.864368
-0.595453
-0.407541
-0.268373
-0.159342
-0.0699739
0.00554165
0.0704572
0.126686
0.175477
0.217756
0.2543
0.285799
0.312883
0.336126
0.356044
0.373097
0.38769
0.400172
0.410847
0.419975
0.427779
0.434449
0.440147
0.445013
0.449165
0.452706
0.455722
0.458289
0.46047
0.462321
0.46389
0.465217
0.466336
0.467279
0.46807
0.468731
0.469281
0.469736
0.470109
0.470412
0.470652
0.470839
0.470978
0.471074
0.471131
0.471147
-54.6734
-54.5397
-54.0729
-53.3065
-52.1776
-50.7052
-48.7891
-46.448
-43.5272
-40.0652
-35.929
-31.3182
-26.4434
-21.6871
-17.5176
-13.9498
-11.1378
-8.8522
-7.0795
-5.65018
-4.53396
-3.63886
-2.93579
-2.37525
-1.93169
-1.57901
-1.29636
-1.07095
-0.886607
-0.738019
-0.613061
-0.510431
-0.421235
-0.346169
-0.278772
-0.220607
-0.166967
-0.119677
-0.0752572
-0.0354985
0.00224129
0.0363306
0.0688415
0.0983393
0.126506
0.152097
0.176522
0.198703
0.219852
0.239029
0.257296
0.273829
0.289569
0.303785
0.317319
0.329516
0.341134
0.351584
0.361546
0.370489
0.379026
0.386673
0.393986
0.400523
0.406786
0.412373
0.417736
0.422509
0.427101
0.431178
0.43511
0.438591
0.441957
0.444928
0.447808
0.450342
0.452806
0.454966
0.457072
0.458912
0.460711
0.462276
0.463812
0.465141
0.466451
0.46758
0.468696
0.469651
0.470601
0.471409
0.472217
0.472898
0.473583
0.474157
0.474737
0.475218
0.475709
0.476111
0.476525
0.47686
0.477207
0.477484
0.477775
0.478003
0.478245
0.47843
0.478631
0.478779
0.478943
0.47906
0.479192
0.479281
0.479385
0.47945
0.479529
0.479571
0.479629
0.479651
0.479688
0.479691
0.479704
-54.2192
-53.6197
-51.728
-48.3507
-43.1194
-35.6021
-26.2687
-17.4838
-11.1655
-7.1233
-4.57837
-2.97555
-1.96535
-1.324
-0.908867
-0.630688
-0.434941
-0.289179
-0.174596
-0.0805425
-0.00106
0.0672251
0.126325
0.177567
0.221946
0.260291
0.293337
0.321751
0.34614
0.367046
0.384952
0.40028
0.413398
0.424622
0.434225
0.442438
0.449462
0.455466
0.460596
0.464976
0.468714
0.4719
0.474612
0.47692
0.47888
0.480542
0.481948
0.483136
0.484137
0.484978
0.485682
0.486268
0.486753
0.487151
0.487474
0.487731
0.487931
0.48808
0.488183
0.488244
0.488261
-53.7655
-53.633
-53.1669
-52.4035
-51.279
-49.8153
-47.9129
-45.5951
-42.7123
-39.3122
-35.2751
-30.8019
-26.0944
-21.4995
-17.4504
-13.9612
-11.1929
-8.92931
-7.16689
-5.73998
-4.62265
-3.72333
-3.01522
-2.44851
-1.99895
-1.64002
-1.35161
-1.12055
-0.931099
-0.777632
-0.648296
-0.541538
-0.448636
-0.3701
-0.299578
-0.238496
-0.18222
-0.132473
-0.0858244
-0.0439884
-0.00435866
0.031492
0.0656109
0.0966068
0.126146
0.153014
0.178613
0.201886
0.224042
0.244154
0.263286
0.280621
0.297105
0.31201
0.326185
0.338975
0.351147
0.362107
0.372547
0.381929
0.390879
0.398905
0.406575
0.413439
0.42001
0.425879
0.431509
0.436525
0.441348
0.445635
0.449767
0.453429
0.456968
0.460095
0.463125
0.465794
0.468387
0.470663
0.472881
0.474821
0.476717
0.478368
0.479988
0.481391
0.482774
0.483965
0.485144
0.486154
0.487158
0.488013
0.488867
0.489588
0.490313
0.490921
0.491536
0.492046
0.492566
0.492993
0.493432
0.493788
0.494157
0.494452
0.494761
0.495003
0.495261
0.495458
0.495672
0.49583
0.496005
0.496129
0.49627
0.496365
0.496476
0.496545
0.49663
0.496675
0.496736
0.49676
0.496799
0.496803
0.496817
-53.312
-52.7144
-50.8304
-47.4761
-42.3071
-34.9516
-25.9203
-17.4144
-11.2191
-7.20999
-4.6667
-3.05481
-2.03253
-1.37922
-0.953347
-0.665919
-0.462341
-0.309983
-0.189847
-0.0911069
-0.00765706
0.0639971
0.125967
0.179659
0.226136
0.26628
0.300872
0.330617
0.356151
0.378045
0.396803
0.412867
0.42662
0.438393
0.44847
0.457093
0.464471
0.470781
0.476175
0.480784
0.484718
0.488074
0.490933
0.493367
0.495435
0.49719
0.498677
0.499934
0.500994
0.501885
0.502631
0.503253
0.503768
0.504191
0.504534
0.504808
0.505021
0.505179
0.505289
0.505354
0.505372
-52.8589
-52.7275
-52.2624
-51.5022
-50.3823
-48.9278
-47.0397
-44.7461
-41.9024
-38.5657
-34.6281
-30.2911
-25.7466
-21.3087
-17.3789
-13.9686
-11.2451
-9.00441
-7.2529
-5.82878
-4.71063
-3.8073
-3.0943
-2.52153
-2.06606
-1.70093
-1.4068
-1.17011
-0.975569
-0.817241
-0.683526
-0.572649
-0.476036
-0.394034
-0.320382
-0.256386
-0.19747
-0.145267
-0.0963866
-0.052476
-0.0109535
0.026656
0.0623849
0.0948764
0.125789
0.153933
0.180707
0.205069
0.228232
0.249278
0.269275
0.287411
0.30464
0.320233
0.335049
0.348431
0.361156
0.372626
0.383544
0.393365
0.402728
0.411133
0.419159
0.42635
0.43323
0.43938
0.445277
0.450537
0.455591
0.460088
0.46442
0.468263
0.471975
0.475258
0.478438
0.481241
0.483964
0.486356
0.488687
0.490726
0.492719
0.494456
0.49616
0.497638
0.499093
0.500348
0.50159
0.502654
0.503712
0.504614
0.505514
0.506276
0.507041
0.507683
0.508332
0.508872
0.509421
0.509873
0.510337
0.510714
0.511105
0.511417
0.511745
0.512001
0.512275
0.512484
0.51271
0.512879
0.513064
0.513196
0.513346
0.513447
0.513566
0.513639
0.513729
0.513777
0.513842
0.513867
0.513909
0.513913
0.513928
-52.4061
-51.8107
-49.9349
-46.6045
-41.5
-34.3081
-25.5732
-17.3408
-11.2698
-7.29525
-4.75429
-3.13369
-2.09955
-1.43437
-0.997802
-0.701144
-0.489739
-0.330785
-0.205093
-0.101666
-0.0142484
0.0607741
0.125612
0.181754
0.230327
0.272269
0.308406
0.33948
0.366159
0.38904
0.40865
0.425449
0.439837
0.452159
0.46271
0.471744
0.479476
0.486092
0.491751
0.496588
0.500719
0.504245
0.507251
0.509811
0.511988
0.513837
0.515404
0.516729
0.517848
0.518789
0.519577
0.520235
0.520781
0.521229
0.521593
0.521883
0.522109
0.522277
0.522394
0.522463
0.522482
-51.9538
-51.8236
-51.3595
-50.6027
-49.4879
-48.043
-46.1699
-43.9013
-41.098
-37.826
-33.988
-29.7856
-25.4
-21.115
-17.3031
-13.972
-11.2944
-9.07742
-7.33742
-5.91651
-4.79784
-3.89071
-3.173
-2.59428
-2.13298
-1.76172
-1.46191
-1.21963
-1.02001
-0.856836
-0.718747
-0.603756
-0.503432
-0.417966
-0.341182
-0.274272
-0.212713
-0.158057
-0.106942
-0.0609582
-0.0175417
0.0218252
0.0591646
0.0931502
0.125436
0.154854
0.182803
0.208254
0.232424
0.254402
0.275265
0.2942
0.312173
0.328453
0.343912
0.357884
0.371163
0.383141
0.394537
0.404797
0.414573
0.423356
0.43174
0.439256
0.446446
0.452877
0.459042
0.464544
0.46983
0.474536
0.479068
0.483092
0.486978
0.490417
0.493747
0.496685
0.499538
0.502046
0.504489
0.506628
0.508719
0.510542
0.51233
0.513881
0.515409
0.516728
0.518032
0.519151
0.520264
0.521212
0.522159
0.522961
0.523766
0.524442
0.525126
0.525695
0.526274
0.526751
0.52724
0.527638
0.52805
0.52838
0.528726
0.528998
0.529287
0.529508
0.529747
0.529925
0.530122
0.530262
0.530421
0.530527
0.530653
0.53073
0.530826
0.530877
0.530946
0.530972
0.531017
0.531021
0.531037
-51.5018
-50.9088
-49.0417
-45.7364
-40.6984
-33.6715
-25.2272
-17.263
-11.3175
-7.37898
-4.84109
-3.21217
-2.16637
-1.48944
-1.04222
-0.736356
-0.51713
-0.35158
-0.220333
-0.112217
-0.0208324
0.0575575
0.125262
0.183852
0.23452
0.278259
0.315939
0.348341
0.376165
0.400032
0.420493
0.438028
0.453051
0.465922
0.476947
0.48639
0.494477
0.501399
0.507322
0.512388
0.516716
0.520413
0.523565
0.526252
0.528538
0.53048
0.532127
0.533522
0.534699
0.535691
0.536522
0.537216
0.537791
0.538265
0.53865
0.538957
0.539196
0.539374
0.539497
0.53957
0.53959
-51.0504
-50.9214
-50.4585
-49.7053
-48.5959
-47.1611
-45.3035
-43.0609
-40.2993
-37.093
-33.3549
-29.2854
-25.0547
-20.9186
-17.2231
-13.9713
-11.3405
-9.14824
-7.42037
-6.00311
-4.88423
-3.97352
-3.25127
-2.66674
-2.1997
-1.82237
-1.51693
-1.26909
-1.06442
-0.896406
-0.753951
-0.634852
-0.530819
-0.44189
-0.361974
-0.292151
-0.227949
-0.170838
-0.117489
-0.069432
-0.0241218
0.0170019
0.0559515
0.0914302
0.125089
0.15578
0.184903
0.211441
0.236618
0.259527
0.281254
0.300989
0.319706
0.336672
0.352772
0.367335
0.381167
0.393653
0.405528
0.416225
0.426414
0.435575
0.444316
0.452159
0.459657
0.46637
0.472802
0.478547
0.484065
0.48898
0.493713
0.497917
0.501977
0.505572
0.509052
0.512124
0.515107
0.517731
0.520287
0.522526
0.524715
0.526623
0.528496
0.530121
0.531722
0.533104
0.534472
0.535645
0.536812
0.537807
0.538801
0.539643
0.540489
0.541199
0.541918
0.542515
0.543125
0.543626
0.544141
0.544559
0.544994
0.545341
0.545706
0.545992
0.546296
0.54653
0.546782
0.54697
0.547177
0.547325
0.547493
0.547606
0.547738
0.54782
0.547922
0.547975
0.548048
0.548076
0.548123
0.548128
0.548144
-50.5994
-50.0089
-48.151
-44.8721
-39.9027
-33.042
-24.8826
-17.1809
-11.362
-7.46109
-4.92704
-3.29021
-2.23297
-1.5444
-1.0866
-0.771549
-0.54451
-0.372367
-0.235563
-0.122758
-0.0274073
0.0543489
0.124919
0.185955
0.238716
0.28425
0.323472
0.357201
0.386168
0.411021
0.432333
0.450602
0.466261
0.47968
0.49118
0.501033
0.509474
0.516702
0.52289
0.528184
0.53271
0.536577
0.539877
0.54269
0.545085
0.547121
0.548849
0.550312
0.551548
0.55259
0.553464
0.554194
0.5548
0.555299
0.555704
0.556028
0.55628
0.556468
0.556598
0.556675
0.556697
-50.1489
-50.0211
-49.5597
-48.8103
-47.7066
-46.2823
-44.4411
-42.2252
-39.5065
-36.3671
-32.7289
-28.7904
-24.7106
-20.7197
-17.1391
-13.9668
-11.3834
-9.21677
-7.50167
-6.08849
-4.96975
-4.05569
-3.32908
-2.73885
-2.26619
-1.88286
-1.57184
-1.31847
-1.10877
-0.935942
-0.789134
-0.66593
-0.558193
-0.465801
-0.382755
-0.310018
-0.243173
-0.183608
-0.128025
-0.0778948
-0.0306915
0.0121885
0.0527473
0.0897183
0.12475
0.156712
0.187008
0.214633
0.240815
0.264654
0.287246
0.307778
0.327239
0.344891
0.361631
0.376784
0.391169
0.404163
0.416515
0.42765
0.438253
0.447791
0.456889
0.465057
0.472865
0.479858
0.486559
0.492546
0.498295
0.50342
0.508354
0.512739
0.516972
0.520722
0.524353
0.52756
0.530674
0.533413
0.536082
0.538421
0.540707
0.542701
0.544658
0.546358
0.548032
0.549478
0.550908
0.552136
0.553358
0.554399
0.55544
0.556322
0.557209
0.557953
0.558707
0.559333
0.559972
0.560498
0.561039
0.561478
0.561935
0.562299
0.562683
0.562983
0.563304
0.563549
0.563815
0.564013
0.564231
0.564387
0.564563
0.564682
0.564822
0.564908
0.565015
0.565072
0.565149
0.565178
0.565227
0.565232
0.565249
-49.6991
-49.1112
-47.2632
-44.0116
-39.1131
-32.4195
-24.5392
-17.0949
-11.4033
-7.54152
-5.01209
-3.36778
-2.29934
-1.59925
-1.13093
-0.806717
-0.571874
-0.39314
-0.25078
-0.133287
-0.0339707
0.0511501
0.124584
0.188063
0.242915
0.290242
0.331005
0.36606
0.396169
0.422008
0.44417
0.463174
0.479467
0.493434
0.505408
0.515672
0.524467
0.532002
0.538454
0.543977
0.548701
0.552738
0.556185
0.559124
0.561629
0.563758
0.565567
0.5671
0.568395
0.569487
0.570404
0.57117
0.571807
0.572331
0.572757
0.573097
0.573363
0.573561
0.573698
0.573778
0.573801
-49.2496
-49.1231
-48.6631
-47.9179
-46.8202
-45.4069
-43.5827
-41.3945
-38.7199
-35.6481
-32.1099
-28.3004
-24.368
-20.5186
-17.051
-13.9582
-11.4232
-9.28292
-7.58126
-6.17258
-5.05435
-4.13715
-3.40641
-2.81061
-2.33244
-1.94316
-1.62664
-1.36776
-1.15307
-0.975433
-0.824287
-0.696982
-0.585548
-0.489694
-0.40352
-0.327869
-0.258383
-0.196363
-0.138547
-0.0863438
-0.0372485
0.00738702
0.0495541
0.0880163
0.124419
0.157651
0.18912
0.21783
0.245017
0.269785
0.29324
0.314568
0.334773
0.353109
0.37049
0.386232
0.40117
0.414671
0.427501
0.439072
0.450088
0.460003
0.469459
0.477952
0.486069
0.493343
0.500311
0.50654
0.512522
0.517855
0.52299
0.527555
0.531963
0.535869
0.539651
0.542991
0.546236
0.549091
0.551873
0.554311
0.556695
0.558776
0.560818
0.562591
0.564338
0.565847
0.567341
0.568624
0.5699
0.570988
0.572077
0.572998
0.573926
0.574704
0.575493
0.576148
0.576818
0.577368
0.577935
0.578395
0.578873
0.579255
0.579658
0.579973
0.580309
0.580567
0.580846
0.581053
0.581283
0.581446
0.581632
0.581757
0.581904
0.581994
0.582106
0.582166
0.582247
0.582278
0.582329
0.582335
0.582353
-48.8009
-48.2158
-46.3783
-43.1554
-38.3296
-31.8039
-24.1972
-17.0049
-11.4415
-7.62022
-5.09621
-3.44485
-2.36545
-1.65398
-1.1752
-0.841851
-0.599217
-0.413895
-0.26598
-0.143801
-0.0405201
0.0479634
0.124258
0.190179
0.24712
0.296238
0.33854
0.374919
0.406169
0.432992
0.456004
0.475742
0.492669
0.507185
0.519633
0.530306
0.539456
0.547297
0.554015
0.559766
0.564688
0.568895
0.572489
0.575556
0.57817
0.580393
0.582283
0.583884
0.585239
0.586382
0.587341
0.588144
0.588811
0.58936
0.589807
0.590165
0.590443
0.590651
0.590795
0.590879
0.590904
-48.3525
-48.2274
-47.7689
-47.0283
-45.9368
-44.5353
-42.7285
-40.5692
-37.9395
-34.9364
-31.4978
-27.8155
-24.0267
-20.3155
-16.9592
-13.9457
-11.4598
-9.34656
-7.65911
-6.25528
-5.13801
-4.21785
-3.48323
-2.88195
-2.39842
-2.00325
-1.6813
-1.41695
-1.19731
-1.01487
-0.859403
-0.728001
-0.612877
-0.513563
-0.424265
-0.3457
-0.273574
-0.2091
-0.149052
-0.0947768
-0.0437897
0.00259942
0.0463744
0.0863256
0.124099
0.158599
0.19124
0.221033
0.249225
0.274919
0.299238
0.321361
0.342309
0.361327
0.37935
0.395678
0.41117
0.425176
0.438485
0.450491
0.461921
0.472211
0.482026
0.490842
0.49927
0.506823
0.51406
0.52053
0.526745
0.532286
0.537623
0.542368
0.54695
0.551011
0.554945
0.558419
0.561795
0.564765
0.567661
0.570198
0.572681
0.574846
0.576974
0.57882
0.580641
0.582213
0.583771
0.585108
0.586439
0.587574
0.58871
0.589671
0.59064
0.591452
0.592276
0.592961
0.593661
0.594235
0.594828
0.595309
0.59581
0.596209
0.596631
0.59696
0.597313
0.597582
0.597875
0.598091
0.598332
0.598503
0.598698
0.598829
0.598983
0.599078
0.599196
0.599258
0.599343
0.599376
0.599429
0.599435
0.599455
-47.905
-47.323
-45.4966
-42.3035
-37.5524
-31.1952
-23.8567
-16.9114
-11.4764
-7.69717
-5.17937
-3.5214
-2.43129
-1.70857
-1.21939
-0.876944
-0.626531
-0.434627
-0.28116
-0.154295
-0.0470521
0.0447916
0.123945
0.192305
0.251332
0.302239
0.346078
0.383779
0.416169
0.443975
0.467836
0.488307
0.505869
0.520933
0.533855
0.544938
0.554442
0.56259
0.569572
0.575552
0.580671
0.58505
0.588791
0.591985
0.594708
0.597026
0.598996
0.600667
0.602081
0.603274
0.604277
0.605116
0.605813
0.606388
0.606856
0.60723
0.607522
0.60774
0.60789
0.607978
0.608005
-47.4575
-47.3345
-46.8773
-46.1418
-45.0566
-43.6678
-41.8787
-39.7495
-37.1654
-34.232
-30.8924
-27.3354
-23.6868
-20.1103
-16.8639
-13.9292
-11.4933
-9.40755
-7.73526
-6.33648
-5.22073
-4.29772
-3.55954
-2.95284
-2.46413
-2.06311
-1.73582
-1.46602
-1.24146
-1.05424
-0.894473
-0.758981
-0.640175
-0.537405
-0.444982
-0.363508
-0.288741
-0.221816
-0.159534
-0.103192
-0.050311
-0.002173
0.0432119
0.0846473
0.123793
0.159557
0.193372
0.224242
0.253441
0.280058
0.305242
0.328155
0.349849
0.369545
0.388211
0.405123
0.421171
0.435679
0.449468
0.461907
0.473753
0.484415
0.494591
0.503728
0.512469
0.520299
0.527807
0.534515
0.540966
0.546712
0.552253
0.557175
0.561935
0.566148
0.570236
0.573841
0.57735
0.580434
0.583445
0.58608
0.588663
0.590913
0.593127
0.595045
0.596942
0.598576
0.600199
0.601588
0.602976
0.604156
0.605341
0.606341
0.607352
0.608197
0.609058
0.60977
0.610501
0.611099
0.61172
0.61222
0.612744
0.61316
0.613601
0.613944
0.614314
0.614594
0.614901
0.615127
0.61538
0.615558
0.615763
0.615898
0.616061
0.616159
0.616284
0.616348
0.616438
0.616471
0.616528
0.616533
0.616556
-47.011
-46.4327
-44.6181
-41.4559
-36.7815
-30.5932
-23.5176
-16.8144
-11.5084
-7.77245
-5.26161
-3.59744
-2.49685
-1.76301
-1.2635
-0.911987
-0.653808
-0.455327
-0.296312
-0.164764
-0.0535616
0.0416392
0.123648
0.194443
0.255553
0.308247
0.35362
0.392643
0.426171
0.454959
0.479668
0.500872
0.519067
0.534678
0.548074
0.559566
0.569425
0.577879
0.585126
0.591336
0.596652
0.601201
0.60509
0.608411
0.611243
0.613655
0.615706
0.617447
0.61892
0.620164
0.62121
0.622085
0.622813
0.623413
0.623902
0.624294
0.624599
0.624826
0.624984
0.625076
0.625105
-46.564
-46.4447
-45.988
-45.2589
-44.1795
-42.8048
-41.0332
-38.9359
-36.3974
-33.5351
-30.2937
-26.8601
-23.3486
-19.9033
-16.7655
-13.9086
-11.5239
-9.46568
-7.80983
-6.41602
-5.3026
-4.37665
-3.63538
-3.02323
-2.52958
-2.1227
-1.79019
-1.51494
-1.28553
-1.09353
-0.929487
-0.789916
-0.667429
-0.561215
-0.465663
-0.381292
-0.303874
-0.234512
-0.169987
-0.111589
-0.0568059
-0.00692992
0.0400722
0.0829814
0.123507
0.160524
0.195519
0.227459
0.25767
0.2852
0.311256
0.334951
0.357396
0.377764
0.397078
0.414566
0.431175
0.446178
0.460454
0.473319
0.485586
0.496616
0.507156
0.51661
0.525667
0.533769
0.541552
0.548495
0.555184
0.561133
0.566882
0.571977
0.576917
0.58128
0.585524
0.589259
0.592904
0.596098
0.599228
0.601958
0.604643
0.606974
0.609278
0.611266
0.61324
0.614934
0.616624
0.618065
0.619511
0.620734
0.62197
0.623007
0.624062
0.624938
0.625837
0.626575
0.62734
0.62796
0.628609
0.629128
0.629676
0.630108
0.63057
0.630926
0.631313
0.631604
0.631926
0.63216
0.632426
0.63261
0.632825
0.632966
0.633137
0.633238
0.63337
0.633435
0.63353
0.633564
0.633625
0.633628
0.633656
-46.1181
-45.5447
-43.7425
-40.6126
-36.0167
-29.9976
-23.1802
-16.7146
-11.5377
-7.84625
-5.34307
-3.67305
-2.56218
-1.81731
-1.30753
-0.946969
-0.681037
-0.475986
-0.311425
-0.175199
-0.060041
0.0385129
0.123372
0.196599
0.25979
0.314266
0.361172
0.401513
0.436178
0.465946
0.491502
0.513438
0.532265
0.548424
0.562292
0.574194
0.584406
0.593167
0.600679
0.607117
0.612632
0.617351
0.621387
0.624835
0.627777
0.630283
0.632415
0.634225
0.635758
0.637052
0.638141
0.639053
0.639812
0.640437
0.640947
0.641356
0.641674
0.641911
0.642076
0.642173
0.642205
-45.6705
-45.5586
-45.1008
-44.38
-43.3051
-41.9469
-40.1916
-38.129
-35.6353
-32.846
-29.7012
-26.3897
-23.0121
-19.6945
-16.6646
-13.8838
-11.5522
-9.52065
-7.88315
-6.49366
-5.38382
-4.4545
-3.71086
-3.09301
-2.59483
-2.18197
-1.84444
-1.5637
-1.32952
-1.13274
-0.964435
-0.820802
-0.694627
-0.584994
-0.486292
-0.399051
-0.318961
-0.247187
-0.180397
-0.119969
-0.0632638
-0.011673
0.0369646
0.0813264
0.123248
0.161499
0.197689
0.23068
0.261918
0.290345
0.317284
0.341747
0.364955
0.38598
0.405955
0.424006
0.441187
0.456674
0.471445
0.484726
0.497424
0.50881
0.519724
0.529485
0.538867
0.547233
0.555299
0.562469
0.569404
0.575548
0.58151
0.586773
0.591899
0.596406
0.600813
0.60467
0.608457
0.611756
0.615009
0.617829
0.620622
0.623031
0.625427
0.627481
0.629537
0.631287
0.633048
0.634536
0.636045
0.637308
0.638598
0.639669
0.64077
0.641675
0.642615
0.643377
0.644177
0.644817
0.645497
0.646032
0.646607
0.647052
0.647537
0.647904
0.648311
0.64861
0.64895
0.64919
0.64947
0.649659
0.649887
0.65003
0.650212
0.650314
0.650454
0.65052
0.650622
0.650654
0.650722
0.650719
0.650757
-45.2243
-44.6583
-42.8694
-39.7729
-35.2575
-29.4082
-22.8446
-16.6126
-11.5649
-7.91901
-5.42401
-3.74837
-2.62732
-1.8715
-1.35147
-0.981878
-0.708201
-0.496585
-0.326485
-0.185584
-0.0664767
0.0354245
0.12313
0.198783
0.264049
0.320304
0.368739
0.410396
0.446194
0.476942
0.503343
0.526009
0.545467
0.562172
0.576513
0.588824
0.59939
0.608456
0.616232
0.622899
0.628611
0.633501
0.637684
0.641259
0.64431
0.64691
0.649123
0.651002
0.652595
0.65394
0.655072
0.65602
0.656809
0.65746
0.657991
0.658416
0.658748
0.658995
0.659167
0.65927
0.659307
-44.7814
-44.6744
-44.2167
-43.5034
-42.4343
-41.0916
-39.3546
-37.3255
-34.8794
-32.1608
-29.1144
-25.9218
-22.6763
-19.4854
-16.5599
-13.8575
-11.5768
-9.57444
-7.95423
-6.57058
-5.46376
-4.53189
-3.78564
-3.16252
-2.6597
-2.24106
-1.89851
-1.61235
-1.37342
-1.17187
-0.999346
-0.851636
-0.721812
-0.608732
-0.50692
-0.416777
-0.33405
-0.259834
-0.190811
-0.128324
-0.0697246
-0.016395
0.0338539
0.0796891
0.122985
0.162488
0.199856
0.233913
0.266161
0.295499
0.323309
0.348551
0.37251
0.394202
0.414826
0.433451
0.451193
0.467173
0.482431
0.496135
0.509256
0.521006
0.532288
0.542361
0.552063
0.560697
0.569042
0.576442
0.583619
0.589962
0.596135
0.601568
0.606878
0.611531
0.616097
0.62008
0.624006
0.627413
0.630787
0.6337
0.636598
0.639085
0.641574
0.643696
0.645831
0.647638
0.649469
0.651007
0.652575
0.653881
0.655223
0.656329
0.657476
0.658411
0.65939
0.660178
0.661012
0.661673
0.662383
0.662935
0.663536
0.663995
0.664503
0.664881
0.665307
0.665615
0.665972
0.666218
0.666513
0.666706
0.666946
0.667093
0.667285
0.667389
0.667537
0.667603
0.667712
0.667743
0.667816
0.66781
0.667854
-44.0881
-43.5278
-41.7573
-38.707
-34.2983
-28.6651
-22.4157
-16.4725
-11.5898
-8.00562
-5.52397
-3.84298
-2.70995
-1.94063
-1.40774
-1.02668
-0.743107
-0.523069
-0.345845
-0.19893
-0.0747387
0.0314703
0.122836
0.201611
0.269546
0.328089
0.37849
0.421839
0.459097
0.491103
0.518593
0.542199
0.562471
0.57988
0.59483
0.607668
0.61869
0.628151
0.636269
0.643231
0.649199
0.65431
0.658683
0.662423
0.665615
0.668338
0.670656
0.672625
0.674294
0.675705
0.676893
0.677889
0.678718
0.679402
0.67996
0.680407
0.680756
0.681017
0.681197
0.681305
0.681343
-43.3975
-43.2929
-42.8405
-42.1364
-41.0822
-39.7632
-38.0615
-36.0866
-33.7189
-31.1146
-28.2164
-25.2051
-22.1546
-19.1481
-16.384
-13.7978
-11.6012
-9.64615
-8.05584
-6.68436
-5.58344
-4.64975
-3.89988
-3.26983
-2.75995
-2.33301
-1.98263
-1.6884
-1.44201
-1.2332
-1.05402
-0.900014
-0.764424
-0.645982
-0.539251
-0.444575
-0.357677
-0.27964
-0.207086
-0.141376
-0.0797853
-0.0237305
0.0290587
0.0772037
0.122664
0.164131
0.203348
0.239079
0.272914
0.303684
0.332857
0.359326
0.38446
0.407205
0.428844
0.448374
0.466994
0.483753
0.499771
0.514147
0.527926
0.540255
0.552108
0.56268
0.572878
0.581944
0.590718
0.598491
0.606041
0.612704
0.619201
0.624912
0.630503
0.635395
0.640206
0.644395
0.648533
0.652118
0.655676
0.658741
0.6618
0.664419
0.667046
0.669281
0.671537
0.673441
0.675376
0.676997
0.678656
0.680033
0.681454
0.68262
0.683836
0.684822
0.68586
0.686692
0.687577
0.688275
0.689028
0.689612
0.690251
0.690735
0.691275
0.691675
0.692129
0.692454
0.692834
0.693095
0.693409
0.693613
0.693869
0.694024
0.694229
0.694339
0.694497
0.694567
0.694683
0.694716
0.694793
0.694788
0.69483
-42.7216
-42.1681
-40.4251
-37.4392
-33.1692
-27.7943
-21.8995
-16.2827
-11.5983
-8.09673
-5.63753
-3.95377
-2.8083
-2.02372
-1.47576
-1.08102
-0.785495
-0.555231
-0.369334
-0.215089
-0.0847003
0.0267565
0.12258
0.205152
0.276332
0.337658
0.390449
0.435857
0.47489
0.508431
0.537246
0.562
0.583265
0.601534
0.617228
0.630711
0.642291
0.652236
0.660773
0.668097
0.674378
0.67976
0.684368
0.68831
0.691677
0.69455
0.696997
0.699078
0.700843
0.702335
0.703592
0.704647
0.705525
0.706251
0.706843
0.707318
0.707688
0.707965
0.708156
0.708268
0.708304
-42.0428
-41.9401
-41.4942
-40.8013
-39.7658
-38.4736
-36.8137
-34.8961
-32.6142
-30.1197
-27.367
-24.519
-21.6438
-18.8063
-16.185
-13.7159
-11.5987
-9.6984
-8.13943
-6.78564
-5.6925
-4.76009
-4.00804
-3.37271
-2.85678
-2.42237
-2.06484
-1.76289
-1.5095
-1.29355
-1.10801
-0.94771
-0.806563
-0.682713
-0.571215
-0.471949
-0.381
-0.299087
-0.223101
-0.154123
-0.0896239
-0.0308097
0.0244481
0.0749295
0.122492
0.165943
0.206956
0.244378
0.279752
0.311967
0.342463
0.370172
0.396445
0.420256
0.442878
0.463326
0.482796
0.500346
0.517101
0.53216
0.546577
0.559496
0.571902
0.582985
0.593663
0.603169
0.61236
0.620514
0.628426
0.635419
0.64223
0.648226
0.65409
0.659229
0.664276
0.668678
0.673022
0.676791
0.680527
0.683752
0.686965
0.689721
0.692482
0.694835
0.697208
0.699214
0.70125
0.702959
0.704705
0.706157
0.707653
0.708885
0.710165
0.711207
0.712301
0.71318
0.714114
0.714852
0.715647
0.716265
0.716939
0.717453
0.718023
0.718446
0.718926
0.719272
0.719673
0.71995
0.720282
0.720499
0.72077
0.720935
0.721151
0.721268
0.721436
0.72151
0.721633
0.721668
0.721748
0.721746
0.721785
-41.3789
-40.836
-39.1251
-36.2112
-32.0867
-26.9631
-21.3944
-16.0778
-11.5869
-8.17354
-5.74224
-4.05924
-2.90348
-2.10491
-1.54259
-1.13455
-0.827291
-0.58692
-0.392427
-0.230908
-0.0943737
0.0222841
0.122521
0.20885
0.283241
0.347318
0.402474
0.44992
0.490712
0.525772
0.555902
0.581795
0.604046
0.623169
0.639605
0.65373
0.665867
0.676294
0.685249
0.692935
0.69953
0.705184
0.710027
0.714171
0.717714
0.720738
0.723315
0.725508
0.727368
0.728943
0.73027
0.731384
0.732312
0.73308
0.733706
0.734208
0.734601
0.734894
0.735097
0.735216
0.735253
-40.715
-40.617
-40.1773
-39.4988
-38.4833
-37.2225
-35.6068
-33.7513
-31.5558
-29.1707
-26.5556
-23.8597
-21.1442
-18.4614
-15.9726
-13.6149
-11.5769
-9.73261
-8.20854
-6.87469
-5.79236
-4.86286
-4.1106
-3.47102
-2.95024
-2.50899
-2.145
-1.8357
-1.5757
-1.3528
-1.16112
-0.994641
-0.848058
-0.718864
-0.602667
-0.498856
-0.403896
-0.318144
-0.238754
-0.166541
-0.0991572
-0.0376141
0.0200923
0.072881
0.122528
0.167936
0.210729
0.249819
0.286718
0.320358
0.352166
0.381095
0.4085
0.43336
0.456961
0.478311
0.498628
0.516957
0.534446
0.550177
0.565231
0.578731
0.591691
0.603276
0.614434
0.624375
0.633984
0.642514
0.65079
0.658107
0.665235
0.671512
0.67765
0.683032
0.688318
0.69293
0.697482
0.701432
0.705349
0.70873
0.712101
0.714992
0.71789
0.720359
0.72285
0.724957
0.727096
0.728891
0.730727
0.732253
0.733827
0.735122
0.736469
0.737565
0.738718
0.739643
0.740627
0.741404
0.742242
0.742893
0.743605
0.744146
0.744748
0.745195
0.745702
0.746066
0.74649
0.746783
0.747134
0.747364
0.74765
0.747824
0.748053
0.748177
0.748355
0.748433
0.748563
0.7486
0.748686
0.748683
0.748724
-40.0669
-39.5354
-37.8607
-35.0254
-31.0506
-26.1689
-20.9001
-15.8601
-11.5563
-8.23545
-5.8373
-4.1588
-2.99509
-2.18393
-1.60805
-1.18716
-0.86841
-0.618075
-0.415078
-0.246356
-0.103735
0.0180712
0.122673
0.212717
0.29028
0.357076
0.414569
0.464029
0.506561
0.543126
0.574559
0.601581
0.624811
0.644784
0.661957
0.676721
0.689413
0.700321
0.709693
0.717742
0.72465
0.730576
0.735654
0.740002
0.743721
0.746897
0.749605
0.75191
0.753868
0.755525
0.756923
0.758097
0.759076
0.759886
0.760547
0.761078
0.761492
0.761802
0.762016
0.762142
0.762182
-39.4181
-39.3242
-38.8923
-38.2293
-37.2367
-36.0095
-34.4416
-32.6499
-30.5419
-28.263
-25.7789
-23.2243
-20.6554
-18.1154
-15.7493
-13.4984
-11.5375
-9.75091
-8.26328
-6.95231
-5.88268
-4.95826
-4.2072
-3.56473
-3.04004
-2.59273
-2.22291
-1.90667
-1.64045
-1.41083
-1.21325
-1.04069
-0.888817
-0.754332
-0.633538
-0.525207
-0.426312
-0.336738
-0.254004
-0.178569
-0.10835
-0.0440934
0.0160193
0.0711005
0.122795
0.170147
0.214688
0.255432
0.29383
0.328883
0.36198
0.39212
0.420637
0.446538
0.4711
0.493347
0.514498
0.533601
0.551813
0.568212
0.583895
0.597973
0.611479
0.623565
0.635198
0.645572
0.655594
0.6645
0.673135
0.680777
0.688218
0.694776
0.701187
0.706812
0.712335
0.717158
0.721916
0.726049
0.730145
0.733684
0.737211
0.740238
0.743272
0.745859
0.748468
0.750676
0.752918
0.754799
0.756725
0.758325
0.759977
0.761336
0.762751
0.763902
0.765112
0.766085
0.767119
0.767936
0.768817
0.769502
0.770251
0.770821
0.771455
0.771925
0.772459
0.772844
0.77329
0.773599
0.773969
0.774211
0.774514
0.774697
0.774939
0.77507
0.775257
0.77534
0.775478
0.775516
0.775607
0.775603
0.775648
-38.7867
-38.2674
-36.6329
-33.881
-30.0578
-25.4081
-20.417
-15.633
-11.5094
-8.28349
-5.92291
-4.25232
-3.08292
-2.26055
-1.67194
-1.23867
-0.908709
-0.648581
-0.437196
-0.261359
-0.112724
0.0141652
0.123074
0.216782
0.297472
0.366949
0.426748
0.478196
0.522446
0.560498
0.593221
0.621361
0.645562
0.666378
0.684282
0.699682
0.712927
0.724314
0.734103
0.742513
0.749735
0.755932
0.761246
0.765798
0.769693
0.773022
0.775862
0.778281
0.780336
0.782077
0.783547
0.784781
0.785812
0.786664
0.787361
0.78792
0.788356
0.788683
0.78891
0.789042
0.789085
-38.1539
-38.0639
-37.6409
-36.9946
-36.027
-34.8354
-33.3177
-31.5909
-29.5701
-27.3942
-25.0342
-22.6115
-20.1778
-17.77
-15.5182
-13.3692
-11.483
-9.75467
-8.30477
-7.01884
-5.96373
-5.0462
-4.29777
-3.6536
-3.12599
-2.67335
-2.29832
-1.97559
-1.70353
-1.46742
-1.26419
-1.08568
-0.928688
-0.788985
-0.663703
-0.550898
-0.448149
-0.354786
-0.268771
-0.190145
-0.117144
-0.0501983
0.0122751
0.0696252
0.123328
0.172602
0.218858
0.261236
0.301104
0.337553
0.371915
0.403252
0.432861
0.459792
0.485298
0.508433
0.530403
0.550273
0.569196
0.58626
0.60256
0.617213
0.631257
0.643841
0.655943
0.666748
0.677178
0.686457
0.695448
0.703415
0.711165
0.718004
0.724685
0.730553
0.736312
0.741346
0.746308
0.750623
0.754898
0.758595
0.762277
0.765441
0.76861
0.771315
0.774042
0.776352
0.778696
0.780665
0.782679
0.784356
0.786085
0.787509
0.788991
0.790198
0.791466
0.792486
0.79357
0.794429
0.795353
0.796073
0.796859
0.797458
0.798123
0.798618
0.799179
0.799584
0.800053
0.800378
0.800768
0.801023
0.801341
0.801535
0.801789
0.801927
0.802124
0.802212
0.802356
0.802397
0.802493
0.802489
0.802537
-37.539
-37.0329
-35.4415
-32.7771
-29.1056
-24.6778
-19.9448
-15.3992
-11.4484
-8.31886
-5.99945
-4.33985
-3.16687
-2.33464
-1.73411
-1.28896
-0.94808
-0.678347
-0.458704
-0.275853
-0.121289
0.0106099
0.123762
0.221076
0.304845
0.376961
0.439031
0.492439
0.538383
0.577904
0.611901
0.641147
0.66631
0.687961
0.706592
0.722624
0.736417
0.748282
0.758485
0.767256
0.774791
0.78126
0.78681
0.791566
0.795639
0.799121
0.802093
0.804626
0.806779
0.808605
0.810146
0.811442
0.812524
0.81342
0.814152
0.81474
0.8152
0.815544
0.815782
0.815922
0.815967
-36.9225
-36.8363
-36.4232
-35.7947
-34.854
-33.6995
-32.2337
-30.5722
-28.6377
-26.5611
-24.3187
-22.0193
-19.7112
-17.4263
-15.2814
-13.2292
-11.4154
-9.74538
-8.33395
-7.07491
-6.03574
-5.12686
-4.38225
-3.73764
-3.20794
-2.75077
-2.37108
-2.04234
-1.76479
-1.52249
-1.31382
-1.12954
-0.967557
-0.822746
-0.693069
-0.575866
-0.469329
-0.372235
-0.282994
-0.201222
-0.125484
-0.0558902
0.00890496
0.0684884
0.124165
0.17533
0.223272
0.267258
0.308571
0.346394
0.381999
0.414515
0.445197
0.473142
0.499578
0.523589
0.546366
0.566993
0.586618
0.604337
0.621248
0.636469
0.651045
0.664121
0.676686
0.68792
0.698754
0.708404
0.717747
0.726036
0.734093
0.741212
0.748161
0.754272
0.760264
0.765508
0.770674
0.775172
0.779624
0.783479
0.787316
0.790616
0.793921
0.796744
0.799588
0.802
0.804447
0.806505
0.808608
0.810361
0.812167
0.813657
0.815205
0.816469
0.817796
0.818864
0.819998
0.820898
0.821866
0.82262
0.823444
0.824072
0.82477
0.82529
0.825878
0.826303
0.826796
0.827137
0.827546
0.827815
0.828148
0.828352
0.828619
0.828765
0.828972
0.829064
0.829216
0.829259
0.82936
0.829356
0.829406
-36.3244
-35.8324
-34.2869
-31.7124
-28.1915
-23.9756
-19.4837
-15.1607
-11.3755
-8.34251
-6.0672
-4.42135
-3.2468
-2.40601
-1.7944
-1.33787
-0.986394
-0.707267
-0.479518
-0.289771
-0.129376
0.00744839
0.12477
0.225628
0.312422
0.387132
0.451434
0.506769
0.554383
0.595352
0.630606
0.660946
0.687059
0.709538
0.728889
0.745548
0.759886
0.772226
0.782843
0.791972
0.79982
0.80656
0.812346
0.817307
0.821557
0.825193
0.828298
0.830946
0.833199
0.835109
0.836723
0.838081
0.839215
0.840155
0.840923
0.841541
0.842023
0.842385
0.842635
0.842782
0.84283
-35.7248
-35.6424
-35.2399
-34.6301
-33.7177
-32.6014
-31.1885
-29.5923
-27.7422
-25.7614
-23.6302
-21.4466
-19.2555
-17.0853
-15.0409
-13.0806
-11.3369
-9.72437
-8.35198
-7.12106
-6.09918
-5.20036
-4.46075
-3.81678
-3.28583
-2.82486
-2.44107
-2.10678
-1.82411
-1.57589
-1.36201
-1.17214
-1.00532
-0.855512
-0.721546
-0.600024
-0.48978
-0.389015
-0.296611
-0.211744
-0.133321
-0.0611234
0.00594876
0.0677277
0.125341
0.178364
0.227958
0.273524
0.316254
0.355427
0.392252
0.425926
0.457662
0.486605
0.513955
0.538828
0.562399
0.583771
0.604087
0.622453
0.639966
0.655749
0.67085
0.684413
0.697436
0.709093
0.720327
0.730345
0.740037
0.748646
0.757008
0.764404
0.771618
0.777971
0.784195
0.789649
0.795017
0.799697
0.804326
0.808339
0.81233
0.815767
0.819206
0.822148
0.825109
0.827624
0.830173
0.832319
0.834511
0.836341
0.838224
0.83978
0.841396
0.842717
0.844102
0.845218
0.846403
0.847345
0.848356
0.849146
0.850007
0.850666
0.851396
0.851941
0.852556
0.853002
0.853518
0.853877
0.854305
0.854587
0.854937
0.855151
0.855431
0.855584
0.855801
0.855898
0.856057
0.856103
0.856208
0.856205
0.856257
-35.1441
-34.6669
-33.1691
-30.6864
-27.3137
-23.2998
-19.0336
-14.9192
-11.2924
-8.35544
-6.1265
-4.49684
-3.32258
-2.47452
-1.85264
-1.38526
-1.02353
-0.735238
-0.499555
-0.303046
-0.136931
0.00472341
0.126133
0.230465
0.320224
0.397478
0.463971
0.5212
0.570454
0.612848
0.649341
0.680759
0.707812
0.73111
0.751174
0.768453
0.783334
0.796145
0.807172
0.81666
0.824819
0.83183
0.837851
0.843018
0.847445
0.851235
0.854474
0.857238
0.85959
0.861585
0.863273
0.864693
0.86588
0.866864
0.867669
0.868317
0.868823
0.869201
0.869464
0.869618
0.869669
-34.5617
-34.4832
-34.092
-33.5016
-32.6184
-31.5413
-30.1816
-28.6501
-26.8822
-24.9934
-22.9673
-20.8926
-18.811
-16.7479
-14.7982
-12.925
-11.249
-9.6929
-8.35976
-7.15786
-6.15435
-5.26683
-4.53326
-3.89094
-3.35953
-2.89547
-2.50812
-2.16874
-1.8813
-1.62747
-1.40862
-1.21334
-1.04184
-0.887167
-0.749025
-0.623279
-0.509413
-0.405051
-0.309552
-0.221651
-0.140601
-0.065851
0.00344999
0.0673797
0.126888
0.18173
0.232942
0.280056
0.324173
0.364668
0.402689
0.437498
0.470269
0.50019
0.528438
0.554156
0.578507
0.600613
0.621609
0.640611
0.658718
0.675054
0.690672
0.704717
0.718192
0.730268
0.741897
0.752279
0.762316
0.771241
0.779905
0.787577
0.795055
0.801647
0.808102
0.813763
0.819334
0.824194
0.829
0.833169
0.837314
0.840888
0.844461
0.847521
0.8506
0.853217
0.855868
0.858104
0.860385
0.862291
0.864252
0.865874
0.867558
0.868935
0.870379
0.871545
0.87278
0.873764
0.874819
0.875645
0.876544
0.877232
0.877995
0.878565
0.879209
0.879675
0.880215
0.880591
0.881038
0.881334
0.8817
0.881925
0.882218
0.882379
0.882606
0.882708
0.882875
0.882923
0.883032
0.883029
0.883084
-33.9988
-33.537
-32.0885
-29.6982
-26.4705
-22.6491
-18.5946
-14.6761
-11.2006
-8.35858
-6.17771
-4.56639
-3.39413
-2.54002
-1.90868
-1.43098
-1.05936
-0.762161
-0.518733
-0.315613
-0.143903
0.0024767
0.127885
0.235613
0.328274
0.408017
0.476656
0.535741
0.586607
0.630401
0.668113
0.700594
0.728573
0.752679
0.773448
0.791343
0.80676
0.82004
0.831476
0.841319
0.849788
0.85707
0.863327
0.868697
0.873303
0.877248
0.880621
0.8835
0.885952
0.888034
0.889795
0.891279
0.892519
0.893548
0.89439
0.895067
0.895597
0.895994
0.896269
0.89643
0.896483
-33.4339
-33.3594
-32.9798
-32.4095
-31.5561
-30.5186
-29.212
-27.7445
-26.056
-24.2555
-22.3288
-20.3566
-18.3776
-16.4149
-14.5546
-12.7639
-11.1532
-9.65218
-8.35821
-7.1859
-6.20161
-5.32646
-4.59985
-3.9601
-3.42897
-2.96248
-2.57209
-2.22808
-1.93622
-1.67707
-1.45349
-1.25301
-1.077
-0.917604
-0.775406
-0.645542
-0.528146
-0.420272
-0.321753
-0.230887
-0.147271
-0.0700273
0.00145022
0.067481
0.12884
0.185459
0.238252
0.286877
0.33235
0.374138
0.413327
0.449248
0.48303
0.51391
0.543037
0.569585
0.594702
0.617528
0.639191
0.658819
0.677509
0.694389
0.710518
0.725036
0.738958
0.751446
0.763466
0.774207
0.784586
0.793825
0.802787
0.810732
0.818472
0.825301
0.831985
0.837853
0.843624
0.848664
0.853645
0.857971
0.862268
0.865978
0.869685
0.872864
0.876059
0.878779
0.881532
0.883857
0.886227
0.88821
0.890249
0.891938
0.893689
0.895124
0.896626
0.897841
0.899128
0.900154
0.901253
0.902115
0.903052
0.903771
0.904567
0.905162
0.905834
0.906322
0.906885
0.907279
0.907746
0.908056
0.908438
0.908674
0.90898
0.909149
0.909386
0.909493
0.909667
0.909718
0.909832
0.909829
0.909886
-32.889
-32.443
-31.0448
-28.747
-25.6606
-22.0222
-18.1669
-14.4326
-11.1015
-8.35281
-6.22122
-4.63004
-3.46138
-2.60237
-1.96238
-1.47491
-1.09377
-0.787936
-0.53697
-0.327406
-0.150239
0.000749604
0.130058
0.2411
0.336592
0.418766
0.489503
0.550405
0.602849
0.648017
0.686928
0.720454
0.749347
0.774249
0.795716
0.814219
0.830168
0.843912
0.855753
0.86595
0.874728
0.882279
0.888771
0.894346
0.89913
0.903229
0.906737
0.909732
0.912285
0.914454
0.91629
0.917836
0.919131
0.920205
0.921084
0.921792
0.922346
0.922761
0.923048
0.923217
0.923273
-32.3419
-32.2714
-31.9039
-31.3539
-30.5309
-29.5331
-28.2791
-26.8742
-25.2624
-23.5465
-21.7137
-19.8382
-17.9554
-16.087
-14.311
-12.5986
-11.0507
-9.60328
-8.34817
-7.20577
-6.24135
-5.37943
-4.6606
-4.02424
-3.49406
-3.02579
-2.63285
-2.28465
-1.98872
-1.72457
-1.49649
-1.29103
-1.11067
-0.946711
-0.800588
-0.666722
-0.545898
-0.434605
-0.333147
-0.239394
-0.15328
-0.0736064
-9.31478e-06
0.068068
0.13123
0.189581
0.243913
0.294011
0.340807
0.383854
0.424185
0.46119
0.495961
0.527777
0.557764
0.585124
0.610991
0.634522
0.656841
0.677083
0.696346
0.713761
0.730392
0.745376
0.759738
0.772633
0.785037
0.796134
0.80685
0.816398
0.825656
0.833871
0.84187
0.848935
0.855845
0.861919
0.867888
0.873107
0.878262
0.882744
0.887194
0.891039
0.89488
0.898176
0.901488
0.90431
0.907166
0.909579
0.912038
0.914099
0.916215
0.91797
0.91979
0.921282
0.922843
0.924108
0.925446
0.926514
0.927659
0.928556
0.929532
0.930282
0.93111
0.931732
0.932432
0.932942
0.933528
0.93394
0.934427
0.934751
0.93515
0.935397
0.935716
0.935893
0.93614
0.936253
0.936433
0.936487
0.936606
0.936604
0.936663
-31.8153
-31.3855
-30.0381
-27.832
-24.8826
-21.4184
-17.7504
-14.1897
-10.9964
-8.33898
-6.25739
-4.68791
-3.52426
-2.66145
-2.01359
-1.5169
-1.12663
-0.81246
-0.554185
-0.33836
-0.155888
-0.000416831
0.132685
0.246952
0.3452
0.429743
0.502526
0.565203
0.619191
0.665705
0.705791
0.740345
0.770135
0.795824
0.817978
0.837083
0.853557
0.867761
0.880005
0.890554
0.899639
0.907458
0.914184
0.919964
0.924925
0.92918
0.932822
0.935934
0.938588
0.940844
0.942755
0.944365
0.945714
0.946834
0.947751
0.94849
0.949068
0.949501
0.949801
0.949978
0.950037
-31.2863
-31.2198
-30.8646
-30.3352
-29.5426
-28.5844
-27.3821
-26.0383
-24.5002
-22.8652
-21.1211
-19.3368
-17.5445
-15.7648
-14.0686
-12.4304
-10.9428
-9.54724
-8.33047
-7.21802
-6.27395
-5.42595
-4.7156
-4.08337
-3.55476
-3.08528
-2.69028
-2.33832
-2.03866
-1.76981
-1.53749
-1.32726
-1.14275
-0.974378
-0.824469
-0.68673
-0.562587
-0.447976
-0.343669
-0.247113
-0.158575
-0.0765428
-0.000887743
0.0691767
0.13409
0.194122
0.249952
0.301481
0.349563
0.393836
0.435279
0.473339
0.509075
0.541804
0.572631
0.600783
0.627384
0.651605
0.674566
0.695409
0.715235
0.733175
0.750299
0.765741
0.780536
0.793831
0.806615
0.818061
0.82911
0.838964
0.848514
0.856995
0.865251
0.872549
0.879684
0.885961
0.892127
0.897524
0.902852
0.907488
0.91209
0.91607
0.920043
0.923457
0.926886
0.92981
0.932767
0.93527
0.937818
0.939955
0.94215
0.943972
0.945859
0.947409
0.94903
0.950345
0.951734
0.952845
0.954034
0.954968
0.955982
0.956764
0.957625
0.958273
0.959001
0.959533
0.960144
0.960573
0.96108
0.961419
0.961834
0.962092
0.962425
0.96261
0.962867
0.962986
0.963174
0.963231
0.963354
0.963352
0.963414
-30.7782
-30.3646
-29.0683
-26.9527
-24.1357
-20.8368
-17.3453
-13.9483
-10.8863
-8.31785
-6.28661
-4.74007
-3.58272
-2.71713
-2.06217
-1.55682
-1.15783
-0.835634
-0.570296
-0.34841
-0.160798
-0.000981939
0.135798
0.253193
0.354118
0.440964
0.515739
0.580146
0.635641
0.683472
0.724709
0.760271
0.790944
0.817406
0.840237
0.859936
0.876931
0.89159
0.904232
0.91513
0.92452
0.932607
0.939566
0.945549
0.950689
0.955098
0.958875
0.962105
0.96486
0.967204
0.96919
0.970866
0.972269
0.973435
0.974391
0.97516
0.975763
0.976215
0.976528
0.976712
0.976774
-30.2675
-30.2049
-29.8621
-29.3534
-28.5911
-27.6721
-26.5204
-25.2359
-23.7686
-22.2107
-20.5505
-18.8522
-17.1452
-15.4488
-13.8281
-12.2601
-10.8304
-9.48498
-8.30586
-7.22321
-6.29979
-5.46624
-4.76495
-4.13749
-3.61101
-3.14088
-2.74425
-2.38894
-2.08591
-1.81265
-1.57634
-1.36157
-1.1731
-1.0005
-0.846948
-0.705473
-0.578131
-0.460314
-0.353255
-0.253987
-0.163106
-0.0787912
-0.00114457
0.0708428
0.137452
0.199112
0.256393
0.309309
0.35864
0.404102
0.446625
0.48571
0.522385
0.556002
0.587649
0.616573
0.643891
0.668785
0.692374
0.713805
0.734182
0.752635
0.770243
0.786136
0.801355
0.815043
0.828201
0.839991
0.851369
0.861524
0.871363
0.880107
0.888616
0.896144
0.903502
0.90998
0.916342
0.921915
0.927414
0.932204
0.936957
0.941071
0.945177
0.948707
0.952252
0.955279
0.958337
0.960928
0.963566
0.96578
0.968053
0.969942
0.971897
0.973505
0.975185
0.97655
0.977991
0.979145
0.980379
0.98135
0.982403
0.983216
0.984111
0.984785
0.985542
0.986096
0.986731
0.987178
0.987706
0.988059
0.988491
0.988761
0.989106
0.9893
0.989567
0.989691
0.989887
0.989947
0.990075
0.990074
0.990138
-29.778
-29.3808
-28.1352
-26.1084
-23.419
-20.2769
-16.9517
-13.7092
-10.7722
-8.29017
-6.30926
-4.78665
-3.63671
-2.76931
-2.10798
-1.59452
-1.18725
-0.857354
-0.58522
-0.35749
-0.164917
-0.000905464
0.139429
0.25985
0.363366
0.452445
0.529154
0.595245
0.652209
0.701325
0.743688
0.780237
0.811776
0.838999
0.862497
0.882781
0.900289
0.915398
0.928435
0.939679
0.949373
0.957725
0.964917
0.971103
0.976421
0.980985
0.984897
0.988244
0.991101
0.993533
0.995595
0.997336
0.998795
1.00001
1.001
1.0018
1.00243
1.0029
1.00323
1.00342
1.00348
-29.2857
-29.2272
-28.8967
-28.4087
-27.6764
-26.7959
-25.6935
-24.4664
-23.0667
-21.5822
-20.0014
-18.3842
-16.7574
-15.1395
-13.5902
-12.0888
-10.7145
-9.41735
-8.27506
-7.22187
-6.31923
-5.50051
-4.80876
-4.18662
-3.66277
-3.19248
-2.79466
-2.4364
-2.13031
-1.85296
-1.61292
-1.39384
-1.2016
-1.02495
-0.867924
-0.722861
-0.592446
-0.471546
-0.361838
-0.25996
-0.16682
-0.0803071
-0.000739723
0.0731013
0.141348
0.204579
0.263262
0.317517
0.368058
0.414669
0.45824
0.498317
0.535905
0.570384
0.602827
0.632503
0.660519
0.686068
0.710271
0.732276
0.753192
0.772148
0.79023
0.806563
0.8222
0.836274
0.849799
0.861928
0.873629
0.88408
0.894203
0.903207
0.911967
0.919722
0.9273
0.933978
0.940534
0.94628
0.95195
0.956893
0.961795
0.966043
0.97028
0.973927
0.977587
0.980715
0.983875
0.986555
0.989281
0.991573
0.993923
0.995879
0.997903
0.999568
1.00131
1.00272
1.00422
1.00541
1.00669
1.0077
1.00879
1.00964
1.01057
1.01127
1.01205
1.01263
1.01329
1.01375
1.0143
1.01467
1.01512
1.0154
1.01576
1.01596
1.01624
1.01637
1.01657
1.01663
1.01677
1.01677
1.01683
-28.8151
-28.4342
-27.2389
-25.2986
-22.7317
-19.7383
-16.5699
-13.473
-10.655
-8.25662
-6.32569
-4.82774
-3.6862
-2.81785
-2.15088
-1.62987
-1.21476
-0.87752
-0.598875
-0.365535
-0.168195
-0.000147591
0.143609
0.266947
0.372964
0.464203
0.542786
0.610509
0.668902
0.719271
0.762733
0.800247
0.832636
0.860604
0.884758
0.905618
0.923633
0.939187
0.952615
0.964202
0.974196
0.982813
0.990235
0.996625
1.00212
1.00684
1.01089
1.01435
1.01731
1.01983
1.02197
1.02378
1.02529
1.02655
1.02758
1.02842
1.02907
1.02956
1.0299
1.0301
1.03016
-28.3415
-28.287
-27.9687
-27.5013
-26.7985
-25.9557
-24.9009
-23.7293
-22.394
-20.9794
-19.4734
-17.9328
-16.3815
-14.8376
-13.3557
-11.9173
-10.5959
-9.34513
-8.23871
-7.21447
-6.33263
-5.52896
-4.84714
-4.23076
-3.70999
-3.23998
-2.84137
-2.48053
-2.17172
-1.89058
-1.64707
-1.42392
-1.22813
-1.04763
-0.887291
-0.738799
-0.60545
-0.481596
-0.369354
-0.264973
-0.169668
-0.0810457
0.000365069
0.0759863
0.145806
0.210547
0.270581
0.326126
0.377832
0.425553
0.470135
0.511173
0.549643
0.584957
0.618173
0.648577
0.677273
0.70346
0.72826
0.750824
0.772267
0.791713
0.810259
0.827023
0.843069
0.857521
0.871407
0.883868
0.895887
0.906629
0.917033
0.926293
0.935299
0.943279
0.951075
0.957949
0.964697
0.970616
0.976455
0.981548
0.986599
0.990979
0.995347
0.99911
1.00289
1.00611
1.00938
1.01214
1.01496
1.01733
1.01976
1.02178
1.02387
1.02559
1.02739
1.02886
1.0304
1.03165
1.03297
1.03402
1.03515
1.03602
1.03699
1.03771
1.03853
1.03913
1.03981
1.0403
1.04086
1.04125
1.04171
1.04201
1.04238
1.04259
1.04288
1.04301
1.04322
1.04329
1.04343
1.04343
1.0435
-27.8898
-27.5251
-26.3793
-24.5231
-22.0733
-19.2208
-16.2001
-13.2406
-10.5356
-8.21786
-6.33626
-4.86346
-3.73113
-2.86266
-2.19072
-1.66274
-1.24024
-0.896028
-0.611177
-0.372481
-0.17058
0.00133088
0.148368
0.274507
0.382931
0.476251
0.556644
0.625949
0.685728
0.737314
0.781848
0.820305
0.853524
0.882223
0.907021
0.928448
0.946961
0.962955
0.976769
0.988695
0.998988
1.00787
1.01552
1.02211
1.02778
1.03266
1.03684
1.04042
1.04348
1.04609
1.04831
1.05018
1.05175
1.05306
1.05413
1.055
1.05567
1.05618
1.05654
1.05674
1.05681
-27.4352
-27.3846
-27.0786
-26.6312
-25.9573
-25.1512
-24.1425
-23.0239
-21.7501
-20.4017
-18.9663
-17.4979
-16.0177
-14.5433
-13.1252
-11.7464
-10.4754
-9.26909
-8.19743
-7.20155
-6.34031
-5.55183
-4.88017
-4.26995
-3.75261
-3.28333
-2.88426
-2.52124
-2.20999
-1.92539
-1.67865
-1.45171
-1.25255
-1.06843
-0.904941
-0.753203
-0.617055
-0.490399
-0.375732
-0.268973
-0.171595
-0.0809663
0.00221292
0.07953
0.150862
0.217044
0.278378
0.335156
0.387986
0.43677
0.48233
0.52429
0.563615
0.599733
0.6337
0.664808
0.694164
0.720969
0.746352
0.769458
0.791414
0.811338
0.830338
0.847522
0.863968
0.878791
0.89303
0.905816
0.918147
0.929176
0.939856
0.949367
0.958617
0.966818
0.974829
0.981897
0.988834
0.994924
1.00093
1.00617
1.01137
1.01588
1.02038
1.02426
1.02815
1.03148
1.03484
1.0377
1.0406
1.04305
1.04555
1.04764
1.0498
1.05158
1.05344
1.05496
1.05656
1.05784
1.05921
1.06029
1.06146
1.06237
1.06337
1.06412
1.06497
1.06559
1.0663
1.0668
1.06739
1.06779
1.06827
1.06858
1.06896
1.06918
1.06948
1.06962
1.06984
1.06991
1.07005
1.07005
1.07013
-27.0023
-26.6537
-25.5564
-23.7813
-21.4434
-18.724
-15.8423
-13.0123
-10.4145
-8.17443
-6.34127
-4.89389
-3.77146
-2.90359
-2.22736
-1.69297
-1.26355
-0.91277
-0.622043
-0.37826
-0.172023
0.00356875
0.153737
0.282554
0.393285
0.488604
0.570741
0.641573
0.702694
0.755462
0.801037
0.840413
0.874443
0.903858
0.929288
0.951272
0.970276
0.986703
1.0009
1.01316
1.02375
1.03289
1.04077
1.04756
1.05341
1.05844
1.06276
1.06646
1.06962
1.07232
1.07461
1.07655
1.07818
1.07953
1.08065
1.08154
1.08225
1.08278
1.08314
1.08336
1.08343
-26.5662
-26.5199
-26.2257
-25.7983
-25.1523
-24.3818
-23.4172
-22.3497
-21.1341
-19.8486
-18.4797
-17.0792
-15.6659
-14.257
-12.8991
-11.5765
-10.3537
-9.18979
-8.15184
-7.18348
-6.34268
-5.5693
-4.90804
-4.30423
-3.79069
-3.32244
-2.92328
-2.5584
-2.24504
-1.95726
-1.70756
-1.47707
-1.27478
-1.08724
-0.920794
-0.765989
-0.627194
-0.497885
-0.380921
-0.271907
-0.172559
-0.0800239
0.00483877
0.0837696
0.156544
0.2241
0.286677
0.344634
0.398541
0.448344
0.494844
0.537691
0.57784
0.614734
0.649426
0.681215
0.711209
0.738614
0.764561
0.788195
0.810651
0.831041
0.850483
0.868077
0.884914
0.900098
0.914684
0.927789
0.940427
0.951737
0.962687
0.972447
0.981936
0.990355
0.998577
1.00584
1.01296
1.01922
1.02539
1.03078
1.03613
1.04077
1.0454
1.04939
1.05339
1.05682
1.06028
1.06323
1.06622
1.06874
1.07133
1.07348
1.07571
1.07755
1.07947
1.08104
1.08269
1.08402
1.08543
1.08655
1.08776
1.0887
1.08973
1.09052
1.09139
1.09204
1.09277
1.09329
1.0939
1.09432
1.09482
1.09513
1.09553
1.09576
1.09607
1.09622
1.09644
1.09652
1.09666
1.09667
1.09674
-26.1527
-25.8201
-24.7699
-23.0729
-20.8415
-18.2477
-15.4969
-12.7887
-10.2926
-8.12692
-6.34108
-4.91917
-3.80716
-2.94056
-2.26066
-1.72043
-1.28459
-0.927647
-0.631391
-0.38281
-0.172473
0.00660638
0.159748
0.291115
0.404047
0.501281
0.585093
0.657396
0.719814
0.773726
0.820312
0.860583
0.895404
0.925519
0.951567
0.974097
0.993585
1.01044
1.02501
1.0376
1.04849
1.05788
1.06599
1.07298
1.07901
1.08419
1.08864
1.09246
1.09573
1.09852
1.10089
1.1029
1.10458
1.10598
1.10714
1.10807
1.1088
1.10934
1.10972
1.10995
1.11003
-25.7355
-25.6936
-25.411
-25.003
-24.3841
-23.6479
-22.7255
-21.7066
-20.5462
-19.32
-18.0137
-16.6771
-15.3267
-13.9792
-12.678
-11.4085
-10.2315
-9.10789
-8.10237
-7.16071
-6.33993
-5.58155
-4.93074
-4.33357
-3.82405
-3.35721
-2.95822
-2.59185
-2.27663
-1.98603
-1.73359
-1.49987
-1.29465
-1.10395
-0.934713
-0.777061
-0.635763
-0.503983
-0.38484
-0.273719
-0.172501
-0.0781799
0.00828401
0.0887321
0.162881
0.231734
0.295498
0.354572
0.409511
0.460283
0.507685
0.551379
0.592321
0.629958
0.665348
0.697792
0.728405
0.756387
0.782882
0.807027
0.829968
0.85081
0.870681
0.888675
0.905894
0.921432
0.936356
0.949773
0.96271
0.974296
0.985512
0.995515
1.00524
1.01387
1.0223
1.02975
1.03706
1.04349
1.04982
1.05536
1.06085
1.06562
1.07037
1.07448
1.0786
1.08213
1.08569
1.08872
1.0918
1.0944
1.09706
1.09929
1.10158
1.10348
1.10546
1.10708
1.10878
1.11015
1.11161
1.11277
1.11402
1.115
1.11606
1.11687
1.11777
1.11844
1.1192
1.11974
1.12037
1.12081
1.12132
1.12165
1.12207
1.1223
1.12262
1.12278
1.12301
1.12309
1.12324
1.12324
1.12332
-25.3412
-25.0247
-24.0202
-22.3979
-20.2675
-17.792
-15.164
-12.5705
-10.1703
-8.0758
-6.33593
-4.93933
-3.83814
-2.97339
-2.29045
-1.74495
-1.3032
-0.940543
-0.639131
-0.38606
-0.171878
0.0104823
0.166429
0.30021
0.415234
0.514294
0.599708
0.673424
0.73709
0.792107
0.839674
0.880814
0.916405
0.947203
0.973855
0.996921
1.01688
1.03416
1.0491
1.06202
1.07319
1.08285
1.09118
1.09837
1.10457
1.10991
1.1145
1.11843
1.12181
1.12468
1.12713
1.1292
1.13095
1.1324
1.13359
1.13456
1.13531
1.13588
1.13627
1.13651
1.13659
-24.9464
-24.9054
-24.6359
-24.2451
-23.6537
-22.949
-22.0679
-21.094
-19.9866
-18.8156
-17.5686
-16.2915
-15.0002
-13.7104
-12.4623
-11.243
-10.1089
-9.02412
-8.04916
-7.1338
-6.33197
-5.58895
-4.94802
-4.35816
-3.85239
-3.38767
-2.98876
-2.62156
-2.3045
-2.01161
-1.75653
-1.52001
-1.31198
-1.11847
-0.946574
-0.786343
-0.642674
-0.508627
-0.38743
-0.274357
-0.17138
-0.07539
0.0125765
0.0944541
0.169892
0.239977
0.304853
0.364996
0.420903
0.472609
0.520859
0.565372
0.60706
0.645422
0.681471
0.714557
0.745753
0.774305
0.801316
0.825967
0.849367
0.870658
0.890936
0.90933
0.926909
0.942802
0.958045
0.971778
0.984998
0.996864
1.00833
1.01858
1.02853
1.03738
1.04601
1.05366
1.06114
1.06774
1.07422
1.07992
1.08554
1.09045
1.09532
1.09955
1.10377
1.1074
1.11106
1.11418
1.11734
1.12003
1.12276
1.12506
1.12741
1.12938
1.13141
1.13309
1.13483
1.13626
1.13776
1.13896
1.14025
1.14126
1.14235
1.1432
1.14412
1.14482
1.1456
1.14617
1.14681
1.14726
1.14779
1.14814
1.14856
1.14882
1.14914
1.14931
1.14954
1.14962
1.14978
1.14979
1.14986
-24.5737
-24.2702
-23.3092
-21.7577
-19.7224
-17.3576
-14.8443
-12.3578
-10.0478
-8.02091
-6.32542
-4.95386
-3.86387
-3.0016
-2.31632
-1.76622
-1.31917
-0.951303
-0.645159
-0.387946
-0.170197
0.0152193
0.173793
0.309845
0.426847
0.52764
0.614583
0.689651
0.754516
0.8106
0.859115
0.901097
0.937438
0.968901
0.996145
1.01974
1.04016
1.05785
1.07316
1.08641
1.09786
1.10777
1.11633
1.12372
1.13009
1.13558
1.14031
1.14436
1.14784
1.15081
1.15334
1.15548
1.15728
1.15878
1.16001
1.16101
1.16179
1.16238
1.16279
1.16303
1.16311
-24.1974
-24.1578
-23.902
-23.5273
-22.9625
-22.2871
-21.4456
-20.5138
-19.4565
-18.3368
-17.1455
-15.9235
-14.6877
-13.4512
-12.2532
-11.0805
-9.987
-8.93869
-7.99301
-7.10269
-6.31929
-5.59119
-4.96008
-4.37756
-3.87568
-3.41336
-3.01473
-2.64708
-2.32839
-2.03364
-1.77611
-1.53718
-1.32651
-1.13055
-0.956151
-0.793643
-0.647736
-0.511672
-0.388533
-0.273711
-0.16907
-0.0715721
0.0178189
0.100997
0.17766
0.248874
0.31481
0.37594
0.43277
0.485347
0.534406
0.579691
0.622092
0.66114
0.697821
0.731517
0.763273
0.792371
0.819879
0.845018
0.868858
0.890585
0.911255
0.930038
0.947965
0.964205
0.979756
0.993799
1.00729
1.01943
1.03114
1.04164
1.0518
1.06087
1.06969
1.07753
1.08518
1.09195
1.09859
1.10444
1.11019
1.11523
1.12022
1.12457
1.12889
1.13264
1.13638
1.1396
1.14284
1.14561
1.14841
1.15078
1.1532
1.15523
1.15732
1.15905
1.16085
1.16232
1.16386
1.16511
1.16643
1.16748
1.1686
1.16948
1.17043
1.17116
1.17196
1.17255
1.17321
1.17368
1.17423
1.17459
1.17502
1.17529
1.17562
1.1758
1.17604
1.17613
1.17628
1.17629
1.17636
-23.9298
-23.639
-22.7151
-21.2228
-19.2665
-16.9933
-14.5745
-12.1765
-9.94132
-7.97089
-6.31298
-4.96294
-3.88285
-3.02309
-2.33618
-1.78248
-1.33118
-0.959119
-0.649142
-0.388562
-0.167905
0.0200129
0.180745
0.31867
0.437311
0.539548
0.627767
0.70397
0.769845
0.826829
0.876146
0.918844
0.955822
0.987853
1.0156
1.03964
1.06047
1.07851
1.09414
1.10766
1.11937
1.1295
1.13825
1.14581
1.15234
1.15796
1.1628
1.16696
1.17053
1.17358
1.17618
1.17838
1.18023
1.18177
1.18304
1.18407
1.18488
1.18548
1.1859
1.18615
1.18623
-23.658
-23.6203
-23.3733
-23.0111
-22.4649
-21.8112
-20.9976
-20.0965
-19.0745
-17.9919
-16.8398
-15.6577
-14.4607
-13.263
-12.0999
-10.9613
-9.89611
-8.87475
-7.94947
-7.07794
-6.30742
-5.5907
-4.96648
-4.38973
-3.8906
-3.43032
-3.03191
-2.66414
-2.34432
-2.04837
-1.78913
-1.54857
-1.33605
-1.13839
-0.962233
-0.798139
-0.650656
-0.513181
-0.388671
-0.27262
-0.166801
-0.0682406
0.0221603
0.106261
0.183793
0.255813
0.322502
0.384342
0.441829
0.495034
0.54467
0.590515
0.633425
0.672973
0.710105
0.74425
0.776405
0.805905
0.833768
0.859268
0.883423
0.905474
0.926423
0.945496
0.963671
0.98017
0.995942
1.01022
1.02391
1.03626
1.04814
1.05882
1.06913
1.07837
1.08732
1.09531
1.10308
1.10999
1.11673
1.12269
1.12854
1.13369
1.13876
1.1432
1.1476
1.15143
1.15523
1.15853
1.16182
1.16466
1.1675
1.16994
1.1724
1.17448
1.1766
1.17838
1.18021
1.18172
1.18329
1.18457
1.18591
1.187
1.18814
1.18904
1.19001
1.19076
1.19157
1.19219
1.19286
1.19335
1.1939
1.19428
1.19472
1.19499
1.19533
1.19552
1.19576
1.19585
1.19601
1.19603
1.19609
-23.3895
-23.1111
-22.2182
-20.7754
-18.8851
-16.6882
-14.3481
-12.0238
-9.85103
-7.92787
-6.3015
-4.96961
-3.89792
-3.04034
-2.35211
-1.79546
-1.34066
-0.965132
-0.651992
-0.388634
-0.165576
0.0244081
0.186926
0.326404
0.446407
0.549844
0.639128
0.716279
0.782999
0.840738
0.890728
0.934028
0.971543
1.00405
1.03223
1.05665
1.07781
1.09616
1.11205
1.12581
1.13773
1.14804
1.15696
1.16467
1.17132
1.17706
1.182
1.18625
1.1899
1.19301
1.19567
1.19792
1.19981
1.20139
1.2027
1.20375
1.20458
1.2052
1.20563
1.20588
1.20597
-23.1221
-23.0885
-22.8494
-22.5008
-21.9718
-21.3406
-20.5536
-19.6837
-18.6959
-17.6506
-16.5368
-15.3943
-14.2357
-13.076
-11.9478
-10.8424
-9.80592
-8.81036
-7.90619
-7.05236
-6.2955
-5.58928
-4.97264
-4.40099
-3.90516
-3.44648
-3.04871
-2.68052
-2.35988
-2.06253
-1.80179
-1.5595
-1.34527
-1.14587
-0.968043
-0.802349
-0.653345
-0.514464
-0.388616
-0.271353
-0.164372
-0.0647694
0.0266353
0.111636
0.190037
0.26284
0.330287
0.392813
0.450965
0.504776
0.554998
0.601383
0.644812
0.684841
0.722433
0.757009
0.789575
0.81946
0.847688
0.873534
0.898014
0.920374
0.941613
0.960963
0.979396
0.996143
1.01214
1.02664
1.04053
1.05308
1.06514
1.076
1.08648
1.09587
1.10497
1.1131
1.12099
1.12802
1.13487
1.14095
1.1469
1.15214
1.1573
1.16183
1.1663
1.17021
1.17408
1.17745
1.1808
1.1837
1.1866
1.18909
1.19159
1.19372
1.19589
1.19771
1.19957
1.20112
1.20272
1.20403
1.2054
1.20651
1.20768
1.20861
1.2096
1.21037
1.2112
1.21182
1.21251
1.21302
1.21358
1.21397
1.21442
1.2147
1.21505
1.21524
1.21548
1.21558
1.21574
1.21576
1.21583
-22.8583
-22.5915
-21.729
-20.3349
-18.5094
-16.3873
-14.1245
-11.8725
-9.76095
-7.88431
-6.2891
-4.97522
-3.91195
-3.05666
-2.36727
-1.8078
-1.34962
-0.970732
-0.654515
-0.388448
-0.163045
0.0289643
0.193234
0.33424
0.455583
0.560205
0.65054
0.728628
0.796185
0.85467
0.905329
0.949225
0.987272
1.02026
1.04886
1.07366
1.09516
1.1138
1.12995
1.14395
1.15608
1.16658
1.17566
1.18352
1.1903
1.19616
1.2012
1.20554
1.20926
1.21244
1.21515
1.21746
1.2194
1.22101
1.22235
1.22342
1.22427
1.22491
1.22535
1.22561
1.22571
-22.5949
-22.5644
-22.3338
-21.9981
-21.4863
-20.877
-20.1164
-19.277
-18.323
-17.314
-16.238
-15.1341
-14.0134
-12.8909
-11.7972
-10.7241
-9.716
-8.74575
-7.86243
-7.02607
-6.28269
-5.58691
-4.97778
-4.41126
-3.91873
-3.4617
-3.0646
-2.69606
-2.37466
-2.07598
-1.81381
-1.56983
-1.35398
-1.15286
-0.973435
-0.806162
-0.655702
-0.515429
-0.388297
-0.26983
-0.161734
-0.0610952
0.0312766
0.117172
0.196414
0.269994
0.338177
0.401385
0.460184
0.514599
0.565394
0.612314
0.656252
0.696759
0.734804
0.769807
0.802777
0.833045
0.861634
0.887822
0.912625
0.935291
0.956818
0.976441
0.995131
1.01212
1.02835
1.04307
1.05716
1.06991
1.08215
1.09318
1.10382
1.11337
1.12261
1.13087
1.1389
1.14605
1.15302
1.1592
1.16525
1.17059
1.17584
1.18045
1.18501
1.18899
1.19293
1.19636
1.19978
1.20273
1.20569
1.20823
1.21078
1.21296
1.21517
1.21703
1.21893
1.22051
1.22214
1.22349
1.22489
1.22602
1.22721
1.22817
1.22917
1.22996
1.23081
1.23146
1.23216
1.23268
1.23325
1.23365
1.23411
1.2344
1.23475
1.23495
1.2352
1.2353
1.23546
1.23548
1.23556
-22.3352
-22.08
-21.2474
-19.9012
-18.1394
-16.0907
-13.9037
-11.7225
-9.67118
-7.84032
-6.27586
-4.97985
-3.92502
-3.0721
-2.38165
-1.81949
-1.35805
-0.975907
-0.656699
-0.387992
-0.160297
0.0336923
0.19968
0.342185
0.464847
0.570635
0.662008
0.741021
0.809405
0.86863
0.919949
0.964437
1.00301
1.03647
1.06549
1.09066
1.1125
1.13144
1.14786
1.16209
1.17443
1.18511
1.19436
1.20236
1.20928
1.21524
1.22039
1.22481
1.22861
1.23186
1.23464
1.23699
1.23897
1.24063
1.24199
1.24309
1.24396
1.24461
1.24507
1.24533
1.24543
-22.0756
-22.0485
-21.8263
-21.5034
-21.0085
-20.4206
-19.6861
-18.8765
-17.9558
-16.9824
-15.9435
-14.8774
-13.794
-12.7077
-11.6479
-10.6065
-9.6264
-8.68091
-7.81824
-6.99898
-6.26906
-5.58352
-4.98194
-4.42046
-3.93132
-3.47591
-3.0796
-2.71071
-2.38866
-2.08867
-1.82519
-1.57954
-1.36214
-1.15934
-0.978395
-0.809567
-0.657713
-0.516069
-0.387703
-0.26805
-0.158876
-0.0572168
0.0360929
0.122869
0.202931
0.277277
0.346179
0.410059
0.469494
0.524502
0.575861
0.623308
0.667749
0.708725
0.747221
0.782643
0.816015
0.846658
0.875608
0.902131
0.927257
0.950222
0.972038
0.991929
1.01088
1.02811
1.04457
1.0595
1.0738
1.08673
1.09916
1.11036
1.12116
1.13086
1.14025
1.14865
1.1568
1.16407
1.17115
1.17744
1.18359
1.18903
1.19437
1.19907
1.2037
1.20776
1.21177
1.21527
1.21875
1.22176
1.22478
1.22737
1.22997
1.23219
1.23444
1.23634
1.23828
1.2399
1.24156
1.24294
1.24436
1.24553
1.24674
1.24772
1.24875
1.24955
1.25042
1.25108
1.2518
1.25233
1.25292
1.25333
1.25379
1.2541
1.25445
1.25466
1.25491
1.25502
1.25518
1.2552
1.25528
-21.82
-21.5768
-20.7735
-19.4744
-17.775
-15.7984
-13.6857
-11.574
-9.58176
-7.79593
-6.26182
-4.98352
-3.93711
-3.08664
-2.39526
-1.83053
-1.36594
-0.980646
-0.658533
-0.387256
-0.157326
0.0385987
0.206268
0.350245
0.474202
0.581139
0.673535
0.75346
0.822661
0.882617
0.934592
0.979665
1.01876
1.05269
1.08213
1.10767
1.12984
1.14908
1.16576
1.18023
1.19277
1.20364
1.21306
1.2212
1.22824
1.23432
1.23957
1.24408
1.24796
1.25128
1.25411
1.25651
1.25854
1.26023
1.26163
1.26276
1.26364
1.26431
1.26478
1.26504
1.26515
-21.5644
-21.541
-21.3272
-21.017
-20.5385
-19.9718
-19.2627
-18.4826
-17.5943
-16.6559
-15.6534
-14.6243
-13.5774
-12.5266
-11.5002
-10.4896
-9.53718
-8.6158
-7.77367
-6.97106
-6.25462
-5.57903
-4.98514
-4.42852
-3.94294
-3.48906
-3.09371
-2.72443
-2.40188
-2.10057
-1.8359
-1.58859
-1.36977
-1.1653
-0.982916
-0.812552
-0.659371
-0.516376
-0.386826
-0.266007
-0.155792
-0.0531311
0.0410895
0.12873
0.209591
0.284689
0.354296
0.418835
0.478896
0.534485
0.586402
0.634365
0.679305
0.720741
0.759684
0.795517
0.82929
0.860301
0.88961
0.916462
0.94191
0.96517
0.987275
1.00743
1.02664
1.0441
1.06079
1.07593
1.09044
1.10356
1.11617
1.12754
1.1385
1.14835
1.15789
1.16642
1.1747
1.18209
1.18929
1.19568
1.20194
1.20747
1.2129
1.21768
1.22239
1.22652
1.23061
1.23417
1.23772
1.24078
1.24385
1.24649
1.24915
1.25141
1.25371
1.25564
1.25762
1.25928
1.26097
1.26238
1.26384
1.26502
1.26626
1.26726
1.26831
1.26914
1.27002
1.2707
1.27143
1.27198
1.27258
1.273
1.27347
1.27378
1.27415
1.27436
1.27462
1.27473
1.27489
1.27491
1.275
-21.3129
-21.082
-20.3075
-19.0546
-17.4165
-15.5105
-13.4705
-11.427
-9.49273
-7.75116
-6.24697
-4.98621
-3.94822
-3.10027
-2.40807
-1.8409
-1.37329
-0.984941
-0.66001
-0.386235
-0.154128
0.0436875
0.213003
0.358422
0.483652
0.591718
0.685121
0.765947
0.835955
0.896634
0.949256
0.99491
1.03453
1.06892
1.09877
1.12469
1.14719
1.16671
1.18366
1.19836
1.21111
1.22217
1.23174
1.24003
1.24721
1.2534
1.25874
1.26335
1.2673
1.27069
1.27358
1.27603
1.2781
1.27983
1.28126
1.28241
1.28332
1.284
1.28448
1.28475
1.28486
-21.0614
-21.0424
-20.8366
-20.5393
-20.0763
-19.5309
-18.8464
-18.0954
-17.2387
-16.3347
-15.3676
-14.3748
-13.3637
-12.3475
-11.354
-10.3735
-9.44837
-8.55043
-7.72874
-6.94227
-6.2394
-5.57339
-4.98737
-4.43538
-3.95358
-3.50108
-3.1069
-2.73716
-2.41431
-2.11164
-1.84595
-1.59697
-1.37684
-1.1707
-0.986992
-0.815104
-0.660671
-0.516342
-0.385662
-0.263695
-0.152479
-0.0488342
0.04627
0.134758
0.2164
0.292232
0.362533
0.427714
0.488393
0.544549
0.597019
0.645485
0.690922
0.732807
0.772195
0.808429
0.842604
0.873972
0.903642
0.930814
0.956587
0.980132
1.00253
1.02294
1.04241
1.0601
1.07703
1.09237
1.10709
1.12039
1.13319
1.14472
1.15585
1.16584
1.17552
1.18418
1.1926
1.2001
1.20742
1.21392
1.22027
1.2259
1.23142
1.23628
1.24108
1.24528
1.24944
1.25306
1.25668
1.2598
1.26293
1.26561
1.26832
1.27063
1.27297
1.27494
1.27696
1.27865
1.28038
1.28181
1.2833
1.28451
1.28578
1.2868
1.28787
1.28872
1.28962
1.29031
1.29106
1.29161
1.29223
1.29266
1.29315
1.29346
1.29384
1.29405
1.29432
1.29443
1.2946
1.29462
1.29471
-20.8142
-20.5958
-19.8493
-18.6419
-17.0639
-15.2271
-13.2583
-11.2816
-9.40414
-7.70606
-6.23134
-4.98795
-3.95836
-3.11301
-2.4201
-1.85061
-1.38009
-0.98879
-0.661128
-0.384925
-0.150698
0.0489616
0.219886
0.366718
0.493197
0.602375
0.696769
0.778484
0.849288
0.910682
0.963945
1.01017
1.05031
1.08516
1.11542
1.1417
1.16453
1.18435
1.20156
1.21649
1.22945
1.24069
1.25043
1.25886
1.26616
1.27247
1.27791
1.2826
1.28663
1.29009
1.29304
1.29554
1.29766
1.29942
1.30088
1.30206
1.30299
1.30369
1.30417
1.30445
1.30457
-20.567
-20.5529
-20.3548
-20.0706
-19.6221
-19.0981
-18.4372
-17.7152
-16.889
-16.019
-15.0864
-14.1291
-13.153
-12.1706
-11.2093
-10.258
-9.36004
-8.48476
-7.68352
-6.91254
-6.22343
-5.56652
-4.98867
-4.44097
-3.96326
-3.51191
-3.11922
-2.74884
-2.42597
-2.12183
-1.85533
-1.60463
-1.38338
-1.17554
-0.990625
-0.817205
-0.661614
-0.515954
-0.38421
-0.261107
-0.148935
-0.0443212
0.051637
0.140954
0.223358
0.299908
0.37089
0.436698
0.497988
0.554695
0.607716
0.65667
0.702603
0.744922
0.784758
0.821379
0.855958
0.887672
0.917707
0.945187
0.971288
0.995109
1.0178
1.03846
1.05819
1.0761
1.09327
1.1088
1.12374
1.13721
1.15021
1.16189
1.17319
1.18333
1.19316
1.20194
1.2105
1.21811
1.22555
1.23214
1.23861
1.24432
1.24994
1.25487
1.25976
1.26402
1.26827
1.27195
1.27563
1.2788
1.28199
1.28473
1.28749
1.28983
1.29222
1.29423
1.29629
1.29801
1.29978
1.30124
1.30276
1.30399
1.30529
1.30632
1.30742
1.30828
1.30921
1.30991
1.31068
1.31125
1.31188
1.31231
1.31281
1.31314
1.31352
1.31374
1.31401
1.31413
1.31429
1.31432
1.31441
-20.3243
-20.1185
-19.3992
-18.2364
-16.7173
-14.9482
-13.0492
-11.1379
-9.31609
-7.6607
-6.21501
-4.98879
-3.96757
-3.12488
-2.43136
-1.85966
-1.38634
-0.992199
-0.66189
-0.383327
-0.147036
0.0544232
0.226922
0.375138
0.502843
0.613112
0.708483
0.791074
0.862663
0.924763
0.97866
1.02546
1.0661
1.1014
1.13208
1.15873
1.18188
1.20199
1.21946
1.23462
1.24778
1.2592
1.26911
1.27769
1.28511
1.29153
1.29708
1.30185
1.30596
1.30948
1.31249
1.31505
1.31721
1.31901
1.3205
1.32171
1.32265
1.32337
1.32386
1.32415
1.32427
-20.0813
-20.0729
-19.8818
-19.6113
-19.1759
-18.6738
-18.0352
-17.3422
-16.5453
-15.7089
-14.8098
-13.8873
-12.9454
-11.9958
-11.0665
-10.1433
-9.27233
-8.41872
-7.63812
-6.88179
-6.20684
-5.55833
-4.98914
-4.44517
-3.97208
-3.52145
-3.13071
-2.75941
-2.43689
-2.13109
-1.86409
-1.61153
-1.38938
-1.17978
-0.993824
-0.818836
-0.662201
-0.5152
-0.38247
-0.258234
-0.145155
-0.0395858
0.0571962
0.147325
0.230474
0.30772
0.379377
0.445788
0.50769
0.564926
0.618501
0.667921
0.714356
0.757088
0.797381
0.834369
0.869361
0.901402
0.931811
0.959583
0.986023
1.0101
1.0331
1.05399
1.074
1.09212
1.10953
1.12525
1.1404
1.15404
1.16723
1.17907
1.19055
1.20081
1.2108
1.2197
1.2284
1.23611
1.24368
1.25036
1.25695
1.26273
1.26846
1.27346
1.27844
1.28277
1.28709
1.29083
1.29458
1.2978
1.30106
1.30383
1.30665
1.30904
1.31147
1.31352
1.31562
1.31737
1.31918
1.32066
1.32221
1.32347
1.3248
1.32585
1.32698
1.32785
1.3288
1.32951
1.3303
1.33088
1.33152
1.33197
1.33248
1.33281
1.3332
1.33342
1.3337
1.33382
1.33399
1.33401
1.33411
-19.8433
-19.6502
-18.9571
-17.8381
-16.3768
-14.6739
-12.8433
-10.9959
-9.22874
-7.61526
-6.19814
-4.98887
-3.97596
-3.13597
-2.44192
-1.86812
-1.39209
-0.995188
-0.662306
-0.381448
-0.143144
0.0600721
0.234109
0.383682
0.51259
0.623932
0.720264
0.803717
0.876082
0.938878
0.993401
1.04076
1.08191
1.11766
1.14874
1.17575
1.19922
1.21962
1.23735
1.25274
1.26611
1.27771
1.28778
1.2965
1.30405
1.31059
1.31623
1.3211
1.32528
1.32887
1.33194
1.33455
1.33675
1.33859
1.34011
1.34134
1.34231
1.34304
1.34354
1.34384
1.34396
-19.6046
-19.6029
-19.4178
-19.162
-18.7375
-18.2586
-17.6403
-16.9769
-16.2077
-15.4048
-14.5378
-13.6496
-12.7411
-11.8234
-10.9256
-10.0294
-9.1855
-8.35223
-7.59283
-6.84986
-6.18989
-5.54864
-4.98901
-4.44782
-3.9802
-3.52956
-3.14151
-2.76873
-2.44718
-2.13932
-1.8723
-1.61761
-1.39492
-1.18337
-0.996625
-0.819966
-0.662456
-0.51406
-0.380453
-0.255064
-0.141146
-0.0346229
0.0629448
0.15387
0.237747
0.315667
0.387993
0.454982
0.517499
0.575235
0.629373
0.679232
0.726182
0.7693
0.810063
0.847392
0.882813
0.915156
0.945955
0.973995
1.00079
1.02511
1.04843
1.06952
1.08982
1.10813
1.1258
1.14169
1.15708
1.17087
1.18427
1.19623
1.20791
1.21828
1.22845
1.23745
1.2463
1.2541
1.26181
1.26857
1.27528
1.28114
1.28697
1.29204
1.29712
1.3015
1.30591
1.3097
1.31353
1.31679
1.32012
1.32293
1.32581
1.32823
1.33072
1.33279
1.33494
1.33671
1.33857
1.34007
1.34166
1.34294
1.3443
1.34536
1.34652
1.3474
1.34838
1.3491
1.34991
1.35049
1.35116
1.35161
1.35214
1.35247
1.35287
1.35309
1.35339
1.3535
1.35368
1.3537
1.35381
-19.371
-19.1906
-18.5226
-17.4467
-16.0421
-14.4042
-12.6406
-10.856
-9.14239
-7.57007
-6.18104
-4.98847
-3.98377
-3.14645
-2.45192
-1.87606
-1.3974
-0.997796
-0.6624
-0.379297
-0.139024
0.065913
0.241458
0.392361
0.52245
0.634847
0.732124
0.816426
0.889555
0.953039
1.00818
1.05609
1.09774
1.13394
1.16542
1.19279
1.21658
1.23727
1.25525
1.27087
1.28444
1.29622
1.30645
1.31531
1.32299
1.32964
1.33538
1.34033
1.34459
1.34825
1.35138
1.35404
1.35628
1.35816
1.35971
1.36097
1.36196
1.3627
1.36322
1.36352
1.36364
-19.1359
-19.1433
-18.962
-18.7232
-18.3062
-17.8528
-17.2519
-16.6195
-15.8756
-15.1067
-14.2703
-13.4159
-12.5401
-11.6531
-10.7868
-9.91586
-9.09991
-8.28501
-7.54807
-6.81646
-6.17299
-5.53716
-4.98867
-4.44866
-3.98798
-3.53602
-3.15191
-2.77664
-2.45705
-2.1464
-1.8801
-1.62278
-1.40007
-1.18625
-0.999088
-0.820557
-0.662414
-0.512511
-0.378177
-0.251586
-0.136913
-0.0294269
0.0688862
0.160592
0.245185
0.323748
0.396752
0.464278
0.527429
0.585622
0.64035
0.690601
0.738096
0.781555
0.82282
0.860447
0.896328
0.928933
0.960153
0.988422
1.0156
1.04012
1.06379
1.08506
1.10568
1.12414
1.14211
1.15813
1.17378
1.18769
1.20133
1.21339
1.22528
1.23575
1.24611
1.25519
1.26422
1.27209
1.27995
1.28678
1.29362
1.29953
1.30549
1.31061
1.3158
1.32022
1.32473
1.32856
1.33248
1.33577
1.33918
1.34202
1.34497
1.34741
1.34996
1.35206
1.35427
1.35605
1.35796
1.35948
1.36111
1.3624
1.36379
1.36487
1.36606
1.36695
1.36796
1.36869
1.36952
1.37011
1.37079
1.37124
1.37179
1.37212
1.37255
1.37276
1.37307
1.37318
1.37337
1.37338
1.3735
-18.9065
-18.7391
-18.0949
-17.0616
-15.7129
-14.1391
-12.4413
-10.7185
-9.05754
-7.5257
-6.16429
-4.98812
-3.99145
-3.1567
-2.46162
-1.88368
-1.40239
-1.0001
-0.662214
-0.376893
-0.134679
0.071952
0.248981
0.401192
0.532442
0.645875
0.744083
0.82922
0.903101
0.967262
1.02301
1.07147
1.11361
1.15025
1.18213
1.20985
1.23396
1.25493
1.27316
1.28901
1.30278
1.31474
1.32512
1.33413
1.34194
1.34869
1.35453
1.35957
1.36391
1.36764
1.37082
1.37353
1.37582
1.37773
1.37931
1.38059
1.3816
1.38236
1.38289
1.3832
1.38333
-18.6737
-18.6951
-18.5138
-18.2959
-17.8812
-17.4574
-16.8694
-16.2709
-15.5488
-14.8153
-14.0072
-13.1866
-12.3426
-11.4849
-10.6508
-9.80266
-9.01625
-8.21672
-7.50463
-6.78117
-6.15695
-5.52345
-4.98883
-4.4473
-3.99599
-3.54049
-3.16235
-2.78289
-2.46683
-2.15214
-1.88773
-1.62691
-1.40501
-1.18835
-1.00131
-0.820555
-0.662129
-0.510525
-0.375666
-0.247787
-0.132461
-0.0239961
0.0750272
0.167485
0.252802
0.331953
0.405668
0.473663
0.537497
0.596072
0.651447
0.702013
0.750115
0.793838
0.835667
0.873518
0.909921
0.942716
0.974417
1.00285
1.03047
1.05513
1.0792
1.10059
1.12158
1.14014
1.15844
1.17455
1.19051
1.20449
1.21841
1.23054
1.24267
1.2532
1.26378
1.27291
1.28214
1.29005
1.2981
1.30496
1.31197
1.31791
1.32402
1.32916
1.33448
1.33893
1.34356
1.3474
1.35142
1.35474
1.35823
1.36109
1.36412
1.36658
1.36921
1.37131
1.37358
1.37538
1.37734
1.37886
1.38055
1.38184
1.38329
1.38436
1.38559
1.38649
1.38753
1.38826
1.38912
1.3897
1.39042
1.39086
1.39144
1.39176
1.39221
1.39242
1.39274
1.39284
1.39305
1.39304
1.39318
-18.4471
-18.2944
-17.6728
-16.6818
-15.3885
-13.8782
-12.2457
-10.584
-8.97508
-7.48316
-6.14892
-4.98876
-3.99977
-3.16732
-2.47148
-1.89131
-1.40727
-1.00224
-0.661826
-0.374274
-0.130119
0.0781955
0.256693
0.410194
0.542588
0.657042
0.756162
0.842121
0.916741
0.981567
1.03792
1.08691
1.12953
1.16661
1.19887
1.22694
1.25137
1.27261
1.29109
1.30716
1.32113
1.33327
1.34381
1.35296
1.36089
1.36775
1.37369
1.37882
1.38323
1.38702
1.39026
1.39302
1.39535
1.3973
1.39891
1.40022
1.40125
1.40203
1.40256
1.40288
1.40301
-18.2135
-18.2598
-18.0711
-17.8814
-17.4604
-17.0737
-16.491
-15.9319
-15.2262
-14.531
-13.7482
-12.9618
-12.149
-11.3187
-10.5183
-9.68926
-8.93574
-8.14669
-7.46391
-6.74323
-6.14318
-5.50678
-4.9908
-4.44306
-4.00536
-3.54243
-3.17373
-2.78703
-2.47719
-2.15622
-1.89566
-1.62977
-1.41005
-1.1895
-1.00349
-0.819875
-0.661706
-0.508053
-0.372969
-0.243644
-0.1278
-0.0183242
0.0813823
0.174546
0.260627
0.340272
0.41478
0.483125
0.547746
0.606571
0.662707
0.713455
0.762281
0.806136
0.848645
0.886592
0.92363
0.956495
0.988783
1.01727
1.04543
1.07012
1.09469
1.11611
1.13755
1.15613
1.17484
1.19096
1.20729
1.22127
1.23553
1.24766
1.26011
1.27063
1.28149
1.29061
1.30009
1.308
1.31627
1.32312
1.33034
1.33627
1.34256
1.34769
1.35318
1.35761
1.36239
1.36622
1.37038
1.37368
1.3773
1.38014
1.38329
1.38573
1.38845
1.39054
1.3929
1.39469
1.39673
1.39824
1.4
1.40127
1.40278
1.40384
1.40513
1.40601
1.4071
1.40781
1.40873
1.40929
1.41004
1.41048
1.41108
1.41139
1.41187
1.41206
1.41241
1.41249
1.41273
1.4127
1.41286
-17.9867
-17.8537
-17.2535
-16.305
-15.0677
-13.6211
-12.0541
-10.4535
-8.89652
-7.44425
-6.13674
-4.99203
-4.01015
-3.17943
-2.48232
-1.89953
-1.41244
-1.00444
-0.661365
-0.371497
-0.125355
0.0846623
0.26463
0.419415
0.552938
0.668395
0.768413
0.855176
0.930519
0.995995
1.05293
1.10245
1.14555
1.18305
1.21569
1.2441
1.26883
1.29034
1.30907
1.32535
1.33952
1.35183
1.36252
1.3718
1.37985
1.38683
1.39286
1.39807
1.40255
1.40641
1.40971
1.41251
1.41489
1.41687
1.41851
1.41985
1.42089
1.42169
1.42223
1.42255
1.42269
-17.7454
-17.8398
-17.6296
-17.4822
-17.0402
-16.7038
-16.1138
-15.6041
-14.9058
-14.2547
-13.4926
-12.7416
-11.9596
-11.154
-10.3907
-9.57481
-8.86046
-8.07375
-7.42836
-6.70137
-6.13417
-5.48587
-4.99685
-4.43483
-4.018
-3.5409
-3.18756
-2.78836
-2.48926
-2.15812
-1.90467
-1.63102
-1.41569
-1.1895
-1.00593
-0.818381
-0.661317
-0.505027
-0.370157
-0.239132
-0.122937
-0.0124132
0.0879824
0.181755
0.268713
0.348679
0.424152
0.492632
0.558244
0.617086
0.6742
0.724892
0.774661
0.818416
0.861819
0.89964
0.937516
0.97024
1.00331
1.03164
1.06053
1.08507
1.11031
1.13158
1.15363
1.17207
1.19134
1.20732
1.22416
1.23801
1.25274
1.26474
1.27761
1.28801
1.29926
1.30827
1.3181
1.32591
1.33449
1.34125
1.34875
1.35459
1.36114
1.36619
1.37191
1.37627
1.38126
1.38502
1.38936
1.39261
1.39639
1.39917
1.40247
1.40486
1.40772
1.40976
1.41224
1.41398
1.41612
1.4176
1.41945
1.42069
1.42228
1.42331
1.42467
1.42552
1.42667
1.42736
1.42833
1.42887
1.42967
1.43008
1.43073
1.43101
1.43153
1.43169
1.43208
1.43213
1.43241
1.43234
1.43254
-17.512
-17.4116
-16.8324
-15.9276
-14.7479
-13.367
-11.867
-10.3288
-8.8245
-7.41203
-6.13087
-5.00084
-4.02504
-3.19496
-2.4956
-1.90933
-1.41855
-1.00712
-0.661048
-0.368651
-0.120396
0.0913945
0.272864
0.428937
0.563583
0.680028
0.780922
0.868468
0.944513
1.01062
1.06812
1.11815
1.1617
1.19961
1.23262
1.26135
1.28637
1.30815
1.32711
1.34361
1.35795
1.37043
1.38127
1.39068
1.39885
1.40593
1.41205
1.41734
1.4219
1.42581
1.42916
1.43202
1.43443
1.43645
1.43812
1.43948
1.44054
1.44135
1.44191
1.44224
1.44237
-17.2491
-17.44
-17.1816
-17.1019
-16.6142
-16.3509
-15.7329
-15.2898
-14.5844
-13.9878
-13.2391
-12.5264
-11.7753
-10.9901
-10.2705
-9.45781
-8.79398
-7.9959
-7.40217
-6.65335
-6.1342
-5.45858
-5.01095
-4.42068
-4.03728
-3.53434
-3.2065
-2.78567
-2.50501
-2.15698
-1.91616
-1.63006
-1.42285
-1.18796
-1.00918
-0.815861
-0.661251
-0.501341
-0.367345
-0.234218
-0.117876
-0.00627715
0.0948937
0.189072
0.277165
0.357117
0.433907
0.502121
0.569121
0.627552
0.686056
0.736262
0.78738
0.830618
0.875306
0.912604
0.951688
0.983901
1.0181
1.04594
1.07586
1.09994
1.12614
1.14697
1.1699
1.18793
1.20801
1.22361
1.24119
1.25469
1.27008
1.28176
1.29523
1.30534
1.31714
1.32588
1.3362
1.34376
1.3528
1.35933
1.36723
1.37288
1.37979
1.38465
1.39069
1.39489
1.40017
1.40378
1.40839
1.41149
1.41551
1.41818
1.42168
1.42396
1.42701
1.42895
1.4316
1.43324
1.43554
1.43693
1.43892
1.44008
1.44179
1.44276
1.44423
1.44501
1.44626
1.44689
1.44795
1.44842
1.44931
1.44966
1.45039
1.45061
1.4512
1.45131
1.45176
1.45176
1.45209
1.45197
1.45222
-16.9958
-16.9576
-16.4015
-15.5431
-14.425
-13.1141
-11.6854
-10.213
-8.76355
-7.39184
-6.13676
-5.02018
-4.04868
-3.21729
-2.51381
-1.92249
-1.42675
-1.01095
-0.661234
-0.365876
-0.115236
0.0984815
0.281531
0.438924
0.574691
0.692106
0.79385
0.882149
0.958863
1.02557
1.0836
1.13411
1.17809
1.21639
1.24974
1.27878
1.30407
1.3261
1.34528
1.36197
1.37649
1.38912
1.4001
1.40963
1.4179
1.42508
1.43128
1.43665
1.44127
1.44525
1.44865
1.45155
1.454
1.45605
1.45774
1.45912
1.46021
1.46102
1.46159
1.46192
1.46204
-16.6836
-17.0687
-16.7121
-16.747
-16.1713
-16.0204
-15.3394
-14.9931
-14.2565
-13.7324
-12.9855
-12.3164
-11.5972
-10.8258
-10.1616
-9.33564
-8.74248
-7.90969
-7.39258
-6.59541
-6.15067
-5.42122
-5.03991
-4.39736
-4.069
-3.52007
-3.23516
-2.77691
-2.52787
-2.15132
-1.9325
-1.62591
-1.43308
-1.18426
-1.01418
-0.811963
-0.661984
-0.496836
-0.364707
-0.228868
-0.112595
4.32733e-05
0.102254
0.196412
0.286186
0.365478
0.444279
0.511475
0.580619
0.637852
0.698512
0.747451
0.800665
0.842634
0.889318
0.925384
0.966343
0.997382
1.03332
1.06006
1.0916
1.11465
1.14233
1.16221
1.1865
1.20365
1.22497
1.23976
1.25847
1.27124
1.28765
1.29866
1.31307
1.32257
1.3352
1.34339
1.35448
1.36153
1.37125
1.37733
1.38585
1.39108
1.39855
1.40305
1.40959
1.41345
1.41917
1.42249
1.4275
1.43033
1.43471
1.43713
1.44095
1.44302
1.44635
1.4481
1.451
1.45248
1.455
1.45623
1.45843
1.45945
1.46134
1.46217
1.46381
1.46447
1.46587
1.46639
1.46758
1.46796
1.46897
1.46922
1.47006
1.4702
1.47088
1.47091
1.47146
1.47137
1.47179
1.47159
1.4719
-16.3839
-16.4723
-15.9466
-15.1407
-14.092
-12.8599
-11.5108
-10.1112
-8.72146
-7.39282
-6.16377
-5.05872
-4.08845
-3.25225
-2.5413
-1.94201
-1.43901
-1.01711
-0.66252
-0.363382
-0.109841
0.106108
0.290898
0.449676
0.586575
0.704936
0.807489
0.89649
0.973821
1.04107
1.09959
1.15053
1.1949
1.23353
1.26719
1.29651
1.32204
1.34428
1.36365
1.38051
1.39519
1.40795
1.41905
1.42869
1.43706
1.44432
1.4506
1.45603
1.46071
1.46473
1.46818
1.47111
1.4736
1.47568
1.4774
1.47879
1.47989
1.48072
1.48129
1.48163
1.48173
-15.9687
-16.7422
-16.1933
-16.4289
-15.6921
-15.721
-14.9189
-14.7202
-13.9127
-13.492
-12.7285
-12.1122
-11.4276
-10.6586
-10.0714
-9.20375
-8.71653
-7.8092
-7.41203
-6.52108
-6.19629
-5.36752
-5.09551
-4.35929
-4.12322
-3.49351
-3.28152
-2.75855
-2.56378
-2.13861
-1.95785
-1.61684
-1.44906
-1.17735
-1.02249
-0.806107
-0.664312
-0.491257
-0.362505
-0.223042
-0.107017
0.0064526
0.110343
0.203604
0.296163
0.373554
0.455705
0.520472
0.593186
0.647765
0.712005
0.758247
0.81493
0.854265
0.90424
0.937796
0.981834
1.01052
1.04931
1.07386
1.10803
1.12906
1.15915
1.17717
1.20366
1.21911
1.24244
1.25569
1.27621
1.28757
1.30564
1.31538
1.33127
1.33962
1.35359
1.36075
1.37303
1.37916
1.38996
1.3952
1.40469
1.40918
1.41751
1.42134
1.42865
1.43192
1.43834
1.44111
1.44674
1.4491
1.45403
1.45602
1.46034
1.46201
1.46579
1.46719
1.47049
1.47166
1.47454
1.47549
1.478
1.47877
1.48095
1.48155
1.48344
1.4839
1.48553
1.48586
1.48726
1.48746
1.48866
1.48875
1.48977
1.48975
1.4906
1.49048
1.49117
1.49095
1.4915
1.49119
1.49158
-15.5708
-15.9195
-15.4431
-14.7018
-13.7373
-12.6
-11.3462
-10.0324
-8.71159
-7.43068
-6.22796
-5.13134
-4.15707
-3.30998
-2.58561
-1.97317
-1.45873
-1.02759
-0.665903
-0.361486
-0.104094
0.114647
0.301474
0.461764
0.599816
0.719084
0.822373
0.911987
0.98984
1.05754
1.11646
1.16775
1.21241
1.25132
1.28522
1.31475
1.34047
1.36288
1.38239
1.39939
1.41418
1.42704
1.43823
1.44795
1.45639
1.46371
1.47005
1.47553
1.48025
1.48431
1.48779
1.49076
1.49326
1.49536
1.4971
1.49851
1.49962
1.50045
1.50103
1.50135
1.50141
-13.3836
-13.9103
-13.5312
-13.6986
-13.2295
-13.2509
-12.7381
-12.6118
-12.089
-11.8151
-11.3079
-10.8973
-10.4216
-9.89496
-9.45772
-8.84447
-8.44532
-7.78073
-7.41499
-6.73642
-6.39823
-5.74023
-5.42494
-4.81459
-4.51968
-3.974
-3.6989
-3.22497
-2.97015
-2.56725
-2.33338
-1.99576
-1.78322
-1.50265
-1.31124
-1.07888
-0.907841
-0.715349
-0.563475
-0.403547
-0.26936
-0.135911
-0.017789
0.0941113
0.197814
0.29209
0.382963
0.462723
0.542253
0.609958
0.679502
0.737119
0.797895
0.847012
0.900105
0.942019
0.988386
1.02417
1.06465
1.0952
1.13054
1.15661
1.18745
1.20969
1.23659
1.25554
1.27901
1.29514
1.3156
1.32932
1.34715
1.3588
1.37434
1.38421
1.39775
1.40611
1.41789
1.42495
1.43521
1.44115
1.45008
1.45508
1.46284
1.46702
1.47378
1.47727
1.48313
1.48604
1.49113
1.49353
1.49796
1.49993
1.50377
1.50538
1.50871
1.51001
1.5129
1.51393
1.51644
1.51725
1.51942
1.52004
1.52192
1.52237
1.524
1.52431
1.52571
1.5259
1.52711
1.52719
1.52823
1.52821
1.52909
1.529
1.52974
1.52956
1.53019
1.52993
1.53044
1.53011
1.53063
-11.1803
-11.1312
-10.7748
-10.224
-9.50465
-8.65868
-7.73346
-6.77639
-5.83014
-4.92891
-4.0964
-3.34559
-2.68021
-2.09724
-1.58967
-1.14875
-0.765496
-0.431604
-0.139784
0.116141
0.341323
0.540031
0.715803
0.871596
1.00989
1.13281
1.24215
1.33948
1.42616
1.50339
1.57222
1.63356
1.68825
1.73699
1.78044
1.81917
1.85368
1.88443
1.91182
1.93621
1.95791
1.97722
1.99437
2.00961
2.02312
2.03508
2.04565
2.05498
2.06318
2.07036
2.07662
2.08205
2.08671
2.09068
2.094
2.09672
2.09889
2.10054
2.1017
2.10237
2.10244
-2.24971
-2.32241
-2.31362
-2.39463
-2.40665
-2.5038
-2.537
-2.64275
-2.69047
-2.79159
-2.84254
-2.92503
-2.96645
-3.01734
-3.03735
-3.04669
-3.03635
-2.99879
-2.95341
-2.86898
-2.78856
-2.66227
-2.55082
-2.39136
-2.25555
-2.07329
-1.92085
-1.72601
-1.56449
-1.3659
-1.2018
-1.00633
-0.844765
-0.6573
-0.501947
-0.325592
-0.178857
-0.015326
0.121411
0.271435
0.397566
0.534108
0.649567
0.773104
0.878189
0.989466
1.08469
1.18459
1.2706
1.36005
1.43754
1.51748
1.58714
1.65846
1.72099
1.78453
1.84058
1.89712
1.94731
1.99756
2.04246
2.08708
2.1272
2.16679
2.20262
2.2377
2.26968
2.30074
2.32925
2.35673
2.38215
2.40643
2.42907
2.45051
2.47067
2.48958
2.50751
2.52418
2.54013
2.5548
2.56897
2.58186
2.59445
2.60577
2.61694
2.62687
2.63677
2.64546
2.65423
2.66182
2.66958
2.67619
2.68305
2.68879
2.69484
2.69981
2.70513
2.70941
2.71408
2.71775
2.72184
2.72496
2.72851
2.73114
2.73421
2.7364
2.73903
2.74082
2.74305
2.74447
2.74633
2.74742
2.74894
2.74971
2.7509
2.75139
2.75228
2.75248
2.75308
2.75302
2.7536
-2.75848
-2.73396
-2.68297
-2.58904
-2.45858
-2.29437
-2.09979
-1.87878
-1.63583
-1.37583
-1.10386
-0.824945
-0.543966
-0.265449
0.00660312
0.268892
0.518926
0.755018
0.976209
1.18214
1.37291
1.54895
1.7109
1.85953
1.99568
2.12022
2.234
2.33783
2.43252
2.51879
2.59735
2.66882
2.73382
2.79289
2.84653
2.89523
2.93939
2.97942
3.01568
3.0485
3.07817
3.10497
3.12914
3.15092
3.17051
3.18809
3.20384
3.21789
3.2304
3.24148
3.25124
3.25978
3.26719
3.27353
3.27889
3.28332
3.28686
3.28957
3.29146
3.29259
3.29285
-0.160691
-0.174705
-0.160478
-0.152519
-0.130362
-0.11726
-0.0887059
-0.0679888
-0.0332676
-0.00535935
0.0347502
0.0691789
0.113818
0.153971
0.202398
0.247491
0.299196
0.348583
0.403318
0.456575
0.514281
0.571235
0.631911
0.692588
0.756178
0.820666
0.886986
0.955251
1.02396
1.09572
1.16633
1.24102
1.31291
1.38974
1.46221
1.54023
1.61256
1.6908
1.76229
1.83981
1.90984
1.98581
2.05382
2.12754
2.1931
2.26402
2.32678
2.3945
2.45421
2.51846
2.57496
2.63556
2.68879
2.74567
2.7956
2.84876
2.89543
2.94492
2.9884
3.03434
3.07473
3.11723
3.15466
3.19389
3.22849
3.26461
3.29654
3.32972
3.35912
3.38954
3.41656
3.44441
3.4692
3.49464
3.51735
3.54055
3.56133
3.58245
3.60142
3.62061
3.63791
3.65532
3.67107
3.68683
3.70114
3.71538
3.72836
3.7412
3.75294
3.7645
3.77509
3.78546
3.795
3.80426
3.81282
3.82107
3.82872
3.83604
3.84284
3.84929
3.8553
3.86095
3.86622
3.87112
3.87571
3.87991
3.88385
3.88741
3.89073
3.89368
3.89642
3.89879
3.90098
3.9028
3.90446
3.90575
3.9069
3.9077
3.90835
3.90866
3.90899
0.819226
0.817759
0.842758
0.88203
0.935695
1.00306
1.08318
1.17494
1.27705
1.38813
1.5067
1.6312
1.76013
1.892
2.02546
2.15929
2.29235
2.42365
2.55229
2.67752
2.79869
2.9153
3.02698
3.13346
3.23458
3.33027
3.42053
3.50543
3.58509
3.65965
3.7293
3.79424
3.85467
3.91082
3.9629
4.01114
4.05576
4.09696
4.13495
4.16992
4.20207
4.23157
4.25858
4.28327
4.30578
4.32625
4.34481
4.36157
4.37665
4.39014
4.40214
4.41273
4.42199
4.42998
4.43677
4.4424
4.44694
4.45041
4.45286
4.45431
4.45473
2.40864
2.40461
2.41101
2.41097
2.42077
2.42486
2.43831
2.44613
2.46304
2.47451
2.49474
2.5098
2.53317
2.55178
2.57806
2.60016
2.6291
2.65457
2.68586
2.71456
2.74789
2.77958
2.81466
2.84904
2.88563
2.92233
2.96019
2.99883
3.03776
3.07796
3.11774
3.15916
3.19959
3.24191
3.28278
3.32571
3.3668
3.41009
3.45119
3.49457
3.53547
3.57871
3.6192
3.66207
3.70196
3.74424
3.78335
3.82483
3.86299
3.90349
3.94058
3.97994
4.01582
4.05389
4.08848
4.12515
4.15836
4.19355
4.22532
4.25896
4.28926
4.3213
4.35011
4.38053
4.40783
4.43662
4.46244
4.48961
4.51395
4.53952
4.5624
4.5864
4.60787
4.63034
4.65043
4.67142
4.69017
4.70972
4.72719
4.74535
4.76158
4.77842
4.79346
4.80903
4.82293
4.83729
4.85009
4.86329
4.87506
4.88716
4.89794
4.90898
4.91881
4.92886
4.93779
4.94689
4.95495
4.96315
4.97039
4.97774
4.98419
4.99072
4.99642
5.00217
5.00715
5.01215
5.01644
5.02074
5.02435
5.02797
5.03094
5.03391
5.03626
5.03859
5.04033
5.04205
5.04321
5.04434
5.04491
5.04547
5.04556
3.26821
3.27132
3.28201
3.30049
3.32603
3.35836
3.39708
3.44174
3.49185
3.54688
3.60631
3.6696
3.73618
3.80552
3.87705
3.95021
4.02446
4.0993
4.17425
4.24886
4.32273
4.39551
4.46688
4.53657
4.60435
4.67002
4.73342
4.79443
4.85297
4.90897
4.96239
5.01323
5.06148
5.10718
5.15036
5.19107
5.22937
5.26533
5.29901
5.33048
5.35984
5.38715
5.41249
5.43595
5.45759
5.47749
5.49573
5.51236
5.52747
5.5411
5.55333
5.56419
5.57376
5.58206
5.58915
5.59506
5.59984
5.60351
5.6061
5.60764
5.60813
4.4342
4.4311
4.43418
4.43535
4.4406
4.44362
4.45081
4.45592
4.46501
4.47217
4.48309
4.49226
4.50493
4.51603
4.53037
4.54333
4.55925
4.57395
4.59138
4.6077
4.62654
4.64436
4.66449
4.6837
4.705
4.72549
4.7478
4.76947
4.79265
4.81537
4.83926
4.86291
4.88738
4.91182
4.93673
4.96182
4.98704
5.01264
5.03805
5.06401
5.0895
5.11569
5.14114
5.16742
5.19274
5.21898
5.24408
5.27017
5.29495
5.32078
5.34516
5.37063
5.39454
5.41956
5.44292
5.46741
5.49017
5.51406
5.53616
5.55938
5.58078
5.60328
5.62394
5.64567
5.66556
5.68648
5.70557
5.72566
5.74394
5.76316
5.78061
5.79896
5.81557
5.83304
5.84881
5.86539
5.88032
5.89601
5.91011
5.92492
5.93819
5.95212
5.96458
5.97765
5.9893
6.00153
6.01239
6.02378
6.03387
6.04445
6.05378
6.06356
6.07215
6.08116
6.08903
6.09728
6.10445
6.11197
6.11845
6.12525
6.13106
6.13717
6.14233
6.14776
6.15228
6.15706
6.16096
6.1651
6.16839
6.17191
6.17461
6.17752
6.17965
6.18196
6.18352
6.18526
6.18626
6.18744
6.18789
6.18852
6.18845
5.22071
5.22117
5.2271
5.23676
5.25014
5.26715
5.28766
5.31152
5.33854
5.36851
5.4012
5.43636
5.47372
5.51303
5.554
5.59638
5.63991
5.68433
5.7294
5.77488
5.82054
5.86618
5.91159
5.95659
6.00101
6.04471
6.08754
6.12938
6.17014
6.20972
6.24804
6.28504
6.32067
6.35489
6.38768
6.41901
6.44887
6.47726
6.50418
6.52965
6.55367
6.57626
6.59744
6.61725
6.6357
6.65282
6.66864
6.68319
6.69649
6.70859
6.7195
6.72926
6.7379
6.74543
6.75189
6.75729
6.76167
6.76505
6.76743
6.76886
6.76933
6.17387
6.17257
6.17442
6.17492
6.17794
6.17968
6.1839
6.18683
6.19221
6.1963
6.2028
6.20804
6.21561
6.22197
6.23057
6.23803
6.24759
6.25611
6.26658
6.27611
6.28742
6.29793
6.31001
6.32143
6.33423
6.3465
6.35995
6.37299
6.38703
6.40076
6.41533
6.42969
6.44471
6.45962
6.47504
6.49042
6.50615
6.52194
6.53792
6.55403
6.5702
6.58656
6.60285
6.6194
6.63573
6.6524
6.66873
6.68544
6.7017
6.71839
6.73453
6.75115
6.76711
6.7836
6.79934
6.81563
6.83111
6.84716
6.86233
6.87809
6.89292
6.90836
6.92281
6.93787
6.95191
6.96658
6.98019
6.99441
7.00757
7.02133
7.03401
7.04729
7.05947
7.07225
7.08392
7.09617
7.10732
7.11904
7.12966
7.14084
7.15092
7.16155
7.17109
7.18115
7.19015
7.19965
7.2081
7.21704
7.22495
7.23332
7.24068
7.24849
7.25532
7.26257
7.26886
7.27555
7.28131
7.28745
7.29268
7.29829
7.30299
7.30806
7.31225
7.31679
7.32047
7.32449
7.32767
7.33117
7.33386
7.33685
7.33906
7.34155
7.34327
7.34528
7.34653
7.34805
7.34883
7.34988
7.35021
7.35079
7.35065
6.9073
6.90788
6.91116
6.91669
6.92437
6.93415
6.94597
6.95975
6.97539
6.99281
7.01189
7.03252
7.05458
7.07794
7.10249
7.12807
7.15457
7.18184
7.20974
7.23815
7.26695
7.29599
7.32517
7.35437
7.38348
7.4124
7.44103
7.46929
7.4971
7.52437
7.55105
7.57707
7.60237
7.62692
7.65066
7.67357
7.69561
7.71675
7.73698
7.75628
7.77464
7.79205
7.8085
7.82399
7.83852
7.8521
7.86473
7.87642
7.88717
7.89699
7.90589
7.91389
7.92099
7.92721
7.93256
7.93705
7.94069
7.94351
7.9455
7.94669
7.9471
7.74364
7.74273
7.7438
7.74417
7.746
7.74708
7.74962
7.75142
7.75466
7.75719
7.7611
7.76434
7.76891
7.77284
7.77805
7.78265
7.78847
7.79372
7.80013
7.806
7.81296
7.81942
7.82691
7.83393
7.8419
7.84946
7.85788
7.86593
7.87476
7.88327
7.89247
7.9014
7.91093
7.92025
7.93007
7.93973
7.94979
7.95976
7.97003
7.98025
7.9907
8.00114
8.01171
8.02233
8.033
8.04375
8.05447
8.06532
8.07606
8.08696
8.09768
8.10861
8.11928
8.13018
8.14077
8.15162
8.16209
8.17285
8.18318
8.19382
8.20398
8.21447
8.22443
8.23474
8.24448
8.25459
8.26409
8.27396
8.2832
8.29282
8.30178
8.31113
8.31979
8.32885
8.3372
8.34595
8.35397
8.36239
8.37008
8.37816
8.3855
8.39324
8.40022
8.4076
8.41422
8.42122
8.42747
8.4341
8.43998
8.44623
8.45172
8.45759
8.4627
8.46817
8.4729
8.47798
8.48233
8.48702
8.49098
8.49527
8.49884
8.50274
8.50593
8.50944
8.51225
8.51537
8.5178
8.52053
8.52258
8.52493
8.5266
8.52857
8.52987
8.53146
8.5324
8.53362
8.5342
8.53504
8.53527
8.53575
8.53559
8.44231
8.44256
8.44456
8.44787
8.45247
8.45835
8.46546
8.47378
8.48326
8.49385
8.5055
8.51814
8.53172
8.54616
8.5614
8.57736
8.59397
8.61117
8.62886
8.64698
8.66546
8.68421
8.70318
8.72228
8.74145
8.76062
8.77974
8.79873
8.81755
8.83614
8.85445
8.87243
8.89004
8.90723
8.92398
8.94024
8.95599
8.97119
8.98583
8.99988
9.01333
9.02615
9.03833
9.04987
9.06075
9.07096
9.0805
9.08937
9.09756
9.10507
9.1119
9.11806
9.12354
9.12836
9.13251
9.136
9.13884
9.14103
9.14259
9.14352
9.14384
9.20769
9.20717
9.20785
9.20807
9.20921
9.20989
9.21148
9.21261
9.21465
9.21623
9.21869
9.22072
9.2236
9.22606
9.22935
9.23223
9.23592
9.23921
9.24327
9.24696
9.25138
9.25545
9.26021
9.26465
9.26972
9.27451
9.27989
9.285
9.29065
9.29608
9.30198
9.30769
9.31382
9.31979
9.32614
9.33235
9.33887
9.34529
9.35198
9.35859
9.36542
9.37219
9.37913
9.38604
9.39307
9.4001
9.40718
9.4143
9.42143
9.42862
9.43576
9.44299
9.45013
9.45738
9.4645
9.47174
9.47881
9.48602
9.49303
9.50019
9.50711
9.51421
9.52102
9.52803
9.53472
9.54162
9.54817
9.55495
9.56134
9.56798
9.5742
9.58068
9.58673
9.59303
9.59888
9.60499
9.61064
9.61655
9.62198
9.62768
9.63289
9.63837
9.64333
9.64858
9.65331
9.65831
9.66279
9.66754
9.67176
9.67626
9.68022
9.68446
9.68816
9.69213
9.69555
9.69925
9.70241
9.70583
9.70871
9.71186
9.71446
9.71733
9.71966
9.72225
9.7243
9.72661
9.72838
9.73041
9.7319
9.73365
9.73487
9.73634
9.73729
9.73848
9.73916
9.74008
9.74049
9.74113
9.74128
9.74166
9.74152
9.88364
9.88381
9.88504
9.88711
9.88998
9.89365
9.8981
9.90331
9.90925
9.9159
9.92324
9.93121
9.9398
9.94897
9.95867
9.96887
9.97952
9.99059
10.002
10.0138
10.0258
10.0381
10.0505
10.0631
10.0758
10.0886
10.1014
10.1142
10.1269
10.1395
10.152
10.1643
10.1764
10.1883
10.1999
10.2113
10.2223
10.233
10.2434
10.2533
10.2629
10.2721
10.2809
10.2892
10.2971
10.3045
10.3114
10.3179
10.3239
10.3294
10.3345
10.339
10.3431
10.3466
10.3497
10.3523
10.3544
10.3561
10.3572
10.3579
10.3582
10.6043
10.6039
10.6044
10.6045
10.6053
10.6057
10.6067
10.6074
10.6087
10.6098
10.6113
10.6126
10.6145
10.6161
10.6182
10.62
10.6224
10.6245
10.6272
10.6295
10.6324
10.635
10.6381
10.641
10.6443
10.6473
10.6508
10.6541
10.6578
10.6613
10.6652
10.6689
10.6729
10.6768
10.681
10.685
10.6893
10.6935
10.6979
10.7022
10.7067
10.7112
10.7158
10.7203
10.725
10.7296
10.7344
10.7391
10.7438
10.7486
10.7534
10.7582
10.763
10.7678
10.7726
10.7775
10.7823
10.7871
10.7918
10.7967
10.8014
10.8062
10.8108
10.8156
10.8201
10.8248
10.8293
10.8339
10.8383
10.8429
10.8472
10.8516
10.8558
10.8601
10.8642
10.8684
10.8723
10.8764
10.8802
10.8842
10.8878
10.8916
10.8951
10.8988
10.9021
10.9056
10.9087
10.9121
10.915
10.9182
10.921
10.924
10.9266
10.9294
10.9319
10.9345
10.9367
10.9392
10.9412
10.9434
10.9453
10.9473
10.949
10.9509
10.9523
10.954
10.9552
10.9567
10.9578
10.959
10.9599
10.9609
10.9616
10.9625
10.963
10.9636
10.9639
10.9644
10.9645
10.9648
10.9646
11.2652
11.2653
11.2661
11.2674
11.2693
11.2716
11.2745
11.2778
11.2817
11.2859
11.2907
11.2958
11.3014
11.3073
11.3136
11.3203
11.3272
11.3345
11.342
11.3497
11.3576
11.3658
11.374
11.3824
11.3909
11.3995
11.408
11.4167
11.4253
11.4338
11.4423
11.4507
11.459
11.4672
11.4752
11.4831
11.4907
11.4982
11.5054
11.5124
11.5191
11.5256
11.5318
11.5377
11.5432
11.5485
11.5535
11.5581
11.5624
11.5664
11.57
11.5733
11.5762
11.5788
11.581
11.5829
11.5844
11.5856
11.5864
11.5869
11.5871
11.9566
11.9564
11.9567
11.9568
11.9572
11.9575
11.9582
11.9587
11.9595
11.9602
11.9612
11.9621
11.9633
11.9643
11.9657
11.9669
11.9685
11.9699
11.9716
11.9731
11.975
11.9768
11.9788
11.9807
11.9828
11.9849
11.9872
11.9894
11.9918
11.9941
11.9967
11.9991
12.0018
12.0043
12.0071
12.0098
12.0126
12.0154
12.0184
12.0212
12.0243
12.0272
12.0303
12.0333
12.0364
12.0395
12.0427
12.0459
12.0491
12.0523
12.0555
12.0587
12.062
12.0652
12.0685
12.0717
12.075
12.0782
12.0815
12.0847
12.0879
12.0912
12.0944
12.0976
12.1007
12.1039
12.107
12.1101
12.1131
12.1163
12.1192
12.1223
12.1251
12.1281
12.1309
12.1338
12.1365
12.1394
12.142
12.1447
12.1472
12.1499
12.1523
12.1548
12.1571
12.1596
12.1618
12.1641
12.1662
12.1684
12.1703
12.1724
12.1743
12.1762
12.1779
12.1798
12.1813
12.183
12.1845
12.1861
12.1874
12.1888
12.19
12.1913
12.1923
12.1935
12.1943
12.1954
12.1961
12.197
12.1976
12.1984
12.1989
12.1995
12.1998
12.2003
12.2005
12.2008
12.2009
12.2011
12.201
12.6076
12.6077
12.6082
12.6091
12.6103
12.6118
12.6137
12.6159
12.6184
12.6212
12.6244
12.6278
12.6314
12.6354
12.6395
12.6439
12.6486
12.6534
12.6584
12.6636
12.6689
12.6743
12.6799
12.6855
12.6912
12.697
12.7029
12.7087
12.7145
12.7204
12.7262
12.732
12.7377
12.7433
12.7488
12.7543
12.7596
12.7647
12.7698
12.7746
12.7793
12.7839
12.7882
12.7923
12.7963
12.8
12.8035
12.8068
12.8098
12.8126
12.8152
12.8175
12.8196
12.8214
12.823
12.8243
12.8254
12.8263
12.8269
12.8272
12.8274
13.2794
13.2793
13.2795
13.2795
13.2798
13.28
13.2805
13.2808
13.2814
13.2818
13.2825
13.2831
13.2839
13.2846
13.2855
13.2863
13.2874
13.2883
13.2895
13.2905
13.2918
13.2929
13.2943
13.2956
13.297
13.2984
13.2999
13.3014
13.303
13.3046
13.3063
13.308
13.3098
13.3115
13.3134
13.3152
13.3171
13.319
13.321
13.3229
13.325
13.327
13.3291
13.3311
13.3333
13.3354
13.3375
13.3397
13.3418
13.344
13.3462
13.3484
13.3506
13.3529
13.3551
13.3573
13.3595
13.3618
13.364
13.3662
13.3684
13.3707
13.3728
13.3751
13.3772
13.3794
13.3815
13.3837
13.3858
13.3879
13.39
13.3921
13.3941
13.3962
13.3981
13.4001
13.402
13.404
13.4058
13.4077
13.4094
13.4113
13.413
13.4147
13.4163
13.418
13.4196
13.4212
13.4226
13.4242
13.4256
13.427
13.4283
13.4297
13.4309
13.4322
13.4333
13.4345
13.4355
13.4366
13.4375
13.4385
13.4393
13.4403
13.441
13.4418
13.4424
13.4432
13.4437
13.4443
13.4447
13.4453
13.4456
13.446
13.4463
13.4466
13.4467
13.447
13.447
13.4472
13.4471
13.924
13.924
13.9243
13.9249
13.9257
13.9268
13.928
13.9295
13.9312
13.9331
13.9352
13.9375
13.94
13.9427
13.9455
13.9485
13.9516
13.9549
13.9583
13.9618
13.9655
13.9692
13.973
13.9769
13.9808
13.9848
13.9888
13.9928
13.9969
14.0009
14.0049
14.0089
14.0129
14.0168
14.0207
14.0245
14.0282
14.0318
14.0353
14.0387
14.042
14.0452
14.0483
14.0512
14.054
14.0566
14.0591
14.0614
14.0636
14.0656
14.0674
14.0691
14.0705
14.0718
14.073
14.0739
14.0747
14.0753
14.0757
14.076
14.0761
14.5824
14.5823
14.5824
14.5824
14.5827
14.5828
14.5831
14.5833
14.5837
14.584
14.5845
14.5849
14.5855
14.5859
14.5866
14.5871
14.5879
14.5885
14.5893
14.59
14.5909
14.5917
14.5927
14.5935
14.5945
14.5955
14.5966
14.5976
14.5987
14.5998
14.601
14.6021
14.6034
14.6046
14.6059
14.6072
14.6085
14.6098
14.6112
14.6126
14.614
14.6154
14.6168
14.6183
14.6198
14.6212
14.6227
14.6242
14.6258
14.6273
14.6288
14.6304
14.6319
14.6335
14.635
14.6366
14.6382
14.6397
14.6413
14.6429
14.6444
14.646
14.6475
14.6491
14.6506
14.6522
14.6537
14.6552
14.6567
14.6582
14.6596
14.6611
14.6625
14.664
14.6654
14.6668
14.6681
14.6695
14.6708
14.6721
14.6734
14.6747
14.6759
14.6772
14.6783
14.6795
14.6806
14.6818
14.6828
14.6839
14.6849
14.6859
14.6868
14.6878
14.6887
14.6896
14.6904
14.6912
14.6919
14.6927
14.6934
14.6941
14.6947
14.6954
14.6959
14.6965
14.6969
14.6974
14.6978
14.6983
14.6986
14.6989
14.6992
14.6995
14.6997
14.6999
14.7
14.7002
14.7002
14.7003
14.7003
15.2228
15.2228
15.2231
15.2235
15.2241
15.2248
15.2257
15.2267
15.2279
15.2292
15.2307
15.2323
15.234
15.2359
15.2379
15.24
15.2422
15.2445
15.2469
15.2493
15.2519
15.2545
15.2572
15.2599
15.2627
15.2655
15.2683
15.2712
15.2741
15.2769
15.2798
15.2826
15.2855
15.2883
15.291
15.2937
15.2964
15.299
15.3015
15.3039
15.3063
15.3086
15.3108
15.3129
15.3149
15.3168
15.3186
15.3203
15.3218
15.3233
15.3246
15.3258
15.3269
15.3278
15.3286
15.3293
15.3299
15.3303
15.3306
15.3308
15.3309
15.8719
15.8718
15.8719
15.8719
15.8721
15.8722
15.8724
15.8726
15.8728
15.8731
15.8734
15.8737
15.8741
15.8745
15.8749
15.8753
15.8759
15.8763
15.8769
15.8774
15.8781
15.8787
15.8793
15.88
15.8807
15.8814
15.8822
15.8829
15.8838
15.8845
15.8854
15.8862
15.8872
15.888
15.889
15.8899
15.8909
15.8918
15.8928
15.8938
15.8949
15.8959
15.897
15.898
15.8991
15.9002
15.9013
15.9024
15.9035
15.9046
15.9057
15.9068
15.908
15.9091
15.9103
15.9114
15.9126
15.9137
15.9149
15.916
15.9171
15.9183
15.9194
15.9206
15.9217
15.9228
15.9239
15.9251
15.9261
15.9273
15.9283
15.9294
15.9305
15.9315
15.9325
15.9336
15.9346
15.9356
15.9366
15.9376
15.9385
15.9394
15.9403
15.9413
15.9421
15.943
15.9438
15.9447
15.9454
15.9462
15.947
15.9477
15.9484
15.9491
15.9498
15.9505
15.951
15.9517
15.9522
15.9528
15.9533
15.9538
15.9543
15.9547
15.9551
15.9556
15.9559
15.9563
15.9566
15.9569
15.9571
15.9574
15.9576
15.9578
15.9579
15.9581
15.9582
15.9583
15.9583
15.9584
15.9584
16.5102
16.5102
16.5104
16.5107
16.5111
16.5116
16.5123
16.513
16.5139
16.5149
16.5159
16.5171
16.5184
16.5197
16.5212
16.5227
16.5243
16.526
16.5277
16.5296
16.5314
16.5333
16.5353
16.5373
16.5394
16.5414
16.5435
16.5456
16.5477
16.5498
16.5519
16.554
16.5561
16.5582
16.5602
16.5622
16.5642
16.5661
16.568
16.5698
16.5716
16.5733
16.5749
16.5765
16.5779
16.5794
16.5807
16.5819
16.5831
16.5842
16.5852
16.586
16.5868
16.5876
16.5882
16.5887
16.5891
16.5894
16.5897
16.5898
16.5898
17.1524
17.1524
17.1525
17.1525
17.1526
17.1527
17.1529
17.153
17.1532
17.1534
17.1536
17.1539
17.1542
17.1545
17.1548
17.1551
17.1555
17.1559
17.1563
17.1568
17.1572
17.1577
17.1582
17.1587
17.1593
17.1598
17.1604
17.161
17.1617
17.1623
17.1629
17.1636
17.1643
17.165
17.1657
17.1664
17.1672
17.1679
17.1687
17.1695
17.1703
17.1711
17.1719
17.1727
17.1736
17.1744
17.1753
17.1761
17.177
17.1778
17.1787
17.1796
17.1805
17.1814
17.1823
17.1832
17.1841
17.185
17.1858
17.1867
17.1876
17.1885
17.1894
17.1903
17.1912
17.1921
17.1929
17.1938
17.1947
17.1955
17.1964
17.1972
17.198
17.1989
17.1997
17.2005
17.2012
17.202
17.2028
17.2036
17.2043
17.205
17.2057
17.2065
17.2071
17.2078
17.2085
17.2091
17.2097
17.2104
17.2109
17.2115
17.2121
17.2126
17.2131
17.2137
17.2141
17.2146
17.215
17.2155
17.2159
17.2163
17.2167
17.217
17.2173
17.2177
17.2179
17.2182
17.2185
17.2187
17.2189
17.2191
17.2193
17.2194
17.2195
17.2197
17.2197
17.2198
17.2199
17.2199
17.2199
17.7907
17.7907
17.7909
17.7911
17.7914
17.7918
17.7923
17.7929
17.7935
17.7942
17.7951
17.7959
17.7969
17.7979
17.799
17.8002
17.8014
17.8027
17.804
17.8054
17.8068
17.8083
17.8098
17.8113
17.8128
17.8144
17.816
17.8176
17.8192
17.8208
17.8224
17.824
17.8256
17.8272
17.8287
17.8302
17.8317
17.8332
17.8346
17.836
17.8374
17.8387
17.8399
17.8411
17.8423
17.8433
17.8444
17.8453
17.8462
17.847
17.8478
17.8485
17.8491
17.8496
17.8501
17.8505
17.8508
17.8511
17.8512
17.8513
17.8514
18.4276
18.4276
18.4277
18.4277
18.4278
18.4279
18.428
18.4281
18.4283
18.4284
18.4287
18.4288
18.4291
18.4293
18.4296
18.4299
18.4302
18.4305
18.4309
18.4312
18.4316
18.432
18.4324
18.4329
18.4333
18.4338
18.4343
18.4347
18.4353
18.4358
18.4363
18.4369
18.4375
18.438
18.4386
18.4392
18.4398
18.4405
18.4411
18.4417
18.4424
18.4431
18.4437
18.4444
18.4451
18.4458
18.4465
18.4472
18.4479
18.4487
18.4494
18.4501
18.4508
18.4516
18.4523
18.453
18.4538
18.4545
18.4553
18.456
18.4567
18.4575
18.4582
18.459
18.4597
18.4604
18.4611
18.4618
18.4626
18.4633
18.464
18.4647
18.4653
18.466
18.4667
18.4674
18.468
18.4687
18.4693
18.4699
18.4705
18.4712
18.4717
18.4723
18.4729
18.4735
18.474
18.4745
18.475
18.4756
18.476
18.4765
18.477
18.4774
18.4779
18.4783
18.4787
18.4791
18.4795
18.4798
18.4801
18.4805
18.4808
18.4811
18.4813
18.4816
18.4818
18.4821
18.4823
18.4825
18.4826
18.4828
18.4829
18.4831
18.4832
18.4833
18.4833
18.4834
18.4834
18.4835
18.4835
19.0687
19.0688
19.0689
19.069
19.0693
19.0696
19.0699
19.0703
19.0708
19.0714
19.072
19.0726
19.0733
19.0741
19.0749
19.0758
19.0767
19.0776
19.0786
19.0796
19.0807
19.0817
19.0829
19.084
19.0851
19.0863
19.0875
19.0887
19.0899
19.0911
19.0923
19.0934
19.0946
19.0958
19.0969
19.0981
19.0992
19.1003
19.1014
19.1024
19.1034
19.1044
19.1053
19.1062
19.107
19.1079
19.1086
19.1093
19.11
19.1106
19.1112
19.1117
19.1121
19.1125
19.1129
19.1132
19.1134
19.1136
19.1137
19.1138
19.1138
19.7033
19.7033
19.7033
19.7033
19.7034
19.7035
19.7036
19.7036
19.7038
19.7039
19.7041
19.7042
19.7044
19.7046
19.7048
19.705
19.7053
19.7055
19.7058
19.7061
19.7064
19.7067
19.707
19.7073
19.7077
19.7081
19.7084
19.7088
19.7092
19.7096
19.7101
19.7105
19.7109
19.7114
19.7118
19.7123
19.7128
19.7133
19.7138
19.7143
19.7148
19.7153
19.7158
19.7164
19.7169
19.7174
19.718
19.7185
19.7191
19.7197
19.7202
19.7208
19.7214
19.7219
19.7225
19.7231
19.7237
19.7242
19.7248
19.7254
19.726
19.7266
19.7271
19.7277
19.7283
19.7288
19.7294
19.73
19.7305
19.7311
19.7316
19.7322
19.7327
19.7332
19.7338
19.7343
19.7348
19.7353
19.7358
19.7363
19.7368
19.7372
19.7377
19.7382
19.7386
19.739
19.7395
19.7399
19.7403
19.7407
19.7411
19.7414
19.7418
19.7422
19.7425
19.7428
19.7431
19.7434
19.7437
19.744
19.7443
19.7445
19.7448
19.745
19.7452
19.7454
19.7456
19.7458
19.7459
19.7461
19.7462
19.7463
19.7464
19.7466
19.7466
19.7467
19.7468
19.7468
19.7468
19.7469
19.7469
SCALARS Stress_Shear double 1
LOOKUP_TABLE default
-0.076795
-0.0188662
0.0846108
-0.0518847
0.0838111
-0.0260288
0.40897
-0.324816
0.130364
0.184596
0.779609
-0.966741
2.30297
-0.66121
0.0472204
0.391804
-0.156042
-0.12654
0.0587387
0.0748393
-0.105981
0.0433203
-0.0905683
0.0502265
-0.090354
0.0417117
-0.077395
0.0359498
-0.0660821
0.0299975
-0.0555051
0.0251744
-0.0467985
0.0212222
-0.0397429
0.0180822
-0.0341294
0.0155814
-0.0296528
0.0135785
-0.0260489
0.0119514
-0.0231003
0.0106073
-0.0206424
0.00947694
-0.0185547
0.00851023
-0.0167512
0.00767156
-0.0151714
0.00693547
-0.0137724
0.00628364
-0.0125236
0.00570257
-0.0114023
0.00518204
-0.0103915
0.00471409
-0.00947763
0.00429226
-0.00864962
0.00391123
-0.00789821
0.00356645
-0.00721544
0.00325404
-0.00659435
0.00297058
-0.0060288
0.00271309
-0.00551334
0.00247893
-0.0050431
0.00226575
-0.00461373
0.00207147
-0.00422133
0.00189423
-0.0038624
0.00173237
-0.00353376
0.00158439
-0.00323257
0.00144896
-0.00295626
0.00132487
-0.0027025
0.00121105
-0.00246917
0.0011065
-0.00225437
0.00101034
-0.00205634
0.000921772
-0.00187351
0.000840068
-0.00170442
0.000764564
-0.00154777
0.000694659
-0.00140235
0.000629804
-0.00126706
0.000569501
-0.00114089
0.000513286
-0.00102292
0.000460763
-0.00091225
0.000411464
-0.0008083
0.000365358
-0.000709806
0.000321085
-0.000621652
0.000285378
-0.000572046
0.000275508
-0.0008157
-0.0478669
0.401772
0.867939
1.5614
2.66669
2.63913
9.84686
1.68253
1.82538
0.958072
0.514877
0.293029
0.177142
0.115267
0.080849
0.0601517
0.0461919
0.0356038
0.0268729
0.0193816
0.0129051
0.00736377
0.00271049
-0.0011103
-0.00417169
-0.00655991
-0.00836662
-0.00968202
-0.01059
-0.0111654
-0.011473
-0.0115679
-0.0114958
-0.0112944
-0.0109946
-0.0106213
-0.0101946
-0.00973076
-0.00924267
-0.00874057
-0.00823252
-0.00772483
-0.00722232
-0.00672864
-0.00624648
-0.00577772
-0.00532362
-0.00488493
-0.00446196
-0.00405473
-0.00366297
-0.00328621
-0.00292385
-0.00257514
-0.00223928
-0.00191539
-0.00160259
-0.00130016
-0.00101047
-0.00077456
-0.000821884
-0.0190578
0.308067
0.747845
1.01979
1.6532
1.88914
2.83657
3.13054
4.73507
4.51054
4.82383
8.33625
18.7878
8.34112
3.5968
3.98172
3.38303
2.60194
1.85489
1.6118
1.07489
1.05452
0.63646
0.718647
0.404141
0.517452
0.274043
0.390025
0.198902
0.305059
0.151658
0.244506
0.11886
0.198667
0.0937323
0.162246
0.0731253
0.132387
0.0556373
0.107494
0.0406693
0.0866125
0.0279381
0.0691036
0.0172565
0.05448
0.00844502
0.0423348
0.00130908
0.0323107
-0.00435755
0.0240898
-0.00876191
0.0173905
-0.0121012
0.0119665
-0.0145553
0.00760518
-0.0162833
0.00412497
-0.017422
0.00137275
-0.0180874
-0.000779867
-0.0183759
-0.00243982
-0.0183673
-0.0036959
-0.018127
-0.00462167
-0.0177082
-0.00527797
-0.0171544
-0.00571509
-0.0165004
-0.00597461
-0.0157746
-0.00609084
-0.0149995
-0.00609214
-0.0141934
-0.00600188
-0.0133705
-0.00583929
-0.0125422
-0.0056202
-0.0117171
-0.00535753
-0.010902
-0.00506187
-0.0101019
-0.0047418
-0.00932033
-0.00440425
-0.00855982
-0.00405476
-0.00782193
-0.00369776
-0.00710749
-0.00333668
-0.00641674
-0.00297422
-0.00574944
-0.00261238
-0.00510501
-0.00225268
-0.00448257
-0.00189615
-0.00388103
-0.00154351
-0.00329916
-0.00119518
-0.00273553
-0.000851425
-0.00218897
-0.000512028
-0.00165812
-0.000177588
-0.00117151
0.000158693
-0.000828171
0.00255552
1.08841
2.3726
4.1068
6.38395
7.74967
25.7327
6.13182
4.64561
2.74206
1.60097
0.972767
0.626462
0.431705
0.316794
0.243558
0.192131
0.152594
0.120211
0.0928211
0.0694494
0.049605
0.0329548
0.0191929
0.00800315
-0.000939349
-0.00795453
-0.0133437
-0.0173801
-0.0203043
-0.0223229
-0.0236109
-0.024314
-0.0245529
-0.0244266
-0.024016
-0.0233871
-0.0225935
-0.0216785
-0.020677
-0.0196171
-0.0185212
-0.017407
-0.0162884
-0.0151762
-0.0140785
-0.0130015
-0.0119494
-0.0109252
-0.00993067
-0.0089666
-0.00803315
-0.00712986
-0.00625582
-0.00540977
-0.00459021
-0.00379539
-0.00302307
-0.00226977
-0.00153974
-0.000851761
0.0236701
0.626667
1.40784
2.00773
3.09059
3.73598
5.31163
6.13605
8.37822
9.26936
10.3089
16.1178
31.4334
15.6085
8.40637
8.02074
6.2186
5.01024
3.65539
3.11503
2.17683
2.02267
1.34285
1.37715
0.881155
0.989324
0.616417
0.745074
0.457551
0.582434
0.354516
0.466714
0.281399
0.379106
0.225003
0.309449
0.178915
0.252274
0.140096
0.204554
0.107098
0.164487
0.0791424
0.130871
0.0556932
0.102787
0.0362757
0.0794645
0.0204224
0.0602226
0.00766919
0.0444538
-0.00243114
0.0316178
-0.0102943
0.0212409
-0.0162944
0.0129131
-0.020759
0.00628445
-0.0239692
0.00105912
-0.0261625
-0.00301083
-0.027537
-0.00613212
-0.0282569
-0.00847637
-0.0284572
-0.0101858
-0.0282487
-0.0113779
-0.0277216
-0.0121499
-0.0269498
-0.0125822
-0.0259931
-0.012741
-0.0249
-0.012681
-0.0237098
-0.0124473
-0.0224539
-0.012077
-0.0211575
-0.0116006
-0.0198406
-0.0110429
-0.0185188
-0.0104243
-0.0172041
-0.00976118
-0.0159058
-0.00906684
-0.0146305
-0.00835188
-0.0133832
-0.00762469
-0.0121669
-0.00689183
-0.0109837
-0.00615834
-0.00983442
-0.00542802
-0.00871911
-0.00470364
-0.00763718
-0.00398713
-0.00658753
-0.00327976
-0.00556869
-0.00258225
-0.00457883
-0.00189493
-0.00361594
-0.00121769
-0.00267658
-0.000551657
-0.00176735
8.84018e-05
-0.000875094
0.0387001
1.71596
3.75268
6.48311
10.0673
13.1498
35.8221
10.9201
7.56908
4.54306
2.72181
1.70321
1.13037
0.799217
0.597663
0.465503
0.370995
0.297925
0.238269
0.188144
0.145629
0.109658
0.0794854
0.0544663
0.0339822
0.0174313
0.00424165
-0.00611387
-0.014107
-0.0201499
-0.0245956
-0.0277421
-0.0298385
-0.0310911
-0.03167
-0.0317149
-0.03134
-0.0306389
-0.0296877
-0.0285484
-0.0272712
-0.0258967
-0.0244574
-0.0229795
-0.0214833
-0.0199851
-0.0184971
-0.0170286
-0.0155865
-0.0141755
-0.0127986
-0.0114578
-0.0101535
-0.00888578
-0.00765364
-0.00645578
-0.00529049
-0.00415581
-0.00304963
-0.00197523
-0.000897163
0.0528467
0.926971
2.01433
2.94126
4.412
5.46952
7.59837
8.92041
11.9043
13.5336
15.9165
23.4509
39.7925
22.4167
13.3751
11.6296
9.04297
7.22289
5.41215
4.51139
3.27591
2.92878
2.06857
1.99667
1.38636
1.43543
0.987726
1.08207
0.742773
0.846518
0.580696
0.678755
0.464159
0.551591
0.373891
0.45037
0.300254
0.367209
0.238494
0.297748
0.1862
0.239394
0.141997
0.190412
0.104921
0.149476
0.0741461
0.115471
0.048897
0.0874088
0.0284296
0.0644078
0.0120442
0.0456824
-0.000899757
0.0305431
-0.0109733
0.0183934
-0.0186741
0.00872338
-0.0244278
0.00110198
-0.0285941
-0.00483233
-0.0314732
-0.00938104
-0.0333141
-0.0127946
-0.0343226
-0.0152805
-0.0346675
-0.0170106
-0.0344877
-0.0181268
-0.0338965
-0.0187464
-0.0329869
-0.0189663
-0.0318344
-0.0188666
-0.0305007
-0.0185132
-0.0290355
-0.0179602
-0.0274792
-0.0172524
-0.0258639
-0.0164261
-0.0242153
-0.0155111
-0.0225536
-0.0145314
-0.0208945
-0.0135065
-0.01925
-0.0124519
-0.0176291
-0.01138
-0.016038
-0.0103002
-0.0144814
-0.00922015
-0.0129617
-0.00814526
-0.0114805
-0.00707964
-0.0100381
-0.00602614
-0.00863395
-0.00498665
-0.00726693
-0.00396222
-0.0059354
-0.00295332
-0.00463747
-0.00195972
-0.00337098
-0.00098078
-0.00214163
-2.64232e-05
-0.000918753
0.0630885
2.29703
5.02037
8.6577
13.5219
18.6899
42.8409
15.84
10.3527
6.24315
3.80067
2.42239
1.63644
1.17391
0.887019
0.695761
0.557544
0.450289
0.362826
0.289564
0.227609
0.175277
0.131378
0.0949072
0.0649303
0.0405632
0.0209812
0.00543325
-0.00674777
-0.0161422
-0.0232464
-0.0284789
-0.03219
-0.03467
-0.0361592
-0.036855
-0.03692
-0.0364874
-0.0356663
-0.0345458
-0.0331987
-0.031684
-0.0300497
-0.0283343
-0.0265685
-0.0247768
-0.0229784
-0.0211879
-0.0194165
-0.0176724
-0.0159614
-0.0142873
-0.0126523
-0.0110573
-0.00950234
-0.00798649
-0.00650834
-0.00506607
-0.00365826
-0.00229114
-0.000936
0.0721315
1.20492
2.575
3.80922
5.62573
7.0756
9.68139
11.4954
15.1755
17.4331
21.4474
29.9025
45.7692
28.4035
18.2828
14.9374
11.6941
9.27844
7.05465
5.82022
4.32507
3.78943
2.77532
2.59262
1.88725
1.86941
1.36086
1.41268
1.03212
1.10714
0.811614
0.888896
0.65164
0.723104
0.527318
0.590965
0.425961
0.482328
0.341141
0.391556
0.269479
0.315279
0.20898
0.251234
0.158227
0.197686
0.116033
0.153176
0.0813031
0.116418
0.0530135
0.0862592
0.0302136
0.0616777
0.0120416
0.041776
-0.00226597
0.0257775
-0.0133722
0.0130187
-0.0218438
0.00293879
-0.0281587
-0.00493316
-0.0327169
-0.0109899
-0.0358503
-0.0155578
-0.0378335
-0.0189077
-0.0388927
-0.0212638
-0.0392142
-0.0228116
-0.038951
-0.0237045
-0.0382284
-0.0240693
-0.0371493
-0.0240109
-0.0357975
-0.0236157
-0.0342416
-0.022955
-0.0325369
-0.0220873
-0.0307284
-0.0210607
-0.028852
-0.0199142
-0.0269364
-0.0186798
-0.0250042
-0.0173831
-0.023073
-0.0160447
-0.0211561
-0.0146811
-0.0192635
-0.0133051
-0.0174026
-0.0119265
-0.015578
-0.010553
-0.013793
-0.00919011
-0.0120491
-0.00784177
-0.0103467
-0.00651067
-0.00868529
-0.00519842
-0.00706357
-0.00390585
-0.00547991
-0.00263298
-0.00393253
-0.00137896
-0.00242845
-0.000143146
-0.00095263
0.0791429
2.83404
6.18197
10.6305
16.6629
24.0479
48.0053
20.599
12.9099
7.81852
4.82138
3.11608
2.1325
1.54575
1.1767
0.92765
0.746241
0.605027
0.489899
0.393628
0.312355
0.24377
0.186229
0.138356
0.0988992
0.0666937
0.0406662
0.0198468
0.00337871
-0.00948144
-0.0193683
-0.0268175
-0.0322767
-0.0361184
-0.0386506
-0.0401275
-0.0407586
-0.0407162
-0.0401419
-0.0391517
-0.0378407
-0.0362866
-0.0345526
-0.0326899
-0.0307398
-0.0287352
-0.0267023
-0.0246615
-0.0226287
-0.0206157
-0.0186313
-0.0166816
-0.0147706
-0.0129006
-0.0110727
-0.00928668
-0.00754166
-0.00583609
-0.00416856
-0.00254565
-0.000965302
0.084798
1.45954
3.08984
4.60594
6.73328
8.54242
11.5599
13.8494
18.1348
21.0138
26.6364
35.4008
50.2188
33.5138
22.8937
17.9843
14.117
11.1753
8.56878
7.03989
5.3141
4.60542
3.45443
3.16678
2.37669
2.29319
1.73009
1.73874
1.32102
1.36595
1.04357
1.09856
0.840807
0.894876
0.68274
0.732296
0.553866
0.598555
0.446161
0.486787
0.355289
0.392858
0.278631
0.313972
0.21431
0.247986
0.160765
0.193095
0.116586
0.147715
0.0804679
0.110431
0.0512141
0.0799894
0.0277474
0.0552909
0.00911745
0.0353861
-0.00549882
0.0194637
-0.016804
0.00683752
-0.0253907
-0.00306821
-0.031755
-0.0107343
-0.0363091
-0.0165607
-0.0393945
-0.0208794
-0.0412933
-0.0239654
-0.0422383
-0.0260467
-0.0424209
-0.027312
-0.0419988
-0.0279176
-0.0411014
-0.0279927
-0.0398351
-0.027644
-0.0382865
-0.0269597
-0.0365267
-0.0260123
-0.0346132
-0.0248614
-0.0325925
-0.0235557
-0.0305019
-0.022135
-0.0283711
-0.0206315
-0.0262236
-0.0190709
-0.0240774
-0.017474
-0.0219464
-0.015857
-0.0198408
-0.0142327
-0.0177681
-0.0126108
-0.0157333
-0.0109985
-0.0137393
-0.00940112
-0.0117878
-0.00782238
-0.00987908
-0.00626463
-0.00801256
-0.00472924
-0.00618691
-0.0032168
-0.00440067
-0.0017268
-0.00265908
-0.000251791
-0.000977302
0.0897589
3.32555
7.23769
12.4059
19.4712
28.9858
51.9012
24.9908
15.2204
9.26567
5.77916
3.77984
2.61506
1.91211
1.46466
1.15956
0.935784
0.761058
0.618571
0.499542
0.399171
0.314522
0.243487
0.184318
0.135443
0.0954211
0.0629333
0.0367979
0.0159743
-0.00043791
-0.013207
-0.0229808
-0.0303017
-0.035621
-0.0393125
-0.0416856
-0.0429955
-0.0434527
-0.0432307
-0.0424721
-0.0412941
-0.0397929
-0.0380469
-0.0361202
-0.0340645
-0.0319216
-0.0297248
-0.0275006
-0.0252696
-0.0230476
-0.0208467
-0.0186754
-0.0165398
-0.014444
-0.0123901
-0.010379
-0.0084106
-0.00648381
-0.00459728
-0.00275567
-0.000986421
0.0932214
1.69068
3.55816
5.32837
7.73474
9.86293
13.2405
15.9651
20.7715
24.2708
31.3163
39.9756
53.5922
37.7783
27.062
20.7678
16.2994
12.9041
9.95357
8.16805
6.2394
5.37627
4.10276
3.71948
2.85214
2.70738
2.0935
2.06092
1.608
1.62359
1.27541
1.30835
1.03071
1.06744
0.839374
0.874824
0.6833
0.716286
0.552967
0.583784
0.443111
0.472429
0.350485
0.378889
0.272746
0.300606
0.20796
0.235431
0.154396
0.181481
0.110473
0.137084
0.0747532
0.10076
0.0459496
0.0712155
0.0229313
0.0473338
0.004721
0.0281611
-0.00951485
0.012891
-0.0204793
0.000846222
-0.0287609
-0.00853879
-0.0348495
-0.015735
-0.0391516
-0.0211335
-0.0420034
-0.0250592
-0.0436828
-0.0277812
-0.0444191
-0.0295229
-0.0444015
-0.0304693
-0.0437858
-0.0307738
-0.0427003
-0.0305633
-0.0412503
-0.0299427
-0.0395219
-0.0289985
-0.0375854
-0.0278021
-0.0354982
-0.0264118
-0.0333062
-0.0248755
-0.0310466
-0.0232319
-0.0287487
-0.0215124
-0.0264356
-0.0197422
-0.0241254
-0.0179412
-0.0218314
-0.0161252
-0.0195639
-0.0143062
-0.01733
-0.0124936
-0.0151345
-0.0106941
-0.0129803
-0.00891262
-0.0108689
-0.0071526
-0.00880054
-0.00541611
-0.00677449
-0.00370442
-0.00478971
-0.0020178
-0.00284859
-0.000344939
-0.000994823
0.0968606
3.76931
8.1845
13.9838
21.9465
33.358
54.8419
28.892
17.2822
10.5826
6.67093
4.41142
3.08262
2.27197
1.75021
1.39098
1.12579
0.918075
0.748586
0.607089
0.487869
0.387367
0.303007
0.232664
0.174449
0.126644
0.0876926
0.0562066
0.0309681
0.0109251
-0.00481867
-0.0170193
-0.0263099
-0.0332179
-0.038181
-0.0415616
-0.0436597
-0.0447231
-0.0449564
-0.0445284
-0.0435782
-0.0422202
-0.0405482
-0.0386391
-0.0365553
-0.0343475
-0.0320564
-0.0297146
-0.0273478
-0.024976
-0.0226146
-0.020275
-0.0179658
-0.0156926
-0.0134592
-0.0112677
-0.00911886
-0.00701247
-0.00494756
-0.00292597
-0.00100131
0.0989004
1.89774
3.97767
5.97332
8.62595
11.0308
14.7205
17.8257
23.0811
27.1683
35.3808
43.6797
56.1159
41.2447
30.6977
23.2591
18.2367
14.4536
11.2058
9.20034
7.09745
6.09948
4.71797
4.24922
3.31203
3.11104
2.45003
2.37865
1.89229
1.87968
1.50658
1.518
1.22094
1.24059
0.996883
1.01841
0.813989
0.835411
0.661331
0.682459
0.53275
0.55392
0.424374
0.445926
0.333394
0.355499
0.257495
0.280145
0.194628
0.217686
0.142939
0.166196
0.100753
0.123974
0.0665818
0.0895403
0.0391188
0.0616154
0.0172385
0.0391092
-1.81576e-05
0.0210998
-0.0134603
0.00681287
-0.0237654
-0.00439897
-0.0314982
-0.013075
-0.0371276
-0.0196639
-0.0410425
-0.0245384
-0.0435645
-0.0280079
-0.04496
-0.0303296
-0.0454489
-0.0317169
-0.0452131
-0.0323469
-0.0444026
-0.0323663
-0.0431408
-0.0318969
-0.0415293
-0.0310392
-0.0396512
-0.0298762
-0.0375744
-0.0284763
-0.035354
-0.0268952
-0.0330346
-0.0251788
-0.0306519
-0.0233641
-0.0282341
-0.021481
-0.0258034
-0.0195532
-0.0233769
-0.0175999
-0.0209677
-0.0156357
-0.0185854
-0.0136721
-0.0162366
-0.0117177
-0.0139261
-0.00977889
-0.0116564
-0.00786018
-0.00942905
-0.00596466
-0.00724409
-0.00409442
-0.00510114
-0.00225065
-0.00299985
-0.00042048
-0.00100704
0.101654
4.16369
9.01938
15.3613
24.0908
37.0897
57.0029
32.2396
19.096
11.767
7.49457
5.00955
3.53445
2.62491
2.03308
1.62176
1.31615
1.076
0.879889
0.716222
0.578408
0.462268
0.364755
0.283364
0.215887
0.160336
0.11492
0.0780511
0.04834
0.0245896
0.00578032
-0.00894761
-0.0203146
-0.0289213
-0.0352669
-0.0397654
-0.0427603
-0.0445354
-0.0453262
-0.0453271
-0.0446989
-0.043574
-0.0420616
-0.0402514
-0.0382166
-0.0360169
-0.0337006
-0.0313067
-0.0288661
-0.0264033
-0.0239373
-0.0214827
-0.0190503
-0.016648
-0.0142814
-0.0119539
-0.00966747
-0.00742292
-0.00522003
-0.00305809
-0.00101159
0.102755
2.08027
4.34723
6.53888
9.40446
12.0426
15.9975
19.4211
25.0623
29.6687
38.7828
46.5707
57.9215
43.9643
33.7611
25.4292
19.927
15.8167
12.3231
10.1346
7.88621
6.77371
5.29878
4.75528
3.75552
3.5038
2.79914
2.69175
2.17353
2.13416
1.73679
1.72751
1.41128
1.41437
1.1551
1.16306
0.945796
0.955951
0.771136
0.78283
0.624103
0.637346
0.500209
0.515095
0.396172
0.412677
0.309295
0.327249
0.237214
0.256341
0.177804
0.197776
0.129159
0.149641
0.0895939
0.110273
0.0576343
0.0782375
0.0320124
0.0523142
0.0116485
0.0314701
-0.00436775
0.0148374
-0.0167995
0.0016905
-0.0262832
-0.00857591
-0.0333482
-0.0164658
-0.0384339
-0.0223984
-0.0419048
-0.0267226
-0.044063
-0.0297283
-0.0451589
-0.0316568
-0.0453996
-0.0327084
-0.0449566
-0.0330498
-0.0439715
-0.0328194
-0.0425612
-0.0321316
-0.0408215
-0.0310813
-0.0388312
-0.0297467
-0.0366546
-0.0281921
-0.0343437
-0.0264703
-0.0319409
-0.0246241
-0.0294796
-0.0226885
-0.0269866
-0.0206915
-0.024483
-0.0186554
-0.0219847
-0.0165979
-0.019504
-0.0145328
-0.0170499
-0.0124709
-0.0146288
-0.0104201
-0.0122449
-0.00838633
-0.00990091
-0.00637397
-0.00759815
-0.00438597
-0.00533688
-0.00242472
-0.00311545
-0.000476543
-0.00101537
0.104843
4.50759
9.73987
16.5344
25.9012
40.1478
58.4873
35.0061
20.6591
12.8158
8.24832
5.57319
3.96994
2.97055
2.31304
1.85174
1.50675
1.23477
1.01242
0.826889
0.670742
0.539184
0.428694
0.336384
0.259729
0.196471
0.144592
0.102311
0.068072
0.0405393
0.0185754
0.00122122
-0.0123274
-0.0227416
-0.0305796
-0.0363056
-0.0403047
-0.0428967
-0.0443465
-0.044874
-0.0446613
-0.0438588
-0.0425911
-0.0409606
-0.0390515
-0.0369326
-0.0346601
-0.0322793
-0.0298267
-0.0273315
-0.0248166
-0.0222998
-0.0197947
-0.0173116
-0.0148579
-0.0124386
-0.0100573
-0.00771587
-0.00541519
-0.00315281
-0.00101842
0.105299
2.23797
4.66526
7.02381
10.0665
12.8966
17.0653
20.7453
26.7041
31.7406
41.4973
48.7032
59.0785
45.9857
36.232
27.2527
21.3634
16.9886
13.3024
10.9686
8.60433
7.39739
5.8448
5.23656
4.18264
3.88489
3.14101
2.99966
2.45198
2.38662
1.96634
1.93654
1.602
1.58849
1.31427
1.30858
1.07893
1.07773
0.882569
0.884743
0.717337
0.722574
0.578137
0.58628
0.461212
0.472034
0.363483
0.376649
0.282266
0.297361
0.21517
0.231748
0.160065
0.177692
0.115072
0.133352
0.0785572
0.097146
0.0491157
0.0677276
0.0255527
0.043958
0.00686042
0.0248804
-0.0078059
0.0096941
-0.0191517
-0.00226962
-0.0277645
-0.0115681
-0.0341327
-0.0186656
-0.0386622
-0.023949
-0.04169
-0.0277404
-0.0434962
-0.0303083
-0.0443128
-0.0318761
-0.0443326
-0.0326299
-0.0437152
-0.0327246
-0.0425924
-0.0322888
-0.0410733
-0.0314291
-0.0392474
-0.0302339
-0.0371884
-0.0287759
-0.034956
-0.0271151
-0.0325993
-0.0253006
-0.0301573
-0.0233723
-0.0276616
-0.0213626
-0.0251372
-0.0192976
-0.0226035
-0.0171981
-0.0200756
-0.0150806
-0.017565
-0.0129579
-0.0150801
-0.0108401
-0.0126269
-0.00873455
-0.0102096
-0.00664709
-0.00783079
-0.00458187
-0.00549206
-0.00254213
-0.00319015
-0.000516151
-0.0010207
0.106901
4.8001
10.344
17.4986
27.3705
42.5226
59.3487
37.1833
21.9661
13.726
8.9307
6.10147
4.38852
3.30852
2.58985
2.08076
1.6975
1.39428
1.1461
0.939035
0.764826
0.618077
0.49479
0.391695
0.305948
0.235027
0.176691
0.128969
0.0901499
0.0587622
0.0335564
0.0134783
-0.00235602
-0.0146852
-0.0241248
-0.0311868
-0.0362972
-0.0398102
-0.0420201
-0.0431715
-0.0434676
-0.0430767
-0.0421385
-0.0407683
-0.0390613
-0.0370958
-0.0349356
-0.0326331
-0.0302303
-0.0277612
-0.025253
-0.0227269
-0.0201995
-0.0176836
-0.0151889
-0.0127222
-0.0102886
-0.00789154
-0.00553312
-0.00321032
-0.0010226
0.106884
2.37057
4.93183
7.42713
10.6121
13.5912
17.9232
21.7933
28.0013
33.3569
43.5301
50.1176
59.6376
47.3449
38.1149
28.7096
22.5412
17.9664
14.1425
11.7019
9.25097
7.97038
6.35539
5.69318
4.59283
4.25452
3.47524
3.30265
2.7273
2.63732
2.19496
2.14535
1.79288
1.76319
1.47422
1.45516
1.21325
1.2009
0.995504
0.988342
0.812338
0.809727
0.658055
0.659585
0.52842
0.533663
0.419969
0.428424
0.3297
0.340815
0.25496
0.268175
0.193397
0.208182
0.142948
0.158826
0.101825
0.118383
0.0684901
0.0853867
0.04164
0.0585968
0.0201739
0.0369715
0.00316868
0.0196381
-0.0101471
0.00586726
-0.0204168
-0.00494986
-0.0281762
-0.0133211
-0.0338712
-0.0196703
-0.037873
-0.0243509
-0.0404904
-0.027658
-0.0419801
-0.0298377
-0.0425558
-0.0310956
-0.0423949
-0.0316029
-0.0416444
-0.0315021
-0.0404263
-0.0309119
-0.0388412
-0.0299307
-0.0369721
-0.0286402
-0.0348868
-0.0271075
-0.0326411
-0.0253881
-0.03028
-0.0235274
-0.0278399
-0.0215622
-0.0253501
-0.0195227
-0.0228337
-0.0174329
-0.0203089
-0.0153122
-0.0177898
-0.013176
-0.015287
-0.0110363
-0.0128086
-0.00890246
-0.0103606
-0.00678188
-0.00794687
-0.00468014
-0.00557057
-0.00260154
-0.0032282
-0.000536452
-0.00102374
0.108087
5.04061
10.8303
18.2504
28.4886
44.2153
59.62
38.7725
23.0096
14.4954
9.54068
6.59371
4.78975
3.63854
2.86331
2.30867
1.88827
1.55445
1.28088
1.0526
0.860612
0.698906
0.563012
0.44927
0.354523
0.275986
0.2112
0.158014
0.114563
0.0792497
0.0507163
0.0278184
0.00959542
-0.00475557
-0.0159048
-0.0244108
-0.0307389
-0.0352769
-0.0383476
-0.0402199
-0.0411177
-0.0412272
-0.0407032
-0.0396738
-0.0382455
-0.0365057
-0.0345267
-0.0323675
-0.0300762
-0.0276918
-0.0252458
-0.0227633
-0.020264
-0.0177636
-0.0152739
-0.0128041
-0.0103609
-0.00794954
-0.00557345
-0.00323028
-0.0010247
0.1077
2.47776
5.14627
7.74779
11.0397
14.1244
18.5676
22.5607
28.9428
34.496
44.8848
50.8419
59.6193
48.0667
39.4129
29.7828
23.4521
18.7464
14.8408
12.3329
9.82483
8.49148
6.82963
6.12426
4.98543
4.61206
3.80131
3.60022
2.99912
2.88587
2.42235
2.35364
1.98369
1.93823
1.63475
1.60259
1.3486
1.32532
1.1098
1.09348
0.908992
0.898685
0.739867
0.734911
0.597715
0.59748
0.478686
0.482503
0.379461
0.386645
0.297126
0.307006
0.229117
0.241068
0.173191
0.186659
0.12741
0.141919
0.0901133
0.105266
0.0598921
0.0753649
0.0355576
0.0510926
0.016112
0.0315076
0.000720747
0.0158223
-0.011313
0.00337851
-0.0205706
-0.00637359
-0.0275368
-0.0138936
-0.0326157
-0.0195655
-0.0361443
-0.0237106
-0.0384035
-0.0265973
-0.0396276
-0.02845
-0.0400116
-0.0294565
-0.0397177
-0.0297733
-0.0388808
-0.029531
-0.0376125
-0.0288384
-0.0360054
-0.0277858
-0.0341356
-0.0264481
-0.0320658
-0.0248873
-0.029847
-0.0231541
-0.0275209
-0.0212906
-0.0251212
-0.0193307
-0.0226749
-0.0173023
-0.0202034
-0.0152277
-0.0177237
-0.013125
-0.015249
-0.0110086
-0.0127897
-0.00889006
-0.0103534
-0.00677836
-0.00794603
-0.0046808
-0.00557209
-0.00260305
-0.00322935
-0.000537393
-0.0010249
0.108541
5.22896
11.1986
18.7881
29.2466
45.2349
59.3179
39.7811
23.7831
15.1228
10.078
7.04971
5.1735
3.9605
3.13336
2.53544
2.07903
1.71527
1.41673
1.16759
0.958093
0.781666
0.633351
0.509103
0.405448
0.319342
0.248115
0.189441
0.141309
0.101999
0.0700525
0.0442388
0.0235247
0.00704547
-0.00592143
-0.0159792
-0.0236314
-0.029298
-0.03333
-0.0360201
-0.0376126
-0.0383113
-0.038286
-0.037678
-0.0366046
-0.035163
-0.0334337
-0.0314829
-0.0293647
-0.0271235
-0.0247954
-0.0224093
-0.0199885
-0.0175516
-0.015113
-0.0126843
-0.0102744
-0.0078899
-0.00553619
-0.00321262
-0.001025
0.107834
2.55955
5.30864
7.98581
11.3495
14.4962
18.998
23.0455
29.5204
35.145
45.572
50.8967
59.0322
48.1692
40.1349
30.4624
24.0901
19.3275
15.397
12.8614
10.326
8.96075
7.26757
6.52985
5.36048
4.95754
4.11927
3.89242
3.26748
3.13233
2.64856
2.56144
2.17447
2.11363
1.79591
1.75091
1.485
1.45099
1.2255
1.2002
1.00733
0.989474
0.823595
0.812278
0.669117
0.6635
0.539649
0.538901
0.431561
0.434861
0.341681
0.348249
0.267234
0.276357
0.205807
0.216857
0.155319
0.167758
0.11399
0.12737
0.0803133
0.0942661
0.0530149
0.0672468
0.0310267
0.0453048
0.013454
0.0275972
-0.000451452
0.0134185
-0.0113147
0.00217811
-0.0196579
-0.00661802
-0.0259173
-0.0133838
-0.0304573
-0.0184657
-0.0335827
-0.0221544
-0.0355478
-0.0246931
-0.0365652
-0.0262856
-0.0368122
-0.0271026
-0.0364366
-0.0272866
-0.0355614
-0.026957
-0.0342885
-0.0262129
-0.0327027
-0.0251371
-0.0308736
-0.0237982
-0.0288586
-0.0222528
-0.0267049
-0.0205479
-0.0244507
-0.0187219
-0.022127
-0.0168064
-0.0197591
-0.0148272
-0.0173669
-0.0128052
-0.0149663
-0.0107573
-0.0125702
-0.00869743
-0.0101882
-0.0066366
-0.00782835
-0.0045839
-0.00549669
-0.00254671
-0.00319361
-0.000518974
-0.00102434
0.108299
5.36526
11.4492
19.1116
29.6369
45.5918
58.4464
40.218
24.2811
15.608
10.5427
7.46946
5.53971
4.27436
3.39995
2.76102
2.26977
1.87671
1.55364
1.28397
1.05726
0.866345
0.705801
0.571188
0.458717
0.36509
0.287432
0.223246
0.170383
0.127007
0.0915621
0.0627372
0.0394295
0.0207159
0.00582347
-0.00589372
-0.0149759
-0.0218749
-0.0269686
-0.0305733
-0.0329533
-0.0343298
-0.0348878
-0.0347814
-0.0341392
-0.0330682
-0.0316572
-0.0299797
-0.0280963
-0.0260568
-0.023902
-0.0216651
-0.0193732
-0.0170478
-0.0147065
-0.0123632
-0.010029
-0.00771274
-0.00542144
-0.00315742
-0.00102354
0.107273
2.61598
5.41904
8.14132
11.5418
14.7069
19.2143
23.2466
29.727
35.2949
45.6017
50.2934
57.8759
47.6626
40.2891
30.7416
24.4498
19.7087
15.8106
13.2874
10.7542
9.37784
7.66879
6.90956
5.71753
5.29058
4.42871
4.17891
3.53203
3.37638
2.87328
2.7685
2.36497
2.28918
1.95746
1.89993
1.62227
1.57778
1.34243
1.30835
1.1072
1.08198
0.909125
0.891589
0.742526
0.731641
0.602775
0.597547
0.485927
0.485404
0.388559
0.391854
0.307693
0.314006
0.240749
0.249382
0.18551
0.195867
0.140086
0.15167
0.102873
0.115276
0.0725193
0.0854132
0.0478899
0.061012
0.0280327
0.0411769
0.0121506
0.0251569
-0.000423462
0.0123228
-0.0102476
0.00214681
-0.0177892
-0.00581373
-0.0234394
-0.0119304
-0.0275261
-0.016515
-0.0303238
-0.0198297
-0.0320622
-0.0220943
-0.0329336
-0.0234935
-0.0330988
-0.0241818
-0.032692
-0.0242891
-0.0318251
-0.0239238
-0.0305911
-0.0231763
-0.0290672
-0.0221224
-0.0273172
-0.0208246
-0.0253938
-0.0193351
-0.0233402
-0.0176971
-0.0211918
-0.015946
-0.0189774
-0.0141113
-0.0167204
-0.0122169
-0.0144398
-0.0102827
-0.0121508
-0.00832484
-0.00986567
-0.00635676
-0.00759434
-0.00438953
-0.00534476
-0.0024325
-0.00312122
-0.000481241
-0.00102199
0.107298
5.44989
11.5829
19.2215
29.6544
45.296
57.0013
40.0913
24.4997
15.9515
10.9352
7.85294
5.88826
4.57994
3.66291
2.98526
2.46034
2.03865
1.69151
1.40166
1.15803
0.952881
0.780307
0.635477
0.514289
0.413196
0.329121
0.259403
0.201762
0.154252
0.115227
0.0832978
0.0572962
0.0362435
0.0193193
0.00583639
-0.00478084
-0.0130148
-0.0192698
-0.0238849
-0.0271446
-0.0292871
-0.0305123
-0.0309874
-0.0308524
-0.0302239
-0.0291995
-0.0278601
-0.0262728
-0.0244932
-0.0225671
-0.0205321
-0.0184191
-0.0162533
-0.0140552
-0.0118414
-0.00962551
-0.00741858
-0.00522967
-0.00306499
-0.00102013
0.105889
2.64744
5.4777
8.21566
11.6169
14.7589
19.2167
23.1662
29.5557
34.9447
44.9795
49.0383
56.1371
46.5524
39.8808
30.6195
24.5274
19.8912
16.0831
13.612
11.1108
9.74341
8.03438
7.26368
6.05747
5.61129
4.73035
4.4597
3.79333
3.61802
3.09698
2.97479
2.55556
2.46485
2.11975
2.04962
1.76069
1.70565
1.46085
1.41792
1.20885
1.17618
0.996649
0.972824
0.818113
0.801885
0.668215
0.658422
0.542697
0.538254
0.437885
0.437802
0.350605
0.353997
0.278116
0.284217
0.218074
0.226231
0.16848
0.178151
0.127643
0.13838
0.0941361
0.105577
0.0667606
0.078615
0.0445102
0.0565477
0.0265414
0.0385811
0.012147
0.0240483
0.000733892
0.0123894
-0.00819522
0.0031337
-0.0150578
-0.00411467
-0.0202041
-0.00968879
-0.0239285
-0.013869
-0.0264779
-0.0168912
-0.0280594
-0.0189538
-0.0288469
-0.0202239
-0.028986
-0.0208416
-0.0285983
-0.0209246
-0.0277857
-0.0205716
-0.0266328
-0.0198652
-0.0252101
-0.0188745
-0.0235763
-0.0176569
-0.0217795
-0.0162605
-0.0198597
-0.014725
-0.0178499
-0.0130834
-0.0157768
-0.0113634
-0.0136627
-0.00958754
-0.0115256
-0.00777485
-0.00938042
-0.00594114
-0.00723929
-0.0040998
-0.00511253
-0.00226184
-0.00300795
-0.00042702
-0.00101752
0.105363
5.48346
11.6013
19.1201
29.2966
44.356
54.9673
39.4081
24.437
16.1544
11.2561
8.2005
6.21926
4.87726
3.9222
3.2081
2.65068
2.20105
1.83029
1.52062
1.26038
1.04125
0.856847
0.701953
0.572151
0.463647
0.373169
0.297902
0.235438
0.183729
0.141042
0.105915
0.0771202
0.0536245
0.0345626
0.0192081
0.00695128
-0.00271986
-0.0102354
-0.0159568
-0.020188
-0.0231844
-0.0251607
-0.0262971
-0.0267449
-0.0266309
-0.0260612
-0.0251244
-0.0238945
-0.022433
-0.0207908
-0.0190104
-0.0171266
-0.0151682
-0.0131591
-0.0111189
-0.00906386
-0.00700741
-0.00496088
-0.0029352
-0.00101443
0.103478
2.65418
5.48598
8.20987
11.5782
14.6539
19.0102
22.806
29.0105
34.0909
43.7191
47.1257
53.8037
44.8335
38.9208
30.0944
24.3244
19.8769
16.2164
13.8371
11.3965
10.0585
8.36426
7.59284
6.37989
5.92006
5.02366
4.73505
4.05088
3.85742
3.31919
3.18044
2.74584
2.64074
2.28241
2.20008
1.89996
1.83467
1.58048
1.52897
1.31201
1.27213
1.08595
1.05604
0.895691
0.874284
0.735802
0.721575
0.601718
0.593457
0.489523
0.486135
0.395846
0.396368
0.317798
0.321398
0.252909
0.258883
0.199082
0.206842
0.154541
0.163605
0.117789
0.127764
0.0875696
0.0981377
0.0628236
0.0737319
0.0426637
0.0537113
0.0263441
0.0373734
0.0132387
0.0241272
0.00282081
0.0134746
-0.00535226
0.00499619
-0.0116531
-0.00166194
-0.0163953
-0.00679821
-0.0198427
-0.0106644
-0.0222175
-0.0134729
-0.0237064
-0.0154029
-0.0244664
-0.0166052
-0.0246293
-0.017207
-0.0243056
-0.0173152
-0.0235878
-0.0170197
-0.0225534
-0.016396
-0.0212668
-0.0155074
-0.0197817
-0.0144067
-0.0181428
-0.0131382
-0.0163873
-0.0117392
-0.0145457
-0.0102405
-0.0126437
-0.00866826
-0.0107023
-0.00704419
-0.00873927
-0.00538681
-0.00676925
-0.00371199
-0.00480497
-0.00203273
-0.00285907
-0.000353217
-0.00101059
0.102188
5.46687
11.5062
18.8105
28.5643
42.7781
52.3232
38.1736
24.0938
16.2191
11.5068
8.51284
6.5331
5.16651
4.17792
3.4296
2.84083
2.3639
1.96999
1.64087
1.36431
1.13146
0.935432
0.770625
0.63231
0.516451
0.419586
0.338751
0.271418
0.215444
0.169012
0.130595
0.0989063
0.0728633
0.0515576
0.0342253
0.020224
0.0090131
0.000137537
-0.00678612
-0.012081
-0.0160193
-0.0188307
-0.0207083
-0.0218149
-0.0222873
-0.0222407
-0.0217714
-0.0209603
-0.0198751
-0.0185722
-0.0170989
-0.0154945
-0.0137916
-0.0120175
-0.0101951
-0.00834344
-0.00647866
-0.0046147
-0.00276736
-0.00100589
0.0996243
2.6367
5.44471
8.1258
11.4272
14.3957
18.5979
22.1705
28.0925
32.7364
41.823
44.5444
50.8456
42.4951
37.4114
29.1688
23.8421
19.6692
16.2128
13.9646
11.6127
10.3242
8.65934
7.89747
6.68536
6.21703
5.30901
5.00496
4.3049
4.09451
3.54007
3.38537
2.93593
2.81677
2.44553
2.35122
2.04015
1.96479
1.7014
1.64145
1.41676
1.3698
1.1771
1.1412
0.975315
0.948802
0.805588
0.786976
0.66304
0.650988
0.543515
0.53683
0.443457
0.441099
0.35983
0.360906
0.290049
0.293805
0.231921
0.23773
0.183594
0.190938
0.143505
0.151962
0.110341
0.119569
0.0829946
0.0927195
0.0605372
0.0705387
0.0421864
0.0522901
0.0272836
0.0373528
0.0152744
0.0252023
0.00569126
0.0153961
-0.00186004
0.00755995
-0.00771215
0.00137754
-0.0121458
-0.00341868
-0.0153978
-0.00705496
-0.0176679
-0.00972266
-0.0191248
-0.0115835
-0.0199102
-0.0127742
-0.0201438
-0.0134101
-0.0199259
-0.0135885
-0.0193411
-0.0133916
-0.01846
-0.0128886
-0.017342
-0.0121376
-0.0160367
-0.0111877
-0.0145856
-0.0100802
-0.0130235
-0.00884987
-0.0113795
-0.00752615
-0.00967805
-0.00613403
-0.0079397
-0.00469485
-0.00618201
-0.00322702
-0.00442033
-0.00174582
-0.00267224
-0.000261542
-0.00100049
0.0972394
5.40137
11.3002
18.2973
27.4624
40.566
49.036
36.3914
23.4737
16.1487
11.6891
8.79096
6.83031
5.44798
4.43023
3.64983
3.03081
2.52725
2.11063
1.76242
1.46985
1.22353
1.01608
0.841509
0.694782
0.571623
0.468384
0.381961
0.309714
0.249405
0.199147
0.157346
0.122662
0.0939666
0.0703103
0.0508934
0.0350423
0.0221886
0.0118531
0.00363091
-0.00282006
-0.00778878
-0.0115195
-0.0142184
-0.01606
-0.0171911
-0.017736
-0.017799
-0.0174683
-0.0168179
-0.0159099
-0.0147966
-0.0135218
-0.0121225
-0.0106295
-0.00906916
-0.00746357
-0.00583179
-0.00419069
-0.00256024
-0.000993743
0.0936664
2.59556
5.35533
7.96591
11.1671
13.9889
17.9855
21.2672
26.8094
30.8885
39.2946
41.2816
47.2259
39.5252
35.3565
27.8484
23.0864
19.2727
16.0764
13.9972
11.7613
10.5414
8.92052
8.17785
6.97425
6.50212
5.5865
5.2692
4.55538
4.32901
3.75954
3.58928
3.12572
2.99266
2.60902
2.5028
2.18117
2.09579
1.82352
1.75518
1.52303
1.46902
1.27004
1.22816
1.05694
1.02533
0.877532
0.854525
0.726628
0.710757
0.599834
0.589809
0.493414
0.488121
0.404193
0.40268
0.329477
0.330943
0.266984
0.270764
0.21479
0.220335
0.171273
0.178133
0.135065
0.142875
0.105016
0.113479
0.0801561
0.0890353
0.0596686
0.0687734
0.0428645
0.0520438
0.0291622
0.0382968
0.0180701
0.0270671
0.00917293
0.0179608
0.00211924
0.0106439
-0.00338824
0.00483314
-0.0076011
0.000288537
-0.0107322
-0.00319355
-0.0129615
-0.00578575
-0.0144413
-0.0076344
-0.0153002
-0.0088635
-0.0156469
-0.00957809
-0.0155728
-0.00986709
-0.0151554
-0.00980578
-0.0144597
-0.00945789
-0.0135406
-0.00887735
-0.0124442
-0.00810989
-0.0112095
-0.00719435
-0.00986943
-0.00616379
-0.00845194
-0.00504652
-0.00698084
-0.00386698
-0.00547669
-0.00264624
-0.00395756
-0.00140231
-0.00244519
-0.000153722
-0.000986331
0.0896626
5.28854
10.9868
17.5871
26
37.7196
45.0573
34.063
22.5843
15.9479
11.8054
9.03625
7.11168
5.72213
4.67937
3.86894
3.22074
2.69116
2.25227
1.88532
1.57704
1.31749
1.09883
0.914645
0.759605
0.629196
0.519596
0.427563
0.350351
0.285639
0.231469
0.186188
0.148407
0.116953
0.0908378
0.0692283
0.0514208
0.0368203
0.024924
0.0153059
0.00760549
0.00151721
-0.00321785
-0.00681906
-0.00947229
-0.011335
-0.0125404
-0.0132013
-0.013413
-0.0132562
-0.012799
-0.0120989
-0.0112046
-0.0101572
-0.0089918
-0.00773805
-0.00642152
-0.00506437
-0.00368644
-0.00231005
-0.000977148
0.0845318
2.53141
5.21912
7.73326
10.8004
13.4396
17.1778
20.1056
25.1656
28.5592
36.1168
37.3244
42.8691
35.9098
32.7464
26.1405
22.0651
18.6928
15.8137
13.9375
11.8469
10.7113
9.15114
8.43424
7.24909
6.77521
5.85809
5.52748
4.80383
4.5606
3.97882
3.79186
3.31621
3.16815
2.77372
2.65458
2.32375
2.22746
1.94747
1.86996
1.63138
1.56963
1.36526
1.31679
1.14101
1.10373
0.952033
0.924105
0.792842
0.772659
0.658805
0.644977
0.546011
0.537346
0.451153
0.446639
0.371433
0.370223
0.304489
0.305878
0.248329
0.251735
0.201274
0.206218
0.161908
0.168001
0.129038
0.135962
0.101657
0.109156
0.0789156
0.0867813
0.0600952
0.0681616
0.0445879
0.0527223
0.0318789
0.0399764
0.0215322
0.0295104
0.0131777
0.0209729
0.0065018
0.0140654
0.00123814
0.00853391
-0.00283919
0.00416268
-0.00592192
0.000768068
-0.00817272
-0.00180606
-0.00972951
-0.00369245
-0.0107093
-0.00500399
-0.0112111
-0.00583662
-0.011319
-0.00627195
-0.0111041
-0.00637939
-0.0106266
-0.006218
-0.00993776
-0.00583817
-0.00908095
-0.00528296
-0.00809316
-0.00458928
-0.00700604
-0.00378898
-0.00584683
-0.00290973
-0.0046393
-0.00197564
-0.00340422
-0.00100786
-0.00216484
-3.6271e-05
-0.000967341
0.0780666
5.13018
10.5693
16.6864
24.185
34.2192
40.2991
31.1787
21.4372
15.6251
11.861
9.25229
7.37983
5.99088
4.92684
4.0881
3.41154
2.85642
2.39557
2.01015
1.6864
1.41382
1.18409
0.990401
0.82711
0.689473
0.573496
0.475806
0.393558
0.324353
0.266167
0.217295
0.176299
0.141966
0.113271
0.0893499
0.0694691
0.0530084
0.0394418
0.0283228
0.0192725
0.011969
0.00613855
0.00154877
-0.00199798
-0.00466963
-0.00660889
-0.00793697
-0.00875684
-0.00915592
-0.00920851
-0.00897771
-0.00851722
-0.00787281
-0.00708362
-0.00618326
-0.00520082
-0.00416168
-0.00308814
-0.00200298
-0.000956121
0.0705881
2.44504
5.03741
7.43178
10.329
12.7556
16.1774
18.7011
23.1586
25.7761
32.2406
32.6793
37.6443
31.6492
29.5543
24.0591
20.7906
17.934
15.4371
13.7859
11.879
10.8327
9.35842
8.66498
7.51552
7.03453
6.12819
5.77813
5.05377
4.78779
4.20073
3.99182
3.50973
3.3421
2.94157
2.8056
2.46953
2.35896
2.0747
1.98508
1.74307
1.67099
1.46388
1.40651
1.22852
1.18349
1.03
0.995259
0.862499
0.836283
0.721167
0.70196
0.60192
0.588436
0.50132
0.492478
0.416474
0.411367
0.344942
0.342817
0.284671
0.284905
0.233927
0.236007
0.191251
0.194756
0.155409
0.159993
0.125358
0.13074
0.100218
0.106168
0.0792412
0.0855732
0.0617943
0.0683575
0.0473397
0.054013
0.0354207
0.0421072
0.025649
0.0322719
0.0176943
0.0241933
0.0112754
0.0176038
0.00615312
0.0122753
0.00212388
0.00801339
-0.00098572
0.00465193
-0.00332323
0.00204937
-0.00501427
8.48486e-05
-0.00616573
-0.00134477
-0.00686862
-0.00232755
-0.00720043
-0.00293878
-0.0072272
-0.00324284
-0.00700527
-0.00329494
-0.00658284
-0.00314255
-0.00600122
-0.00282663
-0.00529608
-0.00238275
-0.00449828
-0.00184206
-0.00363485
-0.00123199
-0.00272859
-0.000578178
-0.00180659
8.33221e-05
-0.000944394
0.0607096
4.92612
10.0462
15.59
21.9965
29.9728
34.5679
27.6848
20.0422
15.1969
11.8705
9.4513
7.64475
6.26238
5.17924
4.31272
3.60772
3.0268
2.54379
2.13973
1.80039
1.5147
1.27383
1.07055
0.898899
0.753903
0.631397
0.527882
0.440419
0.366534
0.304141
0.251485
0.207085
0.169687
0.138234
0.111827
0.0897074
0.0712284
0.0558413
0.0430792
0.0325446
0.023899
0.0168538
0.0111631
0.00661713
0.00303708
0.000270471
-0.00181277
-0.00332359
-0.00435665
-0.00499275
-0.00530094
-0.00534033
-0.00516161
-0.00480842
-0.00431851
-0.00372473
-0.00305563
-0.0023355
-0.00159127
-0.000934768
0.0499374
2.34206
4.79785
7.07462
9.72808
11.9634
14.9334
17.1073
20.6798
22.6439
27.4246
27.4579
31.1838
26.827
25.6303
21.6528
19.2479
17.0023
14.97
13.5335
11.8884
10.8934
9.57208
8.85777
7.79953
7.26896
6.41873
6.01156
5.32344
5.00242
4.44044
4.18228
3.71896
3.5087
3.12329
2.95088
2.62772
2.486
2.21317
2.09679
1.86511
1.7698
1.57211
1.4944
1.32502
1.26201
1.1164
1.06563
0.940083
0.899503
0.790976
0.758835
0.664815
0.639648
0.558032
0.53861
0.467634
0.452931
0.391106
0.380269
0.326332
0.318649
0.271528
0.266409
0.225188
0.222143
0.18604
0.184662
0.153005
0.152958
0.12517
0.126175
0.10176
0.103585
0.0821137
0.0845678
0.0656707
0.0685966
0.0519528
0.0552206
0.0405521
0.0440555
0.0311211
0.0347729
0.0233629
0.0270922
0.0170241
0.0207733
0.0118882
0.015611
0.00777046
0.0114298
0.00451277
0.00807925
0.00198016
0.00543065
5.71805e-05
0.00337373
-0.00135489
0.00181397
-0.00234056
0.000670225
-0.00297224
-0.000127251
-0.0033121
-0.000638536
-0.00341363
-0.000915557
-0.00332304
-0.00100339
-0.00308047
-0.000941398
-0.00272095
-0.000764268
-0.00227563
-0.000502574
-0.00177238
-0.000184388
-0.00125994
0.000170005
-0.000924818
0.0392911
4.65281
9.37105
14.205
19.2437
24.5933
27.3173
23.3395
18.3643
14.6954
11.882
9.68055
7.94829
6.57214
5.46623
4.56751
3.82997
3.21984
2.71192
2.28707
1.93044
1.63026
1.37707
1.16319
0.982269
0.829085
0.699282
0.589225
0.495874
0.416677
0.349486
0.292494
0.244171
0.203226
0.168564
0.139254
0.114506
0.093647
0.0761038
0.061387
0.049079
0.0388231
0.0303141
0.0232913
0.0175314
0.0128435
0.00906393
0.00605273
0.00368987
0.00187245
0.000512173
-0.000466828
-0.00112988
-0.00153338
-0.00172622
-0.00175099
-0.00164507
-0.00144177
-0.00117372
-0.000902181
-0.000933694
0.0158172
2.22337
4.50442
6.6655
9.00515
11.0674
13.464
15.3327
17.8057
19.1378
21.6495
21.6296
23.2251
21.4049
20.9676
18.8999
17.4922
15.9033
14.4236
13.1824
11.8793
10.8945
9.79398
9.01278
8.10239
7.47834
6.73046
6.2274
5.6133
5.20411
4.69823
4.36286
3.9441
3.6676
3.31906
3.09013
2.79845
2.60836
2.36303
2.2049
1.99761
1.86593
1.69007
1.58035
1.43064
1.3392
1.21136
1.13518
1.02572
0.962287
0.868355
0.815585
0.734816
0.690972
0.621401
0.585036
0.52502
0.494925
0.443081
0.418244
0.373407
0.352983
0.314164
0.297441
0.263802
0.250183
0.221009
0.209991
0.18467
0.17583
0.15384
0.146822
0.127714
0.122216
0.105605
0.101373
0.0869262
0.0837466
0.0711784
0.0688692
0.0579334
0.0563414
0.0468251
0.045821
0.0375401
0.0370147
0.0298099
0.0296712
0.0234043
0.0235746
0.0181261
0.0185401
0.0138062
0.0144086
0.0102991
0.0110438
0.00748036
0.00832826
0.00524269
0.00616099
0.00349391
0.00445501
0.00215461
0.00313519
0.0011562
0.00213654
0.000439305
0.0014026
-4.77109e-05
0.00088413
-0.000349955
0.000537869
-0.000507224
0.000325692
-0.000554583
0.000213064
-0.00052586
0.000171814
-0.000460975
0.000180279
-0.00053553
0.00621868
4.48356
8.95651
13.3751
17.6046
21.2312
22.703
20.679
17.4389
14.4498
11.9213
9.83953
8.14478
6.76756
5.64485
4.72481
3.96652
3.33813
2.81485
2.37729
2.01015
1.70119
1.44057
1.22029
1.03378
0.875646
0.741428
0.627407
0.530481
0.448051
0.377934
0.31829
0.267565
0.224441
0.187802
0.156699
0.130325
0.107989
0.089104
0.0731678
0.0597507
0.048485
0.0390558
0.0311936
0.0246669
0.0192774
0.0148551
0.0112538
0.0083481
0.00603005
0.00420684
0.00279846
0.0017358
0.000958961
0.000415882
6.10132e-05
-0.000145741
-0.000239947
-0.000253209
-0.000212487
-0.000131882
0.00863417
2.22962
4.48313
6.68193
8.95565
11.0979
13.3714
15.3749
17.593
19.2327
21.1988
21.7868
22.6534
21.5276
20.6558
18.9308
17.4364
15.8933
14.4539
13.1711
11.9274
10.882
9.84586
9.00114
8.15054
7.46806
6.77252
6.21863
5.64903
5.19673
4.72831
4.35668
3.96948
3.66241
3.34064
3.08575
2.81702
2.60463
2.37919
2.20169
2.01183
1.86314
1.7027
1.57791
1.44192
1.33704
1.2215
1.13326
1.03487
0.960568
0.876638
0.814037
0.742327
0.689572
0.628221
0.583766
0.531218
0.493768
0.448719
0.417189
0.37854
0.352018
0.318839
0.296557
0.268061
0.249372
0.224891
0.209246
0.18821
0.175146
0.157069
0.146192
0.130659
0.121636
0.108292
0.100838
0.0893782
0.0832523
0.073416
0.0684127
0.0599752
0.0559197
0.048688
0.0454311
0.0392393
0.036654
0.0313592
0.0293374
0.0248162
0.0232656
0.0194119
0.0182539
0.0149759
0.0141435
0.0113621
0.0107981
0.00844484
0.00810051
0.00611617
0.00594983
0.00428315
0.00425919
0.00286566
0.00295356
0.00179452
0.00196805
0.00100977
0.00124627
0.000459254
0.000739072
9.73752e-05
0.00040327
-0.000116033
0.000200686
-0.000216617
9.72087e-05
-0.00023618
6.1785e-05
-0.000202242
6.50924e-05
-0.000135204
0.00981687
4.48229
8.95378
13.3659
17.5788
21.1617
22.5971
20.6281
17.4316
14.4566
11.9328
9.85176
8.15606
6.77734
5.65311
4.73176
3.97239
3.34313
2.81918
2.38109
2.01351
1.7042
1.44328
1.22273
1.03598
0.877647
0.743242
0.629053
0.531974
0.449406
0.379163
0.319405
0.268575
0.225357
0.188633
0.157453
0.131008
0.108608
0.0896651
0.0736761
0.0602109
0.0489013
0.0394323
0.0315336
0.0249736
0.0195537
0.0151034
0.0114765
0.0085471
0.00620725
0.00436387
0.00293676
0.00185665
0.0010635
0.000505094
0.000135762
-8.47281e-05
-0.000192121
-0.000218449
-0.000191899
-0.000136902
0.0109878
2.23142
4.48243
6.68461
8.95348
11.0993
13.363
15.3695
17.5679
19.207
21.1288
21.7279
22.5456
21.4727
20.604
18.9117
17.4287
15.8933
14.4602
13.1774
11.9382
10.89
9.85731
9.00908
8.16112
7.47513
6.78169
6.22468
5.65677
5.20184
4.73482
4.36099
3.97497
3.66609
3.34534
3.08893
2.82109
2.60743
2.38277
2.20418
2.01502
1.86538
1.70555
1.57993
1.4445
1.33888
1.22383
1.13493
1.03699
0.962088
0.878559
0.815421
0.744072
0.690831
0.629807
0.584911
0.53266
0.494809
0.45003
0.418134
0.37973
0.352875
0.31992
0.297335
0.269043
0.250078
0.225782
0.209885
0.189019
0.175725
0.157803
0.146716
0.131326
0.12211
0.108896
0.101267
0.0899265
0.0836404
0.073913
0.0687633
0.0604254
0.056236
0.0490956
0.0457163
0.0396079
0.0369108
0.0316921
0.0295681
0.0251166
0.0234725
0.0196824
0.018439
0.015219
0.0143086
0.01158
0.0109448
0.00863954
0.0082302
0.00628942
0.0060638
0.00443652
0.00435855
0.00300056
0.00303932
0.00191219
0.00204108
0.0011113
0.00130735
0.000545618
0.000788844
0.000169406
0.000442311
-5.76212e-05
0.000229479
-0.000171263
0.000116187
-0.000203654
7.14974e-05
-0.00018328
6.69635e-05
-0.00013857
0.0116183
4.48214
8.9522
13.3583
17.5542
21.091
22.4876
20.5754
17.4235
14.4624
11.9428
9.86246
8.16594
6.7859
5.66034
4.73782
3.97751
3.34752
2.82299
2.38445
2.01651
1.7069
1.44572
1.22494
1.038
0.879486
0.744918
0.63058
0.533365
0.450672
0.380315
0.320453
0.269529
0.226224
0.189421
0.158169
0.131658
0.109198
0.0902005
0.0741617
0.060651
0.0493
0.0397929
0.0318594
0.0252676
0.0198185
0.0153414
0.0116897
0.00873749
0.00637653
0.00451357
0.00306824
0.00197111
0.00116202
0.000588601
0.000205069
-2.89207e-05
-0.00014923
-0.000188107
-0.000174461
-0.000139352
0.0122348
2.2321
4.48231
6.6851
8.95171
11.097
13.355
15.3584
17.5427
19.1733
21.0567
21.6587
22.4339
21.4083
20.5496
18.8864
17.4195
15.8895
14.465
13.1817
11.9473
10.8969
9.8673
9.01638
8.17041
7.48187
6.78978
6.23055
5.66361
5.20684
4.74057
4.36525
3.97983
3.66975
3.34951
3.09212
2.82473
2.61024
2.38599
2.2067
2.01789
1.86766
1.70814
1.582
1.44685
1.34077
1.22598
1.13666
1.03895
0.963673
0.88035
0.816871
0.745709
0.692158
0.631302
0.586123
0.534025
0.495916
0.451274
0.419144
0.380865
0.353796
0.320954
0.298174
0.269985
0.250841
0.22664
0.21058
0.189799
0.176356
0.158513
0.14729
0.131971
0.122631
0.109483
0.10174
0.0904592
0.0840693
0.0743965
0.0691519
0.060864
0.0565878
0.049493
0.0460343
0.0399677
0.0371979
0.0320174
0.0298269
0.0254101
0.0237053
0.0199469
0.0186479
0.0154567
0.0144954
0.011793
0.0111113
0.0088297
0.00837785
0.00645845
0.00619397
0.00458592
0.00447247
0.00313168
0.00313805
0.00202621
0.00212557
0.00120929
0.00137843
0.000628495
0.000847249
0.000237974
0.000488655
-2.6699e-06
0.000264286
-0.000129342
0.000139893
-0.000174352
8.45166e-05
-0.000166748
7.01839e-05
-0.00014011
0.0126294
4.48203
8.95024
13.35
17.5284
21.0174
22.374
20.5193
17.4132
14.4662
11.9511
9.87173
8.17464
6.7935
5.66678
4.74325
3.98211
3.35147
2.82644
2.38751
2.01926
1.70939
1.44799
1.22702
1.03991
0.88123
0.746516
0.632043
0.534703
0.451895
0.381433
0.321473
0.270459
0.227072
0.190194
0.158873
0.132298
0.109781
0.0907305
0.0746431
0.061088
0.0496962
0.0401518
0.032184
0.0255607
0.0200826
0.0155787
0.0119024
0.00892741
0.00654529
0.00466266
0.00319899
0.0020847
0.00125948
0.000670845
0.000272894
2.5172e-05
-0.000108277
-0.000159821
-0.000158768
-0.0001404
0.013009
2.23203
4.48195
6.6838
8.94915
11.0915
13.3458
15.3424
17.5154
19.1323
20.9811
21.5804
22.318
21.3356
20.4914
18.8554
17.4076
15.8824
14.4677
13.1839
11.9547
10.9026
9.87588
9.02296
8.17859
7.48815
6.79698
6.23612
5.66974
5.21164
4.74574
4.36936
3.98423
3.6733
3.3533
3.09523
2.82804
2.61301
2.38894
2.2092
2.02055
1.86993
1.71056
1.58408
1.44907
1.34268
1.22801
1.13842
1.04082
0.965294
0.882067
0.818363
0.747286
0.69353
0.63275
0.587383
0.535352
0.497071
0.45249
0.420202
0.381978
0.354764
0.321971
0.299059
0.270915
0.251649
0.227488
0.211318
0.190574
0.177029
0.159219
0.147904
0.132614
0.12319
0.110069
0.102248
0.0909923
0.0845314
0.0748812
0.0695717
0.0613043
0.0569686
0.0498926
0.0463794
0.0403298
0.0375102
0.0323451
0.030109
0.0257062
0.0239595
0.0202137
0.0188764
0.0156967
0.0147003
0.0120081
0.0112942
0.00902176
0.00854036
0.00662912
0.00633755
0.00473668
0.00459839
0.00326385
0.00324745
0.00214097
0.00221945
0.00130767
0.00145767
0.000711412
0.000912617
0.000306222
0.00054082
5.1596e-05
0.000303811
-8.8466e-05
0.000167236
-0.000146376
0.000100046
-0.000151498
7.44453e-05
-0.000140668
0.0133061
4.48141
8.94707
13.3398
17.4995
20.9397
22.2562
20.4589
17.3996
14.4678
11.9576
9.87962
8.18229
6.8003
5.67259
4.74816
3.9863
3.35509
2.82962
2.39035
2.02183
1.71174
1.45015
1.22901
1.04174
0.88292
0.748073
0.633475
0.536019
0.453103
0.38254
0.322487
0.271387
0.227921
0.190969
0.15958
0.132944
0.11037
0.0912666
0.075131
0.0615316
0.0500991
0.0405172
0.0325149
0.0258597
0.0203522
0.0158213
0.0121199
0.00912161
0.00671787
0.00481508
0.00333258
0.00220062
0.00135878
0.000754432
0.000341562
7.96089e-05
-6.7478e-05
-0.000132145
-0.000143919
-0.000140703
0.013588
2.2314
4.48094
6.6809
8.94515
11.0831
13.3342
15.3219
17.4847
19.0847
20.901
21.4939
22.198
21.2553
20.4286
18.8191
17.3922
15.872
14.4679
13.1841
11.9603
10.9071
9.88312
9.02871
8.18577
7.49388
6.80341
6.24131
5.67527
5.21616
4.75044
4.37327
3.98824
3.67671
3.35678
3.09823
2.83111
2.6157
2.39169
2.21164
2.02305
1.87216
1.71286
1.58615
1.45118
1.34459
1.22997
1.14019
1.04263
0.966934
0.883741
0.819881
0.748833
0.694932
0.634176
0.588676
0.536666
0.498262
0.453698
0.421298
0.383087
0.35577
0.322989
0.299982
0.271848
0.252495
0.228343
0.212092
0.191355
0.177737
0.159933
0.14855
0.133267
0.123781
0.110664
0.102787
0.091535
0.0850222
0.0753756
0.0700184
0.0617542
0.0573748
0.0503014
0.0467481
0.0407008
0.0378444
0.0326813
0.0304113
0.0260102
0.0242325
0.0204881
0.0191222
0.0159435
0.0149209
0.0122295
0.0114914
0.00921951
0.00871594
0.00680487
0.0064929
0.00489192
0.00473483
0.0033999
0.00336616
0.00225901
0.00232149
0.00140875
0.00154396
0.000796437
0.00098397
0.000375997
0.000597934
0.000106812
0.000347284
-4.72124e-05
0.000197558
-0.000118566
0.000117586
-0.000136794
7.95428e-05
-0.00014072
0.0138444
4.48001
8.94223
13.3269
17.4668
20.8572
22.1343
20.3938
17.3823
14.4667
11.9623
9.88619
8.18899
6.80637
5.67785
4.75265
3.99014
3.35843
2.83258
2.39302
2.02427
1.71398
1.45222
1.23094
1.04353
0.884578
0.749609
0.634895
0.53733
0.454311
0.383652
0.323509
0.272325
0.228781
0.191757
0.160301
0.133603
0.110972
0.091816
0.0756319
0.0619876
0.0505138
0.0408939
0.0328564
0.0261687
0.0206312
0.0160724
0.0123451
0.00932289
0.0068968
0.00497315
0.0034711
0.00232078
0.00146162
0.000840893
0.000412442
0.000135603
-2.57714e-05
-0.000104198
-0.000129332
-0.00014063
0.0140858
2.23026
4.47908
6.67649
8.93937
11.0721
13.3199
15.2972
17.4497
19.0309
20.8158
21.4
22.0739
21.1681
20.3609
18.7777
17.3728
15.8585
14.4655
13.1823
11.9641
10.9102
9.88905
9.03359
8.192
7.499
6.80916
6.24606
5.68028
5.22037
4.75474
4.37694
3.99194
3.67993
3.36
3.1011
2.83398
2.61829
2.39428
2.21401
2.02543
1.87435
1.71506
1.58818
1.45323
1.34649
1.23187
1.14196
1.0444
0.968585
0.885391
0.821417
0.750364
0.696358
0.635596
0.589997
0.537979
0.499484
0.454911
0.422425
0.384205
0.356809
0.324019
0.300938
0.272794
0.253374
0.229211
0.212898
0.192152
0.178477
0.160663
0.149228
0.133935
0.1244
0.111275
0.103353
0.092093
0.0855391
0.0758847
0.0704897
0.0622181
0.057804
0.0507236
0.0471384
0.0410846
0.0381987
0.0330294
0.0307324
0.0263254
0.0245228
0.0207727
0.0193839
0.0161999
0.0151561
0.0124596
0.011702
0.00942516
0.00890351
0.00698773
0.00665904
0.00505349
0.0048809
0.00354151
0.0034934
0.00238185
0.00243098
0.00151387
0.00163666
0.000884786
0.00106073
0.000448384
0.000659483
0.000163942
0.000394251
-4.73619e-06
0.000230464
-9.02141e-05
0.000136825
-0.00012216
8.53382e-05
-0.000140525
0.0143228
4.47769
8.93549
13.311
17.4296
20.7695
22.0082
20.3236
17.361
14.4629
11.9651
9.89147
8.19476
6.81178
5.68261
4.75675
3.99369
3.36154
2.83535
2.39554
2.02659
1.71613
1.45424
1.23282
1.04528
0.886218
0.751136
0.636315
0.538646
0.455529
0.384776
0.324546
0.273279
0.229658
0.192562
0.16104
0.13428
0.111591
0.0923825
0.0761492
0.0624595
0.0509436
0.0412847
0.0332111
0.0264901
0.0209216
0.016334
0.01258
0.0095329
0.00708358
0.00513821
0.00361578
0.00244629
0.00156902
0.000931128
0.000486336
0.000193867
1.74728e-05
-7.54425e-05
-0.000114632
-0.000140379
0.0145451
2.22864
4.47628
6.67057
8.93161
11.0584
13.3023
15.2683
17.41
18.9711
20.7253
21.2991
21.9458
21.0745
20.288
18.7315
17.3493
15.8417
14.4603
13.1784
11.966
10.912
9.89369
9.03753
8.19734
7.50348
6.81424
6.25035
5.6848
5.22423
4.75866
4.38036
3.99534
3.68295
3.363
3.10381
2.83667
2.62077
2.39674
2.2163
2.0277
1.87649
1.71718
1.59018
1.45521
1.34837
1.23373
1.14373
1.04615
0.97024
0.887026
0.822965
0.751892
0.697802
0.637018
0.591341
0.539301
0.500731
0.456136
0.423581
0.385338
0.357878
0.325065
0.301924
0.273758
0.254282
0.230099
0.213734
0.192968
0.179245
0.161413
0.149933
0.134622
0.125046
0.111905
0.103945
0.0926694
0.0860805
0.0764115
0.0709842
0.0626989
0.058255
0.0511618
0.0475491
0.0414833
0.0385721
0.0333916
0.0310711
0.0266536
0.0248293
0.0210694
0.0196606
0.0164673
0.015405
0.0126998
0.011925
0.00964002
0.00910245
0.00717889
0.0068354
0.00522245
0.0050361
0.00368963
0.00362869
0.00251036
0.00254749
0.00162384
0.00173539
0.000977173
0.00114255
0.000524023
0.000725165
0.000223554
0.000444443
3.94643e-05
0.000265716
-6.08903e-05
0.000157565
-0.000107285
9.17366e-05
-0.00014022
0.0147695
4.47439
8.92669
13.2917
17.3874
20.6763
21.8783
20.2482
17.3353
14.4563
11.966
9.89547
8.19965
6.81654
5.68689
4.76049
3.99695
3.36442
2.83796
2.39792
2.02881
1.71822
1.45619
1.23466
1.04702
0.887849
0.752663
0.63774
0.539973
0.456761
0.385918
0.325601
0.274254
0.230557
0.193389
0.1618
0.134978
0.112231
0.0929687
0.0766854
0.0629492
0.0513902
0.0416913
0.0335807
0.0268251
0.0212246
0.0166073
0.0128256
0.00975261
0.0072791
0.00531107
0.00376735
0.0025778
0.00168156
0.00102567
0.000563719
0.000254825
6.26286e-05
-4.55529e-05
-9.95716e-05
-0.000140052
0.0149797
2.22655
4.47248
6.66314
8.92176
11.042
13.2813
15.2352
17.3653
18.9055
20.6295
21.1919
21.8138
20.9751
20.21
18.6804
17.3215
15.8217
14.4522
13.1723
11.9659
10.9123
9.89706
9.04049
8.20178
7.50728
6.81869
6.25416
5.68885
5.22773
4.76222
4.3835
3.99847
3.68577
3.36578
3.10637
2.83919
2.62312
2.39906
2.2185
2.02987
1.87856
1.71922
1.59214
1.45715
1.35023
1.23557
1.14548
1.04788
0.971895
0.888655
0.824522
0.75342
0.699262
0.638448
0.592706
0.540635
0.502003
0.457377
0.424763
0.38649
0.358974
0.326132
0.302938
0.274744
0.255219
0.231009
0.214599
0.193807
0.180041
0.162185
0.150665
0.135332
0.125719
0.112556
0.104562
0.093266
0.0866454
0.0769576
0.0715009
0.0631981
0.058727
0.0516174
0.0479795
0.0418983
0.0389638
0.0337689
0.0314269
0.026996
0.0251517
0.0213793
0.0199519
0.0167468
0.0156673
0.012951
0.0121603
0.00986486
0.00931238
0.00737903
0.00702165
0.00539944
0.0052001
0.00384486
0.00377175
0.00264506
0.00267077
0.00173913
0.00183992
0.00107402
0.00122924
0.000603291
0.000794797
0.000285983
0.0004977
8.5688e-05
0.000303172
-3.03319e-05
0.000179682
-9.19668e-05
9.86713e-05
-0.000139872
0.0151927
4.47008
8.91577
13.269
17.3401
20.5778
21.7445
20.1676
17.3052
14.4468
11.9651
9.89819
8.20364
6.82067
5.6907
4.76387
3.99994
3.3671
2.8404
2.40019
2.03093
1.72023
1.45811
1.23648
1.04874
0.889475
0.754193
0.639174
0.541314
0.458011
0.38708
0.326679
0.275252
0.231479
0.19424
0.162584
0.135699
0.112893
0.0935759
0.0772415
0.0634579
0.0518547
0.0421147
0.0339659
0.0271748
0.0215412
0.016893
0.0130825
0.00998258
0.00748388
0.0054922
0.00392624
0.0027157
0.0017996
0.00112482
0.000644872
0.000318726
0.000109919
-1.43294e-05
-8.3988e-05
-0.000139696
0.0153922
2.22397
4.46765
6.65418
8.90976
11.0228
13.2568
15.198
17.3154
18.8342
20.5281
21.0788
21.6782
20.8701
20.1268
18.6245
17.2892
15.7983
14.4413
13.1641
11.964
10.9111
9.89915
9.04246
8.20534
7.51037
6.82251
6.25745
5.69243
5.23086
4.76543
4.38635
4.00133
3.68837
3.36836
3.10876
2.84155
2.62535
2.40127
2.2206
2.03196
1.88056
1.72121
1.59406
1.45904
1.35206
1.23737
1.14722
1.04959
0.973549
0.890279
0.826086
0.754953
0.700736
0.639889
0.594089
0.541984
0.503296
0.458637
0.425969
0.387663
0.360096
0.327221
0.30398
0.275754
0.256184
0.231944
0.21549
0.19467
0.180864
0.16298
0.151423
0.136064
0.126416
0.113229
0.105203
0.0938842
0.0872333
0.0775242
0.0720395
0.0637167
0.0592195
0.0520912
0.0484291
0.0423305
0.0393735
0.0341623
0.0317993
0.0273532
0.0254895
0.0217028
0.0202573
0.0170389
0.0159426
0.0132138
0.0124073
0.0101001
0.00953306
0.0075886
0.00721756
0.00558486
0.00537273
0.00400754
0.00392242
0.00278628
0.00280067
0.00186002
0.00195012
0.00117559
0.00132066
0.000686417
0.00086827
0.000351434
0.000553925
0.000134115
0.000342747
1.62277e-06
0.000203099
-7.60667e-05
0.000106093
-0.00013951
0.0155931
4.46472
8.90266
13.2427
17.2875
20.4738
21.6071
20.0819
17.2707
14.4344
11.9622
9.89963
8.20675
6.82417
5.69405
4.76691
4.00267
3.36958
2.84268
2.40234
2.03297
1.72218
1.45998
1.23827
1.05045
0.891098
0.755729
0.640621
0.542672
0.459281
0.388265
0.327781
0.276274
0.232425
0.195115
0.163392
0.136443
0.113578
0.0942049
0.0778186
0.0639863
0.0523378
0.0425556
0.0343673
0.0275395
0.0218716
0.0171915
0.0133511
0.0102232
0.00769823
0.00568189
0.00409271
0.00286023
0.00192334
0.0012288
0.00072997
0.000385726
0.000159483
1.83527e-05
-6.77678e-05
-0.00013933
0.0157813
2.22089
4.46177
6.64367
8.89554
11.0009
13.2287
15.1565
17.2602
18.7573
20.4214
20.9601
21.5389
20.76
20.0386
18.5639
17.2525
15.7716
14.4274
13.1536
11.9602
10.9084
9.89994
9.04339
8.20801
7.51274
6.8257
6.26023
5.69556
5.2336
4.7683
4.38892
4.00393
3.69075
3.37073
3.11098
2.84376
2.62745
2.40336
2.22261
2.03396
1.8825
1.72313
1.59592
1.46089
1.35386
1.23915
1.14895
1.05129
0.9752
0.891902
0.827656
0.756492
0.702222
0.641343
0.595489
0.543351
0.504611
0.459918
0.4272
0.38886
0.361244
0.328335
0.305048
0.27679
0.257175
0.232903
0.216409
0.195558
0.181713
0.163801
0.152207
0.13682
0.127139
0.113925
0.105867
0.0945245
0.0878439
0.0781119
0.0725995
0.0642552
0.0597322
0.0525838
0.0488977
0.0427802
0.0398009
0.034572
0.0321883
0.0277256
0.0258425
0.0220403
0.0205768
0.0173439
0.0162307
0.0134883
0.0126662
0.0103462
0.00976436
0.00780785
0.00742301
0.00577893
0.00555385
0.00417789
0.00408058
0.00293421
0.00293708
0.00198669
0.00206588
0.00128203
0.00141675
0.000773545
0.000945513
0.000420035
0.000613055
0.00018486
0.000384383
3.50777e-05
0.000227761
-5.94876e-05
0.000113965
-0.000139141
0.0159685
4.45831
8.88732
13.2127
17.2296
20.3644
21.4662
19.9912
17.2317
14.419
11.9574
9.89977
8.20897
6.82704
5.69694
4.7696
4.00513
3.37185
2.84481
2.40437
2.03493
1.72408
1.46181
1.24004
1.05215
0.892721
0.757272
0.642082
0.544048
0.460572
0.389472
0.328907
0.277322
0.233398
0.196016
0.164224
0.137212
0.114286
0.0948565
0.0784169
0.064535
0.0528399
0.0430142
0.0347854
0.0279197
0.0222163
0.017503
0.0136316
0.0104746
0.00792238
0.00588035
0.00426694
0.00301156
0.00205294
0.00133771
0.000819128
0.000455927
0.000211409
5.25768e-05
-5.08278e-05
-0.000138954
0.0161441
2.2173
4.45483
6.63157
8.87908
10.9762
13.1968
15.1108
17.1997
18.6749
20.3094
20.8363
21.3963
20.645
19.9453
18.4987
17.2112
15.7415
14.4105
13.1409
11.9544
10.9042
9.89943
9.04326
8.20978
7.51437
6.82825
6.26247
5.69822
5.23595
4.77082
4.39119
4.00626
3.69289
3.37291
3.11303
2.84582
2.62943
2.40533
2.22453
2.03587
1.88437
1.72499
1.59775
1.46271
1.35563
1.24091
1.15066
1.05299
0.976848
0.893526
0.829232
0.75804
0.70372
0.642811
0.596907
0.544736
0.505947
0.46122
0.428453
0.390079
0.362417
0.329475
0.306141
0.27785
0.258193
0.233889
0.217353
0.196472
0.182588
0.164646
0.153016
0.137602
0.127886
0.114646
0.106555
0.0951875
0.0884768
0.0787212
0.0731806
0.0648141
0.0602649
0.0530956
0.049385
0.0432479
0.0402458
0.0349985
0.0325935
0.0281136
0.0262107
0.0223923
0.0209103
0.0176621
0.0165316
0.0137749
0.0129366
0.0106031
0.0100062
0.00803697
0.00763791
0.00598185
0.00574338
0.00435608
0.00424614
0.00308899
0.00307994
0.00211927
0.00218716
0.00139347
0.00151743
0.00086478
0.00102647
0.000491877
0.000675045
0.000238004
0.000428041
7.01077e-05
0.000253629
-4.2153e-05
0.000122255
-0.000138758
0.0163155
4.45083
8.86972
13.179
17.1664
20.2499
21.322
19.8955
17.1882
14.4006
11.9506
9.89859
8.21028
6.82926
5.69937
4.77195
4.00734
3.37393
2.8468
2.40629
2.03681
1.72591
1.46361
1.24178
1.05384
0.894346
0.758824
0.643557
0.545443
0.461886
0.390704
0.330059
0.278396
0.234397
0.196943
0.165083
0.138005
0.115018
0.0955309
0.0790371
0.0651042
0.0533614
0.043491
0.0352204
0.0283155
0.0225755
0.0178279
0.0139243
0.0107371
0.00815648
0.00608772
0.00444907
0.0031698
0.0021885
0.00145168
0.000912438
0.00052941
0.000265772
8.84093e-05
-3.30974e-05
-0.00013856
0.0164763
2.21318
4.4468
6.61788
8.86034
10.9487
13.1612
15.0608
17.1337
18.5872
20.1922
20.7075
21.2502
20.5254
19.8471
18.4289
17.1654
15.7079
14.3907
13.1258
11.9466
10.8984
9.89759
9.04205
8.21064
7.51524
6.83016
6.26416
5.70041
5.23789
4.773
4.39315
4.00834
3.69481
3.37489
3.1149
2.84773
2.63126
2.4072
2.22634
2.03771
1.88616
1.7268
1.59952
1.46448
1.35737
1.24264
1.15236
1.05467
0.978491
0.895152
0.830812
0.759598
0.70523
0.644294
0.598342
0.546142
0.507303
0.462545
0.42973
0.391324
0.363614
0.33064
0.307261
0.278938
0.259236
0.234902
0.218324
0.197412
0.183489
0.165518
0.15385
0.138408
0.128656
0.11539
0.107267
0.0958736
0.0891318
0.0793524
0.0737828
0.0653938
0.0608173
0.053627
0.0498909
0.043734
0.040708
0.0354421
0.0330149
0.0285174
0.0265937
0.0227588
0.0212574
0.0179938
0.0168451
0.0140738
0.0132185
0.0108712
0.0102584
0.00827615
0.00786214
0.00619376
0.00594123
0.00454223
0.00441905
0.00325076
0.00322918
0.00225788
0.00231388
0.00151001
0.00162266
0.000960214
0.00111111
0.000567044
0.000739853
0.000293622
0.000473686
0.00010678
0.000280668
-2.39924e-05
0.000130932
-0.000138354
0.0166293
4.44225
8.84981
13.1415
17.0977
20.1301
21.1744
19.7949
17.1401
14.3792
11.9418
9.89608
8.21068
6.83085
5.70133
4.77396
4.00928
3.37581
2.84863
2.4081
2.0386
1.72769
1.46537
1.24351
1.05552
0.895973
0.760387
0.645048
0.546858
0.463223
0.391962
0.331238
0.279497
0.235423
0.197897
0.165968
0.138824
0.115775
0.0962287
0.0796794
0.0656944
0.0539026
0.0439863
0.0356725
0.0287273
0.0229494
0.0181663
0.0142294
0.0110108
0.00840072
0.00630416
0.00463925
0.00333509
0.00233015
0.00157079
0.00101
0.000606261
0.000322645
0.000125919
-1.45053e-05
-0.000138139
0.0167727
2.20855
4.43768
6.60256
8.83926
10.9183
13.1218
15.0065
17.0624
18.4942
20.0699
20.5742
21.101
20.4015
19.7442
18.3545
17.1151
15.6709
14.3677
13.1083
11.9369
10.8911
9.89442
9.03973
8.21058
7.51533
6.83142
6.26529
5.70214
5.23941
4.77484
4.3948
4.01016
3.6965
3.37667
3.11659
2.84949
2.63297
2.40896
2.22806
2.03946
1.88789
1.72856
1.60124
1.46623
1.35908
1.24436
1.15404
1.05635
0.980128
0.896782
0.832395
0.761167
0.70675
0.645794
0.599792
0.547568
0.508679
0.463895
0.431029
0.392595
0.364835
0.331832
0.308405
0.280053
0.260306
0.235942
0.21932
0.19838
0.184415
0.166416
0.154709
0.13924
0.129451
0.116159
0.108001
0.0965834
0.0898087
0.0800062
0.0744056
0.0659948
0.0613893
0.0541783
0.0504152
0.0442387
0.0411874
0.0359031
0.0334522
0.0289373
0.0269915
0.0231403
0.0216182
0.0183391
0.0171711
0.0143852
0.0135117
0.0111507
0.0105209
0.00852558
0.00809563
0.00641485
0.00614732
0.00473653
0.0045992
0.00341967
0.00338472
0.00240266
0.00244599
0.00163178
0.00173238
0.00105996
0.00119936
0.000645636
0.000807431
0.000351801
0.000521274
0.000145175
0.000308837
-4.92738e-06
0.000139964
-0.000137918
0.0169042
4.43257
8.82755
13.1001
17.0237
20.0053
21.0235
19.6896
17.0876
14.3548
11.9311
9.89224
8.21016
6.83179
5.70282
4.77562
4.01097
3.37749
2.85032
2.4098
2.04032
1.72942
1.46709
1.24522
1.0572
0.897605
0.761962
0.646557
0.548295
0.464584
0.393246
0.332444
0.280626
0.236477
0.198878
0.166879
0.13967
0.116557
0.0969506
0.0803446
0.0663061
0.0544641
0.0445004
0.0361423
0.0291554
0.0233384
0.0185185
0.0145471
0.0112961
0.00865534
0.0065299
0.00483767
0.00350761
0.00247805
0.00169521
0.00111193
0.000686594
0.000382129
0.000165196
5.03518e-06
-0.000137686
0.0170274
2.20338
4.42743
6.58563
8.81581
10.885
13.0785
14.948
16.9856
18.396
19.9425
20.4365
20.9484
20.2735
19.6365
18.2757
17.0603
15.6304
14.3417
13.0885
11.9251
10.882
9.8899
9.03629
8.2096
7.51462
6.83204
6.26584
5.70341
5.24051
4.77633
4.39613
4.01173
3.69794
3.37827
3.1181
2.85111
2.63453
2.41061
2.22967
2.04115
1.88954
1.73026
1.60291
1.46794
1.36075
1.24607
1.1557
1.05803
0.981759
0.898418
0.83398
0.762749
0.708279
0.647314
0.601256
0.549017
0.510073
0.46527
0.432348
0.393893
0.366079
0.333053
0.309574
0.281197
0.261399
0.237011
0.220341
0.199376
0.185365
0.167342
0.155591
0.140099
0.130269
0.116954
0.108757
0.0973178
0.0905069
0.0806832
0.0750487
0.0666177
0.0619805
0.0547502
0.0509575
0.0447626
0.0416837
0.036382
0.0339052
0.0293739
0.0274039
0.023537
0.0219923
0.0186985
0.0175093
0.0147094
0.0138162
0.0114419
0.0107935
0.00878556
0.0083382
0.00664539
0.0063615
0.00493922
0.00478647
0.00359594
0.00354644
0.0025538
0.00258337
0.00175895
0.00184649
0.00116418
0.00129114
0.000727798
0.000877709
0.00041267
0.000570743
0.000185407
0.000338078
1.51447e-05
0.000149313
-0.000137449
0.0171358
4.42175
8.80289
13.0548
16.9441
19.8754
20.8694
19.5796
17.0304
14.3272
11.9183
9.88704
8.20872
6.83209
5.70386
4.77695
4.01242
3.379
2.85188
2.4114
2.04197
1.7311
1.46879
1.24692
1.05888
0.899246
0.763553
0.648087
0.549757
0.465973
0.394558
0.33368
0.281785
0.237561
0.199889
0.16782
0.140542
0.117365
0.0976974
0.0810334
0.0669401
0.0550465
0.0450342
0.0366303
0.0296004
0.023743
0.0188851
0.0148779
0.0115932
0.00892069
0.00676525
0.00504463
0.00368763
0.00263244
0.00182514
0.00121844
0.000770583
0.000444381
0.000206379
2.56437e-05
-0.000137206
0.0172371
2.19768
4.41603
6.56707
8.78991
10.8489
13.0312
14.8852
16.9032
18.2929
19.81
20.2948
20.7925
20.1415
19.524
18.1926
17.0009
15.5864
14.3126
13.0662
11.9113
10.8714
9.88403
9.0317
8.20771
7.5131
6.83202
6.26581
5.70422
5.24118
4.7775
4.39714
4.01305
3.69913
3.37968
3.11942
2.8526
2.63595
2.41217
2.23118
2.04277
1.89111
1.73193
1.60453
1.46963
1.36239
1.24776
1.15734
1.05971
0.98338
0.900066
0.835566
0.76435
0.709815
0.648856
0.602733
0.550493
0.511483
0.466673
0.433688
0.395222
0.367345
0.334305
0.310765
0.282373
0.262517
0.238111
0.221386
0.200402
0.186339
0.168298
0.156497
0.140986
0.13111
0.117777
0.109535
0.0980779
0.0912258
0.0813846
0.0757116
0.0672636
0.0625903
0.0553437
0.0515172
0.0453068
0.0421963
0.0368796
0.0343734
0.0298278
0.0278304
0.0239499
0.0223795
0.0190726
0.0178595
0.0150471
0.0141315
0.0117453
0.0110759
0.00905659
0.00858962
0.00688583
0.00658355
0.0051507
0.00498068
0.00377993
0.00371418
0.00271164
0.00272587
0.00189182
0.00196485
0.00127314
0.00138633
0.000813761
0.000950574
0.000476434
0.000621994
0.000227657
0.000368305
3.63713e-05
0.000158925
-0.00013696
0.0173261
4.40976
8.77574
13.0055
16.859
19.7405
20.7118
19.4648
16.9687
14.2964
11.9035
9.88048
8.20636
6.83175
5.70445
4.77795
4.01362
3.38032
2.8533
2.41292
2.04356
1.73275
1.47047
1.24861
1.06056
0.9009
0.765163
0.649642
0.551247
0.467392
0.395903
0.334948
0.282977
0.238677
0.200931
0.16879
0.141444
0.118201
0.0984709
0.0817474
0.0675979
0.0556511
0.0455887
0.0371376
0.0300632
0.024164
0.0192668
0.0152225
0.0119028
0.00919739
0.00701077
0.00526062
0.0038756
0.00279373
0.00196095
0.00132984
0.000858518
0.000509657
0.000249694
4.74969e-05
-0.000136731
0.0174093
2.19146
4.4034
6.54691
8.76145
10.81
12.9797
14.8183
16.8152
18.185
19.6723
20.1493
20.633
20.006
19.4068
18.1052
16.9368
15.5389
14.2802
13.0415
11.8954
10.859
9.8768
9.02593
8.2049
7.51073
6.83138
6.26516
5.7046
5.24139
4.77835
4.3978
4.01415
3.70005
3.38093
3.12053
2.85398
2.63721
2.41365
2.23256
2.04433
1.89259
1.73356
1.60608
1.4713
1.36399
1.24945
1.15896
1.0614
0.984988
0.901731
0.837148
0.765975
0.711356
0.650427
0.60422
0.552001
0.512908
0.468111
0.435045
0.396585
0.368631
0.335592
0.311978
0.283583
0.263656
0.239245
0.222452
0.201462
0.187335
0.169285
0.157425
0.141904
0.131971
0.118628
0.110334
0.0988661
0.0919645
0.0821125
0.0763932
0.0679343
0.0632179
0.0559605
0.0520937
0.0458726
0.0427246
0.0373975
0.0348563
0.0303004
0.0282704
0.0243799
0.0227792
0.0194625
0.0182211
0.0153993
0.0144573
0.0120618
0.0113678
0.00933946
0.0088495
0.0071369
0.00681312
0.00537163
0.00518149
0.00397226
0.00388763
0.00287672
0.00287322
0.00203088
0.00208723
0.00138727
0.00148473
0.000903913
0.00102584
0.000543437
0.000674866
0.000272223
0.000399381
5.89745e-05
0.000168727
-0.0001365
0.0174972
4.3965
8.74596
12.9518
16.7681
19.6002
20.5505
19.3452
16.9023
14.2624
11.8865
9.87256
8.20309
6.8308
5.70461
4.77866
4.01461
3.3815
2.85462
2.41436
2.0451
1.73437
1.47214
1.25031
1.06226
0.902577
0.766802
0.65123
0.552772
0.468848
0.397285
0.336254
0.284206
0.23983
0.202009
0.169795
0.142379
0.119068
0.0992737
0.0824891
0.0682816
0.05628
0.0461659
0.037666
0.0305456
0.024603
0.0196649
0.0155821
0.0122262
0.00948644
0.00726739
0.0054865
0.00407227
0.0029626
0.00210326
0.00144669
0.000950887
0.000578387
0.00029551
7.08649e-05
-0.000136341
0.0175806
2.18477
4.38945
6.5252
8.73025
10.7683
12.9238
14.7474
16.7212
18.0726
19.5291
20.0003
20.4696
19.8671
19.2845
18.0138
16.8679
15.4881
14.2445
13.0144
11.8775
10.845
9.86821
9.01895
8.2012
7.5075
6.83015
6.26387
5.70457
5.24112
4.77893
4.39809
4.01505
3.7007
3.38205
3.12144
2.85526
2.63831
2.41506
2.23383
2.04586
1.89398
1.73518
1.60757
1.47298
1.36554
1.25116
1.16054
1.06312
0.986576
0.903428
0.83872
0.767635
0.712895
0.652037
0.605712
0.55355
0.514343
0.469591
0.436415
0.397991
0.369932
0.336922
0.313208
0.284835
0.264814
0.24042
0.223539
0.202561
0.188351
0.17031
0.158372
0.142858
0.132852
0.119513
0.111151
0.0996859
0.092721
0.0828702
0.0770919
0.068633
0.0638617
0.0566034
0.0526856
0.0464627
0.0432673
0.0379378
0.0353526
0.0307939
0.0287229
0.0248291
0.0231903
0.01987
0.0185933
0.0157675
0.0147926
0.0123929
0.0116684
0.00963556
0.00911718
0.00739984
0.00704961
0.00560316
0.00538837
0.00417393
0.00406631
0.00304995
0.00302499
0.00217696
0.00221323
0.00150731
0.00158597
0.000998912
0.0011032
0.000614256
0.000729086
0.000319593
0.000431085
8.32964e-05
0.000178616
-0.000136181
0.0177206
4.38184
8.71333
12.8936
16.671
19.4541
20.3851
19.2204
16.8309
14.2251
11.8675
9.8633
8.19896
6.82927
5.70439
4.7791
4.01543
3.38256
2.85587
2.41575
2.04662
1.73598
1.47382
1.25203
1.06399
0.904293
0.768484
0.652862
0.554345
0.470351
0.398715
0.337607
0.285481
0.241026
0.203129
0.17084
0.143351
0.119972
0.100111
0.0832628
0.0689953
0.0569368
0.046769
0.0382183
0.0310501
0.0250624
0.0200818
0.0159589
0.0125651
0.00978957
0.00753666
0.00572366
0.00427894
0.0031402
0.00225309
0.00156992
0.00104851
0.000651295
0.000344437
9.61655e-05
-0.000136206
0.0178572
2.17769
4.37396
6.50207
8.69599
10.7241
12.863
14.6729
16.6207
17.9561
19.3798
19.8485
20.3017
19.7253
19.1568
17.9187
16.7939
15.4339
14.2054
12.9849
11.8573
10.8292
9.85829
9.01072
8.19667
7.50334
6.82838
6.26189
5.7042
5.24033
4.77928
4.39799
4.01582
3.70104
3.38308
3.1221
2.85649
2.63923
2.41646
2.23494
2.0474
1.89526
1.73681
1.60897
1.47469
1.36702
1.25291
1.16207
1.06488
0.988133
0.905175
0.840274
0.76935
0.714424
0.653704
0.6072
0.555155
0.515779
0.471127
0.437792
0.399453
0.371243
0.338305
0.31445
0.286139
0.265985
0.241645
0.224639
0.203708
0.189382
0.17138
0.159334
0.143854
0.133749
0.120439
0.111984
0.100544
0.0934924
0.0836634
0.0778049
0.069365
0.0645192
0.0572772
0.0532904
0.0470816
0.0438222
0.0385048
0.0358603
0.0313118
0.029186
0.0253009
0.0236114
0.0202983
0.0189745
0.0161546
0.0151363
0.0127412
0.0119764
0.0099472
0.00939153
0.00767678
0.007292
0.00584718
0.00560038
0.00438668
0.00424939
0.00323291
0.00318043
0.00233145
0.00234219
0.00163451
0.00168947
0.00109987
0.00118213
0.000689864
0.000784202
0.000370571
0.000463065
0.00010987
0.000188434
-0.000136232
0.0181792
4.36551
8.67743
12.8302
16.567
19.3016
20.2147
19.0898
16.7543
14.1842
11.8463
9.85271
8.19402
6.82725
5.70387
4.77936
4.01614
3.38356
2.85709
2.41716
2.04817
1.73764
1.47556
1.2538
1.06578
0.906073
0.770232
0.654562
0.555983
0.47192
0.400208
0.339021
0.286814
0.242279
0.204302
0.171936
0.144372
0.12092
0.100989
0.0840757
0.0697455
0.0576276
0.0474035
0.0387998
0.0315815
0.0255465
0.0205213
0.0163563
0.0129228
0.0101097
0.00782126
0.00597455
0.00449778
0.00332851
0.00241224
0.0017011
0.0011528
0.000729602
0.000397479
0.000124051
-0.000136663
0.0184985
2.17041
4.35654
6.47772
8.65811
10.6777
12.7965
14.5951
16.5127
17.8362
19.2233
19.6944
20.1281
19.5812
19.0229
17.8201
16.7144
15.3767
14.1626
12.953
11.835
10.8117
9.84706
9.00119
8.19137
7.49821
6.82617
6.25917
5.7036
5.23896
4.77952
4.39743
4.01654
3.70102
3.38412
3.12247
2.85776
2.63991
2.41792
2.23588
2.04899
1.8964
1.73852
1.61026
1.47648
1.36842
1.25474
1.16354
1.06672
0.989641
0.90701
0.84179
0.771152
0.715927
0.655455
0.608672
0.556844
0.517206
0.472744
0.439163
0.400991
0.372553
0.339763
0.315694
0.287514
0.267161
0.242936
0.225747
0.204917
0.19042
0.17251
0.160306
0.144907
0.134654
0.121417
0.112826
0.10145
0.0942734
0.0845021
0.0785275
0.0701391
0.0651861
0.0579901
0.0539043
0.0477367
0.0443858
0.0391051
0.0363762
0.0318606
0.0296569
0.0258009
0.0240395
0.0207524
0.0193623
0.0165654
0.0154858
0.0131111
0.0122899
0.0102784
0.00967065
0.00797132
0.00753857
0.00610699
0.00581598
0.00461348
0.00443546
0.00342826
0.00333827
0.00249675
0.00247297
0.00177102
0.00179421
0.00120867
0.00126174
0.000771893
0.000839461
0.000426481
0.000494754
0.000139528
0.000197948
-0.000137099
0.0192922
4.34699
8.63756
12.7607
16.455
19.1412
20.038
18.9525
16.6718
14.1395
11.8228
9.84083
8.18836
6.82486
5.70318
4.77957
4.01686
3.38462
2.8584
2.41866
2.04982
1.73941
1.4774
1.25569
1.06768
0.907963
0.772088
0.656365
0.557722
0.473585
0.401792
0.340521
0.28823
0.243609
0.205548
0.173099
0.145456
0.121927
0.101924
0.0849401
0.0705435
0.0583627
0.0480791
0.0394191
0.0321476
0.0260626
0.0209901
0.0167805
0.0133048
0.0104519
0.00812573
0.00624327
0.00473252
0.00353089
0.0025837
0.00184293
0.00126612
0.000815359
0.000456283
0.000155544
-0.000138346
0.0153599
2.1625
4.33701
6.45309
8.61451
10.6313
12.7192
14.5183
16.3878
17.7187
19.0477
19.5424
19.9371
19.4388
18.8733
17.7223
16.624
15.3185
14.1149
12.9195
11.8112
10.7924
9.83595
8.99013
8.18685
7.49177
6.825
6.25535
5.70406
5.23668
4.78077
4.39611
4.01818
3.70036
3.38599
3.12231
2.85978
2.64015
2.42004
2.23643
2.0512
1.89721
1.74079
1.61127
1.47877
1.36958
1.25703
1.1648
1.06899
0.990964
0.909233
0.843145
0.77331
0.717288
0.657535
0.610018
0.558835
0.518521
0.474639
0.440437
0.402787
0.373776
0.341457
0.316861
0.289106
0.268269
0.244428
0.226793
0.206312
0.191404
0.17381
0.161228
0.146115
0.135516
0.122538
0.113629
0.102489
0.0950189
0.0854622
0.079218
0.0710247
0.065824
0.0588054
0.0544919
0.0484856
0.0449256
0.0397915
0.0368706
0.0324881
0.0301081
0.026373
0.0244498
0.0212723
0.0197338
0.0170362
0.0158205
0.0135356
0.0125896
0.0106592
0.00993726
0.00831082
0.00777364
0.0064074
0.00602099
0.0048768
0.00461177
0.00365631
0.00348711
0.00269116
0.00259542
0.00193323
0.00189124
0.00133997
0.00133419
0.00087339
0.000888068
0.000499236
0.000519996
0.000185346
0.000199886
-0.00010677
0.0108284
4.29333
8.5174
12.5498
16.1184
18.6715
19.5282
18.5487
16.4215
14.001
11.7488
9.80221
8.16894
6.81573
5.69955
4.77899
4.0181
3.38706
2.86173
2.42269
2.0544
1.74441
1.4827
1.26118
1.07324
0.913522
0.777569
0.661712
0.562892
0.478547
0.406526
0.345013
0.292473
0.247602
0.209293
0.176601
0.148722
0.124965
0.104743
0.0875509
0.0729555
0.060586
0.0501236
0.0412945
0.0338632
0.0276271
0.0224121
0.0180678
0.0144649
0.0114916
0.00905142
0.00706077
0.00544716
0.00414749
0.0031066
0.00227601
0.00161281
0.00107866
0.000639104
0.000263308
-7.51242e-05
0.0110538
2.12088
4.24939
6.32161
8.42142
10.3852
12.3842
14.1163
15.8586
17.1232
18.3131
18.8065
19.1397
18.7497
18.2376
17.2306
16.2236
15.0194
13.8869
12.7465
11.6847
10.6932
9.7665
8.93319
8.14912
7.45879
6.80476
6.23603
5.69358
5.22539
4.77596
4.38986
4.01694
3.69756
3.38723
3.12206
2.86291
2.6419
2.42467
2.23979
2.05702
1.90184
1.74754
1.61689
1.4862
1.37593
1.26493
1.17166
1.07716
0.998126
0.917515
0.850449
0.781566
0.724601
0.665658
0.617236
0.566743
0.525566
0.482272
0.447248
0.410101
0.380312
0.348424
0.323094
0.295709
0.274182
0.250659
0.232376
0.21217
0.196657
0.179299
0.166151
0.151244
0.140117
0.127316
0.117915
0.106929
0.0990018
0.0895781
0.082909
0.0748309
0.0692356
0.0623165
0.0576368
0.0517163
0.0478166
0.0427564
0.0395204
0.0352011
0.032529
0.0288476
0.0266537
0.0235214
0.021732
0.0190718
0.0176237
0.0153692
0.0142078
0.0123014
0.0113798
0.00977146
0.00904923
0.00769552
0.00713756
0.00600068
0.00557656
0.00462345
0.00430667
0.00350833
0.00327563
0.00260647
0.00243732
0.00187459
0.0017507
0.00127404
0.00117887
0.000769922
0.000688401
0.000330882
0.000248241
-7.62214e-05
0.0107792
4.20243
8.31995
12.212
15.5959
17.9641
18.7682
17.9326
16.0204
13.7649
11.6133
9.72475
8.12448
6.79
5.68462
4.77058
4.01394
3.38594
2.86294
2.42574
2.05893
1.7501
1.48927
1.26836
1.08084
0.921327
0.785436
0.669519
0.570544
0.485973
0.413674
0.351848
0.298972
0.253752
0.215089
0.182044
0.153816
0.12972
0.109168
0.0916579
0.0767579
0.0640973
0.0533574
0.0442645
0.0365827
0.0301092
0.024669
0.0201114
0.0163062
0.0131409
0.0105184
0.00835432
0.0065754
0.00511782
0.00392569
0.00294983
0.00214662
0.00147702
0.000905751
0.000400322
-7.58736e-05
0.0105657
2.07635
4.15709
6.18072
8.22168
10.1257
12.0458
13.7034
15.3436
16.5346
17.6286
18.1006
18.4101
18.0874
17.6382
16.7409
15.823
14.7072
13.6446
12.5579
11.5416
10.5803
9.68194
8.86502
8.09856
7.41689
6.77396
6.20972
5.67449
5.20864
4.76417
4.37935
4.01005
3.69141
3.38389
3.1192
2.8623
2.64163
2.42625
2.24159
2.06035
1.90528
1.75224
1.62162
1.49196
1.38162
1.27146
1.17804
1.08421
1.00496
0.924876
0.857545
0.789072
0.731802
0.673171
0.624418
0.574157
0.532632
0.489506
0.454126
0.417096
0.38695
0.355137
0.329455
0.302112
0.28024
0.256735
0.238118
0.217909
0.202075
0.184699
0.171244
0.156307
0.144887
0.132049
0.12237
0.11134
0.10315
0.0936773
0.0867603
0.0786301
0.0728013
0.0658282
0.060929
0.0549533
0.0508475
0.0457316
0.0423022
0.0379271
0.0350737
0.031337
0.0289731
0.0257859
0.0238373
0.021123
0.0195257
0.0172178
0.0159166
0.0139575
0.0129048
0.0112446
0.0103992
0.00899433
0.00832059
0.00713317
0.00660011
0.00559692
0.00517746
0.00432937
0.00399973
0.00328097
0.00302011
0.00240778
0.0021969
0.00167044
0.00149257
0.00103334
0.000873045
0.000463939
0.000307314
-7.54735e-05
0.0104513
4.10908
8.11862
11.8742
15.0896
17.3015
18.0656
17.349
15.6213
13.5171
11.463
9.63324
8.06785
6.75411
5.66136
4.75541
4.0043
3.38037
2.86052
2.42585
2.06106
1.75383
1.49422
1.27423
1.08734
0.928247
0.792581
0.676739
0.57772
0.493015
0.420515
0.358439
0.305279
0.259753
0.220771
0.187402
0.158849
0.134431
0.113565
0.095749
0.0805537
0.0676092
0.0565974
0.0472446
0.039315
0.0326056
0.026941
0.02217
0.018162
0.0148038
0.0119975
0.00965825
0.00771202
0.00609432
0.00474859
0.00362495
0.00267912
0.00187142
0.00116597
0.00052996
-7.51674e-05
0.0104306
2.02899
4.06133
6.03218
8.01639
9.85618
11.7047
13.285
14.8398
15.9568
16.98
17.4247
17.7268
17.4513
17.0646
16.2554
15.4224
14.3846
13.3904
12.3554
11.3843
10.4543
9.58409
8.78573
8.03661
7.36596
6.73375
6.17621
5.64778
5.1862
4.74624
4.36435
3.99822
3.68174
3.37658
3.11358
2.85851
2.63918
2.42526
2.24169
2.06161
1.90741
1.75528
1.62533
1.49638
1.38654
1.27691
1.18384
1.0904
1.01138
0.931551
0.864349
0.796034
0.738811
0.680258
0.631489
0.581241
0.53965
0.496489
0.461007
0.423904
0.393629
0.361715
0.335885
0.308423
0.286391
0.262753
0.243968
0.223618
0.207612
0.190091
0.176463
0.161379
0.149788
0.136803
0.126957
0.115781
0.107429
0.0978137
0.0907399
0.0824714
0.0764918
0.0693851
0.0643414
0.0582371
0.0539932
0.0487539
0.0451929
0.0406998
0.0377211
0.0338716
0.0313887
0.0280939
0.0260321
0.0232152
0.0215103
0.0191045
0.017701
0.0156486
0.0144986
0.0127493
0.0118113
0.0103211
0.00955909
0.00828997
0.00767253
0.00659093
0.00609065
0.0051671
0.00475987
0.00396829
0.00363271
0.00294988
0.00266681
0.00207186
0.00182399
0.00129801
0.0010695
0.000595276
0.000371487
-7.48252e-05
0.010364
4.01118
7.90992
11.5308
14.5892
16.6659
17.3992
16.7846
15.2198
13.257
11.2989
9.52917
8.00061
6.70957
5.63117
4.7347
3.99027
3.37132
2.85534
2.42376
2.06145
1.75618
1.49811
1.27926
1.09321
0.934678
0.799362
0.683694
0.584713
0.49994
0.427291
0.365006
0.311594
0.265788
0.226506
0.192826
0.163958
0.139226
0.11805
0.0999305
0.0844403
0.0712107
0.0599247
0.050309
0.0421279
0.0351783
0.0292847
0.0242955
0.0200794
0.016523
0.0135276
0.0110078
0.0088889
0.00710573
0.00560108
0.0043244
0.00323077
0.00227983
0.00143503
0.000663087
-7.46446e-05
0.0104221
1.97954
3.96134
5.8779
7.80432
9.58006
11.3588
12.8656
14.3422
15.3933
16.3564
16.7784
17.0762
16.8408
16.5086
15.7764
15.0197
14.0541
13.1245
12.14
11.2135
10.3154
9.47391
8.69518
7.96418
7.30567
6.68496
6.1351
5.61416
5.15769
4.72281
4.34452
3.98202
3.66825
3.36581
3.10493
2.85198
2.63436
2.4221
2.23991
2.06116
1.90806
1.75698
1.62788
1.49974
1.39056
1.28154
1.18896
1.09596
1.01727
0.937754
0.870769
0.802647
0.745545
0.687096
0.63837
0.588156
0.54655
0.503367
0.467824
0.430658
0.400288
0.36828
0.342331
0.314752
0.292583
0.268812
0.24988
0.229386
0.213226
0.195555
0.18177
0.166533
0.154784
0.141646
0.131642
0.120315
0.111808
0.102045
0.0948206
0.0864075
0.0802821
0.0730352
0.067851
0.0616116
0.0572327
0.0518637
0.0481734
0.0435559
0.0404536
0.0364851
0.0338842
0.0304758
0.0283015
0.0253761
0.023564
0.0210547
0.019549
0.0173978
0.0161503
0.0143065
0.0132754
0.011695
0.0108439
0.00948831
0.00878556
0.00762098
0.00703881
0.00603545
0.0055494
0.00468086
0.00426921
0.00351194
0.00315522
0.00248801
0.00216858
0.00157219
0.00127394
0.000730879
0.000438706
-7.44356e-05
0.0103481
3.90936
7.69503
11.1832
14.0952
16.0536
16.7625
16.2365
14.8166
12.9859
11.1218
9.41301
7.92305
6.65654
5.59412
4.70853
3.9719
3.35883
2.84746
2.41954
2.06016
1.75722
1.50096
1.2835
1.09846
0.940652
0.805807
0.690412
0.591547
0.506768
0.434019
0.371565
0.317933
0.271869
0.232305
0.198328
0.169154
0.144114
0.12263
0.104209
0.0884235
0.0749073
0.0633444
0.0534621
0.0450254
0.037831
0.0317034
0.0264906
0.0220612
0.018301
0.015111
0.0124051
0.0101079
0.00815377
0.00648472
0.00504962
0.00380286
0.00270343
0.00171412
0.00080104
-7.43395e-05
0.0104405
1.92828
3.85777
5.71887
7.58674
9.29907
11.0097
12.4472
13.8517
14.8442
15.755
16.1584
16.4532
16.2528
15.9681
15.3039
14.6158
13.717
12.8483
11.9128
11.0302
10.1642
9.35188
8.59361
7.88155
7.23607
6.62773
6.08639
5.57372
5.12307
4.69393
4.31983
3.9615
3.65091
3.35162
3.09324
2.84275
2.62713
2.41683
2.23624
2.05904
1.90723
1.75737
1.62929
1.50209
1.39369
1.28539
1.19339
1.10092
1.02265
0.943504
0.8768
0.808927
0.751998
0.693697
0.645057
0.594912
0.553324
0.510147
0.474571
0.437363
0.406921
0.374836
0.348785
0.321102
0.298811
0.274917
0.255847
0.235217
0.21891
0.201095
0.187158
0.171772
0.159869
0.146579
0.136421
0.124943
0.116284
0.106371
0.0989976
0.0904385
0.0841676
0.0767789
0.0714537
0.065077
0.0605623
0.0550608
0.05124
0.0464953
0.0432679
0.0391774
0.0364568
0.0329316
0.0306429
0.0276059
0.0256844
0.0230684
0.0214582
0.019205
0.0178576
0.0159163
0.0147897
0.0131159
0.0121733
0.0107282
0.00993775
0.00868715
0.00802068
0.00693452
0.00636726
0.00541882
0.00492871
0.00409413
0.00366138
0.00291912
0.00252576
0.00185625
0.00148589
0.000871268
0.000508608
-7.422e-05
0.0103571
3.80422
7.47517
10.8332
13.6084
15.4621
16.1513
15.7028
14.4122
12.7049
10.9324
9.28516
7.83534
6.59509
5.55025
4.6769
3.9492
3.34293
2.83688
2.41321
2.05722
1.75697
1.50281
1.28696
1.10313
0.946183
0.811927
0.696901
0.598229
0.513505
0.440706
0.37812
0.324297
0.277999
0.238171
0.203909
0.174438
0.149095
0.127308
0.108585
0.092504
0.0786994
0.0668568
0.0567045
0.0480078
0.0405639
0.0341973
0.0287557
0.0241075
0.020138
0.0167478
0.0138501
0.0113692
0.00923848
0.00739958
0.00580063
0.00439542
0.00314227
0.0020033
0.000944004
-7.4171e-05
0.0104517
1.87541
3.75109
5.5558
7.36462
9.01436
10.6587
12.0308
13.3683
14.3084
15.1731
15.561
15.8534
15.684
15.4408
14.837
14.2109
13.3739
12.5625
11.6746
10.8348
10.0012
9.21823
8.48118
7.78878
7.15723
6.56206
6.03008
5.52642
5.08231
4.65956
4.29026
3.93663
3.62971
3.334
3.07852
2.83082
2.61752
2.40943
2.23071
2.05527
1.90494
1.75646
1.62955
1.50344
1.39594
1.28847
1.19714
1.10529
1.02751
0.948813
0.882452
0.814886
0.758178
0.700071
0.651558
0.601518
0.55998
0.516839
0.481254
0.444029
0.413533
0.381389
0.355252
0.32748
0.305077
0.281071
0.261873
0.241116
0.224669
0.206715
0.192631
0.177099
0.165045
0.151607
0.141296
0.129669
0.120857
0.110797
0.103273
0.0945678
0.08815
0.0806188
0.0751509
0.0686358
0.063983
0.0583477
0.0543938
0.0495202
0.0461649
0.0419505
0.0391072
0.0354631
0.0330569
0.0299059
0.0278721
0.0251469
0.0234292
0.0210715
0.0196212
0.0175798
0.0163546
0.0145848
0.0135478
0.0120106
0.0111294
0.00979021
0.00903651
0.00786499
0.00721363
0.00618275
0.00561136
0.00469695
0.0041854
0.00336559
0.00289559
0.00215048
0.00170534
0.00101677
0.000581006
-7.40997e-05
0.010349
3.69623
7.25123
10.4818
13.1288
14.889
15.5617
15.1813
14.0069
12.4148
10.7313
9.14587
7.73757
6.52522
5.49953
4.63979
3.92216
3.3236
2.82361
2.40476
2.05262
1.75543
1.50366
1.28966
1.10721
0.951278
0.817729
0.703166
0.604762
0.520154
0.447353
0.384674
0.33069
0.28418
0.244104
0.209569
0.179811
0.15417
0.132082
0.11306
0.0966822
0.0825873
0.0704621
0.060036
0.0510752
0.0433771
0.0367664
0.0310908
0.0262182
0.022034
0.018438
0.015343
0.0126726
0.0103599
0.00834562
0.00657744
0.00500845
0.00359633
0.00230256
0.00109199
-7.40785e-05
0.0104461
1.82118
3.64183
5.38945
7.13893
8.72706
10.3069
11.6172
12.8924
13.7851
14.6086
14.9832
15.2737
15.1316
14.925
14.3754
13.8051
13.0255
12.268
11.4259
10.628
9.82668
9.07334
8.35813
7.68604
7.06925
6.48801
5.9662
5.47229
5.03544
4.61971
4.25581
3.90742
3.60465
3.31297
3.06076
2.81621
2.60554
2.39994
2.22332
2.04986
1.9012
1.75429
1.62869
1.5038
1.39732
1.29078
1.20023
1.10908
1.03187
0.953693
0.887736
0.820531
0.764094
0.706226
0.657877
0.607979
0.566522
0.523446
0.487877
0.450657
0.420128
0.387943
0.361734
0.333886
0.311385
0.287278
0.26796
0.247083
0.230502
0.212416
0.198188
0.182516
0.170312
0.156729
0.146267
0.134492
0.125529
0.11532
0.107646
0.0987944
0.0922291
0.0845542
0.0789424
0.0722872
0.0674947
0.0617235
0.0576347
0.0526297
0.0491444
0.0448035
0.0418353
0.0380695
0.0355434
0.0322757
0.0301268
0.0272897
0.0254618
0.0229967
0.0214409
0.0192964
0.01797
0.0161014
0.0149672
0.0133349
0.0123604
0.0109298
0.0100862
0.00882651
0.00808841
0.00697236
0.00631708
0.00532014
0.00472722
0.00382722
0.00327803
0.00245474
0.00193231
0.00116726
0.000655924
-7.40365e-05
0.0103242
3.58586
7.02414
10.1301
12.6567
14.3324
14.9908
14.6705
13.6008
12.1162
10.519
8.99548
7.62992
6.44701
5.44199
4.59721
3.89078
3.30086
2.80767
2.39423
2.0464
1.75262
1.50354
1.29161
1.11073
0.955947
0.823221
0.709214
0.611153
0.52672
0.453962
0.391228
0.337111
0.290412
0.250105
0.21531
0.185271
0.159339
0.136953
0.117632
0.100957
0.0865701
0.0741594
0.063456
0.0542268
0.0462698
0.0394099
0.033495
0.0283928
0.0239883
0.0201809
0.0168831
0.0140178
0.0115175
0.00932254
0.00737978
0.00564174
0.00406548
0.00261179
0.00124495
-7.40314e-05
0.0104206
1.76581
3.53039
5.22043
6.91048
8.43804
9.95527
11.2068
12.4239
13.2734
14.0597
14.4225
14.7113
14.5934
14.4191
13.9181
13.3986
12.6722
11.9654
11.1674
10.4103
9.64115
8.91749
8.22468
7.57349
6.97221
6.40565
5.89479
5.41135
4.98246
4.57441
4.21649
3.87388
3.57575
3.28853
3.03999
2.79894
2.5912
2.38837
2.21409
2.04283
1.89604
1.75086
1.62673
1.50319
1.39785
1.29236
1.20267
1.11231
1.03575
0.958152
0.892658
0.825871
0.769752
0.712167
0.664021
0.614299
0.572954
0.52997
0.494443
0.457249
0.426706
0.394497
0.368232
0.340322
0.317733
0.293535
0.274107
0.253117
0.236409
0.218196
0.20383
0.18802
0.175671
0.161944
0.151333
0.139411
0.130297
0.11994
0.112116
0.103118
0.0964039
0.0885843
0.0828272
0.0760304
0.0710965
0.0651876
0.0609617
0.0558233
0.0522056
0.0477358
0.0446401
0.0407502
0.0381016
0.0347144
0.0324479
0.0294961
0.0275553
0.0249801
0.0233159
0.0210657
0.0196353
0.017665
0.016431
0.0147009
0.0136303
0.0121055
0.0111693
0.00981882
0.0089913
0.00778742
0.0070456
0.00596353
0.00528664
0.00430388
0.00367296
0.00276894
0.0021667
0.00132269
0.0007333
-7.40067e-05
0.0102815
3.47352
6.79462
9.77878
12.1917
13.7904
14.4358
14.1689
13.1939
11.8097
10.296
8.83426
7.51251
6.36052
5.37765
4.54918
3.85508
3.27472
2.78908
2.38164
2.03858
1.74858
1.50246
1.29282
1.11368
0.960201
0.828412
0.71505
0.617405
0.533205
0.460538
0.397784
0.343563
0.296696
0.256174
0.22113
0.19082
0.164601
0.141921
0.122301
0.105328
0.0906474
0.0779484
0.0669639
0.0574621
0.0492416
0.0421276
0.0359681
0.0306309
0.0260006
0.0219764
0.0184702
0.0154045
0.0127113
0.0103301
0.00820749
0.00629517
0.00454961
0.00293094
0.00140284
-7.40119e-05
0.0103758
1.70947
3.41715
5.04926
6.67991
8.14795
9.60429
10.8
11.9624
12.7721
13.5245
13.8766
14.1636
14.0672
13.9216
13.4645
12.9912
12.3143
11.6551
10.8997
10.1821
9.44492
8.75095
8.08103
7.45126
6.86623
6.31505
5.81589
5.34363
4.9234
4.52365
4.17232
3.83602
3.54302
3.2607
3.01622
2.77903
2.57452
2.37475
2.20305
2.03421
1.88947
1.7462
1.62368
1.50164
1.39754
1.29321
1.20447
1.11499
1.03915
0.962202
0.89723
0.830913
0.77516
0.717901
0.669996
0.620484
0.579281
0.536417
0.500954
0.463809
0.433271
0.401055
0.374749
0.34679
0.324124
0.299845
0.280315
0.259221
0.242392
0.224057
0.209556
0.193613
0.181121
0.167253
0.156494
0.144426
0.135162
0.124658
0.116683
0.107537
0.100674
0.0927088
0.086805
0.0798651
0.074788
0.0687394
0.0643743
0.0591003
0.055348
0.050747
0.0475213
0.0435048
0.040731
0.0372219
0.034835
0.0317658
0.0297094
0.0270213
0.025246
0.0228873
0.0213502
0.0192755
0.0179388
0.0161083
0.0149388
0.0133172
0.0122857
0.0108417
0.00992211
0.00862776
0.00779679
0.00662699
0.00586355
0.00479548
0.00408028
0.00309303
0.00240848
0.00148303
0.000813113
-7.39986e-05
0.0102224
3.35951
6.56324
9.42834
11.7336
13.2613
13.8944
13.675
12.786
11.4958
10.0627
8.66248
7.38548
6.26581
5.30656
4.49571
3.81508
3.24522
2.76786
2.367
2.02917
1.74331
1.50043
1.29331
1.11609
0.964051
0.83331
0.720684
0.623525
0.539615
0.467084
0.404345
0.350047
0.303033
0.262312
0.227031
0.196457
0.169957
0.146984
0.127067
0.109796
0.0948189
0.0818286
0.0705595
0.0607807
0.052292
0.0449189
0.0385097
0.0329321
0.0280706
0.0238241
0.020104
0.0168325
0.0139409
0.0113682
0.00906041
0.00696861
0.00504864
0.00325995
0.00156562
-7.40115e-05
0.0103141
1.65232
3.3024
4.87634
6.44773
7.85727
9.25435
10.3968
11.5075
12.2801
13.0012
13.3433
13.6283
13.551
13.4311
13.0138
12.5827
11.9518
11.3375
10.6229
9.94373
9.23831
8.57395
7.92734
7.31947
6.75139
6.21625
5.72955
5.26916
4.85828
4.46747
4.12332
3.79388
3.5065
3.22952
2.98949
2.75651
2.55554
2.35911
2.19023
2.02402
1.88152
1.74033
1.61957
1.49915
1.39642
1.29335
1.20566
1.11714
1.04208
0.965855
0.901462
0.835669
0.780327
0.723435
0.675807
0.62654
0.585508
0.542791
0.507416
0.47034
0.439825
0.40762
0.381286
0.353291
0.33056
0.30621
0.286585
0.265394
0.24845
0.229999
0.215368
0.199295
0.186663
0.172656
0.16175
0.149538
0.140124
0.129473
0.121346
0.112053
0.10504
0.0969274
0.0908755
0.083791
0.0785688
0.0723787
0.0678724
0.0624606
0.0585712
0.0538367
0.0504785
0.0463329
0.0434313
0.0397976
0.0372877
0.0340985
0.0319237
0.02912
0.0272309
0.024761
0.0231143
0.0209326
0.0194905
0.0175569
0.0162858
0.0145647
0.0134352
0.011895
0.0108807
0.00949325
0.0085705
0.0073104
0.00645784
0.00530193
0.00449994
0.00342695
0.0026576
0.00164826
0.000895347
-7.40073e-05
0.0101495
3.24412
6.33042
9.07903
11.2817
12.7432
13.3644
13.1873
12.3767
11.1746
9.81945
8.48034
7.24897
6.16295
5.22873
4.43683
3.7708
3.21237
2.74404
2.35036
2.01822
1.73685
1.49749
1.2931
1.11798
0.967512
0.837927
0.726123
0.62952
0.545955
0.473603
0.410914
0.356566
0.309426
0.268521
0.233014
0.202184
0.175407
0.152144
0.13193
0.11436
0.0990845
0.0857999
0.0742423
0.0641824
0.0554208
0.0477836
0.0411195
0.0352961
0.030198
0.0257236
0.0217842
0.0183015
0.0152061
0.0124367
0.00993838
0.00766193
0.00556247
0.00359876
0.00173327
-7.40278e-05
0.0102386
1.59447
3.18638
4.70199
6.21428
7.56629
8.90561
9.99692
11.0585
11.7964
12.4882
12.8207
13.1035
13.0431
12.9461
12.565
12.1726
11.5848
11.0127
10.3375
9.69555
9.02154
8.3867
7.76379
7.17825
6.62778
6.10934
5.63583
5.188
4.78715
4.4059
4.06952
3.74748
3.4662
3.19501
2.95982
2.73141
2.53429
2.34146
2.17565
2.0123
1.87222
1.73327
1.61442
1.49576
1.39451
1.2928
1.20625
1.11877
1.04457
0.969124
0.905366
0.840148
0.785262
0.728779
0.681464
0.632474
0.591642
0.549097
0.513832
0.476847
0.446373
0.414194
0.387847
0.359828
0.337042
0.312631
0.29292
0.271639
0.254585
0.236023
0.221266
0.205067
0.192297
0.178153
0.167102
0.154746
0.145182
0.134384
0.126107
0.116665
0.1095
0.10124
0.0950385
0.0878077
0.0824387
0.0761051
0.0714554
0.0659037
0.061875
0.0570045
0.0535114
0.0492341
0.0462022
0.0424413
0.0398057
0.0364938
0.0341979
0.031276
0.0292703
0.0266865
0.0249275
0.0226361
0.0210858
0.0190463
0.017671
0.0158477
0.0146175
0.0129785
0.0118668
0.0103837
0.00936661
0.00801362
0.00706941
0.00582313
0.00493184
0.00377065
0.00291403
0.00181833
0.000979985
-7.40325e-05
0.0100659
3.12754
6.09648
8.73093
10.8355
12.2346
12.844
12.7046
11.9658
10.8463
9.56645
8.28804
7.10307
6.05201
5.14423
4.37258
3.72229
3.17622
2.71767
2.33174
2.00574
1.72922
1.49366
1.29222
1.11936
0.970595
0.842273
0.731376
0.635396
0.55223
0.4801
0.417494
0.363122
0.315875
0.274802
0.23908
0.208
0.180951
0.157401
0.13689
0.11902
0.103444
0.089862
0.0780122
0.0676668
0.0586275
0.0507213
0.043797
0.0377226
0.0323824
0.0276748
0.0235107
0.0198112
0.0165067
0.0135352
0.0108413
0.00837501
0.006091
0.00394731
0.00190575
-7.40624e-05
0.0101526
1.53603
3.06926
4.52643
5.97983
7.27517
8.55809
9.60012
10.6149
11.3198
11.9838
12.307
12.5872
12.5418
12.4654
12.1173
11.7606
11.213
10.6808
10.0435
9.43773
8.79481
8.18937
7.5905
7.0277
6.49548
5.99439
5.53477
5.10017
4.71004
4.33899
4.01097
3.69686
3.42218
3.15722
2.92726
2.70376
2.51081
2.32187
2.15936
1.99907
1.8616
1.72507
1.60826
1.49149
1.39183
1.29158
1.20626
1.11989
1.04663
0.972023
0.908956
0.844362
0.789975
0.733942
0.686974
0.638293
0.597688
0.555341
0.520209
0.483334
0.452918
0.42078
0.394434
0.366404
0.343573
0.31911
0.299321
0.277956
0.260799
0.24213
0.227251
0.210928
0.198023
0.183744
0.172549
0.160051
0.150338
0.139393
0.130963
0.121372
0.114056
0.105646
0.0992937
0.0919151
0.0863973
0.0799184
0.0751232
0.0694293
0.065259
0.0602502
0.0566196
0.0522082
0.0490433
0.0451526
0.0423886
0.0389514
0.0365317
0.0334888
0.0313638
0.0286634
0.0267895
0.0243855
0.0227244
0.0205764
0.0190941
0.017166
0.0158324
0.0140921
0.0128804
0.011299
0.010185
0.00873654
0.00769814
0.00635899
0.00537593
0.00412406
0.00317772
0.00199322
0.00106701
-7.40782e-05
0.00997522
3.00994
5.86159
8.38398
10.3941
11.7339
12.3311
12.2255
11.5525
10.5109
9.30388
8.08573
6.9479
5.93305
5.0531
4.30301
3.66959
3.1368
2.68878
2.31118
1.99178
1.72045
1.48896
1.29068
1.12024
0.973317
0.84636
0.736452
0.641161
0.558445
0.486579
0.424089
0.369718
0.322384
0.281156
0.245229
0.213907
0.18659
0.162754
0.141947
0.123775
0.107897
0.0940146
0.0818687
0.0712336
0.0619119
0.0537315
0.0465419
0.0402111
0.0346235
0.0296773
0.025283
0.0213615
0.0178425
0.0146637
0.0117689
0.00910772
0.00663415
0.00430555
0.00208305
-7.41221e-05
0.0100602
1.47705
2.95117
4.34979
5.74449
6.98394
8.21165
9.20597
10.1757
10.849
11.4866
11.8005
12.0777
12.0456
11.9877
11.6699
11.3461
10.8363
10.3419
9.74101
9.17042
8.55827
7.9821
7.40759
6.86793
6.35459
5.87144
5.42645
5.00575
4.62701
4.26677
3.94771
3.64208
3.37449
3.11619
2.89186
2.67362
2.48514
2.30035
2.14139
1.98438
1.8497
1.71574
1.60113
1.48636
1.38841
1.28972
1.2057
1.12054
1.04826
0.974568
0.912244
0.848323
0.794478
0.738932
0.692346
0.644004
0.603654
0.561529
0.526551
0.489806
0.459464
0.427384
0.40105
0.373021
0.350156
0.325649
0.305789
0.284347
0.267091
0.248321
0.233323
0.216881
0.203842
0.189431
0.178093
0.165453
0.155591
0.144498
0.135917
0.126176
0.118706
0.110146
0.103641
0.0961129
0.0904445
0.0838182
0.0788753
0.0730372
0.0687228
0.0635733
0.0598028
0.0552547
0.0519542
0.0479312
0.0450361
0.0414709
0.0389247
0.0357583
0.0335112
0.0306915
0.0286999
0.0261808
0.0244061
0.0221469
0.020555
0.0185193
0.0170799
0.0152354
0.0139212
0.0122389
0.0110254
0.00947903
0.00834392
0.00690942
0.00583211
0.00448712
0.00344863
0.00217291
0.00115642
-7.41535e-05
0.00988205
2.89141
5.62583
8.03798
9.95679
11.2397
11.8243
11.7487
11.1365
10.1684
9.03188
7.87353
6.78355
5.80614
4.9554
4.22817
3.61274
3.09418
2.65741
2.28873
1.97637
1.71058
1.48342
1.2885
1.12065
0.975692
0.850201
0.741361
0.646822
0.564609
0.493045
0.430703
0.376357
0.328955
0.287585
0.251462
0.219905
0.192324
0.168204
0.147101
0.128627
0.112444
0.0982575
0.0858117
0.0748824
0.0652736
0.0568142
0.049354
0.0427615
0.0369211
0.0317309
0.027101
0.0229521
0.0192134
0.0158219
0.0127211
0.00985993
0.00719181
0.00467342
0.00226514
-7.42199e-05
0.00996702
1.41758
2.83219
4.17214
5.50829
6.6925
7.86603
8.81396
9.74015
10.383
10.9952
11.2997
11.5734
11.553
11.5118
11.2218
10.9286
10.4543
9.9958
9.43012
8.89374
8.31204
7.76501
7.21516
6.69903
6.20518
5.7406
5.31092
4.90479
4.53812
4.18933
3.87981
3.58318
3.32317
3.07198
2.85367
2.64104
2.45733
2.27698
2.12178
1.96826
1.83655
1.70533
1.59304
1.48041
1.38427
1.28723
1.20461
1.12072
1.04951
0.976774
0.915244
0.852044
0.798781
0.74376
0.697588
0.649615
0.609545
0.567667
0.532862
0.496266
0.466015
0.434007
0.407699
0.379681
0.356791
0.332249
0.312325
0.290813
0.273464
0.254596
0.239484
0.222924
0.209755
0.195211
0.183732
0.170951
0.16094
0.1497
0.140966
0.131074
0.12345
0.114739
0.108079
0.1004
0.0945793
0.0878036
0.082711
0.0767263
0.0722656
0.0669729
0.0630601
0.0583728
0.0549343
0.0507762
0.0477476
0.0440516
0.0413764
0.0380835
0.0357119
0.03277
0.0306582
0.0280212
0.0261304
0.0237572
0.0220531
0.0199073
0.0183593
0.0164083
0.0149889
0.0132032
0.0118877
0.0102408
0.00900655
0.00747419
0.00630025
0.00485971
0.00372668
0.00235733
0.00124822
-7.42755e-05
0.00980078
2.77202
5.38921
7.69267
9.52277
10.7505
11.322
11.2732
10.7173
9.81867
8.75054
7.65158
6.61013
5.67139
4.85121
4.14815
3.55183
3.04841
2.62364
2.26444
1.95956
1.69965
1.47708
1.28572
1.12061
0.977738
0.853809
0.746114
0.652389
0.570725
0.499503
0.437339
0.383042
0.335588
0.29409
0.257781
0.225995
0.198153
0.173751
0.152352
0.133573
0.117083
0.10259
0.0898402
0.0786123
0.0687117
0.0599682
0.0522323
0.0453729
0.0392743
0.0338348
0.0289641
0.0245824
0.0206187
0.0170094
0.0136975
0.0106314
0.00776378
0.0050508
0.00245197
-7.43766e-05
0.00988593
1.35766
2.71237
3.99348
5.2712
6.40071
7.52093
8.42352
9.30746
9.92071
10.5082
10.8031
11.0728
11.0627
11.0366
10.7722
10.5074
10.0667
9.64241
9.11079
8.60773
8.0562
7.5382
7.01334
6.52109
6.04735
5.60194
5.18828
4.79738
4.44346
4.10672
3.80735
3.52026
3.26831
3.02466
2.81275
2.60609
2.42745
2.25179
2.10059
1.95076
1.8222
1.69388
1.58405
1.47368
1.37944
1.28415
1.20301
1.12046
1.05037
0.978659
0.917973
0.855538
0.802897
0.748437
0.70271
0.655136
0.615371
0.573761
0.53915
0.502721
0.472576
0.440654
0.414383
0.386388
0.363482
0.338914
0.318932
0.297357
0.279918
0.260958
0.245733
0.229059
0.215761
0.201088
0.189467
0.176546
0.166386
0.154999
0.146111
0.136068
0.128288
0.119424
0.112609
0.104777
0.0988014
0.0918747
0.0866299
0.0804966
0.075887
0.0704491
0.0663912
0.0615624
0.057983
0.0536875
0.0505224
0.0466934
0.0438861
0.0404645
0.0379653
0.034899
0.032664
0.0299066
0.0278968
0.0254073
0.0235882
0.0213298
0.0196706
0.0176104
0.0160833
0.0141917
0.0127716
0.0110218
0.00968585
0.00805331
0.00678022
0.00524186
0.00401178
0.00254655
0.00134235
-7.44666e-05
0.00973354
2.65172
5.15151
7.34751
9.09092
10.2649
10.8224
10.7976
10.2939
9.46142
8.45976
7.41986
6.42765
5.5288
4.74057
4.06297
3.4869
2.99956
2.58751
2.23837
1.9414
1.68768
1.46996
1.28236
1.12014
0.979469
0.857196
0.750721
0.657869
0.576802
0.505959
0.444
0.389775
0.342287
0.300674
0.264187
0.232178
0.204078
0.179395
0.1577
0.138616
0.121815
0.107012
0.0939547
0.0824238
0.0722265
0.0631939
0.0551772
0.0480454
0.0416834
0.0359891
0.0308722
0.0262525
0.0220586
0.0182264
0.0146983
0.0114221
0.00835007
0.00543771
0.00264353
-7.46225e-05
0.00984122
1.29728
2.59159
3.81361
5.03288
6.10805
7.17566
8.0337
8.87638
9.46056
10.0238
10.3089
10.5741
10.573
10.5606
10.32
10.0818
9.67293
9.28129
8.78267
8.3122
7.79058
7.30158
6.80201
6.33408
5.88105
5.45544
5.05852
4.68352
4.34303
4.01898
3.73035
3.45333
3.20994
2.97427
2.76916
2.56879
2.39552
2.22482
2.07787
1.93193
1.80669
1.68141
1.57417
1.46618
1.37396
1.28051
1.20091
1.11978
1.05087
0.98024
0.920449
0.858821
0.806843
0.752977
0.707727
0.660577
0.621142
0.579822
0.545426
0.509179
0.479156
0.447332
0.421112
0.393149
0.370237
0.345649
0.325617
0.303982
0.286461
0.26741
0.252077
0.23529
0.221865
0.207063
0.195303
0.182241
0.171932
0.160397
0.151356
0.14116
0.133224
0.124204
0.117232
0.109245
0.103114
0.0960331
0.0906345
0.0843497
0.0795893
0.074003
0.069798
0.0648246
0.0611022
0.0566662
0.0533624
0.0493971
0.0464555
0.042902
0.0402729
0.037079
0.0347184
0.0318376
0.0297066
0.0270976
0.0251612
0.0227873
0.0210144
0.0188423
0.017205
0.0152048
0.0136777
0.0118223
0.0103822
0.00864683
0.00727232
0.00563356
0.00430417
0.00274041
0.00143906
-7.4769e-05
0.00973554
2.53047
4.91254
7.00201
8.66034
9.78147
10.3242
10.3209
9.8659
9.0964
8.15951
7.17839
6.23616
5.37844
4.62355
3.97271
3.41803
2.94768
2.54909
2.21055
1.92192
1.67473
1.46209
1.27844
1.11926
0.980905
0.860378
0.755195
0.663271
0.582847
0.512418
0.450694
0.396561
0.349055
0.307338
0.270683
0.238455
0.210101
0.185139
0.163146
0.143755
0.126642
0.111524
0.0981551
0.0863167
0.075818
0.0664912
0.0581883
0.050779
0.0441481
0.0381937
0.0328253
0.0279623
0.0235329
0.0194725
0.0157231
0.0122319
0.00895057
0.00583408
0.00283964
-7.49839e-05
0.00988845
1.23648
2.46989
3.63239
4.79331
5.81417
6.83002
7.64379
8.44636
9.00146
9.54135
9.81573
10.0765
10.0827
10.0831
9.86421
9.65141
9.27246
8.91242
8.44568
8.00727
7.51524
7.0553
6.5813
6.13812
5.70642
5.30123
4.92177
4.56332
4.23698
3.92619
3.64894
3.38249
3.14819
2.92089
2.72299
2.52922
2.36166
2.19614
2.05367
1.91179
1.79008
1.66796
1.56348
1.45793
1.36786
1.2763
1.19836
1.11868
1.05105
0.981521
0.922691
0.861894
0.810633
0.757376
0.71265
0.665934
0.626869
0.585845
0.551695
0.515634
0.485761
0.454035
0.427888
0.399956
0.377057
0.352446
0.332381
0.310682
0.293091
0.273945
0.258515
0.24161
0.228068
0.21313
0.201238
0.188029
0.177579
0.165889
0.156699
0.146343
0.138255
0.129074
0.121948
0.113799
0.107515
0.100274
0.0947232
0.0882806
0.083371
0.0776303
0.0732793
0.0681553
0.0642906
0.0597083
0.0562662
0.0521591
0.0490834
0.0453927
0.0426337
0.0393071
0.0368207
0.0338117
0.0315587
0.0288259
0.0267714
0.0242775
0.0223902
0.020102
0.0183535
0.0162407
0.0146056
0.0126408
0.0110955
0.0092537
0.00777645
0.00603395
0.00460397
0.00293813
0.00153858
-7.51863e-05
0.0098569
2.40828
4.67222
6.65599
8.2305
9.29938
9.82652
9.84218
9.43282
8.72355
7.84986
6.92728
6.03574
5.22039
4.50019
3.87743
3.34525
2.89282
2.5084
2.18102
1.90114
1.6608
1.45349
1.27396
1.11796
0.982039
0.863347
0.759524
0.668587
0.588849
0.51887
0.457408
0.40339
0.355882
0.314074
0.277258
0.244818
0.216213
0.190972
0.168683
0.148982
0.131554
0.11612
0.102436
0.0902855
0.0794809
0.0698552
0.0612613
0.0535695
0.0466648
0.0404452
0.0348202
0.0297089
0.0250391
0.0207457
0.0167701
0.0130591
0.00956375
0.00623849
0.00303887
-7.52948e-05
0.010086
1.17479
2.34852
3.44873
4.55418
5.51735
6.48608
7.25143
8.01953
8.54048
9.06265
9.32044
9.58165
9.5889
9.60584
9.4025
9.21789
8.86364
8.53731
8.09872
7.69409
7.22956
6.80009
6.35091
5.9336
5.52338
5.13941
4.77811
4.43671
4.12547
3.82821
3.56335
3.30752
3.08329
2.86426
2.67449
2.48712
2.32608
2.16548
2.02823
1.89012
1.77255
1.6533
1.55212
1.44874
1.36129
1.27135
1.19549
1.117
1.05101
0.982337
0.924808
0.864601
0.814363
0.761493
0.717566
0.671076
0.632629
0.591706
0.558029
0.521973
0.492454
0.460659
0.434771
0.406713
0.383995
0.359217
0.339272
0.317374
0.299853
0.280488
0.265088
0.247949
0.234405
0.219226
0.207307
0.193852
0.183355
0.171419
0.162168
0.151569
0.143407
0.133987
0.12678
0.118397
0.112025
0.104558
0.0989154
0.0922539
0.0872496
0.0812983
0.0768509
0.0715247
0.0675627
0.0627867
0.0592472
0.0549547
0.0517819
0.047914
0.0450585
0.0415626
0.0389806
0.0358099
0.0334623
0.030575
0.0284268
0.0257853
0.0238053
0.0213757
0.0195355
0.0172873
0.0155611
0.0134665
0.0118308
0.00986423
0.00829711
0.00643476
0.00491503
0.00313376
0.00164294
-7.53801e-05
0.00939122
2.28767
4.4341
6.31389
7.80629
8.82357
9.33402
9.36599
8.99857
8.34601
7.53306
6.66793
5.8271
5.05482
4.37036
3.77677
3.26811
2.83445
2.46492
2.14927
1.87859
1.64543
1.44373
1.26854
1.1159
0.982544
0.8658
0.763434
0.67356
0.594574
0.525099
0.463944
0.410077
0.362599
0.320725
0.28377
0.251134
0.222292
0.196784
0.174207
0.154205
0.136467
0.12072
0.106723
0.0942633
0.0831539
0.0732298
0.0643449
0.05637
0.0491906
0.0427047
0.0368216
0.0314604
0.0265483
0.0220199
0.0178162
0.0138831
0.0101716
0.00663561
0.00323036
-7.36318e-05
0.0129568
1.11203
2.22791
3.26152
4.3167
5.2157
6.14575
6.85403
7.59803
8.0745
8.58984
8.81971
9.09161
9.08831
9.13079
8.93216
8.78299
8.44436
8.15735
7.7403
7.37358
6.93253
6.53643
6.11021
5.72064
5.33161
4.96989
4.62743
4.30347
4.00855
3.72472
3.4737
3.22808
3.01542
2.80406
2.62385
2.44218
2.28897
2.13257
2.00171
1.86663
1.75428
1.63719
1.54026
1.43837
1.35439
1.26543
1.19242
1.11452
1.05088
0.982504
0.926904
0.866776
0.818131
0.765172
0.722563
0.67586
0.638504
0.597276
0.564502
0.528074
0.499304
0.467092
0.441822
0.413317
0.39111
0.365867
0.346342
0.323973
0.306796
0.286958
0.27184
0.254234
0.240918
0.225281
0.213546
0.199647
0.189297
0.176931
0.167794
0.156783
0.14871
0.138895
0.131754
0.122995
0.11667
0.108844
0.103234
0.0962324
0.091246
0.0849729
0.0805318
0.0749015
0.070936
0.0658727
0.0623211
0.0577577
0.0545654
0.050442
0.0475605
0.0438239
0.0412102
0.0378126
0.0354281
0.032327
0.0301373
0.0272943
0.0252683
0.0226489
0.0207586
0.0183313
0.0165512
0.0142875
0.0125941
0.010468
0.00883958
0.0068266
0.00524192
0.00331587
0.00175806
-0.000103727
0.0172818
2.21406
4.28975
6.10724
7.55031
8.5361
9.0355
9.0758
8.7319
8.11188
7.33442
6.5035
5.69347
4.94782
4.28579
3.71073
3.21714
2.7956
2.43572
2.1277
1.86303
1.63458
1.43654
1.26422
1.11379
0.982149
0.86671
0.765328
0.676184
0.597724
0.528613
0.467693
0.413958
0.366532
0.324646
0.287629
0.254894
0.225924
0.200267
0.177525
0.157348
0.13943
0.123498
0.109315
0.0966701
0.0853779
0.075274
0.0662133
0.0580669
0.0507205
0.0440724
0.0380319
0.0325179
0.0274575
0.022785
0.0184411
0.0143716
0.0105269
0.0068607
0.00332414
-0.000135399
0.0177123
1.09587
2.19915
3.21206
4.26015
5.13626
6.06483
6.74965
7.49783
7.9524
8.47721
8.68869
8.97436
8.95737
9.01633
8.80904
8.67719
8.3345
8.06381
7.64634
7.29363
6.85473
6.46977
6.04733
5.6661
5.28173
4.92595
4.58845
4.26855
3.97849
3.6973
3.45081
3.20681
2.99821
2.78775
2.6111
2.42983
2.27971
2.12336
1.99515
1.8599
1.74982
1.6324
1.53741
1.43511
1.35279
1.26336
1.19178
1.11338
1.05097
0.982081
0.927556
0.866904
0.819197
0.76572
0.723932
0.676722
0.640088
0.598368
0.566231
0.52933
0.501122
0.468457
0.443685
0.414749
0.392984
0.367332
0.3482
0.325443
0.308617
0.288414
0.273608
0.255658
0.242622
0.226662
0.215177
0.200975
0.190848
0.178199
0.169263
0.157987
0.150093
0.140032
0.133051
0.124062
0.117881
0.109842
0.104359
0.0971593
0.0922877
0.08583
0.0814914
0.0756897
0.0718155
0.0665932
0.0631229
0.058412
0.0552917
0.0510318
0.0482138
0.0443508
0.0417928
0.0382784
0.0359424
0.0327334
0.0305855
0.0276429
0.0256525
0.0229413
0.0210807
0.018569
0.016813
0.0144719
0.0127974
0.0106002
0.00898578
0.00690783
0.00533271
0.00334606
0.00179443
-0.000135201
0.0181581
2.18348
4.22909
6.02041
7.44291
8.41569
8.91056
8.95432
8.62019
8.01378
7.25127
6.43483
5.63785
4.90347
4.25089
3.6836
3.1963
2.77978
2.42387
2.11898
1.85676
1.63023
1.43368
1.26252
1.11299
0.982034
0.867122
0.766137
0.677286
0.599037
0.530072
0.469245
0.415563
0.368155
0.326263
0.28922
0.256443
0.22742
0.201701
0.17889
0.158642
0.140648
0.12464
0.110381
0.09766
0.0862926
0.0761149
0.0669819
0.0587651
0.0513502
0.0446356
0.0385305
0.0329538
0.0278326
0.0231011
0.0186998
0.0145744
0.0106752
0.0069561
0.0033688
-0.000135608
0.0186958
1.07916
2.16752
3.16224
4.19761
5.0564
5.97548
6.64484
7.38745
7.82983
8.35359
8.55708
8.84618
8.82564
8.89177
8.6849
8.5627
8.22339
7.96334
7.55099
7.20858
6.7755
6.39965
5.98308
5.60944
5.23059
4.8809
4.54838
4.2332
3.9475
3.6699
3.42714
3.18582
2.98035
2.77186
2.59781
2.41798
2.26998
2.11467
1.9882
1.85368
1.74503
1.62811
1.53429
1.43231
1.35096
1.26173
1.19095
1.11264
1.0509
0.982032
0.928059
0.867381
0.820135
0.766592
0.72519
0.677885
0.641575
0.59974
0.567875
0.530845
0.502866
0.470063
0.445484
0.416403
0.394801
0.369003
0.350008
0.327105
0.310394
0.290047
0.275337
0.257247
0.244291
0.228195
0.216776
0.202443
0.192372
0.179597
0.170707
0.15931
0.151455
0.141278
0.134328
0.12523
0.119074
0.110931
0.105469
0.0981709
0.0933147
0.0867646
0.0824376
0.0765488
0.0726829
0.0673785
0.0639134
0.0591254
0.0560077
0.0516753
0.0488576
0.0449264
0.0423666
0.0387882
0.0364484
0.0331793
0.0310259
0.0280269
0.0260293
0.0232651
0.0213958
0.0188343
0.0170682
0.0146803
0.0129943
0.0107532
0.00912584
0.00700684
0.00541726
0.00339307
0.00182337
-0.000136036
0.0191167
2.15079
4.16468
5.92855
7.32958
8.28888
8.77916
8.82669
8.50293
7.91095
7.16432
6.36327
5.58016
4.8577
4.21509
3.65593
3.17517
2.76384
2.41201
2.11032
1.85059
1.62599
1.43095
1.26095
1.11232
0.982051
0.867663
0.767071
0.67851
0.600468
0.531643
0.470904
0.417268
0.369874
0.32797
0.290895
0.25807
0.228989
0.203203
0.18032
0.159994
0.141922
0.125834
0.111494
0.0986932
0.0872471
0.0769922
0.0677839
0.0594936
0.0520074
0.0452236
0.0390514
0.0334097
0.0282253
0.0234326
0.0189718
0.0147884
0.0108328
0.00705867
0.00341807
-0.000136683
0.0196314
1.06207
2.13402
3.111
4.13166
4.97437
5.88154
6.53729
7.27164
7.70413
8.2241
8.42214
8.71206
8.69052
8.76151
8.55743
8.44304
8.10914
7.85843
7.45281
7.11992
6.69384
6.32677
5.91683
5.55076
5.17788
4.83443
4.50709
4.19692
3.91559
3.64193
3.40278
3.1645
2.96198
2.75581
2.58415
2.40606
2.25999
2.10599
1.98106
1.84751
1.74009
1.62389
1.53106
1.4296
1.34905
1.26019
1.19005
1.11201
1.05078
0.982087
0.928534
0.867962
0.821055
0.767566
0.726438
0.679149
0.643059
0.601209
0.569522
0.532453
0.504616
0.471758
0.447292
0.418144
0.39663
0.370756
0.351829
0.328844
0.312185
0.291752
0.277081
0.258903
0.245975
0.229791
0.218391
0.20397
0.193911
0.18105
0.172165
0.160685
0.15283
0.142572
0.135619
0.126443
0.12028
0.112062
0.10659
0.0992204
0.0943529
0.0877341
0.0833941
0.0774399
0.0735596
0.068193
0.0647125
0.0598654
0.0567314
0.0523428
0.0495082
0.0455237
0.0429463
0.0393174
0.0369596
0.0336425
0.0314706
0.0284261
0.0264096
0.0236022
0.0217137
0.0191111
0.0173254
0.0148983
0.0131923
0.010914
0.00926629
0.00711186
0.0055016
0.00344395
0.00185202
-0.000137347
0.0200113
2.11647
4.09719
5.83253
7.2113
8.15671
8.64232
8.69381
8.38087
7.80396
7.07395
6.28905
5.52049
4.81054
4.17834
3.62765
3.15366
2.74768
2.40004
2.10162
1.84442
1.62179
1.42827
1.25944
1.11172
0.982145
0.868284
0.768085
0.679813
0.601976
0.533289
0.472637
0.419044
0.371661
0.329741
0.29263
0.259756
0.230612
0.204756
0.181797
0.161391
0.143236
0.127065
0.112642
0.099759
0.0882316
0.0778971
0.0686109
0.060245
0.0526853
0.0458302
0.0395889
0.0338802
0.028631
0.0237753
0.0192533
0.0150105
0.0109968
0.00716611
0.00347051
-0.00013808
0.0204869
1.04443
2.099
3.05813
4.06281
4.88988
5.78366
6.42663
7.15115
7.57492
8.08953
8.28348
8.57277
8.55163
8.62626
8.4263
8.31878
7.99148
7.7495
7.3516
7.02794
6.60962
6.25127
5.84852
5.49014
5.12357
4.78658
4.46461
4.15969
3.88281
3.61332
3.37779
3.14278
2.94316
2.73952
2.57016
2.39401
2.24977
2.09724
1.97375
1.84132
1.73504
1.61968
1.52775
1.42693
1.34709
1.2587
1.18912
1.11143
1.05064
0.982205
0.929
0.868608
0.821975
0.768607
0.727694
0.680479
0.644556
0.602745
0.571185
0.534128
0.506386
0.473518
0.449121
0.419947
0.398482
0.372568
0.353673
0.33064
0.314
0.293512
0.278848
0.260611
0.247682
0.231436
0.220028
0.205544
0.195471
0.182546
0.173644
0.1621
0.154225
0.143903
0.136928
0.12769
0.121503
0.113225
0.107728
0.1003
0.095406
0.0887309
0.0843644
0.078356
0.074449
0.0690304
0.0655231
0.0606262
0.0574655
0.0530292
0.0501681
0.046138
0.0435343
0.0398617
0.0374779
0.0341191
0.0319215
0.028837
0.0267951
0.0239494
0.0220357
0.0193964
0.0175857
0.0151234
0.0133927
0.0110804
0.00940815
0.00722109
0.00558648
0.00349756
0.00188073
-0.000138828
0.0208493
2.08075
4.02699
5.7328
7.08861
8.01975
8.50059
8.55619
8.25442
7.6931
6.98035
6.21228
5.4589
4.76199
4.14062
3.59872
3.13172
2.73125
2.38792
2.09282
1.83821
1.61758
1.4256
1.25797
1.11116
0.982286
0.868955
0.769154
0.681172
0.603541
0.534992
0.474424
0.420874
0.373499
0.331562
0.294414
0.261487
0.232278
0.20635
0.183312
0.162824
0.144585
0.128328
0.113819
0.100852
0.0892407
0.0788245
0.0694586
0.0610152
0.0533801
0.046452
0.04014
0.0343628
0.0290472
0.024127
0.0195424
0.0152387
0.0111657
0.00727713
0.00352527
-0.000139614
0.021309
1.02618
2.06264
3.0035
3.99133
4.80279
5.68218
6.3127
7.02638
7.44199
7.9503
8.14088
8.42873
8.40877
8.48639
8.29134
8.19024
7.87029
7.63679
7.24727
6.93279
6.52279
6.17326
5.77811
5.4276
5.06764
4.73734
4.42092
4.12149
3.84915
3.58406
3.35218
3.12062
2.92391
2.72295
2.55587
2.38179
2.23933
2.08839
1.9663
1.83508
1.72989
1.61546
1.52438
1.42426
1.34508
1.25723
1.18817
1.11088
1.0505
0.982361
0.929469
0.869298
0.822906
0.769696
0.728966
0.68186
0.646074
0.604333
0.572872
0.535854
0.508183
0.475329
0.450978
0.421799
0.400362
0.374429
0.355547
0.332483
0.315843
0.295316
0.280644
0.262362
0.249417
0.233121
0.221692
0.207155
0.197057
0.184078
0.175147
0.163548
0.155642
0.145266
0.138258
0.128966
0.122746
0.114415
0.108884
0.101404
0.0964763
0.0897509
0.0853505
0.0792933
0.0753528
0.0698872
0.0663469
0.0614045
0.0582115
0.0537315
0.0508386
0.0467665
0.0441318
0.0404188
0.0380046
0.0346069
0.0323796
0.0292577
0.0271867
0.024305
0.0223628
0.0196888
0.0178501
0.0153543
0.013596
0.0112513
0.00955196
0.00733353
0.00567235
0.00355322
0.00190971
-0.000140413
0.021687
2.04376
3.95423
5.62958
6.96178
7.87827
8.35424
8.41407
8.12378
7.57854
6.88364
6.13302
5.39541
4.71206
4.10192
3.56911
3.10934
2.71453
2.3756
2.08392
1.83194
1.61334
1.42293
1.2565
1.11062
0.982458
0.869664
0.770264
0.682574
0.605151
0.536741
0.476258
0.422749
0.375382
0.333426
0.296239
0.263257
0.233983
0.207979
0.184861
0.164288
0.145962
0.129618
0.115022
0.101968
0.0902715
0.0797718
0.0703245
0.0618018
0.0540899
0.0470872
0.040703
0.0348558
0.0294724
0.0244865
0.019838
0.0154722
0.0113386
0.00739099
0.00358181
-0.000141284
0.0221638
1.00724
2.02505
2.94706
3.91735
4.71301
5.57728
6.19538
6.89753
7.30523
7.80663
7.99423
8.28013
8.26185
8.34207
8.15247
8.05755
7.74548
7.52041
7.13977
6.83455
6.4333
6.09277
5.70559
5.36318
5.0101
4.68672
4.37603
4.08231
3.81462
3.55412
3.32595
3.09802
2.90422
2.70608
2.54128
2.36938
2.22869
2.07943
1.95871
1.82878
1.72465
1.6112
1.52095
1.42158
1.34304
1.25577
1.1872
1.11035
1.05035
0.982545
0.929947
0.870022
0.823853
0.770824
0.73026
0.683282
0.647618
0.605963
0.574589
0.537624
0.51001
0.477183
0.452867
0.423695
0.402274
0.376332
0.357452
0.334367
0.317718
0.29716
0.28247
0.26415
0.251181
0.234842
0.223384
0.208801
0.198669
0.185642
0.176676
0.165027
0.157084
0.146658
0.139611
0.130269
0.12401
0.115629
0.110059
0.102531
0.0975648
0.0907917
0.0863535
0.0802498
0.0762721
0.0707614
0.0671848
0.0621988
0.0589702
0.0544481
0.0515206
0.0474079
0.0447394
0.0409872
0.0385402
0.0351047
0.0328454
0.0296871
0.0275849
0.024668
0.0226953
0.0199873
0.0181188
0.0155901
0.0138026
0.011426
0.00969804
0.00744859
0.00575946
0.00361049
0.00193915
-0.000142165
0.0225911
2.00556
3.87903
5.52299
6.83091
7.7324
8.20339
8.26755
7.98904
7.46034
6.78387
6.05131
5.33006
4.66075
4.06226
3.53884
3.08651
2.69752
2.3631
2.0749
1.8256
1.60906
1.42025
1.25504
1.1101
0.982654
0.870403
0.771408
0.684015
0.6068
0.538531
0.478132
0.424665
0.377305
0.335329
0.298102
0.265063
0.235721
0.209641
0.18644
0.165782
0.147367
0.130934
0.116248
0.103105
0.0913223
0.0807374
0.0712071
0.0626036
0.0548134
0.0477347
0.0412769
0.0353584
0.0299059
0.024853
0.0201394
0.0157103
0.011515
0.00750725
0.00363981
-0.000143193
0.0231185
0.987576
1.98626
2.88876
3.84094
4.62052
5.469
6.07465
6.76465
7.16462
7.65856
7.84351
8.12702
8.11082
8.19335
8.00964
7.92077
7.61704
7.40041
7.02908
6.73325
6.34114
6.00985
5.63093
5.2969
4.95092
4.63474
4.32993
4.04216
3.77922
3.52352
3.29911
3.07497
2.88411
2.68892
2.5264
2.35679
2.21786
2.07035
1.95098
1.8224
1.71932
1.60691
1.51746
1.41889
1.34098
1.25431
1.18622
1.10984
1.05021
0.982752
0.930435
0.870775
0.824819
0.771984
0.731578
0.68474
0.64919
0.607631
0.576335
0.539432
0.511869
0.479076
0.454789
0.42563
0.40422
0.378274
0.359391
0.336288
0.319625
0.29904
0.284328
0.265973
0.252976
0.236597
0.225105
0.210478
0.20031
0.187236
0.178231
0.166534
0.15855
0.148075
0.140988
0.131597
0.125296
0.116866
0.111256
0.103679
0.0986724
0.0918519
0.0873739
0.0812241
0.0772074
0.0716519
0.0680372
0.0630078
0.0597421
0.055178
0.0522144
0.0480611
0.0453576
0.0415662
0.0390851
0.0356118
0.0333193
0.0301244
0.0279899
0.0250377
0.0230336
0.0202914
0.0183922
0.0158303
0.0140128
0.011604
0.00984658
0.00756591
0.00584795
0.00366907
0.00196918
-0.000144227
0.0236321
1.96618
3.80141
5.41302
6.69602
7.58214
8.04803
8.11664
7.85023
7.33852
6.68106
5.96718
5.26285
4.6081
4.02164
3.50791
3.06324
2.68022
2.35041
2.06576
1.81919
1.60475
1.41755
1.25358
1.10959
0.982871
0.87117
0.772585
0.68549
0.608487
0.540359
0.480045
0.426619
0.379265
0.337269
0.3
0.266903
0.237492
0.211333
0.188049
0.167302
0.148797
0.132273
0.117497
0.104264
0.092392
0.0817204
0.0721055
0.0634198
0.0555498
0.0483938
0.0418611
0.03587
0.0303471
0.025226
0.0204462
0.0159526
0.0116946
0.00762563
0.003699
-0.000145522
0.0242464
0.967146
1.9463
2.82857
3.76209
4.52531
5.35731
5.95052
6.6277
7.02014
7.50604
7.68869
7.96935
7.95569
8.0402
7.86286
7.77988
7.48496
7.27676
6.91518
6.62891
6.2463
5.9245
5.55413
5.22878
4.89009
4.58142
4.2826
4.00108
3.74295
3.49228
3.27165
3.05149
2.86356
2.67149
2.51122
2.34401
2.20682
2.06116
1.94313
1.81597
1.7139
1.60258
1.51392
1.41619
1.33888
1.25285
1.18523
1.10934
1.05006
0.982983
0.930937
0.871557
0.825804
0.773178
0.732922
0.686235
0.650791
0.609337
0.578114
0.54128
0.513762
0.481009
0.456746
0.427604
0.406201
0.380253
0.361364
0.338246
0.321567
0.300956
0.28622
0.267831
0.254803
0.238384
0.226858
0.212186
0.20198
0.188859
0.179814
0.168068
0.160043
0.149518
0.142389
0.132948
0.126605
0.118126
0.112473
0.104847
0.0997996
0.092931
0.0884124
0.0822157
0.0781594
0.0725582
0.0689047
0.0638311
0.0605278
0.0559208
0.0529205
0.0487259
0.0459867
0.0421554
0.0396396
0.0361278
0.0338015
0.0305695
0.0284022
0.025414
0.0233778
0.0206009
0.0186704
0.0160748
0.0142267
0.0117851
0.00999772
0.0076853
0.00593795
0.00372881
0.00199989
-0.000146818
0.0248969
1.92566
3.72138
5.29965
6.55705
7.42741
7.8881
7.9613
7.7073
7.21309
6.57521
5.88064
5.19384
4.55413
3.9801
3.47637
3.03956
2.66264
2.33755
2.05652
1.81272
1.60041
1.41484
1.25213
1.1091
0.98311
0.871964
0.773792
0.687
0.610209
0.542222
0.481994
0.428609
0.381261
0.339243
0.301931
0.268775
0.239292
0.213054
0.189684
0.168848
0.150252
0.133634
0.118766
0.105441
0.0934792
0.0827194
0.0730186
0.0642493
0.0562982
0.0490636
0.0424547
0.0363899
0.0307955
0.0256051
0.020758
0.0161989
0.0118771
0.00774584
0.00375909
-0.000148534
0.0256531
0.945915
1.90518
2.7665
3.68082
4.42743
5.24218
5.82305
6.48661
6.87189
7.34901
7.52989
7.80707
7.79653
7.88258
7.71221
7.63487
7.34929
7.1495
6.79812
6.52156
6.14879
5.83678
5.47519
5.15889
4.82762
4.52683
4.23406
3.95913
3.70578
3.46046
3.24355
3.02763
2.84257
2.65381
2.49574
2.33109
2.19557
2.05188
1.93513
1.80948
1.7084
1.59824
1.51033
1.41349
1.33675
1.25141
1.18423
1.10886
1.04992
0.983238
0.93145
0.872369
0.82681
0.774405
0.734291
0.687763
0.652422
0.611079
0.579926
0.543163
0.51569
0.482978
0.458739
0.429613
0.408217
0.382267
0.363373
0.340238
0.323543
0.302904
0.288145
0.269719
0.256662
0.2402
0.228641
0.213922
0.20368
0.190508
0.181425
0.169627
0.161563
0.150984
0.143815
0.13432
0.127938
0.119405
0.113713
0.106034
0.100947
0.0940268
0.0894694
0.0832226
0.0791281
0.0734784
0.0697877
0.0646671
0.0613273
0.056675
0.0536392
0.0494008
0.046627
0.0427536
0.040204
0.0366516
0.0342924
0.0310213
0.0288217
0.0257959
0.0237282
0.0209149
0.0189535
0.0163229
0.0144444
0.0119689
0.0101516
0.0078063
0.0060296
0.00378921
0.00203154
-0.000150246
0.0265432
1.88394
3.63885
5.18272
6.41379
7.26802
7.7234
7.80134
7.56015
7.08396
6.46632
5.79171
5.12305
4.4989
3.93771
3.44425
3.01551
2.64485
2.32456
2.0472
1.80622
1.59606
1.41213
1.25069
1.10863
0.983378
0.872789
0.775033
0.688544
0.611967
0.544122
0.48398
0.430635
0.383291
0.34125
0.303894
0.270678
0.241122
0.214803
0.191345
0.170418
0.151728
0.135017
0.120054
0.106636
0.094583
0.0837337
0.0739455
0.0650913
0.0570578
0.0497433
0.0430571
0.0369174
0.0312505
0.0259897
0.0210742
0.0164487
0.012062
0.00786759
0.00381977
-0.000152603
0.0275416
0.923866
1.86279
2.70256
3.59696
4.32688
5.12334
5.69226
6.34104
6.71989
7.1871
7.36711
7.63982
7.63335
7.72018
7.55765
7.48549
7.20999
7.01846
6.67783
6.41111
6.04855
5.74667
5.39404
5.08724
4.76342
4.47102
4.18422
3.91635
3.66766
3.4281
3.21477
3.00345
2.8211
2.63594
2.47992
2.31806
2.18409
2.04256
1.92697
1.80298
1.70278
1.5939
1.50666
1.4108
1.33458
1.24999
1.18321
1.10841
1.04978
0.983526
0.931971
0.873216
0.827832
0.775667
0.735684
0.689329
0.654081
0.612857
0.58177
0.545083
0.517652
0.484982
0.460767
0.431656
0.41027
0.384315
0.365418
0.342262
0.325556
0.304883
0.290105
0.271636
0.258556
0.242044
0.230457
0.215683
0.205411
0.192181
0.183066
0.171208
0.16311
0.152471
0.145268
0.135712
0.129295
0.120702
0.114975
0.107238
0.102115
0.0951381
0.090546
0.0842436
0.0801149
0.0744115
0.070687
0.0655146
0.0621417
0.0574396
0.0543713
0.050085
0.0472792
0.0433599
0.040779
0.0371825
0.0347925
0.0314791
0.0292492
0.0261828
0.0240853
0.021233
0.0192421
0.016574
0.0146664
0.0121548
0.0103085
0.00792853
0.00612314
0.00384986
0.00206437
-0.000154947
0.0288935
1.84089
3.55366
5.06194
6.26591
7.10358
7.55359
7.63649
7.40855
6.95102
6.35433
5.70042
5.05055
4.44251
3.89456
3.41167
2.99119
2.62691
2.3115
2.03786
1.79972
1.59172
1.40946
1.24929
1.10819
0.983685
0.873655
0.776316
0.690129
0.613764
0.546061
0.486002
0.432696
0.385356
0.34329
0.305887
0.272609
0.24298
0.216577
0.19303
0.17201
0.153226
0.136418
0.12136
0.107848
0.0957016
0.0847613
0.0748846
0.0659443
0.0578272
0.0504318
0.0436672
0.0374516
0.0317111
0.0263789
0.0213942
0.0167012
0.0122489
0.00799037
0.0038805
-0.000158248
0.0303473
0.901095
1.81889
2.63688
3.51025
4.22386
5.00042
5.55841
6.19059
6.56442
7.01987
7.20062
7.46719
7.4664
7.55266
7.3994
7.33151
7.06722
6.88352
6.55441
6.29755
5.94562
5.65421
5.31067
5.01394
4.69748
4.41411
4.13304
3.8729
3.62855
3.39537
3.18526
2.97907
2.79909
2.61799
2.46371
2.30503
2.17233
2.03325
1.91862
1.79652
1.69703
1.58961
1.50291
1.40817
1.33236
1.24862
1.18215
1.10801
1.04962
0.983865
0.932491
0.87411
0.828864
0.776975
0.737095
0.690937
0.655766
0.614676
0.583643
0.547041
0.519646
0.487023
0.462829
0.433734
0.412359
0.386395
0.3675
0.344316
0.327604
0.30689
0.292101
0.27358
0.260484
0.243912
0.232307
0.217468
0.207174
0.193876
0.184737
0.172809
0.164686
0.153976
0.146747
0.137121
0.130677
0.122015
0.116261
0.108455
0.103306
0.0962621
0.0916429
0.0852762
0.0811204
0.075355
0.0716035
0.0663715
0.0629717
0.0582125
0.0551173
0.0507765
0.047944
0.0439726
0.041365
0.0377189
0.0353022
0.0319415
0.0296851
0.0265735
0.0244493
0.0215541
0.0195365
0.0168273
0.0148928
0.0123421
0.0104688
0.00805131
0.00621882
0.0039102
0.00209857
-0.000161524
0.0326434
1.79615
3.46544
4.93685
6.11284
6.93352
7.37811
7.46629
7.25219
6.81407
6.23919
5.60681
4.97647
4.38511
3.85082
3.37879
2.96676
2.60896
2.29848
2.0286
1.7933
1.58748
1.40687
1.24796
1.10783
0.984054
0.874578
0.777649
0.691761
0.615605
0.548039
0.488061
0.43479
0.387451
0.345358
0.307907
0.274565
0.244859
0.218372
0.194734
0.17362
0.154739
0.137834
0.122679
0.109071
0.096831
0.0857987
0.0758324
0.0668051
0.0586035
0.0511263
0.0442825
0.0379901
0.0321753
0.026771
0.0217163
0.0169553
0.0124366
0.00811318
0.0039404
-0.000166203
0.0350298
0.877891
1.77291
2.56972
3.42013
4.11865
4.87276
5.4218
6.03448
6.40581
6.84654
7.03076
7.28845
7.29596
7.37943
7.23768
7.1725
6.92112
6.74441
6.42793
6.18077
5.84
5.55947
5.22504
4.93914
4.62971
4.35632
4.08042
3.829
3.58833
3.36247
3.15491
2.9547
2.77646
2.60014
2.44704
2.29213
2.16023
2.02411
1.91001
1.79022
1.69111
1.58546
1.49903
1.40566
1.33004
1.24736
1.18104
1.1077
1.04943
0.984285
0.933
0.875076
0.829899
0.778345
0.73852
0.6926
0.657472
0.616544
0.585544
0.549042
0.521673
0.489101
0.464928
0.435846
0.414485
0.388504
0.36962
0.346396
0.329692
0.30892
0.294135
0.275544
0.26245
0.245799
0.234193
0.219269
0.208973
0.195586
0.186443
0.174423
0.166295
0.155494
0.148257
0.138541
0.132088
0.123337
0.117573
0.109681
0.104521
0.0973937
0.0927628
0.0863155
0.0821471
0.0763044
0.0725393
0.0672336
0.0638193
0.0589899
0.0558794
0.0514718
0.0486231
0.0445884
0.0419638
0.0382578
0.0358232
0.0324059
0.0301306
0.0269656
0.0248216
0.021876
0.0198376
0.0170809
0.0151247
0.0125292
0.0106331
0.00817327
0.00631733
0.003969
0.00213465
-0.00017084
0.0393073
1.74889
3.37343
4.80657
5.95361
6.75684
7.19606
7.28997
7.0905
6.6728
6.12079
5.51095
4.90098
4.32696
3.80679
3.3459
2.94247
2.59123
2.28572
2.01958
1.78711
1.58342
1.40444
1.24677
1.10759
0.984526
0.875586
0.779056
0.693455
0.617499
0.550062
0.490158
0.436918
0.389574
0.34745
0.309948
0.276538
0.246753
0.220179
0.196449
0.175239
0.15626
0.139257
0.124004
0.1103
0.0979646
0.0868398
0.0767832
0.0676683
0.0593818
0.0518223
0.0448988
0.0385293
0.0326398
0.027163
0.0220379
0.0172084
0.012623
0.00823429
0.00399802
-0.0001775
0.0436552
0.854982
1.72362
2.50166
3.32549
4.01179
4.73915
5.28305
5.87141
6.24468
6.6658
6.85811
7.10242
7.12256
7.19948
7.0729
7.00773
6.77196
6.60071
6.29852
6.06062
5.7317
5.46249
5.13706
4.86307
4.55995
4.29797
4.02618
3.78502
3.54681
3.32979
3.12355
2.9307
2.75304
2.58272
2.42976
2.27966
2.14767
2.01536
1.90106
1.78426
1.68491
1.5816
1.49495
1.4034
1.32759
1.24631
1.17983
1.10757
1.04917
0.984846
0.93347
0.876157
0.830917
0.77981
0.739945
0.69434
0.659191
0.618473
0.587467
0.551093
0.52373
0.49122
0.467061
0.437989
0.41665
0.390639
0.371781
0.348496
0.331822
0.310966
0.296213
0.27752
0.264459
0.247695
0.236121
0.221076
0.210812
0.197299
0.188187
0.17604
0.167941
0.157012
0.149803
0.13996
0.133533
0.124658
0.118918
0.110906
0.105766
0.0985236
0.0939103
0.0873528
0.0831993
0.0772515
0.0734986
0.0680931
0.0646883
0.0597646
0.0566608
0.0521644
0.0493197
0.0452015
0.0425781
0.0387938
0.0363579
0.0328673
0.0305881
0.0273548
0.0252042
0.0221949
0.0201474
0.0173315
0.0153636
0.0127131
0.0108028
0.00829194
0.00641979
0.00402434
0.00217331
-0.000184098
0.0520881
1.69741
3.27612
4.66951
5.78658
6.5719
7.00592
7.1063
6.92258
6.52665
5.99891
5.4129
4.82436
4.26845
3.76291
3.31346
2.91879
2.57414
2.27356
2.0111
1.78139
1.57977
1.40235
1.24586
1.10757
0.985177
0.87674
0.780578
0.695241
0.619464
0.552141
0.492298
0.439077
0.39172
0.349558
0.311998
0.278517
0.24865
0.221986
0.198161
0.176853
0.157775
0.140673
0.125322
0.111521
0.0990906
0.0878731
0.0777264
0.068524
0.0601528
0.0525113
0.0455084
0.0390621
0.0330981
0.0275492
0.0223541
0.0174564
0.0128045
0.00835053
0.00405091
-0.000193568
0.0605571
0.833978
1.6685
2.43384
3.22413
3.90434
4.59739
5.14322
5.69917
6.08211
6.47549
6.68369
6.90712
6.94706
7.0112
6.90573
6.83601
6.62021
6.45169
6.16643
5.93682
5.62076
5.36336
5.04663
4.78606
4.48801
4.23957
3.97004
3.74157
3.50369
3.29795
3.09086
2.90767
2.72854
2.56628
2.41161
2.26811
2.13441
2.00741
1.89156
1.77899
1.67829
1.57833
1.49055
1.40162
1.32489
1.24566
1.17844
1.10776
1.04879
0.985661
0.933855
0.877438
0.831884
0.78143
0.741344
0.6962
0.660906
0.620493
0.589403
0.553211
0.525812
0.493385
0.469229
0.440164
0.418856
0.392793
0.373989
0.350605
0.334001
0.313012
0.298341
0.279491
0.266519
0.24958
0.238101
0.22287
0.212702
0.198997
0.189981
0.17764
0.169635
0.158512
0.151395
0.141361
0.135021
0.125961
0.120303
0.112112
0.10705
0.0996348
0.0950937
0.0883719
0.0842847
0.0781812
0.0744886
0.0689361
0.0655854
0.0605236
0.0574679
0.0528422
0.0500394
0.0458007
0.0432133
0.039317
0.036911
0.0333169
0.0310617
0.027733
0.0256007
0.0225037
0.020469
0.0175729
0.0156122
0.0128887
0.0109804
0.0084029
0.00652819
0.00407297
0.00221561
-0.000202944
0.0775859
1.63829
3.17061
4.52288
5.60891
6.37599
6.80525
6.91324
6.74695
6.37471
5.8732
5.31275
4.74705
4.21025
3.71997
3.28229
2.89647
2.55839
2.26263
2.00371
1.77659
1.5769
1.40089
1.24546
1.10796
0.986155
0.878148
0.782296
0.697173
0.621537
0.554296
0.494488
0.441266
0.39388
0.351667
0.31404
0.280479
0.250524
0.223766
0.199844
0.178437
0.159259
0.142058
0.126608
0.112711
0.100187
0.0888778
0.0786424
0.069354
0.0608996
0.0531777
0.0460971
0.0395756
0.0335388
0.0279193
0.0226555
0.0176912
0.0129741
0.00845617
0.00409499
-0.000216308
0.0945927
0.818181
1.60269
2.36847
3.11194
3.79826
4.44361
5.00416
5.51399
5.91988
6.27205
6.50913
6.69937
6.77088
6.81196
6.73728
6.6554
6.46661
6.29614
6.03205
5.80885
5.50728
5.26216
4.95359
4.70865
4.41352
4.18197
3.91155
3.69966
3.45845
3.26802
3.05631
2.88666
2.70246
2.55179
2.39214
2.25833
2.12007
2.00103
1.88117
1.77506
1.67097
1.57618
1.48558
1.40076
1.32175
1.24574
1.17672
1.10853
1.04816
0.986939
0.934063
0.879078
0.83273
0.783323
0.742669
0.698261
0.662583
0.622657
0.59133
0.555426
0.527908
0.495611
0.471428
0.442369
0.421107
0.394954
0.37625
0.352703
0.336241
0.315034
0.300535
0.281427
0.268648
0.251423
0.24015
0.224615
0.214661
0.200643
0.191843
0.179185
0.171395
0.159957
0.15305
0.142707
0.13657
0.12721
0.121746
0.113265
0.108388
0.100696
0.0963281
0.0893433
0.0854177
0.0790657
0.0755226
0.0697366
0.0665232
0.0612429
0.0583121
0.0534831
0.0507929
0.0463659
0.0438788
0.039809
0.0374914
0.033738
0.0315595
0.0280854
0.0260183
0.0227894
0.0208086
0.0177937
0.0158761
0.013046
0.0111704
0.00849814
0.00664603
0.00410945
0.00226322
-0.000229539
0.129087
1.5649
3.05146
4.36163
5.41582
6.16461
6.59005
6.70752
6.56118
6.21549
5.743
5.21059
4.66968
4.15339
3.67922
3.25372
2.87686
2.54522
2.25405
1.99838
1.77355
1.57547
1.40063
1.24602
1.10911
0.987732
0.880018
0.784362
0.699361
0.62379
0.55657
0.496748
0.443486
0.39604
0.353753
0.31604
0.282386
0.252333
0.225475
0.201452
0.179943
0.160665
0.143365
0.127819
0.113827
0.101212
0.0898154
0.0794949
0.0701246
0.0615911
0.0537928
0.0466385
0.0400458
0.0339401
0.0282539
0.0229253
0.0178978
0.013119
0.00854085
0.00412336
-0.000248118
0.16346
0.814094
1.51691
2.30971
2.98121
3.69714
4.27086
4.86918
5.30943
5.76103
6.04957
6.33718
6.474
6.59633
6.59753
6.56937
6.46277
6.31243
6.13209
5.8961
5.6758
5.39147
5.15891
4.85771
4.63161
4.33596
4.12645
3.84995
3.6609
3.41024
3.24177
3.01903
2.86944
2.67393
2.54093
2.37054
2.25186
2.10391
1.99756
1.86928
1.77362
1.6624
1.5761
1.47962
1.4016
1.31782
1.2472
1.17438
1.1104
1.04706
0.989074
0.933923
0.881376
0.833328
0.78571
0.743827
0.700682
0.664158
0.625071
0.593208
0.557802
0.529995
0.497928
0.473651
0.444609
0.423407
0.397104
0.378579
0.354756
0.338562
0.316984
0.302819
0.283272
0.270873
0.253162
0.242299
0.226248
0.216721
0.20217
0.193805
0.180609
0.173253
0.161281
0.154801
0.143933
0.138212
0.128341
0.123277
0.114306
0.109809
0.101649
0.0976416
0.0902122
0.0866247
0.0798535
0.0766256
0.0704465
0.0675246
0.0618779
0.0592148
0.054046
0.0515998
0.0468594
0.0445928
0.0402355
0.0381152
0.0340998
0.0320958
0.0283844
0.0264698
0.0230276
0.0211777
0.0179725
0.0161649
0.013167
0.0113809
0.00856325
0.00677948
0.00412456
0.00231883
-0.000266511
0.232796
1.46483
2.90858
4.1768
5.1991
5.93032
6.35385
6.48387
6.36137
6.04647
5.60715
5.10643
4.5932
4.09947
3.64269
3.22998
2.86219
2.53678
2.24977
1.99682
1.77374
1.57676
1.40259
1.24839
1.1117
0.990425
0.882743
0.787067
0.702012
0.626362
0.559046
0.499118
0.445742
0.398178
0.355771
0.317939
0.284168
0.254
0.22703
0.202897
0.181284
0.161905
0.144509
0.128871
0.114792
0.102092
0.0906148
0.0802173
0.0707733
0.0621691
0.0543031
0.0470837
0.0404282
0.034262
0.0285171
0.0231316
0.0180486
0.0132159
0.00858601
0.00412435
-0.000291674
0.175727
0.719109
1.33111
2.02783
2.62114
3.24935
3.76062
4.29206
4.69362
5.10484
5.38167
5.65879
5.8098
5.95095
5.98714
6.0025
5.94386
5.85385
5.72544
5.55704
5.38455
5.16626
4.97195
4.72914
4.52962
4.28183
4.08783
3.8483
3.66583
3.44241
3.27417
3.07066
2.91736
2.73487
2.59611
2.43412
2.30894
2.16603
2.0533
1.92767
1.82622
1.71598
1.62468
1.52801
1.44586
1.36108
1.28715
1.21278
1.14625
1.08098
1.0211
0.963781
0.909895
0.859531
0.811035
0.766763
0.72312
0.684186
0.644908
0.610655
0.575306
0.545158
0.513342
0.486796
0.458158
0.434774
0.408992
0.388383
0.365168
0.346996
0.326087
0.310053
0.291216
0.27706
0.260083
0.247574
0.232268
0.221204
0.207398
0.197601
0.185141
0.176455
0.165202
0.15749
0.147321
0.140461
0.131263
0.125149
0.116821
0.111359
0.103811
0.0989168
0.0920664
0.0876672
0.0814409
0.0774713
0.0718027
0.068205
0.0630338
0.0597567
0.0550287
0.0520262
0.0476921
0.0449233
0.0409385
0.0383666
0.0346901
0.0322819
0.0288767
0.0266021
0.0234339
0.0212655
0.0183028
0.0162155
0.0134291
0.0113994
0.00876286
0.00676882
0.00426163
0.00227814
-0.00018431
-0.0475614
0.62783
1.24174
1.80289
2.29649
2.70923
3.03299
3.26508
3.40781
3.46781
3.45509
3.38191
3.26158
3.10724
2.93083
2.74243
2.55003
2.35955
2.17513
1.99941
1.83394
1.67942
1.53602
1.40353
1.28153
1.16945
1.06666
0.972517
0.886381
0.807628
0.735667
0.669939
0.609921
0.555128
0.505106
0.459439
0.417741
0.379655
0.344857
0.313044
0.283943
0.257301
0.232886
0.210488
0.189912
0.170981
0.153533
0.137419
0.122504
0.108662
0.0957798
0.0837508
0.0724781
0.0618722
0.0518498
0.0423339
0.0332523
0.0245377
0.0161264
0.00795919
-9.47818e-07
0.0344719
0.159528
0.308004
0.456703
0.602543
0.750235
0.889167
1.03014
1.15972
1.29082
1.40911
1.52748
1.63284
1.73595
1.82698
1.91279
1.98837
2.05552
2.11485
2.1628
2.2055
2.23461
2.26084
2.27233
2.2828
2.27855
2.27461
2.2569
2.24034
2.21166
2.18457
2.14736
2.11193
2.06844
2.02678
1.979
1.933
1.88261
1.8339
1.78226
1.73218
1.68037
1.62998
1.57882
1.52895
1.47904
1.43031
1.38207
1.33492
1.28867
1.2434
1.19932
1.15613
1.11431
1.07332
1.03382
0.995065
0.957885
0.921374
0.88647
0.852172
0.819481
0.787337
0.756779
0.726713
0.698194
0.670117
0.643536
0.617352
0.592604
0.568211
0.545188
0.522482
0.501078
0.479956
0.460063
0.440422
0.421939
0.403678
0.386504
0.369527
0.353567
0.33778
0.322941
0.308255
0.294451
0.28078
0.267928
0.255192
0.243214
0.231336
0.220159
0.209067
0.19862
0.188246
0.178465
0.168746
0.159569
0.150444
0.141815
0.133227
0.12509
0.116987
0.109293
0.101624
0.0943245
0.0870432
0.0800936
0.0731556
0.0665134
0.0598769
0.0535023
0.0471279
0.040983
0.0348331
0.0288822
0.0229215
0.0171305
0.0113236
0.00565858
-7.80937e-05
0.00944068
0.204157
0.401977
0.594555
0.777965
0.949229
1.10579
1.24553
1.36682
1.4686
1.55031
1.61197
1.65409
1.67764
1.684
1.67487
1.65218
1.61796
1.57427
1.52307
1.46618
1.40522
1.3416
1.27651
1.21094
1.14569
1.08139
1.01853
0.957486
0.898518
0.841816
0.787497
0.735626
0.686224
0.639278
0.594748
0.552573
0.512677
0.474972
0.439362
0.405746
0.374019
0.344075
0.315807
0.289109
0.263878
0.240013
0.217413
0.195985
0.175635
0.156275
0.137819
0.120185
0.103295
0.0870747
0.071451
0.0563555
0.0417223
0.0274882
0.0135936
1.38398e-05
-0.00430168
0.0684958
0.138791
0.208028
0.27745
0.344189
0.411598
0.475233
0.539768
0.599689
0.660459
0.716116
0.772335
0.823293
0.874332
0.920267
0.965677
1.00635
1.04587
1.08112
1.11466
1.14437
1.17199
1.19609
1.21793
1.23645
1.25273
1.26575
1.27676
1.28448
1.2905
1.29324
1.29462
1.29276
1.28988
1.28388
1.27715
1.26749
1.25736
1.24454
1.23147
1.216
1.20043
1.18278
1.16517
1.14578
1.12653
1.10582
1.08531
1.06364
1.04222
1.01991
0.997872
0.975197
0.952816
0.930011
0.907512
0.884774
0.862347
0.839841
0.817644
0.795502
0.773664
0.751993
0.730618
0.709499
0.688668
0.668165
0.647938
0.628096
0.608517
0.589366
0.570464
0.552022
0.533815
0.51609
0.498585
0.481574
0.46477
0.448465
0.432353
0.41674
0.401306
0.386365
0.37159
0.357299
0.343161
0.329494
0.315967
0.302896
0.289953
0.277448
0.26506
0.253091
0.241227
0.229762
0.218392
0.207401
0.196494
0.185943
0.175467
0.165326
0.155251
0.145488
0.135783
0.126368
0.117002
0.107905
0.0988495
0.090041
0.0812665
0.0727181
0.0641967
0.0558809
0.0475853
0.0394753
0.0313791
0.0234493
0.0155253
0.00774912
-7.56959e-05
-0.00339236
0.100862
0.201391
0.299191
0.393542
0.483451
0.568042
0.646565
0.718403
0.783085
0.840277
0.889785
0.931541
0.965595
0.992103
1.01132
1.02357
1.02927
1.02887
1.0229
1.01189
0.996393
0.976971
0.954174
0.928529
0.900537
0.870662
0.839327
0.806915
0.773767
0.740182
0.706419
0.672703
0.639221
0.60613
0.57356
0.541614
0.510375
0.479904
0.450245
0.421429
0.393473
0.366382
0.340153
0.314775
0.29023
0.266495
0.243542
0.22134
0.199855
0.179051
0.15889
0.139334
0.120344
0.10188
0.083903
0.0663735
0.0492534
0.0325052
0.0160932
2.88313e-06
0.00253484
0.0376399
0.0746047
0.111273
0.147814
0.184165
0.219914
0.255347
0.290013
0.324198
0.357504
0.390115
0.421812
0.452554
0.482418
0.511035
0.538866
0.565152
0.590771
0.614571
0.637826
0.659042
0.679811
0.698396
0.716596
0.732545
0.748135
0.761477
0.774457
0.785247
0.795658
0.803969
0.811884
0.817807
0.823329
0.826971
0.83022
0.831706
0.832819
0.832285
0.83141
0.829003
0.826296
0.822174
0.817796
0.812119
0.806234
0.799166
0.791935
0.783639
0.775222
0.765858
0.75641
0.746128
0.735798
0.724745
0.713672
0.701982
0.690299
0.678097
0.665925
0.653326
0.640775
0.627883
0.615053
0.601961
0.588942
0.575732
0.562604
0.549349
0.536182
0.522943
0.509799
0.496631
0.483561
0.47051
0.457557
0.444661
0.431864
0.419154
0.406543
0.394044
0.381642
0.369374
0.3572
0.345178
0.333247
0.32148
0.309801
0.298297
0.286876
0.275637
0.264477
0.253503
0.242603
0.231893
0.221252
0.2108
0.200412
0.190213
0.180073
0.170118
0.160217
0.150498
0.140829
0.131336
0.121887
0.11261
0.103372
0.0942992
0.0852611
0.0763815
0.067532
0.0588342
0.0501619
0.0416345
0.0331283
0.0247603
0.0164075
0.00818649
-4.61369e-05
0.000305875
0.0569609
0.113281
0.168772
0.22291
0.275268
0.325459
0.373128
0.417958
0.459677
0.498061
0.532931
0.564161
0.591671
0.615431
0.635453
0.65179
0.664529
0.673788
0.679714
0.682472
0.682247
0.679237
0.673649
0.665695
0.655591
0.643552
0.629787
0.614503
0.597894
0.580149
0.561442
0.541938
0.521788
0.50113
0.48009
0.458781
0.437305
0.41575
0.394195
0.372709
0.351349
0.330165
0.309198
0.288482
0.268046
0.247908
0.228087
0.208592
0.189431
0.170606
0.152119
0.133967
0.116145
0.0986471
0.0814656
0.0645918
0.0480164
0.0317296
0.0157221
-9.09735e-06
0.000106404
0.0218211
0.0436127
0.0653267
0.087022
0.108415
0.129799
0.150732
0.171656
0.192002
0.212315
0.231948
0.251512
0.270316
0.289003
0.306875
0.324573
0.341416
0.35803
0.373761
0.389211
0.403754
0.41798
0.431273
0.444226
0.456219
0.467866
0.478526
0.488846
0.498154
0.507136
0.51509
0.522736
0.529347
0.535671
0.540962
0.545988
0.549995
0.553755
0.556522
0.55906
0.560636
0.562003
0.562445
0.562697
0.562068
0.561265
0.55963
0.557839
0.555265
0.552553
0.549111
0.545547
0.541307
0.536961
0.531993
0.526935
0.521308
0.515607
0.509388
0.503111
0.496367
0.489578
0.482372
0.475132
0.467524
0.459893
0.451939
0.443973
0.435726
0.427476
0.418986
0.410501
0.401813
0.393136
0.384292
0.375466
0.366504
0.357565
0.34852
0.339501
0.330404
0.321336
0.312213
0.303123
0.294
0.284911
0.275809
0.266743
0.25768
0.248654
0.239648
0.230678
0.221741
0.21284
0.203985
0.195165
0.1864
0.17767
0.169005
0.160372
0.151812
0.143284
0.134834
0.126415
0.11808
0.109774
0.101556
0.0933658
0.0852678
0.0771951
0.0692184
0.0612651
0.0534106
0.0455778
0.0378463
0.0301346
0.0225268
0.014936
0.00745133
-1.79134e-05
-0.000271709
0.0344279
0.0687118
0.102522
0.135687
0.168007
0.199291
0.229361
0.258055
0.285225
0.310744
0.334501
0.356405
0.376384
0.394383
0.410369
0.424324
0.43625
0.446161
0.454092
0.460086
0.464201
0.466504
0.467073
0.465991
0.463346
0.459234
0.45375
0.446992
0.439059
0.430048
0.420057
0.409179
0.397506
0.385125
0.372121
0.358573
0.344555
0.330138
0.315387
0.300363
0.285122
0.269714
0.254187
0.238583
0.222939
0.207291
0.191668
0.176099
0.160607
0.145214
0.129939
0.114799
0.0998076
0.0849788
0.0703237
0.0558527
0.0415751
0.0274995
0.0136342
-1.66836e-05
0.000280186
0.0136032
0.0271463
0.0406095
0.0540659
0.0674214
0.0807117
0.0938535
0.106908
0.119764
0.132513
0.145012
0.157392
0.169467
0.181415
0.193004
0.204462
0.215509
0.226423
0.236878
0.247199
0.257019
0.266703
0.275851
0.284861
0.293306
0.301611
0.30933
0.316904
0.323879
0.330704
0.336922
0.342988
0.348442
0.353742
0.35843
0.362965
0.36689
0.370665
0.373837
0.376861
0.379292
0.381581
0.383289
0.38486
0.385866
0.386742
0.38707
0.387277
0.386954
0.386518
0.385575
0.384526
0.382993
0.381362
0.379272
0.377093
0.37448
0.371786
0.368684
0.365509
0.361952
0.358331
0.354354
0.35032
0.345957
0.341544
0.336828
0.332069
0.327034
0.321961
0.316637
0.311282
0.3057
0.300093
0.294281
0.28845
0.282438
0.27641
0.270223
0.264025
0.257688
0.251343
0.244879
0.238412
0.231843
0.225274
0.21862
0.21197
0.205251
0.198537
0.19177
0.18501
0.178212
0.171422
0.164607
0.157802
0.150983
0.144177
0.137368
0.130572
0.123785
0.117012
0.110257
0.103516
0.096803
0.0901047
0.0834431
0.0767965
0.0701947
0.063608
0.0570739
0.0505552
0.0440963
0.0376529
0.0312763
0.0249153
0.018628
0.0123558
0.00616381
6.33064e-07
-5.1803e-05
0.0217763
0.0434339
0.0648709
0.0859751
0.10664
0.126763
0.146248
0.165005
0.182949
0.200005
0.216103
0.231183
0.245194
0.258093
0.269846
0.280427
0.289821
0.298017
0.305016
0.310823
0.315453
0.318924
0.321262
0.322498
0.322667
0.321809
0.319965
0.317181
0.313505
0.308984
0.303671
0.297614
0.290866
0.283477
0.275496
0.266975
0.257959
0.248497
0.238634
0.228413
0.217875
0.207062
0.196011
0.184758
0.173338
0.161782
0.150121
0.138383
0.126596
0.114785
0.102974
0.0911847
0.0794387
0.067756
0.0561554
0.044655
0.0332719
0.0220227
0.0109235
-1.85956e-05
0.000107978
0.00870497
0.0173792
0.0260288
0.0346722
0.0432489
0.0518067
0.0602636
0.0686958
0.0769952
0.0852622
0.0933666
0.10143
0.109304
0.117128
0.124738
0.132289
0.139602
0.146848
0.153835
0.160747
0.167381
0.173934
0.18019
0.186359
0.192216
0.197982
0.203421
0.208765
0.21377
0.218679
0.223236
0.227697
0.231799
0.235804
0.239442
0.242984
0.246156
0.249233
0.251938
0.254548
0.256787
0.258933
0.260711
0.262397
0.263719
0.264952
0.265827
0.266616
0.267054
0.26741
0.267422
0.267357
0.266958
0.266484
0.265689
0.264822
0.263646
0.262403
0.260862
0.25926
0.257373
0.255428
0.253213
0.250944
0.248419
0.245844
0.243029
0.240167
0.23708
0.233951
0.23061
0.227232
0.223657
0.220049
0.216259
0.212439
0.208452
0.204438
0.200271
0.196082
0.191754
0.187405
0.182932
0.178442
0.173841
0.169226
0.164512
0.159787
0.154976
0.150157
0.145264
0.140364
0.135402
0.130437
0.125421
0.120402
0.115344
0.110286
0.105199
0.100112
0.0950078
0.0899058
0.0847951
0.0796884
0.0745824
0.0694819
0.064391
0.0593069
0.0542413
0.0491835
0.0441527
0.0391309
0.0341443
0.0291677
0.0242341
0.0193118
0.0144402
0.00958056
0.0047793
9.34387e-06
-4.79844e-05
0.0140991
0.0281452
0.0420607
0.05579
0.069273
0.0824518
0.095271
0.107678
0.119622
0.131058
0.141942
0.152237
0.161908
0.170923
0.179258
0.186891
0.193804
0.199984
0.205423
0.210116
0.214061
0.217263
0.219727
0.221463
0.222485
0.222807
0.222448
0.221429
0.219771
0.217499
0.214639
0.211217
0.207261
0.2028
0.197863
0.192479
0.186678
0.180489
0.173941
0.167065
0.159889
0.15244
0.144747
0.136836
0.128735
0.120468
0.112061
0.103538
0.0949213
0.0862347
0.0774998
0.0687377
0.0599688
0.0512131
0.0424897
0.0338173
0.025214
0.0166974
0.00828459
-1.6972e-05
6.95525e-05
0.0056825
0.0113494
0.0169948
0.0226386
0.0282463
0.0338396
0.0393795
0.0448999
0.0503496
0.0557746
0.0611117
0.0664197
0.0716227
0.0767925
0.0818411
0.0868527
0.0917274
0.0965616
0.101244
0.105883
0.110357
0.114784
0.119033
0.123232
0.127243
0.131201
0.134961
0.138666
0.142163
0.145603
0.148828
0.151996
0.154941
0.157827
0.160486
0.163085
0.165452
0.167759
0.169832
0.171844
0.17362
0.175335
0.176814
0.178232
0.179415
0.180538
0.181426
0.182255
0.182853
0.183393
0.183704
0.183959
0.183989
0.183966
0.183722
0.183425
0.182915
0.182354
0.181585
0.180767
0.179749
0.178684
0.177425
0.176123
0.174634
0.173104
0.171396
0.169649
0.167733
0.16578
0.163666
0.161518
0.159218
0.156887
0.154413
0.15191
0.149273
0.14661
0.143822
0.14101
0.138084
0.135135
0.132081
0.129007
0.125836
0.122649
0.119374
0.116084
0.112716
0.109335
0.105885
0.102423
0.0989021
0.0953714
0.0917897
0.0882004
0.0845686
0.0809311
0.0772595
0.0735839
0.0698826
0.0661789
0.0624575
0.0587354
0.0550036
0.0512726
0.0475396
0.0438089
0.0400839
0.0363625
0.0326542
0.028951
0.0252682
0.0215917
0.0179428
0.0143015
0.0106947
0.00709688
0.00354028
1.16943e-05
-2.57612e-05
0.00925165
0.0184686
0.027611
0.0366439
0.0455316
0.0542398
0.062735
0.0709853
0.0789602
0.0866308
0.0939703
0.100954
0.107558
0.113763
0.119551
0.124904
0.129809
0.134256
0.138234
0.141738
0.144762
0.147305
0.149366
0.150947
0.152053
0.152688
0.152861
0.152581
0.151857
0.150702
0.149129
0.147152
0.144787
0.142049
0.138956
0.135524
0.131773
0.127719
0.123383
0.118782
0.113937
0.108865
0.103587
0.0981215
0.0924875
0.086704
0.0807896
0.0747627
0.0686417
0.0624443
0.0561883
0.0498909
0.0435692
0.0372398
0.0309191
0.0246231
0.0183674
0.0121675
0.00603832
-1.38516e-05
4.17357e-05
0.00373812
0.00746534
0.0111822
0.0148975
0.0185906
0.022276
0.0259281
0.0295698
0.0331674
0.0367519
0.0402817
0.0437954
0.0472444
0.0506745
0.0540301
0.0573642
0.0606146
0.0638408
0.0669745
0.0700815
0.0730878
0.0760652
0.0789339
0.0817718
0.0844937
0.0871829
0.0897496
0.0922818
0.0946855
0.0970533
0.0992871
0.101484
0.103542
0.105562
0.107439
0.109277
0.110969
0.112621
0.114124
0.115588
0.1169
0.118172
0.119291
0.120371
0.121297
0.122183
0.122915
0.123607
0.124147
0.124647
0.124995
0.125304
0.125463
0.125584
0.125556
0.125492
0.125281
0.125035
0.124645
0.124221
0.123657
0.12306
0.122327
0.121562
0.120666
0.119738
0.118684
0.1176
0.116395
0.115161
0.113811
0.112435
0.110947
0.109434
0.107816
0.106173
0.104432
0.102668
0.100811
0.0989334
0.0969684
0.0949843
0.0929191
0.0908364
0.088679
0.0865056
0.0842639
0.0820077
0.0796895
0.0773585
0.0749719
0.072574
0.0701268
0.0676699
0.0651701
0.062662
0.0601174
0.057566
0.0549844
0.0523975
0.0497865
0.0471716
0.044539
0.0419038
0.0392569
0.0366088
0.0339551
0.0313015
0.0286482
0.0259965
0.0233508
0.0207079
0.0180769
0.0154499
0.0128404
0.0102362
0.00765509
0.00508049
0.0025344
1.08554e-05
-1.62693e-05
0.00609425
0.0121685
0.0181966
0.0241581
0.030031
0.0357943
0.0414273
0.0469101
0.0522236
0.0573497
0.0622711
0.0669718
0.0714367
0.075652
0.0796052
0.083285
0.0866815
0.0897859
0.0925911
0.0950911
0.0972812
0.0991582
0.10072
0.101966
0.102897
0.103514
0.103821
0.10382
0.103518
0.10292
0.102033
0.100864
0.0994226
0.0977173
0.0957582
0.0935557
0.0911208
0.0884649
0.0855999
0.082538
0.0792917
0.0758738
0.0722973
0.0685752
0.0647209
0.0607477
0.0566688
0.0524977
0.0482476
0.0439319
0.0395636
0.035156
0.030722
0.0262743
0.0218256
0.0173884
0.0129749
0.0085972
0.00426711
-1.05376e-05
2.5797e-05
0.00245939
0.00491254
0.00735852
0.00980374
0.0122354
0.0146621
0.0170686
0.0194683
0.0218412
0.0242055
0.0265365
0.0288571
0.0311381
0.033407
0.0356301
0.0378395
0.0399972
0.0421396
0.0442246
0.0462929
0.0482983
0.0502856
0.0522051
0.054105
0.0559323
0.057739
0.0594686
0.0611764
0.0628031
0.0644069
0.065926
0.0674214
0.0688287
0.0702115
0.0715032
0.0727698
0.0739429
0.0750902
0.0761419
0.0771673
0.0780954
0.078997
0.0797998
0.0805759
0.0812523
0.0819019
0.0824513
0.0829738
0.0833959
0.0837913
0.0840865
0.0843551
0.0845241
0.0846668
0.0847108
0.0847289
0.0846495
0.0845447
0.084344
0.0841184
0.0837987
0.0834548
0.0830189
0.0825596
0.0820106
0.081439
0.0807804
0.0800999
0.0793354
0.0785499
0.0776835
0.0767969
0.0758328
0.0748496
0.0737923
0.0727168
0.0715709
0.0704079
0.0691783
0.0679327
0.0666244
0.0653011
0.0639192
0.0625234
0.0610733
0.0596103
0.0580972
0.0565723
0.0550017
0.0534205
0.0517978
0.0501657
0.0484966
0.0468192
0.0451091
0.0433919
0.0416466
0.0398952
0.0381201
0.0363401
0.0345409
0.0327379
0.0309201
0.0290996
0.0272688
0.0254364
0.023598
0.0217591
0.0199186
0.0180786
0.0162413
0.0144055
0.0125768
0.0107506
0.00893554
0.00712405
0.00532786
0.0035363
0.00176407
8.85003e-06
-1.04008e-05
0.00400065
0.00798864
0.0119482
0.0158663
0.0197293
0.0235241
0.0272377
0.0308576
0.0343716
0.0377683
0.0410366
0.044166
0.0471468
0.0499699
0.0526267
0.0551098
0.0574121
0.0595276
0.0614508
0.0631774
0.0647035
0.0660262
0.0671434
0.0680537
0.0687566
0.0692523
0.0695417
0.0696264
0.0695089
0.0691921
0.0686796
0.0679758
0.0670854
0.0660137
0.0647667
0.0633506
0.0617723
0.0600388
0.0581576
0.0561367
0.053984
0.0517081
0.0493176
0.0468211
0.0442278
0.0415467
0.0387871
0.0359582
0.0330693
0.03013
0.0271495
0.0241372
0.0211024
0.0180545
0.0150026
0.0119558
0.00892316
0.00591345
0.00293535
-7.631e-06
1.65943e-05
0.00160588
0.00320758
0.00480508
0.00640203
0.00799056
0.00957596
0.0111487
0.0127173
0.0142691
0.0158156
0.0173412
0.0188603
0.0203546
0.0218413
0.0232995
0.0247489
0.026166
0.0275733
0.0289448
0.0303055
0.0316269
0.0329367
0.0342039
0.0354586
0.0366677
0.0378634
0.0390107
0.0401438
0.0412258
0.0422929
0.0433065
0.0443046
0.0452469
0.0461732
0.0470417
0.0478936
0.0486861
0.0494615
0.0501759
0.0508729
0.0515077
0.0521248
0.0526785
0.0532143
0.053686
0.0541397
0.0545287
0.0548996
0.0552054
0.0554931
0.0557157
0.0559202
0.0560597
0.0561813
0.0562383
0.0562774
0.0562526
0.0562102
0.0561045
0.0559816
0.0557965
0.0555944
0.0553313
0.0550517
0.0547124
0.0543571
0.0539436
0.0535146
0.0530291
0.0525287
0.0519737
0.0514043
0.0507824
0.0501467
0.0494607
0.0487614
0.0480142
0.0472544
0.046449
0.0456318
0.0447716
0.0439002
0.0429884
0.0420663
0.0411064
0.0401369
0.0391325
0.0381192
0.0370739
0.0360205
0.034938
0.0338482
0.0327322
0.0316098
0.0304642
0.029313
0.0281416
0.0269654
0.0257721
0.0245748
0.0233634
0.0221489
0.0209234
0.0196955
0.0184597
0.0172224
0.0159802
0.0147372
0.0134925
0.0122478
0.0110043
0.00976157
0.00852305
0.00728615
0.00605634
0.00482891
0.00361146
0.00239724
0.00119584
6.74236e-06
-6.65893e-06
0.00259704
0.00518627
0.00775767
0.0103032
0.0128143
0.0152826
0.0177002
0.0200589
0.0223513
0.02457
0.0267078
0.0287582
0.0307148
0.0325716
0.0343231
0.0359643
0.0374905
0.0388976
0.0401819
0.0413401
0.0423696
0.043268
0.0440338
0.0446655
0.0451625
0.0455245
0.0457517
0.0458448
0.0458048
0.0456334
0.0453324
0.0449043
0.0443519
0.0436784
0.0428871
0.0419821
0.0409674
0.0398475
0.0386271
0.0373113
0.0359052
0.0344143
0.0328442
0.0312007
0.0294897
0.0277173
0.0258897
0.0240132
0.022094
0.0201386
0.0181533
0.0161447
0.0141192
0.0120831
0.0100429
0.00800483
0.00597523
0.00396026
0.00196596
-5.34011e-06
1.06082e-05
0.00103248
0.00206234
0.00308953
0.00411638
0.00513806
0.00615769
0.00716956
0.00817868
0.0091775
0.0101728
0.0111553
0.0121335
0.0130965
0.0140545
0.0149949
0.0159295
0.0168442
0.0177526
0.0186388
0.0195179
0.0203727
0.0212199
0.0220408
0.0228533
0.0236377
0.0244132
0.0251586
0.0258947
0.026599
0.0272935
0.0279547
0.0286056
0.0292217
0.0298271
0.0303965
0.0309549
0.031476
0.0319857
0.0324572
0.0329171
0.0333378
0.0337467
0.0341158
0.0344728
0.0347893
0.0350937
0.0353571
0.0356084
0.0358184
0.0360161
0.0361725
0.0363166
0.0364193
0.0365098
0.036559
0.0365961
0.0365922
0.0365763
0.0365198
0.0364514
0.0363431
0.036223
0.0360637
0.0358928
0.0356835
0.0354629
0.0352047
0.0349356
0.03463
0.0343138
0.0339621
0.0336003
0.0332042
0.0327983
0.0323596
0.0319114
0.0314318
0.0309433
0.0304248
0.0298978
0.0293425
0.0287792
0.0281891
0.0275916
0.0269691
0.0263396
0.0256869
0.0250278
0.0243473
0.0236609
0.0229551
0.0222439
0.0215151
0.0207816
0.0200324
0.0192791
0.0185121
0.0177415
0.0169593
0.0161741
0.0153792
0.0145819
0.013777
0.0129703
0.012158
0.0113444
0.0105273
0.00970957
0.00889027
0.00807087
0.00725196
0.00643352
0.00561755
0.00480262
0.00399213
0.00318323
0.00238068
0.00158039
0.000788334
4.94608e-06
-4.35247e-06
0.00165738
0.00330989
0.00495133
0.00657666
0.00818061
0.00975798
0.0113037
0.0128128
0.0142806
0.0157023
0.0170736
0.0183902
0.0196481
0.0208435
0.0219728
0.0230329
0.0240205
0.0249331
0.0257682
0.0265236
0.0271974
0.0277881
0.0282945
0.0287155
0.0290505
0.0292992
0.0294615
0.0295376
0.0295282
0.0294339
0.0292559
0.0289956
0.0286546
0.0282347
0.027738
0.027167
0.0265241
0.0258121
0.025034
0.0241928
0.023292
0.0223349
0.0213251
0.0202664
0.0191626
0.0180177
0.0168356
0.0156204
0.0143765
0.0131078
0.0118187
0.0105135
0.00919634
0.0078716
0.0065435
0.00521627
0.0038941
0.00258113
0.0012814
-3.62421e-06
7.2692e-06
0.000651947
0.00130207
0.00195062
0.00259892
0.00324414
0.00388796
0.00452714
0.00516444
0.00579559
0.00642433
0.00704541
0.00766357
0.00827261
0.00887822
0.00947329
0.0100644
0.0106437
0.0112185
0.01178
0.0123368
0.0128789
0.0134158
0.0139369
0.0144522
0.0149506
0.015443
0.0159172
0.016385
0.0168337
0.0172755
0.0176974
0.018112
0.0185058
0.0188921
0.0192566
0.0196134
0.0199478
0.0202742
0.0205776
0.0208727
0.0211442
0.0214074
0.0216464
0.0218769
0.0220829
0.0222803
0.0224529
0.0226168
0.0227556
0.0228858
0.0229907
0.0230869
0.0231578
0.02322
0.0232571
0.0232854
0.0232887
0.0232833
0.0232531
0.0232144
0.0231511
0.0230793
0.0229834
0.0228792
0.0227513
0.0226153
0.0224561
0.022289
0.0220992
0.0219018
0.0216825
0.0214557
0.0212076
0.0209525
0.0206769
0.0203944
0.0200923
0.0197836
0.0194563
0.0191228
0.0187715
0.0184143
0.0180404
0.017661
0.0172659
0.0168656
0.0164507
0.0160311
0.015598
0.0151605
0.0147107
0.0142569
0.013792
0.0133235
0.0128452
0.0123636
0.0118734
0.0113805
0.0108801
0.0103774
0.00986862
0.00935791
0.00884231
0.00832526
0.00780459
0.00728292
0.00675889
0.00623429
0.00570861
0.00518279
0.00465715
0.00413179
0.00360787
0.00308466
0.00256411
0.00204469
0.00152914
0.00101523
0.000506388
3.86921e-06
-3.30361e-06
0.00105001
0.00209711
0.00313729
0.00416745
0.00518432
0.00618467
0.00716533
0.00812322
0.00905534
0.0099588
0.0108308
0.0116687
0.0124699
0.013232
0.0139529
0.0146303
0.0152623
0.0158473
0.0163835
0.0168696
0.0173043
0.0176865
0.0180155
0.0182905
0.018511
0.0186768
0.0187877
0.0188437
0.0188452
0.0187926
0.0186865
0.0185276
0.018317
0.0180557
0.017745
0.0173863
0.0169812
0.0165315
0.0160389
0.0155054
0.0149331
0.0143242
0.0136809
0.0130057
0.0123009
0.0115691
0.0108129
0.0100349
0.00923778
0.00842434
0.00759729
0.00675942
0.00591351
0.00506234
0.00420871
0.00335537
0.00250509
0.00166058
0.00082447
-2.65373e-06
4.82102e-06
0.000417036
0.000832898
0.00124783
0.00166252
0.00207544
0.00248725
0.0028964
0.00330408
0.00370821
0.00411046
0.0045083
0.00490386
0.00529415
0.00568178
0.00606332
0.00644181
0.0068134
0.00718157
0.00754207
0.00789878
0.00824708
0.00859124
0.00892627
0.00925684
0.0095776
0.00989358
0.0101991
0.0104995
0.0107889
0.0110729
0.0113453
0.0116121
0.0118667
0.0121155
0.0123516
0.0125817
0.0127987
0.0130094
0.0132067
0.0133975
0.0135745
0.013745
0.0139014
0.014051
0.0141863
0.0143148
0.0144288
0.0145359
0.0146283
0.0147138
0.0147845
0.0148482
0.0148972
0.0149391
0.0149663
0.0149865
0.0149919
0.0149904
0.0149743
0.0149514
0.0149139
0.0148697
0.0148112
0.014746
0.0146668
0.014581
0.0144815
0.0143756
0.0142563
0.0141308
0.0139923
0.0138477
0.0136905
0.0135274
0.0133522
0.0131714
0.0129789
0.0127811
0.0125721
0.012358
0.0121333
0.0119037
0.0116642
0.0114201
0.0111666
0.0109088
0.0106423
0.0103719
0.0100933
0.00981111
0.00952153
0.00922861
0.00892901
0.00862641
0.00831786
0.00800664
0.0076902
0.00737144
0.0070482
0.006723
0.00639407
0.00606353
0.00573001
0.00539525
0.00505827
0.00472041
0.00438109
0.00404124
0.0037007
0.00335999
0.00301933
0.00267887
0.00233922
0.00200011
0.00166254
0.00132587
0.000991461
0.000658408
0.000328337
2.86825e-06
-1.85738e-06
0.00071776
0.00143336
0.00214435
0.00284864
0.003544
0.00422824
0.00489924
0.00555492
0.00619325
0.00681227
0.00741009
0.00798489
0.00853495
0.00905862
0.00955436
0.0100207
0.0104564
0.0108601
0.0112307
0.0115673
0.011869
0.0121349
0.0123646
0.0125574
0.012713
0.0128311
0.0129116
0.0129545
0.01296
0.0129282
0.0128596
0.0127546
0.0126139
0.0124381
0.0122282
0.0119849
0.0117095
0.011403
0.0110666
0.0107017
0.0103097
0.00989211
0.00945043
0.0089863
0.00850143
0.00799754
0.00747643
0.00693994
0.00638993
0.00582831
0.00525699
0.00467792
0.00409305
0.00350434
0.00291373
0.00232318
0.00173461
0.00114993
0.000570936
-1.66029e-06
7.39025e-06
0.000317248
0.000632503
0.000947193
0.0012618
0.00157537
0.00188777
0.00219862
0.00250786
0.00281503
0.00312014
0.00342269
0.00372273
0.00401971
0.00431375
0.00460425
0.00489138
0.00517451
0.00545385
0.00572873
0.00599944
0.00626524
0.00652648
0.0067824
0.00703339
0.00727866
0.00751865
0.00775253
0.0079808
0.00820261
0.0084185
0.00862758
0.00883045
0.00902621
0.00921548
0.00939736
0.00957251
0.00973999
0.00990052
0.0100532
0.0101986
0.010336
0.0104661
0.0105879
0.0107022
0.010808
0.0109063
0.010996
0.011078
0.0111514
0.011217
0.0112739
0.011323
0.0113633
0.0113958
0.0114196
0.0114355
0.0114427
0.0114422
0.0114329
0.0114159
0.0113904
0.0113572
0.0113155
0.0112662
0.0112087
0.0111437
0.0110705
0.0109901
0.0109017
0.0108063
0.010703
0.0105929
0.0104753
0.010351
0.0102195
0.0100816
0.00993664
0.00978559
0.00962785
0.00946427
0.00929432
0.00911884
0.00893734
0.00875061
0.00855823
0.00836095
0.0081584
0.0079513
0.00773932
0.00752314
0.00730249
0.00707802
0.00684949
0.00661752
0.00638192
0.00614326
0.00590141
0.00565691
0.00540965
0.00516014
0.00490834
0.00465468
0.00439919
0.00414225
0.00388393
0.00362458
0.00336432
0.00310343
0.00284208
0.00258052
0.00231896
0.0020576
0.0017967
0.0015364
0.00127701
0.00101862
0.0007616
0.000506052
0.00025232
5.14476e-06
-6.35826e-06
0.000677616
0.00135427
0.00202619
0.00269179
0.00334903
0.00399589
0.00463038
0.00525054
0.00585448
0.00644036
0.0070064
0.00755088
0.00807218
0.00856876
0.00903913
0.00948195
0.00989592
0.0102799
0.0106328
0.0109536
0.0112415
0.0114958
0.0117159
0.0119012
0.0120513
0.012166
0.0122451
0.0122887
0.0122967
0.0122694
0.0122071
0.0121102
0.0119793
0.011815
0.0116182
0.0113896
0.0111303
0.0108412
0.0105236
0.0101787
0.00980776
0.00941226
0.00899364
0.00855345
0.00809328
0.0076148
0.0071197
0.00660974
0.0060867
0.0055524
0.00500869
0.00445743
0.00390048
0.00333974
0.00277708
0.00221438
0.0016535
0.0010963
0.000544589
-3.87706e-06
-5.36107e-14
0.000379571
0.000758869
0.00113749
0.00151534
0.00189186
0.0022671
0.00264036
0.00301183
0.00338066
0.00374722
0.00411049
0.004471
0.0048276
0.00518095
0.00552978
0.0058749
0.00621488
0.00655071
0.00688082
0.00720633
0.00752557
0.00783978
0.00814717
0.00844914
0.00874377
0.00903259
0.00931359
0.0095884
0.00985493
0.0101149
0.0103662
0.0106106
0.0108459
0.0110741
0.0112928
0.011504
0.0117054
0.0118992
0.0120828
0.0122585
0.0124238
0.012581
0.0127276
0.012866
0.0129934
0.0131126
0.0132206
0.0133203
0.0134087
0.0134886
0.0135573
0.0136174
0.0136662
0.0137063
0.0137352
0.0137554
0.0137644
0.0137647
0.0137539
0.0137345
0.013704
0.0136651
0.0136152
0.013557
0.013488
0.0134109
0.0133231
0.0132273
0.0131212
0.0130073
0.0128833
0.0127517
0.0126103
0.0124616
0.0123035
0.0121383
0.011964
0.011783
0.0115933
0.011397
0.0111926
0.010982
0.0107636
0.0105394
0.0103078
0.0100708
0.00982699
0.0095781
0.00932288
0.00906299
0.00879728
0.00852732
0.00825209
0.00797303
0.00768925
0.00740207
0.00711073
0.00681643
0.00651856
0.00621817
0.00591479
0.00560934
0.00530149
0.00499203
0.00468076
0.00436834
0.00405471
0.00374038
0.00342545
0.00311026
0.00279507
0.00248008
0.00216567
0.00185192
0.00153932
0.00122784
0.000918082
0.000609873
0.000303947
3.3713e-14
SCALARS Radial_Distance double 1
LOOKUP_TABLE default
0
1
2
3
4
5
6
7
8
9
10
11
12
13
14
15
16
17
18
19
20
21
22
23
24
25
26
27
28
29
30
31
32
33
34
35
36
37
38
39
40
41
42
43
44
45
46
47
48
49
50
51
52
53
54
55
56
57
58
59
60
61
62
63
64
65
66
67
68
69
70
71
72
73
74
75
76
77
78
79
80
81
82
83
84
85
86
87
88
89
90
91
92
93
94
95
96
97
98
99
100
101
102
103
104
105
106
107
108
109
110
111
112
113
114
115
116
117
118
119
120
0
2
4
6
8
10
12
14
16
18
20
22
24
26
28
30
32
34
36
38
40
42
44
46
48
50
52
54
56
58
60
62
64
66
68
70
72
74
76
78
80
82
84
86
88
90
92
94
96
98
100
102
104
106
108
110
112
114
116
118
120
0
1
2
3
4
5
6
7
8
9
10
11
12
13
14
15
16
17
18
19
20
21
22
23
24
25
26
27
28
29
30
31
32
33
34
35
36
37
38
39
40
41
42
43
44
45
46
47
48
49
50
51
52
53
54
55
56
57
58
59
60
61
62
63
64
65
66
67
68
69
70
71
72
73
74
75
76
77
78
79
80
81
82
83
84
85
86
87
88
89
90
91
92
93
94
95
96
97
98
99
100
101
102
103
104
105
106
107
108
109
110
111
112
113
114
115
116
117
118
119
120
0
2
4
6
8
10
12
14
16
18
20
22
24
26
28
30
32
34
36
38
40
42
44
46
48
50
52
54
56
58
60
62
64
66
68
70
72
74
76
78
80
82
84
86
88
90
92
94
96
98
100
102
104
106
108
110
112
114
116
118
120
0
1
2
3
4
5
6
7
8
9
10
11
12
13
14
15
16
17
18
19
20
21
22
23
24
25
26
27
28
29
30
31
32
33
34
35
36
37
38
39
40
41
42
43
44
45
46
47
48
49
50
51
52
53
54
55
56
57
58
59
60
61
62
63
64
65
66
67
68
69
70
71
72
73
74
75
76
77
78
79
80
81
82
83
84
85
86
87
88
89
90
91
92
93
94
95
96
97
98
99
100
101
102
103
104
105
106
107
108
109
110
111
112
113
114
115
116
117
118
119
120
0
2
4
6
8
10
12
14
16
18
20
22
24
26
28
30
32
34
36
38
40
42
44
46
48
50
52
54
56
58
60
62
64
66
68
70
72
74
76
78
80
82
84
86
88
90
92
94
96
98
100
102
104
106
108
110
112
114
116
118
120
0
1
2
3
4
5
6
7
8
9
10
11
12
13
14
15
16
17
18
19
20
21
22
23
24
25
26
27
28
29
30
31
32
33
34
35
36
37
38
39
40
41
42
43
44
45
46
47
48
49
50
51
52
53
54
55
56
57
58
59
60
61
62
63
64
65
66
67
68
69
70
71
72
73
74
75
76
77
78
79
80
81
82
83
84
85
86
87
88
89
90
91
92
93
94
95
96
97
98
99
100
101
102
103
104
105
106
107
108
109
110
111
112
113
114
115
116
117
118
119
120
0
2
4
6
8
10
12
14
16
18
20
22
24
26
28
30
32
34
36
38
40
42
44
46
48
50
52
54
56
58
60
62
64
66
68
70
72
74
76
78
80
82
84
86
88
90
92
94
96
98
100
102
104
106
108
110
112
114
116
118
120
0
1
2
3
4
5
6
7
8
9
10
11
12
13
14
15
16
17
18
19
20
21
22
23
24
25
26
27
28
29
30
31
32
33
34
35
36
37
38
39
40
41
42
43
44
45
46
47
48
49
50
51
52
53
54
55
56
57
58
59
60
61
62
63
64
65
66
67
68
69
70
71
72
73
74
75
76
77
78
79
80
81
82
83
84
85
86
87
88
89
90
91
92
93
94
95
96
97
98
99
100
101
102
103
104
105
106
107
108
109
110
111
112
113
114
115
116
117
118
119
120
0
2
4
6
8
10
12
14
16
18
20
22
24
26
28
30
32
34
36
38
40
42
44
46
48
50
52
54
56
58
60
62
64
66
68
70
72
74
76
78
80
82
84
86
88
90
92
94
96
98
100
102
104
106
108
110
112
114
116
118
120
0
1
2
3
4
5
6
7
8
9
10
11
12
13
14
15
16
17
18
19
20
21
22
23
24
25
26
27
28
29
30
31
32
33
34
35
36
37
38
39
40
41
42
43
44
45
46
47
48
49
50
51
52
53
54
55
56
57
58
59
60
61
62
63
64
65
66
67
68
69
70
71
72
73
74
75
76
77
78
79
80
81
82
83
84
85
86
87
88
89
90
91
92
93
94
95
96
97
98
99
100
101
102
103
104
105
106
107
108
109
110
111
112
113
114
115
116
117
118
119
120
0
2
4
6
8
10
12
14
16
18
20
22
24
26
28
30
32
34
36
38
40
42
44
46
48
50
52
54
56
58
60
62
64
66
68
70
72
74
76
78
80
82
84
86
88
90
92
94
96
98
100
102
104
106
108
110
112
114
116
118
120
0
1
2
3
4
5
6
7
8
9
10
11
12
13
14
15
16
17
18
19
20
21
22
23
24
25
26
27
28
29
30
31
32
33
34
35
36
37
38
39
40
41
42
43
44
45
46
47
48
49
50
51
52
53
54
55
56
57
58
59
60
61
62
63
64
65
66
67
68
69
70
71
72
73
74
75
76
77
78
79
80
81
82
83
84
85
86
87
88
89
90
91
92
93
94
95
96
97
98
99
100
101
102
103
104
105
106
107
108
109
110
111
112
113
114
115
116
117
118
119
120
0
2
4
6
8
10
12
14
16
18
20
22
24
26
28
30
32
34
36
38
40
42
44
46
48
50
52
54
56
58
60
62
64
66
68
70
72
74
76
78
80
82
84
86
88
90
92
94
96
98
100
102
104
106
108
110
112
114
116
118
120
0
1
2
3
4
5
6
7
8
9
10
11
12
13
14
15
16
17
18
19
20
21
22
23
24
25
26
27
28
29
30
31
32
33
34
35
36
37
38
39
40
41
42
43
44
45
46
47
48
49
50
51
52
53
54
55
56
57
58
59
60
61
62
63
64
65
66
67
68
69
70
71
72
73
74
75
76
77
78
79
80
81
82
83
84
85
86
87
88
89
90
91
92
93
94
95
96
97
98
99
100
101
102
103
104
105
106
107
108
109
110
111
112
113
114
115
116
117
118
119
120
0
2
4
6
8
10
12
14
16
18
20
22
24
26
28
30
32
34
36
38
40
42
44
46
48
50
52
54
56
58
60
62
64
66
68
70
72
74
76
78
80
82
84
86
88
90
92
94
96
98
100
102
104
106
108
110
112
114
116
118
120
0
1
2
3
4
5
6
7
8
9
10
11
12
13
14
15
16
17
18
19
20
21
22
23
24
25
26
27
28
29
30
31
32
33
34
35
36
37
38
39
40
41
42
43
44
45
46
47
48
49
50
51
52
53
54
55
56
57
58
59
60
61
62
63
64
65
66
67
68
69
70
71
72
73
74
75
76
77
78
79
80
81
82
83
84
85
86
87
88
89
90
91
92
93
94
95
96
97
98
99
100
101
102
103
104
105
106
107
108
109
110
111
112
113
114
115
116
117
118
119
120
0
2
4
6
8
10
12
14
16
18
20
22
24
26
28
30
32
34
36
38
40
42
44
46
48
50
52
54
56
58
60
62
64
66
68
70
72
74
76
78
80
82
84
86
88
90
92
94
96
98
100
102
104
106
108
110
112
114
116
118
120
0
1
2
3
4
5
6
7
8
9
10
11
12
13
14
15
16
17
18
19
20
21
22
23
24
25
26
27
28
29
30
31
32
33
34
35
36
37
38
39
40
41
42
43
44
45
46
47
48
49
50
51
52
53
54
55
56
57
58
59
60
61
62
63
64
65
66
67
68
69
70
71
72
73
74
75
76
77
78
79
80
81
82
83
84
85
86
87
88
89
90
91
92
93
94
95
96
97
98
99
100
101
102
103
104
105
106
107
108
109
110
111
112
113
114
115
116
117
118
119
120
0
2
4
6
8
10
12
14
16
18
20
22
24
26
28
30
32
34
36
38
40
42
44
46
48
50
52
54
56
58
60
62
64
66
68
70
72
74
76
78
80
82
84
86
88
90
92
94
96
98
100
102
104
106
108
110
112
114
116
118
120
0
1
2
3
4
5
6
7
8
9
10
11
12
13
14
15
16
17
18
19
20
21
22
23
24
25
26
27
28
29
30
31
32
33
34
35
36
37
38
39
40
41
42
43
44
45
46
47
48
49
50
51
52
53
54
55
56
57
58
59
60
61
62
63
64
65
66
67
68
69
70
71
72
73
74
75
76
77
78
79
80
81
82
83
84
85
86
87
88
89
90
91
92
93
94
95
96
97
98
99
100
101
102
103
104
105
106
107
108
109
110
111
112
113
114
115
116
117
118
119
120
0
2
4
6
8
10
12
14
16
18
20
22
24
26
28
30
32
34
36
38
40
42
44
46
48
50
52
54
56
58
60
62
64
66
68
70
72
74
76
78
80
82
84
86
88
90
92
94
96
98
100
102
104
106
108
110
112
114
116
118
120
0
1
2
3
4
5
6
7
8
9
10
11
12
13
14
15
16
17
18
19
20
21
22
23
24
25
26
27
28
29
30
31
32
33
34
35
36
37
38
39
40
41
42
43
44
45
46
47
48
49
50
51
52
53
54
55
56
57
58
59
60
61
62
63
64
65
66
67
68
69
70
71
72
73
74
75
76
77
78
79
80
81
82
83
84
85
86
87
88
89
90
91
92
93
94
95
96
97
98
99
100
101
102
103
104
105
106
107
108
109
110
111
112
113
114
115
116
117
118
119
120
0
2
4
6
8
10
12
14
16
18
20
22
24
26
28
30
32
34
36
38
40
42
44
46
48
50
52
54
56
58
60
62
64
66
68
70
72
74
76
78
80
82
84
86
88
90
92
94
96
98
100
102
104
106
108
110
112
114
116
118
120
0
1
2
3
4
5
6
7
8
9
10
11
12
13
14
15
16
17
18
19
20
21
22
23
24
25
26
27
28
29
30
31
32
33
34
35
36
37
38
39
40
41
42
43
44
45
46
47
48
49
50
51
52
53
54
55
56
57
58
59
60
61
62
63
64
65
66
67
68
69
70
71
72
73
74
75
76
77
78
79
80
81
82
83
84
85
86
87
88
89
90
91
92
93
94
95
96
97
98
99
100
101
102
103
104
105
106
107
108
109
110
111
112
113
114
115
116
117
118
119
120
0
2
4
6
8
10
12
14
16
18
20
22
24
26
28
30
32
34
36
38
40
42
44
46
48
50
52
54
56
58
60
62
64
66
68
70
72
74
76
78
80
82
84
86
88
90
92
94
96
98
100
102
104
106
108
110
112
114
116
118
120
0
1
2
3
4
5
6
7
8
9
10
11
12
13
14
15
16
17
18
19
20
21
22
23
24
25
26
27
28
29
30
31
32
33
34
35
36
37
38
39
40
41
42
43
44
45
46
47
48
49
50
51
52
53
54
55
56
57
58
59
60
61
62
63
64
65
66
67
68
69
70
71
72
73
74
75
76
77
78
79
80
81
82
83
84
85
86
87
88
89
90
91
92
93
94
95
96
97
98
99
100
101
102
103
104
105
106
107
108
109
110
111
112
113
114
115
116
117
118
119
120
0
2
4
6
8
10
12
14
16
18
20
22
24
26
28
30
32
34
36
38
40
42
44
46
48
50
52
54
56
58
60
62
64
66
68
70
72
74
76
78
80
82
84
86
88
90
92
94
96
98
100
102
104
106
108
110
112
114
116
118
120
0
1
2
3
4
5
6
7
8
9
10
11
12
13
14
15
16
17
18
19
20
21
22
23
24
25
26
27
28
29
30
31
32
33
34
35
36
37
38
39
40
41
42
43
44
45
46
47
48
49
50
51
52
53
54
55
56
57
58
59
60
61
62
63
64
65
66
67
68
69
70
71
72
73
74
75
76
77
78
79
80
81
82
83
84
85
86
87
88
89
90
91
92
93
94
95
96
97
98
99
100
101
102
103
104
105
106
107
108
109
110
111
112
113
114
115
116
117
118
119
120
0
2
4
6
8
10
12
14
16
18
20
22
24
26
28
30
32
34
36
38
40
42
44
46
48
50
52
54
56
58
60
62
64
66
68
70
72
74
76
78
80
82
84
86
88
90
92
94
96
98
100
102
104
106
108
110
112
114
116
118
120
0
1
2
3
4
5
6
7
8
9
10
11
12
13
14
15
16
17
18
19
20
21
22
23
24
25
26
27
28
29
30
31
32
33
34
35
36
37
38
39
40
41
42
43
44
45
46
47
48
49
50
51
52
53
54
55
56
57
58
59
60
61
62
63
64
65
66
67
68
69
70
71
72
73
74
75
76
77
78
79
80
81
82
83
84
85
86
87
88
89
90
91
92
93
94
95
96
97
98
99
100
101
102
103
104
105
106
107
108
109
110
111
112
113
114
115
116
117
118
119
120
0
2
4
6
8
10
12
14
16
18
20
22
24
26
28
30
32
34
36
38
40
42
44
46
48
50
52
54
56
58
60
62
64
66
68
70
72
74
76
78
80
82
84
86
88
90
92
94
96
98
100
102
104
106
108
110
112
114
116
118
120
0
1
2
3
4
5
6
7
8
9
10
11
12
13
14
15
16
17
18
19
20
21
22
23
24
25
26
27
28
29
30
31
32
33
34
35
36
37
38
39
40
41
42
43
44
45
46
47
48
49
50
51
52
53
54
55
56
57
58
59
60
61
62
63
64
65
66
67
68
69
70
71
72
73
74
75
76
77
78
79
80
81
82
83
84
85
86
87
88
89
90
91
92
93
94
95
96
97
98
99
100
101
102
103
104
105
106
107
108
109
110
111
112
113
114
115
116
117
118
119
120
0
2
4
6
8
10
12
14
16
18
20
22
24
26
28
30
32
34
36
38
40
42
44
46
48
50
52
54
56
58
60
62
64
66
68
70
72
74
76
78
80
82
84
86
88
90
92
94
96
98
100
102
104
106
108
110
112
114
116
118
120
0
1
2
3
4
5
6
7
8
9
10
11
12
13
14
15
16
17
18
19
20
21
22
23
24
25
26
27
28
29
30
31
32
33
34
35
36
37
38
39
40
41
42
43
44
45
46
47
48
49
50
51
52
53
54
55
56
57
58
59
60
61
62
63
64
65
66
67
68
69
70
71
72
73
74
75
76
77
78
79
80
81
82
83
84
85
86
87
88
89
90
91
92
93
94
95
96
97
98
99
100
101
102
103
104
105
106
107
108
109
110
111
112
113
114
115
116
117
118
119
120
0
2
4
6
8
10
12
14
16
18
20
22
24
26
28
30
32
34
36
38
40
42
44
46
48
50
52
54
56
58
60
62
64
66
68
70
72
74
76
78
80
82
84
86
88
90
92
94
96
98
100
102
104
106
108
110
112
114
116
118
120
0
1
2
3
4
5
6
7
8
9
10
11
12
13
14
15
16
17
18
19
20
21
22
23
24
25
26
27
28
29
30
31
32
33
34
35
36
37
38
39
40
41
42
43
44
45
46
47
48
49
50
51
52
53
54
55
56
57
58
59
60
61
62
63
64
65
66
67
68
69
70
71
72
73
74
75
76
77
78
79
80
81
82
83
84
85
86
87
88
89
90
91
92
93
94
95
96
97
98
99
100
101
102
103
104
105
106
107
108
109
110
111
112
113
114
115
116
117
118
119
120
0
2
4
6
8
10
12
14
16
18
20
22
24
26
28
30
32
34
36
38
40
42
44
46
48
50
52
54
56
58
60
62
64
66
68
70
72
74
76
78
80
82
84
86
88
90
92
94
96
98
100
102
104
106
108
110
112
114
116
118
120
0
1
2
3
4
5
6
7
8
9
10
11
12
13
14
15
16
17
18
19
20
21
22
23
24
25
26
27
28
29
30
31
32
33
34
35
36
37
38
39
40
41
42
43
44
45
46
47
48
49
50
51
52
53
54
55
56
57
58
59
60
61
62
63
64
65
66
67
68
69
70
71
72
73
74
75
76
77
78
79
80
81
82
83
84
85
86
87
88
89
90
91
92
93
94
95
96
97
98
99
100
101
102
103
104
105
106
107
108
109
110
111
112
113
114
115
116
117
118
119
120
0
2
4
6
8
10
12
14
16
18
20
22
24
26
28
30
32
34
36
38
40
42
44
46
48
50
52
54
56
58
60
62
64
66
68
70
72
74
76
78
80
82
84
86
88
90
92
94
96
98
100
102
104
106
108
110
112
114
116
118
120
0
1
2
3
4
5
6
7
8
9
10
11
12
13
14
15
16
17
18
19
20
21
22
23
24
25
26
27
28
29
30
31
32
33
34
35
36
37
38
39
40
41
42
43
44
45
46
47
48
49
50
51
52
53
54
55
56
57
58
59
60
61
62
63
64
65
66
67
68
69
70
71
72
73
74
75
76
77
78
79
80
81
82
83
84
85
86
87
88
89
90
91
92
93
94
95
96
97
98
99
100
101
102
103
104
105
106
107
108
109
110
111
112
113
114
115
116
117
118
119
120
0
2
4
6
8
10
12
14
16
18
20
22
24
26
28
30
32
34
36
38
40
42
44
46
48
50
52
54
56
58
60
62
64
66
68
70
72
74
76
78
80
82
84
86
88
90
92
94
96
98
100
102
104
106
108
110
112
114
116
118
120
0
1
2
3
4
5
6
7
8
9
10
11
12
13
14
15
16
17
18
19
20
21
22
23
24
25
26
27
28
29
30
31
32
33
34
35
36
37
38
39
40
41
42
43
44
45
46
47
48
49
50
51
52
53
54
55
56
57
58
59
60
61
62
63
64
65
66
67
68
69
70
71
72
73
74
75
76
77
78
79
80
81
82
83
84
85
86
87
88
89
90
91
92
93
94
95
96
97
98
99
100
101
102
103
104
105
106
107
108
109
110
111
112
113
114
115
116
117
118
119
120
0
2
4
6
8
10
12
14
16
18
20
22
24
26
28
30
32
34
36
38
40
42
44
46
48
50
52
54
56
58
60
62
64
66
68
70
72
74
76
78
80
82
84
86
88
90
92
94
96
98
100
102
104
106
108
110
112
114
116
118
120
0
1
2
3
4
5
6
7
8
9
10
11
12
13
14
15
16
17
18
19
20
21
22
23
24
25
26
27
28
29
30
31
32
33
34
35
36
37
38
39
40
41
42
43
44
45
46
47
48
49
50
51
52
53
54
55
56
57
58
59
60
61
62
63
64
65
66
67
68
69
70
71
72
73
74
75
76
77
78
79
80
81
82
83
84
85
86
87
88
89
90
91
92
93
94
95
96
97
98
99
100
101
102
103
104
105
106
107
108
109
110
111
112
113
114
115
116
117
118
119
120
0
2
4
6
8
10
12
14
16
18
20
22
24
26
28
30
32
34
36
38
40
42
44
46
48
50
52
54
56
58
60
62
64
66
68
70
72
74
76
78
80
82
84
86
88
90
92
94
96
98
100
102
104
106
108
110
112
114
116
118
120
0
1
2
3
4
5
6
7
8
9
10
11
12
13
14
15
16
17
18
19
20
21
22
23
24
25
26
27
28
29
30
31
32
33
34
35
36
37
38
39
40
41
42
43
44
45
46
47
48
49
50
51
52
53
54
55
56
57
58
59
60
61
62
63
64
65
66
67
68
69
70
71
72
73
74
75
76
77
78
79
80
81
82
83
84
85
86
87
88
89
90
91
92
93
94
95
96
97
98
99
100
101
102
103
104
105
106
107
108
109
110
111
112
113
114
115
116
117
118
119
120
0
2
4
6
8
10
12
14
16
18
20
22
24
26
28
30
32
34
36
38
40
42
44
46
48
50
52
54
56
58
60
62
64
66
68
70
72
74
76
78
80
82
84
86
88
90
92
94
96
98
100
102
104
106
108
110
112
114
116
118
120
0
1
2
3
4
5
6
7
8
9
10
11
12
13
14
15
16
17
18
19
20
21
22
23
24
25
26
27
28
29
30
31
32
33
34
35
36
37
38
39
40
41
42
43
44
45
46
47
48
49
50
51
52
53
54
55
56
57
58
59
60
61
62
63
64
65
66
67
68
69
70
71
72
73
74
75
76
77
78
79
80
81
82
83
84
85
86
87
88
89
90
91
92
93
94
95
96
97
98
99
100
101
102
103
104
105
106
107
108
109
110
111
112
113
114
115
116
117
118
119
120
0
2
4
6
8
10
12
14
16
18
20
22
24
26
28
30
32
34
36
38
40
42
44
46
48
50
52
54
56
58
60
62
64
66
68
70
72
74
76
78
80
82
84
86
88
90
92
94
96
98
100
102
104
106
108
110
112
114
116
118
120
0
1
2
3
4
5
6
7
8
9
10
11
12
13
14
15
16
17
18
19
20
21
22
23
24
25
26
27
28
29
30
31
32
33
34
35
36
37
38
39
40
41
42
43
44
45
46
47
48
49
50
51
52
53
54
55
56
57
58
59
60
61
62
63
64
65
66
67
68
69
70
71
72
73
74
75
76
77
78
79
80
81
82
83
84
85
86
87
88
89
90
91
92
93
94
95
96
97
98
99
100
101
102
103
104
105
106
107
108
109
110
111
112
113
114
115
116
117
118
119
120
0
2
4
6
8
10
12
14
16
18
20
22
24
26
28
30
32
34
36
38
40
42
44
46
48
50
52
54
56
58
60
62
64
66
68
70
72
74
76
78
80
82
84
86
88
90
92
94
96
98
100
102
104
106
108
110
112
114
116
118
120
0
1
2
3
4
5
6
7
8
9
10
11
12
13
14
15
16
17
18
19
20
21
22
23
24
25
26
27
28
29
30
31
32
33
34
35
36
37
38
39
40
41
42
43
44
45
46
47
48
49
50
51
52
53
54
55
56
57
58
59
60
61
62
63
64
65
66
67
68
69
70
71
72
73
74
75
76
77
78
79
80
81
82
83
84
85
86
87
88
89
90
91
92
93
94
95
96
97
98
99
100
101
102
103
104
105
106
107
108
109
110
111
112
113
114
115
116
117
118
119
120
0
2
4
6
8
10
12
14
16
18
20
22
24
26
28
30
32
34
36
38
40
42
44
46
48
50
52
54
56
58
60
62
64
66
68
70
72
74
76
78
80
82
84
86
88
90
92
94
96
98
100
102
104
106
108
110
112
114
116
118
120
0
1
2
3
4
5
6
7
8
9
10
11
12
13
14
15
16
17
18
19
20
21
22
23
24
25
26
27
28
29
30
31
32
33
34
35
36
37
38
39
40
41
42
43
44
45
46
47
48
49
50
51
52
53
54
55
56
57
58
59
60
61
62
63
64
65
66
67
68
69
70
71
72
73
74
75
76
77
78
79
80
81
82
83
84
85
86
87
88
89
90
91
92
93
94
95
96
97
98
99
100
101
102
103
104
105
106
107
108
109
110
111
112
113
114
115
116
117
118
119
120
0
2
4
6
8
10
12
14
16
18
20
22
24
26
28
30
32
34
36
38
40
42
44
46
48
50
52
54
56
58
60
62
64
66
68
70
72
74
76
78
80
82
84
86
88
90
92
94
96
98
100
102
104
106
108
110
112
114
116
118
120
0
1
2
3
4
5
6
7
8
9
10
11
12
13
14
15
16
17
18
19
20
21
22
23
24
25
26
27
28
29
30
31
32
33
34
35
36
37
38
39
40
41
42
43
44
45
46
47
48
49
50
51
52
53
54
55
56
57
58
59
60
61
62
63
64
65
66
67
68
69
70
71
72
73
74
75
76
77
78
79
80
81
82
83
84
85
86
87
88
89
90
91
92
93
94
95
96
97
98
99
100
101
102
103
104
105
106
107
108
109
110
111
112
113
114
115
116
117
118
119
120
0
2
4
6
8
10
12
14
16
18
20
22
24
26
28
30
32
34
36
38
40
42
44
46
48
50
52
54
56
58
60
62
64
66
68
70
72
74
76
78
80
82
84
86
88
90
92
94
96
98
100
102
104
106
108
110
112
114
116
118
120
0
1
2
3
4
5
6
7
8
9
10
11
12
13
14
15
16
17
18
19
20
21
22
23
24
25
26
27
28
29
30
31
32
33
34
35
36
37
38
39
40
41
42
43
44
45
46
47
48
49
50
51
52
53
54
55
56
57
58
59
60
61
62
63
64
65
66
67
68
69
70
71
72
73
74
75
76
77
78
79
80
81
82
83
84
85
86
87
88
89
90
91
92
93
94
95
96
97
98
99
100
101
102
103
104
105
106
107
108
109
110
111
112
113
114
115
116
117
118
119
120
0
2
4
6
8
10
12
14
16
18
20
22
24
26
28
30
32
34
36
38
40
42
44
46
48
50
52
54
56
58
60
62
64
66
68
70
72
74
76
78
80
82
84
86
88
90
92
94
96
98
100
102
104
106
108
110
112
114
116
118
120
0
1
2
3
4
5
6
7
8
9
10
11
12
13
14
15
16
17
18
19
20
21
22
23
24
25
26
27
28
29
30
31
32
33
34
35
36
37
38
39
40
41
42
43
44
45
46
47
48
49
50
51
52
53
54
55
56
57
58
59
60
61
62
63
64
65
66
67
68
69
70
71
72
73
74
75
76
77
78
79
80
81
82
83
84
85
86
87
88
89
90
91
92
93
94
95
96
97
98
99
100
101
102
103
104
105
106
107
108
109
110
111
112
113
114
115
116
117
118
119
120
0
2
4
6
8
10
12
14
16
18
20
22
24
26
28
30
32
34
36
38
40
42
44
46
48
50
52
54
56
58
60
62
64
66
68
70
72
74
76
78
80
82
84
86
88
90
92
94
96
98
100
102
104
106
108
110
112
114
116
118
120
0
1
2
3
4
5
6
7
8
9
10
11
12
13
14
15
16
17
18
19
20
21
22
23
24
25
26
27
28
29
30
31
32
33
34
35
36
37
38
39
40
41
42
43
44
45
46
47
48
49
50
51
52
53
54
55
56
57
58
59
60
61
62
63
64
65
66
67
68
69
70
71
72
73
74
75
76
77
78
79
80
81
82
83
84
85
86
87
88
89
90
91
92
93
94
95
96
97
98
99
100
101
102
103
104
105
106
107
108
109
110
111
112
113
114
115
116
117
118
119
120
0
2
4
6
8
10
12
14
16
18
20
22
24
26
28
30
32
34
36
38
40
42
44
46
48
50
52
54
56
58
60
62
64
66
68
70
72
74
76
78
80
82
84
86
88
90
92
94
96
98
100
102
104
106
108
110
112
114
116
118
120
0
1
2
3
4
5
6
7
8
9
10
11
12
13
14
15
16
17
18
19
20
21
22
23
24
25
26
27
28
29
30
31
32
33
34
35
36
37
38
39
40
41
42
43
44
45
46
47
48
49
50
51
52
53
54
55
56
57
58
59
60
61
62
63
64
65
66
67
68
69
70
71
72
73
74
75
76
77
78
79
80
81
82
83
84
85
86
87
88
89
90
91
92
93
94
95
96
97
98
99
100
101
102
103
104
105
106
107
108
109
110
111
112
113
114
115
116
117
118
119
120
0
2
4
6
8
10
12
14
16
18
20
22
24
26
28
30
32
34
36
38
40
42
44
46
48
50
52
54
56
58
60
62
64
66
68
70
72
74
76
78
80
82
84
86
88
90
92
94
96
98
100
102
104
106
108
110
112
114
116
118
120
0
1
2
3
4
5
6
7
8
9
10
11
12
13
14
15
16
17
18
19
20
21
22
23
24
25
26
27
28
29
30
31
32
33
34
35
36
37
38
39
40
41
42
43
44
45
46
47
48
49
50
51
52
53
54
55
56
57
58
59
60
61
62
63
64
65
66
67
68
69
70
71
72
73
74
75
76
77
78
79
80
81
82
83
84
85
86
87
88
89
90
91
92
93
94
95
96
97
98
99
100
101
102
103
104
105
106
107
108
109
110
111
112
113
114
115
116
117
118
119
120
0
2
4
6
8
10
12
14
16
18
20
22
24
26
28
30
32
34
36
38
40
42
44
46
48
50
52
54
56
58
60
62
64
66
68
70
72
74
76
78
80
82
84
86
88
90
92
94
96
98
100
102
104
106
108
110
112
114
116
118
120
0
1
2
3
4
5
6
7
8
9
10
11
12
13
14
15
16
17
18
19
20
21
22
23
24
25
26
27
28
29
30
31
32
33
34
35
36
37
38
39
40
41
42
43
44
45
46
47
48
49
50
51
52
53
54
55
56
57
58
59
60
61
62
63
64
65
66
67
68
69
70
71
72
73
74
75
76
77
78
79
80
81
82
83
84
85
86
87
88
89
90
91
92
93
94
95
96
97
98
99
100
101
102
103
104
105
106
107
108
109
110
111
112
113
114
115
116
117
118
119
120
0
2
4
6
8
10
12
14
16
18
20
22
24
26
28
30
32
34
36
38
40
42
44
46
48
50
52
54
56
58
60
62
64
66
68
70
72
74
76
78
80
82
84
86
88
90
92
94
96
98
100
102
104
106
108
110
112
114
116
118
120
0
1
2
3
4
5
6
7
8
9
10
11
12
13
14
15
16
17
18
19
20
21
22
23
24
25
26
27
28
29
30
31
32
33
34
35
36
37
38
39
40
41
42
43
44
45
46
47
48
49
50
51
52
53
54
55
56
57
58
59
60
61
62
63
64
65
66
67
68
69
70
71
72
73
74
75
76
77
78
79
80
81
82
83
84
85
86
87
88
89
90
91
92
93
94
95
96
97
98
99
100
101
102
103
104
105
106
107
108
109
110
111
112
113
114
115
116
117
118
119
120
0
2
4
6
8
10
12
14
16
18
20
22
24
26
28
30
32
34
36
38
40
42
44
46
48
50
52
54
56
58
60
62
64
66
68
70
72
74
76
78
80
82
84
86
88
90
92
94
96
98
100
102
104
106
108
110
112
114
116
118
120
0
1
2
3
4
5
6
7
8
9
10
11
12
13
14
15
16
17
18
19
20
21
22
23
24
25
26
27
28
29
30
31
32
33
34
35
36
37
38
39
40
41
42
43
44
45
46
47
48
49
50
51
52
53
54
55
56
57
58
59
60
61
62
63
64
65
66
67
68
69
70
71
72
73
74
75
76
77
78
79
80
81
82
83
84
85
86
87
88
89
90
91
92
93
94
95
96
97
98
99
100
101
102
103
104
105
106
107
108
109
110
111
112
113
114
115
116
117
118
119
120
0
2
4
6
8
10
12
14
16
18
20
22
24
26
28
30
32
34
36
38
40
42
44
46
48
50
52
54
56
58
60
62
64
66
68
70
72
74
76
78
80
82
84
86
88
90
92
94
96
98
100
102
104
106
108
110
112
114
116
118
120
0
1
2
3
4
5
6
7
8
9
10
11
12
13
14
15
16
17
18
19
20
21
22
23
24
25
26
27
28
29
30
31
32
33
34
35
36
37
38
39
40
41
42
43
44
45
46
47
48
49
50
51
52
53
54
55
56
57
58
59
60
61
62
63
64
65
66
67
68
69
70
71
72
73
74
75
76
77
78
79
80
81
82
83
84
85
86
87
88
89
90
91
92
93
94
95
96
97
98
99
100
101
102
103
104
105
106
107
108
109
110
111
112
113
114
115
116
117
118
119
120
0
2
4
6
8
10
12
14
16
18
20
22
24
26
28
30
32
34
36
38
40
42
44
46
48
50
52
54
56
58
60
62
64
66
68
70
72
74
76
78
80
82
84
86
88
90
92
94
96
98
100
102
104
106
108
110
112
114
116
118
120
0
1
2
3
4
5
6
7
8
9
10
11
12
13
14
15
16
17
18
19
20
21
22
23
24
25
26
27
28
29
30
31
32
33
34
35
36
37
38
39
40
41
42
43
44
45
46
47
48
49
50
51
52
53
54
55
56
57
58
59
60
61
62
63
64
65
66
67
68
69
70
71
72
73
74
75
76
77
78
79
80
81
82
83
84
85
86
87
88
89
90
91
92
93
94
95
96
97
98
99
100
101
102
103
104
105
106
107
108
109
110
111
112
113
114
115
116
117
118
119
120
0
2
4
6
8
10
12
14
16
18
20
22
24
26
28
30
32
34
36
38
40
42
44
46
48
50
52
54
56
58
60
62
64
66
68
70
72
74
76
78
80
82
84
86
88
90
92
94
96
98
100
102
104
106
108
110
112
114
116
118
120
0
1
2
3
4
5
6
7
8
9
10
11
12
13
14
15
16
17
18
19
20
21
22
23
24
25
26
27
28
29
30
31
32
33
34
35
36
37
38
39
40
41
42
43
44
45
46
47
48
49
50
51
52
53
54
55
56
57
58
59
60
61
62
63
64
65
66
67
68
69
70
71
72
73
74
75
76
77
78
79
80
81
82
83
84
85
86
87
88
89
90
91
92
93
94
95
96
97
98
99
100
101
102
103
104
105
106
107
108
109
110
111
112
113
114
115
116
117
118
119
120
0
2
4
6
8
10
12
14
16
18
20
22
24
26
28
30
32
34
36
38
40
42
44
46
48
50
52
54
56
58
60
62
64
66
68
70
72
74
76
78
80
82
84
86
88
90
92
94
96
98
100
102
104
106
108
110
112
114
116
118
120
0
1
2
3
4
5
6
7
8
9
10
11
12
13
14
15
16
17
18
19
20
21
22
23
24
25
26
27
28
29
30
31
32
33
34
35
36
37
38
39
40
41
42
43
44
45
46
47
48
49
50
51
52
53
54
55
56
57
58
59
60
61
62
63
64
65
66
67
68
69
70
71
72
73
74
75
76
77
78
79
80
81
82
83
84
85
86
87
88
89
90
91
92
93
94
95
96
97
98
99
100
101
102
103
104
105
106
107
108
109
110
111
112
113
114
115
116
117
118
119
120
0
2
4
6
8
10
12
14
16
18
20
22
24
26
28
30
32
34
36
38
40
42
44
46
48
50
52
54
56
58
60
62
64
66
68
70
72
74
76
78
80
82
84
86
88
90
92
94
96
98
100
102
104
106
108
110
112
114
116
118
120
0
1
2
3
4
5
6
7
8
9
10
11
12
13
14
15
16
17
18
19
20
21
22
23
24
25
26
27
28
29
30
31
32
33
34
35
36
37
38
39
40
41
42
43
44
45
46
47
48
49
50
51
52
53
54
55
56
57
58
59
60
61
62
63
64
65
66
67
68
69
70
71
72
73
74
75
76
77
78
79
80
81
82
83
84
85
86
87
88
89
90
91
92
93
94
95
96
97
98
99
100
101
102
103
104
105
106
107
108
109
110
111
112
113
114
115
116
117
118
119
120
0
2
4
6
8
10
12
14
16
18
20
22
24
26
28
30
32
34
36
38
40
42
44
46
48
50
52
54
56
58
60
62
64
66
68
70
72
74
76
78
80
82
84
86
88
90
92
94
96
98
100
102
104
106
108
110
112
114
116
118
120
0
1
2
3
4
5
6
7
8
9
10
11
12
13
14
15
16
17
18
19
20
21
22
23
24
25
26
27
28
29
30
31
32
33
34
35
36
37
38
39
40
41
42
43
44
45
46
47
48
49
50
51
52
53
54
55
56
57
58
59
60
61
62
63
64
65
66
67
68
69
70
71
72
73
74
75
76
77
78
79
80
81
82
83
84
85
86
87
88
89
90
91
92
93
94
95
96
97
98
99
100
101
102
103
104
105
106
107
108
109
110
111
112
113
114
115
116
117
118
119
120
0
2
4
6
8
10
12
14
16
18
20
22
24
26
28
30
32
34
36
38
40
42
44
46
48
50
52
54
56
58
60
62
64
66
68
70
72
74
76
78
80
82
84
86
88
90
92
94
96
98
100
102
104
106
108
110
112
114
116
118
120
0
1
2
3
4
5
6
7
8
9
10
11
12
13
14
15
16
17
18
19
20
21
22
23
24
25
26
27
28
29
30
31
32
33
34
35
36
37
38
39
40
41
42
43
44
45
46
47
48
49
50
51
52
53
54
55
56
57
58
59
60
61
62
63
64
65
66
67
68
69
70
71
72
73
74
75
76
77
78
79
80
81
82
83
84
85
86
87
88
89
90
91
92
93
94
95
96
97
98
99
100
101
102
103
104
105
106
107
108
109
110
111
112
113
114
115
116
117
118
119
120
0
2
4
6
8
10
12
14
16
18
20
22
24
26
28
30
32
34
36
38
40
42
44
46
48
50
52
54
56
58
60
62
64
66
68
70
72
74
76
78
80
82
84
86
88
90
92
94
96
98
100
102
104
106
108
110
112
114
116
118
120
0
1
2
3
4
5
6
7
8
9
10
11
12
13
14
15
16
17
18
19
20
21
22
23
24
25
26
27
28
29
30
31
32
33
34
35
36
37
38
39
40
41
42
43
44
45
46
47
48
49
50
51
52
53
54
55
56
57
58
59
60
61
62
63
64
65
66
67
68
69
70
71
72
73
74
75
76
77
78
79
80
81
82
83
84
85
86
87
88
89
90
91
92
93
94
95
96
97
98
99
100
101
102
103
104
105
106
107
108
109
110
111
112
113
114
115
116
117
118
119
120
0
2
4
6
8
10
12
14
16
18
20
22
24
26
28
30
32
34
36
38
40
42
44
46
48
50
52
54
56
58
60
62
64
66
68
70
72
74
76
78
80
82
84
86
88
90
92
94
96
98
100
102
104
106
108
110
112
114
116
118
120
0
1
2
3
4
5
6
7
8
9
10
11
12
13
14
15
16
17
18
19
20
21
22
23
24
25
26
27
28
29
30
31
32
33
34
35
36
37
38
39
40
41
42
43
44
45
46
47
48
49
50
51
52
53
54
55
56
57
58
59
60
61
62
63
64
65
66
67
68
69
70
71
72
73
74
75
76
77
78
79
80
81
82
83
84
85
86
87
88
89
90
91
92
93
94
95
96
97
98
99
100
101
102
103
104
105
106
107
108
109
110
111
112
113
114
115
116
117
118
119
120
0
2
4
6
8
10
12
14
16
18
20
22
24
26
28
30
32
34
36
38
40
42
44
46
48
50
52
54
56
58
60
62
64
66
68
70
72
74
76
78
80
82
84
86
88
90
92
94
96
98
100
102
104
106
108
110
112
114
116
118
120
0
1
2
3
4
5
6
7
8
9
10
11
12
13
14
15
16
17
18
19
20
21
22
23
24
25
26
27
28
29
30
31
32
33
34
35
36
37
38
39
40
41
42
43
44
45
46
47
48
49
50
51
52
53
54
55
56
57
58
59
60
61
62
63
64
65
66
67
68
69
70
71
72
73
74
75
76
77
78
79
80
81
82
83
84
85
86
87
88
89
90
91
92
93
94
95
96
97
98
99
100
101
102
103
104
105
106
107
108
109
110
111
112
113
114
115
116
117
118
119
120
0
2
4
6
8
10
12
14
16
18
20
22
24
26
28
30
32
34
36
38
40
42
44
46
48
50
52
54
56
58
60
62
64
66
68
70
72
74
76
78
80
82
84
86
88
90
92
94
96
98
100
102
104
106
108
110
112
114
116
118
120
0
1
2
3
4
5
6
7
8
9
10
11
12
13
14
15
16
17
18
19
20
21
22
23
24
25
26
27
28
29
30
31
32
33
34
35
36
37
38
39
40
41
42
43
44
45
46
47
48
49
50
51
52
53
54
55
56
57
58
59
60
61
62
63
64
65
66
67
68
69
70
71
72
73
74
75
76
77
78
79
80
81
82
83
84
85
86
87
88
89
90
91
92
93
94
95
96
97
98
99
100
101
102
103
104
105
106
107
108
109
110
111
112
113
114
115
116
117
118
119
120
0
2
4
6
8
10
12
14
16
18
20
22
24
26
28
30
32
34
36
38
40
42
44
46
48
50
52
54
56
58
60
62
64
66
68
70
72
74
76
78
80
82
84
86
88
90
92
94
96
98
100
102
104
106
108
110
112
114
116
118
120
0
1
2
3
4
5
6
7
8
9
10
11
12
13
14
15
16
17
18
19
20
21
22
23
24
25
26
27
28
29
30
31
32
33
34
35
36
37
38
39
40
41
42
43
44
45
46
47
48
49
50
51
52
53
54
55
56
57
58
59
60
61
62
63
64
65
66
67
68
69
70
71
72
73
74
75
76
77
78
79
80
81
82
83
84
85
86
87
88
89
90
91
92
93
94
95
96
97
98
99
100
101
102
103
104
105
106
107
108
109
110
111
112
113
114
115
116
117
118
119
120
0
2
4
6
8
10
12
14
16
18
20
22
24
26
28
30
32
34
36
38
40
42
44
46
48
50
52
54
56
58
60
62
64
66
68
70
72
74
76
78
80
82
84
86
88
90
92
94
96
98
100
102
104
106
108
110
112
114
116
118
120
0
1
2
3
4
5
6
7
8
9
10
11
12
13
14
15
16
17
18
19
20
21
22
23
24
25
26
27
28
29
30
31
32
33
34
35
36
37
38
39
40
41
42
43
44
45
46
47
48
49
50
51
52
53
54
55
56
57
58
59
60
61
62
63
64
65
66
67
68
69
70
71
72
73
74
75
76
77
78
79
80
81
82
83
84
85
86
87
88
89
90
91
92
93
94
95
96
97
98
99
100
101
102
103
104
105
106
107
108
109
110
111
112
113
114
115
116
117
118
119
120
0
2
4
6
8
10
12
14
16
18
20
22
24
26
28
30
32
34
36
38
40
42
44
46
48
50
52
54
56
58
60
62
64
66
68
70
72
74
76
78
80
82
84
86
88
90
92
94
96
98
100
102
104
106
108
110
112
114
116
118
120
0
1
2
3
4
5
6
7
8
9
10
11
12
13
14
15
16
17
18
19
20
21
22
23
24
25
26
27
28
29
30
31
32
33
34
35
36
37
38
39
40
41
42
43
44
45
46
47
48
49
50
51
52
53
54
55
56
57
58
59
60
61
62
63
64
65
66
67
68
69
70
71
72
73
74
75
76
77
78
79
80
81
82
83
84
85
86
87
88
89
90
91
92
93
94
95
96
97
98
99
100
101
102
103
104
105
106
107
108
109
110
111
112
113
114
115
116
117
118
119
120
0
2
4
6
8
10
12
14
16
18
20
22
24
26
28
30
32
34
36
38
40
42
44
46
48
50
52
54
56
58
60
62
64
66
68
70
72
74
76
78
80
82
84
86
88
90
92
94
96
98
100
102
104
106
108
110
112
114
116
118
120
0
1
2
3
4
5
6
7
8
9
10
11
12
13
14
15
16
17
18
19
20
21
22
23
24
25
26
27
28
29
30
31
32
33
34
35
36
37
38
39
40
41
42
43
44
45
46
47
48
49
50
51
52
53
54
55
56
57
58
59
60
61
62
63
64
65
66
67
68
69
70
71
72
73
74
75
76
77
78
79
80
81
82
83
84
85
86
87
88
89
90
91
92
93
94
95
96
97
98
99
100
101
102
103
104
105
106
107
108
109
110
111
112
113
114
115
116
117
118
119
120
0
2
4
6
8
10
12
14
16
18
20
22
24
26
28
30
32
34
36
38
40
42
44
46
48
50
52
54
56
58
60
62
64
66
68
70
72
74
76
78
80
82
84
86
88
90
92
94
96
98
100
102
104
106
108
110
112
114
116
118
120
0
1
2
3
4
5
6
7
8
9
10
11
12
13
14
15
16
17
18
19
20
21
22
23
24
25
26
27
28
29
30
31
32
33
34
35
36
37
38
39
40
41
42
43
44
45
46
47
48
49
50
51
52
53
54
55
56
57
58
59
60
61
62
63
64
65
66
67
68
69
70
71
72
73
74
75
76
77
78
79
80
81
82
83
84
85
86
87
88
89
90
91
92
93
94
95
96
97
98
99
100
101
102
103
104
105
106
107
108
109
110
111
112
113
114
115
116
117
118
119
120
0
2
4
6
8
10
12
14
16
18
20
22
24
26
28
30
32
34
36
38
40
42
44
46
48
50
52
54
56
58
60
62
64
66
68
70
72
74
76
78
80
82
84
86
88
90
92
94
96
98
100
102
104
106
108
110
112
114
116
118
120
0
1
2
3
4
5
6
7
8
9
10
11
12
13
14
15
16
17
18
19
20
21
22
23
24
25
26
27
28
29
30
31
32
33
34
35
36
37
38
39
40
41
42
43
44
45
46
47
48
49
50
51
52
53
54
55
56
57
58
59
60
61
62
63
64
65
66
67
68
69
70
71
72
73
74
75
76
77
78
79
80
81
82
83
84
85
86
87
88
89
90
91
92
93
94
95
96
97
98
99
100
101
102
103
104
105
106
107
108
109
110
111
112
113
114
115
116
117
118
119
120
0
2
4
6
8
10
12
14
16
18
20
22
24
26
28
30
32
34
36
38
40
42
44
46
48
50
52
54
56
58
60
62
64
66
68
70
72
74
76
78
80
82
84
86
88
90
92
94
96
98
100
102
104
106
108
110
112
114
116
118
120
0
1
2
3
4
5
6
7
8
9
10
11
12
13
14
15
16
17
18
19
20
21
22
23
24
25
26
27
28
29
30
31
32
33
34
35
36
37
38
39
40
41
42
43
44
45
46
47
48
49
50
51
52
53
54
55
56
57
58
59
60
61
62
63
64
65
66
67
68
69
70
71
72
73
74
75
76
77
78
79
80
81
82
83
84
85
86
87
88
89
90
91
92
93
94
95
96
97
98
99
100
101
102
103
104
105
106
107
108
109
110
111
112
113
114
115
116
117
118
119
120
0
2
4
6
8
10
12
14
16
18
20
22
24
26
28
30
32
34
36
38
40
42
44
46
48
50
52
54
56
58
60
62
64
66
68
70
72
74
76
78
80
82
84
86
88
90
92
94
96
98
100
102
104
106
108
110
112
114
116
118
120
0
1
2
3
4
5
6
7
8
9
10
11
12
13
14
15
16
17
18
19
20
21
22
23
24
25
26
27
28
29
30
31
32
33
34
35
36
37
38
39
40
41
42
43
44
45
46
47
48
49
50
51
52
53
54
55
56
57
58
59
60
61
62
63
64
65
66
67
68
69
70
71
72
73
74
75
76
77
78
79
80
81
82
83
84
85
86
87
88
89
90
91
92
93
94
95
96
97
98
99
100
101
102
103
104
105
106
107
108
109
110
111
112
113
114
115
116
117
118
119
120
0
2
4
6
8
10
12
14
16
18
20
22
24
26
28
30
32
34
36
38
40
42
44
46
48
50
52
54
56
58
60
62
64
66
68
70
72
74
76
78
80
82
84
86
88
90
92
94
96
98
100
102
104
106
108
110
112
114
116
118
120
0
1
2
3
4
5
6
7
8
9
10
11
12
13
14
15
16
17
18
19
20
21
22
23
24
25
26
27
28
29
30
31
32
33
34
35
36
37
38
39
40
41
42
43
44
45
46
47
48
49
50
51
52
53
54
55
56
57
58
59
60
61
62
63
64
65
66
67
68
69
70
71
72
73
74
75
76
77
78
79
80
81
82
83
84
85
86
87
88
89
90
91
92
93
94
95
96
97
98
99
100
101
102
103
104
105
106
107
108
109
110
111
112
113
114
115
116
117
118
119
120
0
2
4
6
8
10
12
14
16
18
20
22
24
26
28
30
32
34
36
38
40
42
44
46
48
50
52
54
56
58
60
62
64
66
68
70
72
74
76
78
80
82
84
86
88
90
92
94
96
98
100
102
104
106
108
110
112
114
116
118
120
0
1
2
3
4
5
6
7
8
9
10
11
12
13
14
15
16
17
18
19
20
21
22
23
24
25
26
27
28
29
30
31
32
33
34
35
36
37
38
39
40
41
42
43
44
45
46
47
48
49
50
51
52
53
54
55
56
57
58
59
60
61
62
63
64
65
66
67
68
69
70
71
72
73
74
75
76
77
78
79
80
81
82
83
84
85
86
87
88
89
90
91
92
93
94
95
96
97
98
99
100
101
102
103
104
105
106
107
108
109
110
111
112
113
114
115
116
117
118
119
120
0
2
4
6
8
10
12
14
16
18
20
22
24
26
28
30
32
34
36
38
40
42
44
46
48
50
52
54
56
58
60
62
64
66
68
70
72
74
76
78
80
82
84
86
88
90
92
94
96
98
100
102
104
106
108
110
112
114
116
118
120
0
1
2
3
4
5
6
7
8
9
10
11
12
13
14
15
16
17
18
19
20
21
22
23
24
25
26
27
28
29
30
31
32
33
34
35
36
37
38
39
40
41
42
43
44
45
46
47
48
49
50
51
52
53
54
55
56
57
58
59
60
61
62
63
64
65
66
67
68
69
70
71
72
73
74
75
76
77
78
79
80
81
82
83
84
85
86
87
88
89
90
91
92
93
94
95
96
97
98
99
100
101
102
103
104
105
106
107
108
109
110
111
112
113
114
115
116
117
118
119
120
0
2
4
6
8
10
12
14
16
18
20
22
24
26
28
30
32
34
36
38
40
42
44
46
48
50
52
54
56
58
60
62
64
66
68
70
72
74
76
78
80
82
84
86
88
90
92
94
96
98
100
102
104
106
108
110
112
114
116
118
120
0
1
2
3
4
5
6
7
8
9
10
11
12
13
14
15
16
17
18
19
20
21
22
23
24
25
26
27
28
29
30
31
32
33
34
35
36
37
38
39
40
41
42
43
44
45
46
47
48
49
50
51
52
53
54
55
56
57
58
59
60
61
62
63
64
65
66
67
68
69
70
71
72
73
74
75
76
77
78
79
80
81
82
83
84
85
86
87
88
89
90
91
92
93
94
95
96
97
98
99
100
101
102
103
104
105
106
107
108
109
110
111
112
113
114
115
116
117
118
119
120
0
2
4
6
8
10
12
14
16
18
20
22
24
26
28
30
32
34
36
38
40
42
44
46
48
50
52
54
56
58
60
62
64
66
68
70
72
74
76
78
80
82
84
86
88
90
92
94
96
98
100
102
104
106
108
110
112
114
116
118
120
0
1
2
3
4
5
6
7
8
9
10
11
12
13
14
15
16
17
18
19
20
21
22
23
24
25
26
27
28
29
30
31
32
33
34
35
36
37
38
39
40
41
42
43
44
45
46
47
48
49
50
51
52
53
54
55
56
57
58
59
60
61
62
63
64
65
66
67
68
69
70
71
72
73
74
75
76
77
78
79
80
81
82
83
84
85
86
87
88
89
90
91
92
93
94
95
96
97
98
99
100
101
102
103
104
105
106
107
108
109
110
111
112
113
114
115
116
117
118
119
120
0
2
4
6
8
10
12
14
16
18
20
22
24
26
28
30
32
34
36
38
40
42
44
46
48
50
52
54
56
58
60
62
64
66
68
70
72
74
76
78
80
82
84
86
88
90
92
94
96
98
100
102
104
106
108
110
112
114
116
118
120
0
1
2
3
4
5
6
7
8
9
10
11
12
13
14
15
16
17
18
19
20
21
22
23
24
25
26
27
28
29
30
31
32
33
34
35
36
37
38
39
40
41
42
43
44
45
46
47
48
49
50
51
52
53
54
55
56
57
58
59
60
61
62
63
64
65
66
67
68
69
70
71
72
73
74
75
76
77
78
79
80
81
82
83
84
85
86
87
88
89
90
91
92
93
94
95
96
97
98
99
100
101
102
103
104
105
106
107
108
109
110
111
112
113
114
115
116
117
118
119
120
0
2
4
6
8
10
12
14
16
18
20
22
24
26
28
30
32
34
36
38
40
42
44
46
48
50
52
54
56
58
60
62
64
66
68
70
72
74
76
78
80
82
84
86
88
90
92
94
96
98
100
102
104
106
108
110
112
114
116
118
120
0
1
2
3
4
5
6
7
8
9
10
11
12
13
14
15
16
17
18
19
20
21
22
23
24
25
26
27
28
29
30
31
32
33
34
35
36
37
38
39
40
41
42
43
44
45
46
47
48
49
50
51
52
53
54
55
56
57
58
59
60
61
62
63
64
65
66
67
68
69
70
71
72
73
74
75
76
77
78
79
80
81
82
83
84
85
86
87
88
89
90
91
92
93
94
95
96
97
98
99
100
101
102
103
104
105
106
107
108
109
110
111
112
113
114
115
116
117
118
119
120
0
2
4
6
8
10
12
14
16
18
20
22
24
26
28
30
32
34
36
38
40
42
44
46
48
50
52
54
56
58
60
62
64
66
68
70
72
74
76
78
80
82
84
86
88
90
92
94
96
98
100
102
104
106
108
110
112
114
116
118
120
0
1
2
3
4
5
6
7
8
9
10
11
12
13
14
15
16
17
18
19
20
21
22
23
24
25
26
27
28
29
30
31
32
33
34
35
36
37
38
39
40
41
42
43
44
45
46
47
48
49
50
51
52
53
54
55
56
57
58
59
60
61
62
63
64
65
66
67
68
69
70
71
72
73
74
75
76
77
78
79
80
81
82
83
84
85
86
87
88
89
90
91
92
93
94
95
96
97
98
99
100
101
102
103
104
105
106
107
108
109
110
111
112
113
114
115
116
117
118
119
120
0
2
4
6
8
10
12
14
16
18
20
22
24
26
28
30
32
34
36
38
40
42
44
46
48
50
52
54
56
58
60
62
64
66
68
70
72
74
76
78
80
82
84
86
88
90
92
94
96
98
100
102
104
106
108
110
112
114
116
118
120
0
1
2
3
4
5
6
7
8
9
10
11
12
13
14
15
16
17
18
19
20
21
22
23
24
25
26
27
28
29
30
31
32
33
34
35
36
37
38
39
40
41
42
43
44
45
46
47
48
49
50
51
52
53
54
55
56
57
58
59
60
61
62
63
64
65
66
67
68
69
70
71
72
73
74
75
76
77
78
79
80
81
82
83
84
85
86
87
88
89
90
91
92
93
94
95
96
97
98
99
100
101
102
103
104
105
106
107
108
109
110
111
112
113
114
115
116
117
118
119
120
0
2
4
6
8
10
12
14
16
18
20
22
24
26
28
30
32
34
36
38
40
42
44
46
48
50
52
54
56
58
60
62
64
66
68
70
72
74
76
78
80
82
84
86
88
90
92
94
96
98
100
102
104
106
108
110
112
114
116
118
120
0
1
2
3
4
5
6
7
8
9
10
11
12
13
14
15
16
17
18
19
20
21
22
23
24
25
26
27
28
29
30
31
32
33
34
35
36
37
38
39
40
41
42
43
44
45
46
47
48
49
50
51
52
53
54
55
56
57
58
59
60
61
62
63
64
65
66
67
68
69
70
71
72
73
74
75
76
77
78
79
80
81
82
83
84
85
86
87
88
89
90
91
92
93
94
95
96
97
98
99
100
101
102
103
104
105
106
107
108
109
110
111
112
113
114
115
116
117
118
119
120
0
2
4
6
8
10
12
14
16
18
20
22
24
26
28
30
32
34
36
38
40
42
44
46
48
50
52
54
56
58
60
62
64
66
68
70
72
74
76
78
80
82
84
86
88
90
92
94
96
98
100
102
104
106
108
110
112
114
116
118
120
0
1
2
3
4
5
6
7
8
9
10
11
12
13
14
15
16
17
18
19
20
21
22
23
24
25
26
27
28
29
30
31
32
33
34
35
36
37
38
39
40
41
42
43
44
45
46
47
48
49
50
51
52
53
54
55
56
57
58
59
60
61
62
63
64
65
66
67
68
69
70
71
72
73
74
75
76
77
78
79
80
81
82
83
84
85
86
87
88
89
90
91
92
93
94
95
96
97
98
99
100
101
102
103
104
105
106
107
108
109
110
111
112
113
114
115
116
117
118
119
120
0
2
4
6
8
10
12
14
16
18
20
22
24
26
28
30
32
34
36
38
40
42
44
46
48
50
52
54
56
58
60
62
64
66
68
70
72
74
76
78
80
82
84
86
88
90
92
94
96
98
100
102
104
106
108
110
112
114
116
118
120
0
1
2
3
4
5
6
7
8
9
10
11
12
13
14
15
16
17
18
19
20
21
22
23
24
25
26
27
28
29
30
31
32
33
34
35
36
37
38
39
40
41
42
43
44
45
46
47
48
49
50
51
52
53
54
55
56
57
58
59
60
61
62
63
64
65
66
67
68
69
70
71
72
73
74
75
76
77
78
79
80
81
82
83
84
85
86
87
88
89
90
91
92
93
94
95
96
97
98
99
100
101
102
103
104
105
106
107
108
109
110
111
112
113
114
115
116
117
118
119
120
0
2
4
6
8
10
12
14
16
18
20
22
24
26
28
30
32
34
36
38
40
42
44
46
48
50
52
54
56
58
60
62
64
66
68
70
72
74
76
78
80
82
84
86
88
90
92
94
96
98
100
102
104
106
108
110
112
114
116
118
120
0
1
2
3
4
5
6
7
8
9
10
11
12
13
14
15
16
17
18
19
20
21
22
23
24
25
26
27
28
29
30
31
32
33
34
35
36
37
38
39
40
41
42
43
44
45
46
47
48
49
50
51
52
53
54
55
56
57
58
59
60
61
62
63
64
65
66
67
68
69
70
71
72
73
74
75
76
77
78
79
80
81
82
83
84
85
86
87
88
89
90
91
92
93
94
95
96
97
98
99
100
101
102
103
104
105
106
107
108
109
110
111
112
113
114
115
116
117
118
119
120
0
2
4
6
8
10
12
14
16
18
20
22
24
26
28
30
32
34
36
38
40
42
44
46
48
50
52
54
56
58
60
62
64
66
68
70
72
74
76
78
80
82
84
86
88
90
92
94
96
98
100
102
104
106
108
110
112
114
116
118
120
0
1
2
3
4
5
6
7
8
9
10
11
12
13
14
15
16
17
18
19
20
21
22
23
24
25
26
27
28
29
30
31
32
33
34
35
36
37
38
39
40
41
42
43
44
45
46
47
48
49
50
51
52
53
54
55
56
57
58
59
60
61
62
63
64
65
66
67
68
69
70
71
72
73
74
75
76
77
78
79
80
81
82
83
84
85
86
87
88
89
90
91
92
93
94
95
96
97
98
99
100
101
102
103
104
105
106
107
108
109
110
111
112
113
114
115
116
117
118
119
120
0
2
4
6
8
10
12
14
16
18
20
22
24
26
28
30
32
34
36
38
40
42
44
46
48
50
52
54
56
58
60
62
64
66
68
70
72
74
76
78
80
82
84
86
88
90
92
94
96
98
100
102
104
106
108
110
112
114
116
118
120
0
1
2
3
4
5
6
7
8
9
10
11
12
13
14
15
16
17
18
19
20
21
22
23
24
25
26
27
28
29
30
31
32
33
34
35
36
37
38
39
40
41
42
43
44
45
46
47
48
49
50
51
52
53
54
55
56
57
58
59
60
61
62
63
64
65
66
67
68
69
70
71
72
73
74
75
76
77
78
79
80
81
82
83
84
85
86
87
88
89
90
91
92
93
94
95
96
97
98
99
100
101
102
103
104
105
106
107
108
109
110
111
112
113
114
115
116
117
118
119
120
0
2
4
6
8
10
12
14
16
18
20
22
24
26
28
30
32
34
36
38
40
42
44
46
48
50
52
54
56
58
60
62
64
66
68
70
72
74
76
78
80
82
84
86
88
90
92
94
96
98
100
102
104
106
108
110
112
114
116
118
120
0
1
2
3
4
5
6
7
8
9
10
11
12
13
14
15
16
17
18
19
20
21
22
23
24
25
26
27
28
29
30
31
32
33
34
35
36
37
38
39
40
41
42
43
44
45
46
47
48
49
50
51
52
53
54
55
56
57
58
59
60
61
62
63
64
65
66
67
68
69
70
71
72
73
74
75
76
77
78
79
80
81
82
83
84
85
86
87
88
89
90
91
92
93
94
95
96
97
98
99
100
101
102
103
104
105
106
107
108
109
110
111
112
113
114
115
116
117
118
119
120
0
2
4
6
8
10
12
14
16
18
20
22
24
26
28
30
32
34
36
38
40
42
44
46
48
50
52
54
56
58
60
62
64
66
68
70
72
74
76
78
80
82
84
86
88
90
92
94
96
98
100
102
104
106
108
110
112
114
116
118
120
0
1
2
3
4
5
6
7
8
9
10
11
12
13
14
15
16
17
18
19
20
21
22
23
24
25
26
27
28
29
30
31
32
33
34
35
36
37
38
39
40
41
42
43
44
45
46
47
48
49
50
51
52
53
54
55
56
57
58
59
60
61
62
63
64
65
66
67
68
69
70
71
72
73
74
75
76
77
78
79
80
81
82
83
84
85
86
87
88
89
90
91
92
93
94
95
96
97
98
99
100
101
102
103
104
105
106
107
108
109
110
111
112
113
114
115
116
117
118
119
120
0
2
4
6
8
10
12
14
16
18
20
22
24
26
28
30
32
34
36
38
40
42
44
46
48
50
52
54
56
58
60
62
64
66
68
70
72
74
76
78
80
82
84
86
88
90
92
94
96
98
100
102
104
106
108
110
112
114
116
118
120
0
1
2
3
4
5
6
7
8
9
10
11
12
13
14
15
16
17
18
19
20
21
22
23
24
25
26
27
28
29
30
31
32
33
34
35
36
37
38
39
40
41
42
43
44
45
46
47
48
49
50
51
52
53
54
55
56
57
58
59
60
61
62
63
64
65
66
67
68
69
70
71
72
73
74
75
76
77
78
79
80
81
82
83
84
85
86
87
88
89
90
91
92
93
94
95
96
97
98
99
100
101
102
103
104
105
106
107
108
109
110
111
112
113
114
115
116
117
118
119
120
0
2
4
6
8
10
12
14
16
18
20
22
24
26
28
30
32
34
36
38
40
42
44
46
48
50
52
54
56
58
60
62
64
66
68
70
72
74
76
78
80
82
84
86
88
90
92
94
96
98
100
102
104
106
108
110
112
114
116
118
120
0
1
2
3
4
5
6
7
8
9
10
11
12
13
14
15
16
17
18
19
20
21
22
23
24
25
26
27
28
29
30
31
32
33
34
35
36
37
38
39
40
41
42
43
44
45
46
47
48
49
50
51
52
53
54
55
56
57
58
59
60
61
62
63
64
65
66
67
68
69
70
71
72
73
74
75
76
77
78
79
80
81
82
83
84
85
86
87
88
89
90
91
92
93
94
95
96
97
98
99
100
101
102
103
104
105
106
107
108
109
110
111
112
113
114
115
116
117
118
119
120
0
2
4
6
8
10
12
14
16
18
20
22
24
26
28
30
32
34
36
38
40
42
44
46
48
50
52
54
56
58
60
62
64
66
68
70
72
74
76
78
80
82
84
86
88
90
92
94
96
98
100
102
104
106
108
110
112
114
116
118
120
0
1
2
3
4
5
6
7
8
9
10
11
12
13
14
15
16
17
18
19
20
21
22
23
24
25
26
27
28
29
30
31
32
33
34
35
36
37
38
39
40
41
42
43
44
45
46
47
48
49
50
51
52
53
54
55
56
57
58
59
60
61
62
63
64
65
66
67
68
69
70
71
72
73
74
75
76
77
78
79
80
81
82
83
84
85
86
87
88
89
90
91
92
93
94
95
96
97
98
99
100
101
102
103
104
105
106
107
108
109
110
111
112
113
114
115
116
117
118
119
120
0
2
4
6
8
10
12
14
16
18
20
22
24
26
28
30
32
34
36
38
40
42
44
46
48
50
52
54
56
58
60
62
64
66
68
70
72
74
76
78
80
82
84
86
88
90
92
94
96
98
100
102
104
106
108
110
112
114
116
118
120
0
1
2
3
4
5
6
7
8
9
10
11
12
13
14
15
16
17
18
19
20
21
22
23
24
25
26
27
28
29
30
31
32
33
34
35
36
37
38
39
40
41
42
43
44
45
46
47
48
49
50
51
52
53
54
55
56
57
58
59
60
61
62
63
64
65
66
67
68
69
70
71
72
73
74
75
76
77
78
79
80
81
82
83
84
85
86
87
88
89
90
91
92
93
94
95
96
97
98
99
100
101
102
103
104
105
106
107
108
109
110
111
112
113
114
115
116
117
118
119
120
0
2
4
6
8
10
12
14
16
18
20
22
24
26
28
30
32
34
36
38
40
42
44
46
48
50
52
54
56
58
60
62
64
66
68
70
72
74
76
78
80
82
84
86
88
90
92
94
96
98
100
102
104
106
108
110
112
114
116
118
120
0
1
2
3
4
5
6
7
8
9
10
11
12
13
14
15
16
17
18
19
20
21
22
23
24
25
26
27
28
29
30
31
32
33
34
35
36
37
38
39
40
41
42
43
44
45
46
47
48
49
50
51
52
53
54
55
56
57
58
59
60
61
62
63
64
65
66
67
68
69
70
71
72
73
74
75
76
77
78
79
80
81
82
83
84
85
86
87
88
89
90
91
92
93
94
95
96
97
98
99
100
101
102
103
104
105
106
107
108
109
110
111
112
113
114
115
116
117
118
119
120
0
2
4
6
8
10
12
14
16
18
20
22
24
26
28
30
32
34
36
38
40
42
44
46
48
50
52
54
56
58
60
62
64
66
68
70
72
74
76
78
80
82
84
86
88
90
92
94
96
98
100
102
104
106
108
110
112
114
116
118
120
0
1
2
3
4
5
6
7
8
9
10
11
12
13
14
15
16
17
18
19
20
21
22
23
24
25
26
27
28
29
30
31
32
33
34
35
36
37
38
39
40
41
42
43
44
45
46
47
48
49
50
51
52
53
54
55
56
57
58
59
60
61
62
63
64
65
66
67
68
69
70
71
72
73
74
75
76
77
78
79
80
81
82
83
84
85
86
87
88
89
90
91
92
93
94
95
96
97
98
99
100
101
102
103
104
105
106
107
108
109
110
111
112
113
114
115
116
117
118
119
120
0
2
4
6
8
10
12
14
16
18
20
22
24
26
28
30
32
34
36
38
40
42
44
46
48
50
52
54
56
58
60
62
64
66
68
70
72
74
76
78
80
82
84
86
88
90
92
94
96
98
100
102
104
106
108
110
112
114
116
118
120
0
1
2
3
4
5
6
7
8
9
10
11
12
13
14
15
16
17
18
19
20
21
22
23
24
25
26
27
28
29
30
31
32
33
34
35
36
37
38
39
40
41
42
43
44
45
46
47
48
49
50
51
52
53
54
55
56
57
58
59
60
61
62
63
64
65
66
67
68
69
70
71
72
73
74
75
76
77
78
79
80
81
82
83
84
85
86
87
88
89
90
91
92
93
94
95
96
97
98
99
100
101
102
103
104
105
106
107
108
109
110
111
112
113
114
115
116
117
118
119
120
0
2
4
6
8
10
12
14
16
18
20
22
24
26
28
30
32
34
36
38
40
42
44
46
48
50
52
54
56
58
60
62
64
66
68
70
72
74
76
78
80
82
84
86
88
90
92
94
96
98
100
102
104
106
108
110
112
114
116
118
120
0
1
2
3
4
5
6
7
8
9
10
11
12
13
14
15
16
17
18
19
20
21
22
23
24
25
26
27
28
29
30
31
32
33
34
35
36
37
38
39
40
41
42
43
44
45
46
47
48
49
50
51
52
53
54
55
56
57
58
59
60
61
62
63
64
65
66
67
68
69
70
71
72
73
74
75
76
77
78
79
80
81
82
83
84
85
86
87
88
89
90
91
92
93
94
95
96
97
98
99
100
101
102
103
104
105
106
107
108
109
110
111
112
113
114
115
116
117
118
119
120
0
2
4
6
8
10
12
14
16
18
20
22
24
26
28
30
32
34
36
38
40
42
44
46
48
50
52
54
56
58
60
62
64
66
68
70
72
74
76
78
80
82
84
86
88
90
92
94
96
98
100
102
104
106
108
110
112
114
116
118
120
0
1
2
3
4
5
6
7
8
9
10
11
12
13
14
15
16
17
18
19
20
21
22
23
24
25
26
27
28
29
30
31
32
33
34
35
36
37
38
39
40
41
42
43
44
45
46
47
48
49
50
51
52
53
54
55
56
57
58
59
60
61
62
63
64
65
66
67
68
69
70
71
72
73
74
75
76
77
78
79
80
81
82
83
84
85
86
87
88
89
90
91
92
93
94
95
96
97
98
99
100
101
102
103
104
105
106
107
108
109
110
111
112
113
114
115
116
117
118
119
120
0
2
4
6
8
10
12
14
16
18
20
22
24
26
28
30
32
34
36
38
40
42
44
46
48
50
52
54
56
58
60
62
64
66
68
70
72
74
76
78
80
82
84
86
88
90
92
94
96
98
100
102
104
106
108
110
112
114
116
118
120
0
1
2
3
4
5
6
7
8
9
10
11
12
13
14
15
16
17
18
19
20
21
22
23
24
25
26
27
28
29
30
31
32
33
34
35
36
37
38
39
40
41
42
43
44
45
46
47
48
49
50
51
52
53
54
55
56
57
58
59
60
61
62
63
64
65
66
67
68
69
70
71
72
73
74
75
76
77
78
79
80
81
82
83
84
85
86
87
88
89
90
91
92
93
94
95
96
97
98
99
100
101
102
103
104
105
106
107
108
109
110
111
112
113
114
115
116
117
118
119
120
0
2
4
6
8
10
12
14
16
18
20
22
24
26
28
30
32
34
36
38
40
42
44
46
48
50
52
54
56
58
60
62
64
66
68
70
72
74
76
78
80
82
84
86
88
90
92
94
96
98
100
102
104
106
108
110
112
114
116
118
120
0
1
2
3
4
5
6
7
8
9
10
11
12
13
14
15
16
17
18
19
20
21
22
23
24
25
26
27
28
29
30
31
32
33
34
35
36
37
38
39
40
41
42
43
44
45
46
47
48
49
50
51
52
53
54
55
56
57
58
59
60
61
62
63
64
65
66
67
68
69
70
71
72
73
74
75
76
77
78
79
80
81
82
83
84
85
86
87
88
89
90
91
92
93
94
95
96
97
98
99
100
101
102
103
104
105
106
107
108
109
110
111
112
113
114
115
116
117
118
119
120
0
2
4
6
8
10
12
14
16
18
20
22
24
26
28
30
32
34
36
38
40
42
44
46
48
50
52
54
56
58
60
62
64
66
68
70
72
74
76
78
80
82
84
86
88
90
92
94
96
98
100
102
104
106
108
110
112
114
116
118
120
0
1
2
3
4
5
6
7
8
9
10
11
12
13
14
15
16
17
18
19
20
21
22
23
24
25
26
27
28
29
30
31
32
33
34
35
36
37
38
39
40
41
42
43
44
45
46
47
48
49
50
51
52
53
54
55
56
57
58
59
60
61
62
63
64
65
66
67
68
69
70
71
72
73
74
75
76
77
78
79
80
81
82
83
84
85
86
87
88
89
90
91
92
93
94
95
96
97
98
99
100
101
102
103
104
105
106
107
108
109
110
111
112
113
114
115
116
117
118
119
120
0
2
4
6
8
10
12
14
16
18
20
22
24
26
28
30
32
34
36
38
40
42
44
46
48
50
52
54
56
58
60
62
64
66
68
70
72
74
76
78
80
82
84
86
88
90
92
94
96
98
100
102
104
106
108
110
112
114
116
118
120
0
1
2
3
4
5
6
7
8
9
10
11
12
13
14
15
16
17
18
19
20
21
22
23
24
25
26
27
28
29
30
31
32
33
34
35
36
37
38
39
40
41
42
43
44
45
46
47
48
49
50
51
52
53
54
55
56
57
58
59
60
61
62
63
64
65
66
67
68
69
70
71
72
73
74
75
76
77
78
79
80
81
82
83
84
85
86
87
88
89
90
91
92
93
94
95
96
97
98
99
100
101
102
103
104
105
106
107
108
109
110
111
112
113
114
115
116
117
118
119
120
0
2
4
6
8
10
12
14
16
18
20
22
24
26
28
30
32
34
36
38
40
42
44
46
48
50
52
54
56
58
60
62
64
66
68
70
72
74
76
78
80
82
84
86
88
90
92
94
96
98
100
102
104
106
108
110
112
114
116
118
120
0
1
2
3
4
5
6
7
8
9
10
11
12
13
14
15
16
17
18
19
20
21
22
23
24
25
26
27
28
29
30
31
32
33
34
35
36
37
38
39
40
41
42
43
44
45
46
47
48
49
50
51
52
53
54
55
56
57
58
59
60
61
62
63
64
65
66
67
68
69
70
71
72
73
74
75
76
77
78
79
80
81
82
83
84
85
86
87
88
89
90
91
92
93
94
95
96
97
98
99
100
101
102
103
104
105
106
107
108
109
110
111
112
113
114
115
116
117
118
119
120
0
2
4
6
8
10
12
14
16
18
20
22
24
26
28
30
32
34
36
38
40
42
44
46
48
50
52
54
56
58
60
62
64
66
68
70
72
74
76
78
80
82
84
86
88
90
92
94
96
98
100
102
104
106
108
110
112
114
116
118
120
0
1
2
3
4
5
6
7
8
9
10
11
12
13
14
15
16
17
18
19
20
21
22
23
24
25
26
27
28
29
30
31
32
33
34
35
36
37
38
39
40
41
42
43
44
45
46
47
48
49
50
51
52
53
54
55
56
57
58
59
60
61
62
63
64
65
66
67
68
69
70
71
72
73
74
75
76
77
78
79
80
81
82
83
84
85
86
87
88
89
90
91
92
93
94
95
96
97
98
99
100
101
102
103
104
105
106
107
108
109
110
111
112
113
114
115
116
117
118
119
120
0
2
4
6
8
10
12
14
16
18
20
22
24
26
28
30
32
34
36
38
40
42
44
46
48
50
52
54
56
58
60
62
64
66
68
70
72
74
76
78
80
82
84
86
88
90
92
94
96
98
100
102
104
106
108
110
112
114
116
118
120
0
1
2
3
4
5
6
7
8
9
10
11
12
13
14
15
16
17
18
19
20
21
22
23
24
25
26
27
28
29
30
31
32
33
34
35
36
37
38
39
40
41
42
43
44
45
46
47
48
49
50
51
52
53
54
55
56
57
58
59
60
61
62
63
64
65
66
67
68
69
70
71
72
73
74
75
76
77
78
79
80
81
82
83
84
85
86
87
88
89
90
91
92
93
94
95
96
97
98
99
100
101
102
103
104
105
106
107
108
109
110
111
112
113
114
115
116
117
118
119
120
0
2
4
6
8
10
12
14
16
18
20
22
24
26
28
30
32
34
36
38
40
42
44
46
48
50
52
54
56
58
60
62
64
66
68
70
72
74
76
78
80
82
84
86
88
90
92
94
96
98
100
102
104
106
108
110
112
114
116
118
120
0
1
2
3
4
5
6
7
8
9
10
11
12
13
14
15
16
17
18
19
20
21
22
23
24
25
26
27
28
29
30
31
32
33
34
35
36
37
38
39
40
41
42
43
44
45
46
47
48
49
50
51
52
53
54
55
56
57
58
59
60
61
62
63
64
65
66
67
68
69
70
71
72
73
74
75
76
77
78
79
80
81
82
83
84
85
86
87
88
89
90
91
92
93
94
95
96
97
98
99
100
101
102
103
104
105
106
107
108
109
110
111
112
113
114
115
116
117
118
119
120
0
2
4
6
8
10
12
14
16
18
20
22
24
26
28
30
32
34
36
38
40
42
44
46
48
50
52
54
56
58
60
62
64
66
68
70
72
74
76
78
80
82
84
86
88
90
92
94
96
98
100
102
104
106
108
110
112
114
116
118
120
0
1
2
3
4
5
6
7
8
9
10
11
12
13
14
15
16
17
18
19
20
21
22
23
24
25
26
27
28
29
30
31
32
33
34
35
36
37
38
39
40
41
42
43
44
45
46
47
48
49
50
51
52
53
54
55
56
57
58
59
60
61
62
63
64
65
66
67
68
69
70
71
72
73
74
75
76
77
78
79
80
81
82
83
84
85
86
87
88
89
90
91
92
93
94
95
96
97
98
99
100
101
102
103
104
105
106
107
108
109
110
111
112
113
114
115
116
117
118
119
120
0
2
4
6
8
10
12
14
16
18
20
22
24
26
28
30
32
34
36
38
40
42
44
46
48
50
52
54
56
58
60
62
64
66
68
70
72
74
76
78
80
82
84
86
88
90
92
94
96
98
100
102
104
106
108
110
112
114
116
118
120
0
1
2
3
4
5
6
7
8
9
10
11
12
13
14
15
16
17
18
19
20
21
22
23
24
25
26
27
28
29
30
31
32
33
34
35
36
37
38
39
40
41
42
43
44
45
46
47
48
49
50
51
52
53
54
55
56
57
58
59
60
61
62
63
64
65
66
67
68
69
70
71
72
73
74
75
76
77
78
79
80
81
82
83
84
85
86
87
88
89
90
91
92
93
94
95
96
97
98
99
100
101
102
103
104
105
106
107
108
109
110
111
112
113
114
115
116
117
118
119
120
0
2
4
6
8
10
12
14
16
18
20
22
24
26
28
30
32
34
36
38
40
42
44
46
48
50
52
54
56
58
60
62
64
66
68
70
72
74
76
78
80
82
84
86
88
90
92
94
96
98
100
102
104
106
108
110
112
114
116
118
120
0
1
2
3
4
5
6
7
8
9
10
11
12
13
14
15
16
17
18
19
20
21
22
23
24
25
26
27
28
29
30
31
32
33
34
35
36
37
38
39
40
41
42
43
44
45
46
47
48
49
50
51
52
53
54
55
56
57
58
59
60
61
62
63
64
65
66
67
68
69
70
71
72
73
74
75
76
77
78
79
80
81
82
83
84
85
86
87
88
89
90
91
92
93
94
95
96
97
98
99
100
101
102
103
104
105
106
107
108
109
110
111
112
113
114
115
116
117
118
119
120
SCALARS Depth double 1
LOOKUP_TABLE default
0
0
0
0
0
0
0
0
0
0
0
0
0
0
0
0
0
0
0
0
0
0
0
0
0
0
0
0
0
0
0
0
0
0
0
0
0
0
0
0
0
0
0
0
0
0
0
0
0
0
0
0
0
0
0
0
0
0
0
0
0
0
0
0
0
0
0
0
0
0
0
0
0
0
0
0
0
0
0
0
0
0
0
0
0
0
0
0
0
0
0
0
0
0
0
0
0
0
0
0
0
0
0
0
0
0
0
0
0
0
0
0
0
0
0
0
0
0
0
0
0
-0.0952
-0.0952
-0.0952
-0.0952
-0.0952
-0.0952
-0.0952
-0.0952
-0.0952
-0.0952
-0.0952
-0.0952
-0.0952
-0.0952
-0.0952
-0.0952
-0.0952
-0.0952
-0.0952
-0.0952
-0.0952
-0.0952
-0.0952
-0.0952
-0.0952
-0.0952
-0.0952
-0.0952
-0.0952
-0.0952
-0.0952
-0.0952
-0.0952
-0.0952
-0.0952
-0.0952
-0.0952
-0.0952
-0.0952
-0.0952
-0.0952
-0.0952
-0.0952
-0.0952
-0.0952
-0.0952
-0.0952
-0.0952
-0.0952
-0.0952
-0.0952
-0.0952
-0.0952
-0.0952
-0.0952
-0.0952
-0.0952
-0.0952
-0.0952
-0.0952
-0.0952
-0.1905
-0.1905
-0.1905
-0.1905
-0.1905
-0.1905
-0.1905
-0.1905
-0.1905
-0.1905
-0.1905
-0.1905
-0.1905
-0.1905
-0.1905
-0.1905
-0.1905
-0.1905
-0.1905
-0.1905
-0.1905
-0.1905
-0.1905
-0.1905
-0.1905
-0.1905
-0.1905
-0.1905
-0.1905
-0.1905
-0.1905
-0.1905
-0.1905
-0.1905
-0.1905
-0.1905
-0.1905
-0.1905
-0.1905
-0.1905
-0.1905
-0.1905
-0.1905
-0.1905
-0.1905
-0.1905
-0.1905
-0.1905
-0.1905
-0.1905
-0.1905
-0.1905
-0.1905
-0.1905
-0.1905
-0.1905
-0.1905
-0.1905
-0.1905
-0.1905
-0.1905
-0.1905
-0.1905
-0.1905
-0.1905
-0.1905
-0.1905
-0.1905
-0.1905
-0.1905
-0.1905
-0.1905
-0.1905
-0.1905
-0.1905
-0.1905
-0.1905
-0.1905
-0.1905
-0.1905
-0.1905
-0.1905
-0.1905
-0.1905
-0.1905
-0.1905
-0.1905
-0.1905
-0.1905
-0.1905
-0.1905
-0.1905
-0.1905
-0.1905
-0.1905
-0.1905
-0.1905
-0.1905
-0.1905
-0.1905
-0.1905
-0.1905
-0.1905
-0.1905
-0.1905
-0.1905
-0.1905
-0.1905
-0.1905
-0.1905
-0.1905
-0.1905
-0.1905
-0.1905
-0.1905
-0.1905
-0.1905
-0.1905
-0.1905
-0.1905
-0.1905
-0.2857
-0.2857
-0.2857
-0.2857
-0.2857
-0.2857
-0.2857
-0.2857
-0.2857
-0.2857
-0.2857
-0.2857
-0.2857
-0.2857
-0.2857
-0.2857
-0.2857
-0.2857
-0.2857
-0.2857
-0.2857
-0.2857
-0.2857
-0.2857
-0.2857
-0.2857
-0.2857
-0.2857
-0.2857
-0.2857
-0.2857
-0.2857
-0.2857
-0.2857
-0.2857
-0.2857
-0.2857
-0.2857
-0.2857
-0.2857
-0.2857
-0.2857
-0.2857
-0.2857
-0.2857
-0.2857
-0.2857
-0.2857
-0.2857
-0.2857
-0.2857
-0.2857
-0.2857
-0.2857
-0.2857
-0.2857
-0.2857
-0.2857
-0.2857
-0.2857
-0.2857
-0.381
-0.381
-0.381
-0.381
-0.381
-0.381
-0.381
-0.381
-0.381
-0.381
-0.381
-0.381
-0.381
-0.381
-0.381
-0.381
-0.381
-0.381
-0.381
-0.381
-0.381
-0.381
-0.381
-0.381
-0.381
-0.381
-0.381
-0.381
-0.381
-0.381
-0.381
-0.381
-0.381
-0.381
-0.381
-0.381
-0.381
-0.381
-0.381
-0.381
-0.381
-0.381
-0.381
-0.381
-0.381
-0.381
-0.381
-0.381
-0.381
-0.381
-0.381
-0.381
-0.381
-0.381
-0.381
-0.381
-0.381
-0.381
-0.381
-0.381
-0.381
-0.381
-0.381
-0.381
-0.381
-0.381
-0.381
-0.381
-0.381
-0.381
-0.381
-0.381
-0.381
-0.381
-0.381
-0.381
-0.381
-0.381
-0.381
-0.381
-0.381
-0.381
-0.381
-0.381
-0.381
-0.381
-0.381
-0.381
-0.381
-0.381
-0.381
-0.381
-0.381
-0.381
-0.381
-0.381
-0.381
-0.381
-0.381
-0.381
-0.381
-0.381
-0.381
-0.381
-0.381
-0.381
-0.381
-0.381
-0.381
-0.381
-0.381
-0.381
-0.381
-0.381
-0.381
-0.381
-0.381
-0.381
-0.381
-0.381
-0.381
-0.4762
-0.4762
-0.4762
-0.4762
-0.4762
-0.4762
-0.4762
-0.4762
-0.4762
-0.4762
-0.4762
-0.4762
-0.4762
-0.4762
-0.4762
-0.4762
-0.4762
-0.4762
-0.4762
-0.4762
-0.4762
-0.4762
-0.4762
-0.4762
-0.4762
-0.4762
-0.4762
-0.4762
-0.4762
-0.4762
-0.4762
-0.4762
-0.4762
-0.4762
-0.4762
-0.4762
-0.4762
-0.4762
-0.4762
-0.4762
-0.4762
-0.4762
-0.4762
-0.4762
-0.4762
-0.4762
-0.4762
-0.4762
-0.4762
-0.4762
-0.4762
-0.4762
-0.4762
-0.4762
-0.4762
-0.4762
-0.4762
-0.4762
-0.4762
-0.4762
-0.4762
-0.5714
-0.5714
-0.5714
-0.5714
-0.5714
-0.5714
-0.5714
-0.5714
-0.5714
-0.5714
-0.5714
-0.5714
-0.5714
-0.5714
-0.5714
-0.5714
-0.5714
-0.5714
-0.5714
-0.5714
-0.5714
-0.5714
-0.5714
-0.5714
-0.5714
-0.5714
-0.5714
-0.5714
-0.5714
-0.5714
-0.5714
-0.5714
-0.5714
-0.5714
-0.5714
-0.5714
-0.5714
-0.5714
-0.5714
-0.5714
-0.5714
-0.5714
-0.5714
-0.5714
-0.5714
-0.5714
-0.5714
-0.5714
-0.5714
-0.5714
-0.5714
-0.5714
-0.5714
-0.5714
-0.5714
-0.5714
-0.5714
-0.5714
-0.5714
-0.5714
-0.5714
-0.5714
-0.5714
-0.5714
-0.5714
-0.5714
-0.5714
-0.5714
-0.5714
-0.5714
-0.5714
-0.5714
-0.5714
-0.5714
-0.5714
-0.5714
-0.5714
-0.5714
-0.5714
-0.5714
-0.5714
-0.5714
-0.5714
-0.5714
-0.5714
-0.5714
-0.5714
-0.5714
-0.5714
-0.5714
-0.5714
-0.5714
-0.5714
-0.5714
-0.5714
-0.5714
-0.5714
-0.5714
-0.5714
-0.5714
-0.5714
-0.5714
-0.5714
-0.5714
-0.5714
-0.5714
-0.5714
-0.5714
-0.5714
-0.5714
-0.5714
-0.5714
-0.5714
-0.5714
-0.5714
-0.5714
-0.5714
-0.5714
-0.5714
-0.5714
-0.5714
-0.6667
-0.6667
-0.6667
-0.6667
-0.6667
-0.6667
-0.6667
-0.6667
-0.6667
-0.6667
-0.6667
-0.6667
-0.6667
-0.6667
-0.6667
-0.6667
-0.6667
-0.6667
-0.6667
-0.6667
-0.6667
-0.6667
-0.6667
-0.6667
-0.6667
-0.6667
-0.6667
-0.6667
-0.6667
-0.6667
-0.6667
-0.6667
-0.6667
-0.6667
-0.6667
-0.6667
-0.6667
-0.6667
-0.6667
-0.6667
-0.6667
-0.6667
-0.6667
-0.6667
-0.6667
-0.6667
-0.6667
-0.6667
-0.6667
-0.6667
-0.6667
-0.6667
-0.6667
-0.6667
-0.6667
-0.6667
-0.6667
-0.6667
-0.6667
-0.6667
-0.6667
-0.7619
-0.7619
-0.7619
-0.7619
-0.7619
-0.7619
-0.7619
-0.7619
-0.7619
-0.7619
-0.7619
-0.7619
-0.7619
-0.7619
-0.7619
-0.7619
-0.7619
-0.7619
-0.7619
-0.7619
-0.7619
-0.7619
-0.7619
-0.7619
-0.7619
-0.7619
-0.7619
-0.7619
-0.7619
-0.7619
-0.7619
-0.7619
-0.7619
-0.7619
-0.7619
-0.7619
-0.7619
-0.7619
-0.7619
-0.7619
-0.7619
-0.7619
-0.7619
-0.7619
-0.7619
-0.7619
-0.7619
-0.7619
-0.7619
-0.7619
-0.7619
-0.7619
-0.7619
-0.7619
-0.7619
-0.7619
-0.7619
-0.7619
-0.7619
-0.7619
-0.7619
-0.7619
-0.7619
-0.7619
-0.7619
-0.7619
-0.7619
-0.7619
-0.7619
-0.7619
-0.7619
-0.7619
-0.7619
-0.7619
-0.7619
-0.7619
-0.7619
-0.7619
-0.7619
-0.7619
-0.7619
-0.7619
-0.7619
-0.7619
-0.7619
-0.7619
-0.7619
-0.7619
-0.7619
-0.7619
-0.7619
-0.7619
-0.7619
-0.7619
-0.7619
-0.7619
-0.7619
-0.7619
-0.7619
-0.7619
-0.7619
-0.7619
-0.7619
-0.7619
-0.7619
-0.7619
-0.7619
-0.7619
-0.7619
-0.7619
-0.7619
-0.7619
-0.7619
-0.7619
-0.7619
-0.7619
-0.7619
-0.7619
-0.7619
-0.7619
-0.7619
-0.8571
-0.8571
-0.8571
-0.8571
-0.8571
-0.8571
-0.8571
-0.8571
-0.8571
-0.8571
-0.8571
-0.8571
-0.8571
-0.8571
-0.8571
-0.8571
-0.8571
-0.8571
-0.8571
-0.8571
-0.8571
-0.8571
-0.8571
-0.8571
-0.8571
-0.8571
-0.8571
-0.8571
-0.8571
-0.8571
-0.8571
-0.8571
-0.8571
-0.8571
-0.8571
-0.8571
-0.8571
-0.8571
-0.8571
-0.8571
-0.8571
-0.8571
-0.8571
-0.8571
-0.8571
-0.8571
-0.8571
-0.8571
-0.8571
-0.8571
-0.8571
-0.8571
-0.8571
-0.8571
-0.8571
-0.8571
-0.8571
-0.8571
-0.8571
-0.8571
-0.8571
-0.9524
-0.9524
-0.9524
-0.9524
-0.9524
-0.9524
-0.9524
-0.9524
-0.9524
-0.9524
-0.9524
-0.9524
-0.9524
-0.9524
-0.9524
-0.9524
-0.9524
-0.9524
-0.9524
-0.9524
-0.9524
-0.9524
-0.9524
-0.9524
-0.9524
-0.9524
-0.9524
-0.9524
-0.9524
-0.9524
-0.9524
-0.9524
-0.9524
-0.9524
-0.9524
-0.9524
-0.9524
-0.9524
-0.9524
-0.9524
-0.9524
-0.9524
-0.9524
-0.9524
-0.9524
-0.9524
-0.9524
-0.9524
-0.9524
-0.9524
-0.9524
-0.9524
-0.9524
-0.9524
-0.9524
-0.9524
-0.9524
-0.9524
-0.9524
-0.9524
-0.9524
-0.9524
-0.9524
-0.9524
-0.9524
-0.9524
-0.9524
-0.9524
-0.9524
-0.9524
-0.9524
-0.9524
-0.9524
-0.9524
-0.9524
-0.9524
-0.9524
-0.9524
-0.9524
-0.9524
-0.9524
-0.9524
-0.9524
-0.9524
-0.9524
-0.9524
-0.9524
-0.9524
-0.9524
-0.9524
-0.9524
-0.9524
-0.9524
-0.9524
-0.9524
-0.9524
-0.9524
-0.9524
-0.9524
-0.9524
-0.9524
-0.9524
-0.9524
-0.9524
-0.9524
-0.9524
-0.9524
-0.9524
-0.9524
-0.9524
-0.9524
-0.9524
-0.9524
-0.9524
-0.9524
-0.9524
-0.9524
-0.9524
-0.9524
-0.9524
-0.9524
-1.0476
-1.0476
-1.0476
-1.0476
-1.0476
-1.0476
-1.0476
-1.0476
-1.0476
-1.0476
-1.0476
-1.0476
-1.0476
-1.0476
-1.0476
-1.0476
-1.0476
-1.0476
-1.0476
-1.0476
-1.0476
-1.0476
-1.0476
-1.0476
-1.0476
-1.0476
-1.0476
-1.0476
-1.0476
-1.0476
-1.0476
-1.0476
-1.0476
-1.0476
-1.0476
-1.0476
-1.0476
-1.0476
-1.0476
-1.0476
-1.0476
-1.0476
-1.0476
-1.0476
-1.0476
-1.0476
-1.0476
-1.0476
-1.0476
-1.0476
-1.0476
-1.0476
-1.0476
-1.0476
-1.0476
-1.0476
-1.0476
-1.0476
-1.0476
-1.0476
-1.0476
-1.1429
-1.1429
-1.1429
-1.1429
-1.1429
-1.1429
-1.1429
-1.1429
-1.1429
-1.1429
-1.1429
-1.1429
-1.1429
-1.1429
-1.1429
-1.1429
-1.1429
-1.1429
-1.1429
-1.1429
-1.1429
-1.1429
-1.1429
-1.1429
-1.1429
-1.1429
-1.1429
-1.1429
-1.1429
-1.1429
-1.1429
-1.1429
-1.1429
-1.1429
-1.1429
-1.1429
-1.1429
-1.1429
-1.1429
-1.1429
-1.1429
-1.1429
-1.1429
-1.1429
-1.1429
-1.1429
-1.1429
-1.1429
-1.1429
-1.1429
-1.1429
-1.1429
-1.1429
-1.1429
-1.1429
-1.1429
-1.1429
-1.1429
-1.1429
-1.1429
-1.1429
-1.1429
-1.1429
-1.1429
-1.1429
-1.1429
-1.1429
-1.1429
-1.1429
-1.1429
-1.1429
-1.1429
-1.1429
-1.1429
-1.1429
-1.1429
-1.1429
-1.1429
-1.1429
-1.1429
-1.1429
-1.1429
-1.1429
-1.1429
-1.1429
-1.1429
-1.1429
-1.1429
-1.1429
-1.1429
-1.1429
-1.1429
-1.1429
-1.1429
-1.1429
-1.1429
-1.1429
-1.1429
-1.1429
-1.1429
-1.1429
-1.1429
-1.1429
-1.1429
-1.1429
-1.1429
-1.1429
-1.1429
-1.1429
-1.1429
-1.1429
-1.1429
-1.1429
-1.1429
-1.1429
-1.1429
-1.1429
-1.1429
-1.1429
-1.1429
-1.1429
-1.2381
-1.2381
-1.2381
-1.2381
-1.2381
-1.2381
-1.2381
-1.2381
-1.2381
-1.2381
-1.2381
-1.2381
-1.2381
-1.2381
-1.2381
-1.2381
-1.2381
-1.2381
-1.2381
-1.2381
-1.2381
-1.2381
-1.2381
-1.2381
-1.2381
-1.2381
-1.2381
-1.2381
-1.2381
-1.2381
-1.2381
-1.2381
-1.2381
-1.2381
-1.2381
-1.2381
-1.2381
-1.2381
-1.2381
-1.2381
-1.2381
-1.2381
-1.2381
-1.2381
-1.2381
-1.2381
-1.2381
-1.2381
-1.2381
-1.2381
-1.2381
-1.2381
-1.2381
-1.2381
-1.2381
-1.2381
-1.2381
-1.2381
-1.2381
-1.2381
-1.2381
-1.3333
-1.3333
-1.3333
-1.3333
-1.3333
-1.3333
-1.3333
-1.3333
-1.3333
-1.3333
-1.3333
-1.3333
-1.3333
-1.3333
-1.3333
-1.3333
-1.3333
-1.3333
-1.3333
-1.3333
-1.3333
-1.3333
-1.3333
-1.3333
-1.3333
-1.3333
-1.3333
-1.3333
-1.3333
-1.3333
-1.3333
-1.3333
-1.3333
-1.3333
-1.3333
-1.3333
-1.3333
-1.3333
-1.3333
-1.3333
-1.3333
-1.3333
-1.3333
-1.3333
-1.3333
-1.3333
-1.3333
-1.3333
-1.3333
-1.3333
-1.3333
-1.3333
-1.3333
-1.3333
-1.3333
-1.3333
-1.3333
-1.3333
-1.3333
-1.3333
-1.3333
-1.3333
-1.3333
-1.3333
-1.3333
-1.3333
-1.3333
-1.3333
-1.3333
-1.3333
-1.3333
-1.3333
-1.3333
-1.3333
-1.3333
-1.3333
-1.3333
-1.3333
-1.3333
-1.3333
-1.3333
-1.3333
-1.3333
-1.3333
-1.3333
-1.3333
-1.3333
-1.3333
-1.3333
-1.3333
-1.3333
-1.3333
-1.3333
-1.3333
-1.3333
-1.3333
-1.3333
-1.3333
-1.3333
-1.3333
-1.3333
-1.3333
-1.3333
-1.3333
-1.3333
-1.3333
-1.3333
-1.3333
-1.3333
-1.3333
-1.3333
-1.3333
-1.3333
-1.3333
-1.3333
-1.3333
-1.3333
-1.3333
-1.3333
-1.3333
-1.3333
-1.4286
-1.4286
-1.4286
-1.4286
-1.4286
-1.4286
-1.4286
-1.4286
-1.4286
-1.4286
-1.4286
-1.4286
-1.4286
-1.4286
-1.4286
-1.4286
-1.4286
-1.4286
-1.4286
-1.4286
-1.4286
-1.4286
-1.4286
-1.4286
-1.4286
-1.4286
-1.4286
-1.4286
-1.4286
-1.4286
-1.4286
-1.4286
-1.4286
-1.4286
-1.4286
-1.4286
-1.4286
-1.4286
-1.4286
-1.4286
-1.4286
-1.4286
-1.4286
-1.4286
-1.4286
-1.4286
-1.4286
-1.4286
-1.4286
-1.4286
-1.4286
-1.4286
-1.4286
-1.4286
-1.4286
-1.4286
-1.4286
-1.4286
-1.4286
-1.4286
-1.4286
-1.5238
-1.5238
-1.5238
-1.5238
-1.5238
-1.5238
-1.5238
-1.5238
-1.5238
-1.5238
-1.5238
-1.5238
-1.5238
-1.5238
-1.5238
-1.5238
-1.5238
-1.5238
-1.5238
-1.5238
-1.5238
-1.5238
-1.5238
-1.5238
-1.5238
-1.5238
-1.5238
-1.5238
-1.5238
-1.5238
-1.5238
-1.5238
-1.5238
-1.5238
-1.5238
-1.5238
-1.5238
-1.5238
-1.5238
-1.5238
-1.5238
-1.5238
-1.5238
-1.5238
-1.5238
-1.5238
-1.5238
-1.5238
-1.5238
-1.5238
-1.5238
-1.5238
-1.5238
-1.5238
-1.5238
-1.5238
-1.5238
-1.5238
-1.5238
-1.5238
-1.5238
-1.5238
-1.5238
-1.5238
-1.5238
-1.5238
-1.5238
-1.5238
-1.5238
-1.5238
-1.5238
-1.5238
-1.5238
-1.5238
-1.5238
-1.5238
-1.5238
-1.5238
-1.5238
-1.5238
-1.5238
-1.5238
-1.5238
-1.5238
-1.5238
-1.5238
-1.5238
-1.5238
-1.5238
-1.5238
-1.5238
-1.5238
-1.5238
-1.5238
-1.5238
-1.5238
-1.5238
-1.5238
-1.5238
-1.5238
-1.5238
-1.5238
-1.5238
-1.5238
-1.5238
-1.5238
-1.5238
-1.5238
-1.5238
-1.5238
-1.5238
-1.5238
-1.5238
-1.5238
-1.5238
-1.5238
-1.5238
-1.5238
-1.5238
-1.5238
-1.5238
-1.619
-1.619
-1.619
-1.619
-1.619
-1.619
-1.619
-1.619
-1.619
-1.619
-1.619
-1.619
-1.619
-1.619
-1.619
-1.619
-1.619
-1.619
-1.619
-1.619
-1.619
-1.619
-1.619
-1.619
-1.619
-1.619
-1.619
-1.619
-1.619
-1.619
-1.619
-1.619
-1.619
-1.619
-1.619
-1.619
-1.619
-1.619
-1.619
-1.619
-1.619
-1.619
-1.619
-1.619
-1.619
-1.619
-1.619
-1.619
-1.619
-1.619
-1.619
-1.619
-1.619
-1.619
-1.619
-1.619
-1.619
-1.619
-1.619
-1.619
-1.619
-1.7143
-1.7143
-1.7143
-1.7143
-1.7143
-1.7143
-1.7143
-1.7143
-1.7143
-1.7143
-1.7143
-1.7143
-1.7143
-1.7143
-1.7143
-1.7143
-1.7143
-1.7143
-1.7143
-1.7143
-1.7143
-1.7143
-1.7143
-1.7143
-1.7143
-1.7143
-1.7143
-1.7143
-1.7143
-1.7143
-1.7143
-1.7143
-1.7143
-1.7143
-1.7143
-1.7143
-1.7143
-1.7143
-1.7143
-1.7143
-1.7143
-1.7143
-1.7143
-1.7143
-1.7143
-1.7143
-1.7143
-1.7143
-1.7143
-1.7143
-1.7143
-1.7143
-1.7143
-1.7143
-1.7143
-1.7143
-1.7143
-1.7143
-1.7143
-1.7143
-1.7143
-1.7143
-1.7143
-1.7143
-1.7143
-1.7143
-1.7143
-1.7143
-1.7143
-1.7143
-1.7143
-1.7143
-1.7143
-1.7143
-1.7143
-1.7143
-1.7143
-1.7143
-1.7143
-1.7143
-1.7143
-1.7143
-1.7143
-1.7143
-1.7143
-1.7143
-1.7143
-1.7143
-1.7143
-1.7143
-1.7143
-1.7143
-1.7143
-1.7143
-1.7143
-1.7143
-1.7143
-1.7143
-1.7143
-1.7143
-1.7143
-1.7143
-1.7143
-1.7143
-1.7143
-1.7143
-1.7143
-1.7143
-1.7143
-1.7143
-1.7143
-1.7143
-1.7143
-1.7143
-1.7143
-1.7143
-1.7143
-1.7143
-1.7143
-1.7143
-1.7143
-1.8095
-1.8095
-1.8095
-1.8095
-1.8095
-1.8095
-1.8095
-1.8095
-1.8095
-1.8095
-1.8095
-1.8095
-1.8095
-1.8095
-1.8095
-1.8095
-1.8095
-1.8095
-1.8095
-1.8095
-1.8095
-1.8095
-1.8095
-1.8095
-1.8095
-1.8095
-1.8095
-1.8095
-1.8095
-1.8095
-1.8095
-1.8095
-1.8095
-1.8095
-1.8095
-1.8095
-1.8095
-1.8095
-1.8095
-1.8095
-1.8095
-1.8095
-1.8095
-1.8095
-1.8095
-1.8095
-1.8095
-1.8095
-1.8095
-1.8095
-1.8095
-1.8095
-1.8095
-1.8095
-1.8095
-1.8095
-1.8095
-1.8095
-1.8095
-1.8095
-1.8095
-1.9048
-1.9048
-1.9048
-1.9048
-1.9048
-1.9048
-1.9048
-1.9048
-1.9048
-1.9048
-1.9048
-1.9048
-1.9048
-1.9048
-1.9048
-1.9048
-1.9048
-1.9048
-1.9048
-1.9048
-1.9048
-1.9048
-1.9048
-1.9048
-1.9048
-1.9048
-1.9048
-1.9048
-1.9048
-1.9048
-1.9048
-1.9048
-1.9048
-1.9048
-1.9048
-1.9048
-1.9048
-1.9048
-1.9048
-1.9048
-1.9048
-1.9048
-1.9048
-1.9048
-1.9048
-1.9048
-1.9048
-1.9048
-1.9048
-1.9048
-1.9048
-1.9048
-1.9048
-1.9048
-1.9048
-1.9048
-1.9048
-1.9048
-1.9048
-1.9048
-1.9048
-1.9048
-1.9048
-1.9048
-1.9048
-1.9048
-1.9048
-1.9048
-1.9048
-1.9048
-1.9048
-1.9048
-1.9048
-1.9048
-1.9048
-1.9048
-1.9048
-1.9048
-1.9048
-1.9048
-1.9048
-1.9048
-1.9048
-1.9048
-1.9048
-1.9048
-1.9048
-1.9048
-1.9048
-1.9048
-1.9048
-1.9048
-1.9048
-1.9048
-1.9048
-1.9048
-1.9048
-1.9048
-1.9048
-1.9048
-1.9048
-1.9048
-1.9048
-1.9048
-1.9048
-1.9048
-1.9048
-1.9048
-1.9048
-1.9048
-1.9048
-1.9048
-1.9048
-1.9048
-1.9048
-1.9048
-1.9048
-1.9048
-1.9048
-1.9048
-1.9048
-2
-2
-2
-2
-2
-2
-2
-2
-2
-2
-2
-2
-2
-2
-2
-2
-2
-2
-2
-2
-2
-2
-2
-2
-2
-2
-2
-2
-2
-2
-2
-2
-2
-2
-2
-2
-2
-2
-2
-2
-2
-2
-2
-2
-2
-2
-2
-2
-2
-2
-2
-2
-2
-2
-2
-2
-2
-2
-2
-2
-2
-2.0952
-2.0952
-2.0952
-2.0952
-2.0952
-2.0952
-2.0952
-2.0952
-2.0952
-2.0952
-2.0952
-2.0952
-2.0952
-2.0952
-2.0952
-2.0952
-2.0952
-2.0952
-2.0952
-2.0952
-2.0952
-2.0952
-2.0952
-2.0952
-2.0952
-2.0952
-2.0952
-2.0952
-2.0952
-2.0952
-2.0952
-2.0952
-2.0952
-2.0952
-2.0952
-2.0952
-2.0952
-2.0952
-2.0952
-2.0952
-2.0952
-2.0952
-2.0952
-2.0952
-2.0952
-2.0952
-2.0952
-2.0952
-2.0952
-2.0952
-2.0952
-2.0952
-2.0952
-2.0952
-2.0952
-2.0952
-2.0952
-2.0952
-2.0952
-2.0952
-2.0952
-2.0952
-2.0952
-2.0952
-2.0952
-2.0952
-2.0952
-2.0952
-2.0952
-2.0952
-2.0952
-2.0952
-2.0952
-2.0952
-2.0952
-2.0952
-2.0952
-2.0952
-2.0952
-2.0952
-2.0952
-2.0952
-2.0952
-2.0952
-2.0952
-2.0952
-2.0952
-2.0952
-2.0952
-2.0952
-2.0952
-2.0952
-2.0952
-2.0952
-2.0952
-2.0952
-2.0952
-2.0952
-2.0952
-2.0952
-2.0952
-2.0952
-2.0952
-2.0952
-2.0952
-2.0952
-2.0952
-2.0952
-2.0952
-2.0952
-2.0952
-2.0952
-2.0952
-2.0952
-2.0952
-2.0952
-2.0952
-2.0952
-2.0952
-2.0952
-2.0952
-2.1905
-2.1905
-2.1905
-2.1905
-2.1905
-2.1905
-2.1905
-2.1905
-2.1905
-2.1905
-2.1905
-2.1905
-2.1905
-2.1905
-2.1905
-2.1905
-2.1905
-2.1905
-2.1905
-2.1905
-2.1905
-2.1905
-2.1905
-2.1905
-2.1905
-2.1905
-2.1905
-2.1905
-2.1905
-2.1905
-2.1905
-2.1905
-2.1905
-2.1905
-2.1905
-2.1905
-2.1905
-2.1905
-2.1905
-2.1905
-2.1905
-2.1905
-2.1905
-2.1905
-2.1905
-2.1905
-2.1905
-2.1905
-2.1905
-2.1905
-2.1905
-2.1905
-2.1905
-2.1905
-2.1905
-2.1905
-2.1905
-2.1905
-2.1905
-2.1905
-2.1905
-2.2857
-2.2857
-2.2857
-2.2857
-2.2857
-2.2857
-2.2857
-2.2857
-2.2857
-2.2857
-2.2857
-2.2857
-2.2857
-2.2857
-2.2857
-2.2857
-2.2857
-2.2857
-2.2857
-2.2857
-2.2857
-2.2857
-2.2857
-2.2857
-2.2857
-2.2857
-2.2857
-2.2857
-2.2857
-2.2857
-2.2857
-2.2857
-2.2857
-2.2857
-2.2857
-2.2857
-2.2857
-2.2857
-2.2857
-2.2857
-2.2857
-2.2857
-2.2857
-2.2857
-2.2857
-2.2857
-2.2857
-2.2857
-2.2857
-2.2857
-2.2857
-2.2857
-2.2857
-2.2857
-2.2857
-2.2857
-2.2857
-2.2857
-2.2857
-2.2857
-2.2857
-2.2857
-2.2857
-2.2857
-2.2857
-2.2857
-2.2857
-2.2857
-2.2857
-2.2857
-2.2857
-2.2857
-2.2857
-2.2857
-2.2857
-2.2857
-2.2857
-2.2857
-2.2857
-2.2857
-2.2857
-2.2857
-2.2857
-2.2857
-2.2857
-2.2857
-2.2857
-2.2857
-2.2857
-2.2857
-2.2857
-2.2857
-2.2857
-2.2857
-2.2857
-2.2857
-2.2857
-2.2857
-2.2857
-2.2857
-2.2857
-2.2857
-2.2857
-2.2857
-2.2857
-2.2857
-2.2857
-2.2857
-2.2857
-2.2857
-2.2857
-2.2857
-2.2857
-2.2857
-2.2857
-2.2857
-2.2857
-2.2857
-2.2857
-2.2857
-2.2857
-2.381
-2.381
-2.381
-2.381
-2.381
-2.381
-2.381
-2.381
-2.381
-2.381
-2.381
-2.381
-2.381
-2.381
-2.381
-2.381
-2.381
-2.381
-2.381
-2.381
-2.381
-2.381
-2.381
-2.381
-2.381
-2.381
-2.381
-2.381
-2.381
-2.381
-2.381
-2.381
-2.381
-2.381
-2.381
-2.381
-2.381
-2.381
-2.381
-2.381
-2.381
-2.381
-2.381
-2.381
-2.381
-2.381
-2.381
-2.381
-2.381
-2.381
-2.381
-2.381
-2.381
-2.381
-2.381
-2.381
-2.381
-2.381
-2.381
-2.381
-2.381
-2.4762
-2.4762
-2.4762
-2.4762
-2.4762
-2.4762
-2.4762
-2.4762
-2.4762
-2.4762
-2.4762
-2.4762
-2.4762
-2.4762
-2.4762
-2.4762
-2.4762
-2.4762
-2.4762
-2.4762
-2.4762
-2.4762
-2.4762
-2.4762
-2.4762
-2.4762
-2.4762
-2.4762
-2.4762
-2.4762
-2.4762
-2.4762
-2.4762
-2.4762
-2.4762
-2.4762
-2.4762
-2.4762
-2.4762
-2.4762
-2.4762
-2.4762
-2.4762
-2.4762
-2.4762
-2.4762
-2.4762
-2.4762
-2.4762
-2.4762
-2.4762
-2.4762
-2.4762
-2.4762
-2.4762
-2.4762
-2.4762
-2.4762
-2.4762
-2.4762
-2.4762
-2.4762
-2.4762
-2.4762
-2.4762
-2.4762
-2.4762
-2.4762
-2.4762
-2.4762
-2.4762
-2.4762
-2.4762
-2.4762
-2.4762
-2.4762
-2.4762
-2.4762
-2.4762
-2.4762
-2.4762
-2.4762
-2.4762
-2.4762
-2.4762
-2.4762
-2.4762
-2.4762
-2.4762
-2.4762
-2.4762
-2.4762
-2.4762
-2.4762
-2.4762
-2.4762
-2.4762
-2.4762
-2.4762
-2.4762
-2.4762
-2.4762
-2.4762
-2.4762
-2.4762
-2.4762
-2.4762
-2.4762
-2.4762
-2.4762
-2.4762
-2.4762
-2.4762
-2.4762
-2.4762
-2.4762
-2.4762
-2.4762
-2.4762
-2.4762
-2.4762
-2.5714
-2.5714
-2.5714
-2.5714
-2.5714
-2.5714
-2.5714
-2.5714
-2.5714
-2.5714
-2.5714
-2.5714
-2.5714
-2.5714
-2.5714
-2.5714
-2.5714
-2.5714
-2.5714
-2.5714
-2.5714
-2.5714
-2.5714
-2.5714
-2.5714
-2.5714
-2.5714
-2.5714
-2.5714
-2.5714
-2.5714
-2.5714
-2.5714
-2.5714
-2.5714
-2.5714
-2.5714
-2.5714
-2.5714
-2.5714
-2.5714
-2.5714
-2.5714
-2.5714
-2.5714
-2.5714
-2.5714
-2.5714
-2.5714
-2.5714
-2.5714
-2.5714
-2.5714
-2.5714
-2.5714
-2.5714
-2.5714
-2.5714
-2.5714
-2.5714
-2.5714
-2.6667
-2.6667
-2.6667
-2.6667
-2.6667
-2.6667
-2.6667
-2.6667
-2.6667
-2.6667
-2.6667
-2.6667
-2.6667
-2.6667
-2.6667
-2.6667
-2.6667
-2.6667
-2.6667
-2.6667
-2.6667
-2.6667
-2.6667
-2.6667
-2.6667
-2.6667
-2.6667
-2.6667
-2.6667
-2.6667
-2.6667
-2.6667
-2.6667
-2.6667
-2.6667
-2.6667
-2.6667
-2.6667
-2.6667
-2.6667
-2.6667
-2.6667
-2.6667
-2.6667
-2.6667
-2.6667
-2.6667
-2.6667
-2.6667
-2.6667
-2.6667
-2.6667
-2.6667
-2.6667
-2.6667
-2.6667
-2.6667
-2.6667
-2.6667
-2.6667
-2.6667
-2.6667
-2.6667
-2.6667
-2.6667
-2.6667
-2.6667
-2.6667
-2.6667
-2.6667
-2.6667
-2.6667
-2.6667
-2.6667
-2.6667
-2.6667
-2.6667
-2.6667
-2.6667
-2.6667
-2.6667
-2.6667
-2.6667
-2.6667
-2.6667
-2.6667
-2.6667
-2.6667
-2.6667
-2.6667
-2.6667
-2.6667
-2.6667
-2.6667
-2.6667
-2.6667
-2.6667
-2.6667
-2.6667
-2.6667
-2.6667
-2.6667
-2.6667
-2.6667
-2.6667
-2.6667
-2.6667
-2.6667
-2.6667
-2.6667
-2.6667
-2.6667
-2.6667
-2.6667
-2.6667
-2.6667
-2.6667
-2.6667
-2.6667
-2.6667
-2.6667
-2.7619
-2.7619
-2.7619
-2.7619
-2.7619
-2.7619
-2.7619
-2.7619
-2.7619
-2.7619
-2.7619
-2.7619
-2.7619
-2.7619
-2.7619
-2.7619
-2.7619
-2.7619
-2.7619
-2.7619
-2.7619
-2.7619
-2.7619
-2.7619
-2.7619
-2.7619
-2.7619
-2.7619
-2.7619
-2.7619
-2.7619
-2.7619
-2.7619
-2.7619
-2.7619
-2.7619
-2.7619
-2.7619
-2.7619
-2.7619
-2.7619
-2.7619
-2.7619
-2.7619
-2.7619
-2.7619
-2.7619
-2.7619
-2.7619
-2.7619
-2.7619
-2.7619
-2.7619
-2.7619
-2.7619
-2.7619
-2.7619
-2.7619
-2.7619
-2.7619
-2.7619
-2.8571
-2.8571
-2.8571
-2.8571
-2.8571
-2.8571
-2.8571
-2.8571
-2.8571
-2.8571
-2.8571
-2.8571
-2.8571
-2.8571
-2.8571
-2.8571
-2.8571
-2.8571
-2.8571
-2.8571
-2.8571
-2.8571
-2.8571
-2.8571
-2.8571
-2.8571
-2.8571
-2.8571
-2.8571
-2.8571
-2.8571
-2.8571
-2.8571
-2.8571
-2.8571
-2.8571
-2.8571
-2.8571
-2.8571
-2.8571
-2.8571
-2.8571
-2.8571
-2.8571
-2.8571
-2.8571
-2.8571
-2.8571
-2.8571
-2.8571
-2.8571
-2.8571
-2.8571
-2.8571
-2.8571
-2.8571
-2.8571
-2.8571
-2.8571
-2.8571
-2.8571
-2.8571
-2.8571
-2.8571
-2.8571
-2.8571
-2.8571
-2.8571
-2.8571
-2.8571
-2.8571
-2.8571
-2.8571
-2.8571
-2.8571
-2.8571
-2.8571
-2.8571
-2.8571
-2.8571
-2.8571
-2.8571
-2.8571
-2.8571
-2.8571
-2.8571
-2.8571
-2.8571
-2.8571
-2.8571
-2.8571
-2.8571
-2.8571
-2.8571
-2.8571
-2.8571
-2.8571
-2.8571
-2.8571
-2.8571
-2.8571
-2.8571
-2.8571
-2.8571
-2.8571
-2.8571
-2.8571
-2.8571
-2.8571
-2.8571
-2.8571
-2.8571
-2.8571
-2.8571
-2.8571
-2.8571
-2.8571
-2.8571
-2.8571
-2.8571
-2.8571
-2.9524
-2.9524
-2.9524
-2.9524
-2.9524
-2.9524
-2.9524
-2.9524
-2.9524
-2.9524
-2.9524
-2.9524
-2.9524
-2.9524
-2.9524
-2.9524
-2.9524
-2.9524
-2.9524
-2.9524
-2.9524
-2.9524
-2.9524
-2.9524
-2.9524
-2.9524
-2.9524
-2.9524
-2.9524
-2.9524
-2.9524
-2.9524
-2.9524
-2.9524
-2.9524
-2.9524
-2.9524
-2.9524
-2.9524
-2.9524
-2.9524
-2.9524
-2.9524
-2.9524
-2.9524
-2.9524
-2.9524
-2.9524
-2.9524
-2.9524
-2.9524
-2.9524
-2.9524
-2.9524
-2.9524
-2.9524
-2.9524
-2.9524
-2.9524
-2.9524
-2.9524
-3.0476
-3.0476
-3.0476
-3.0476
-3.0476
-3.0476
-3.0476
-3.0476
-3.0476
-3.0476
-3.0476
-3.0476
-3.0476
-3.0476
-3.0476
-3.0476
-3.0476
-3.0476
-3.0476
-3.0476
-3.0476
-3.0476
-3.0476
-3.0476
-3.0476
-3.0476
-3.0476
-3.0476
-3.0476
-3.0476
-3.0476
-3.0476
-3.0476
-3.0476
-3.0476
-3.0476
-3.0476
-3.0476
-3.0476
-3.0476
-3.0476
-3.0476
-3.0476
-3.0476
-3.0476
-3.0476
-3.0476
-3.0476
-3.0476
-3.0476
-3.0476
-3.0476
-3.0476
-3.0476
-3.0476
-3.0476
-3.0476
-3.0476
-3.0476
-3.0476
-3.0476
-3.0476
-3.0476
-3.0476
-3.0476
-3.0476
-3.0476
-3.0476
-3.0476
-3.0476
-3.0476
-3.0476
-3.0476
-3.0476
-3.0476
-3.0476
-3.0476
-3.0476
-3.0476
-3.0476
-3.0476
-3.0476
-3.0476
-3.0476
-3.0476
-3.0476
-3.0476
-3.0476
-3.0476
-3.0476
-3.0476
-3.0476
-3.0476
-3.0476
-3.0476
-3.0476
-3.0476
-3.0476
-3.0476
-3.0476
-3.0476
-3.0476
-3.0476
-3.0476
-3.0476
-3.0476
-3.0476
-3.0476
-3.0476
-3.0476
-3.0476
-3.0476
-3.0476
-3.0476
-3.0476
-3.0476
-3.0476
-3.0476
-3.0476
-3.0476
-3.0476
-3.1429
-3.1429
-3.1429
-3.1429
-3.1429
-3.1429
-3.1429
-3.1429
-3.1429
-3.1429
-3.1429
-3.1429
-3.1429
-3.1429
-3.1429
-3.1429
-3.1429
-3.1429
-3.1429
-3.1429
-3.1429
-3.1429
-3.1429
-3.1429
-3.1429
-3.1429
-3.1429
-3.1429
-3.1429
-3.1429
-3.1429
-3.1429
-3.1429
-3.1429
-3.1429
-3.1429
-3.1429
-3.1429
-3.1429
-3.1429
-3.1429
-3.1429
-3.1429
-3.1429
-3.1429
-3.1429
-3.1429
-3.1429
-3.1429
-3.1429
-3.1429
-3.1429
-3.1429
-3.1429
-3.1429
-3.1429
-3.1429
-3.1429
-3.1429
-3.1429
-3.1429
-3.2381
-3.2381
-3.2381
-3.2381
-3.2381
-3.2381
-3.2381
-3.2381
-3.2381
-3.2381
-3.2381
-3.2381
-3.2381
-3.2381
-3.2381
-3.2381
-3.2381
-3.2381
-3.2381
-3.2381
-3.2381
-3.2381
-3.2381
-3.2381
-3.2381
-3.2381
-3.2381
-3.2381
-3.2381
-3.2381
-3.2381
-3.2381
-3.2381
-3.2381
-3.2381
-3.2381
-3.2381
-3.2381
-3.2381
-3.2381
-3.2381
-3.2381
-3.2381
-3.2381
-3.2381
-3.2381
-3.2381
-3.2381
-3.2381
-3.2381
-3.2381
-3.2381
-3.2381
-3.2381
-3.2381
-3.2381
-3.2381
-3.2381
-3.2381
-3.2381
-3.2381
-3.2381
-3.2381
-3.2381
-3.2381
-3.2381
-3.2381
-3.2381
-3.2381
-3.2381
-3.2381
-3.2381
-3.2381
-3.2381
-3.2381
-3.2381
-3.2381
-3.2381
-3.2381
-3.2381
-3.2381
-3.2381
-3.2381
-3.2381
-3.2381
-3.2381
-3.2381
-3.2381
-3.2381
-3.2381
-3.2381
-3.2381
-3.2381
-3.2381
-3.2381
-3.2381
-3.2381
-3.2381
-3.2381
-3.2381
-3.2381
-3.2381
-3.2381
-3.2381
-3.2381
-3.2381
-3.2381
-3.2381
-3.2381
-3.2381
-3.2381
-3.2381
-3.2381
-3.2381
-3.2381
-3.2381
-3.2381
-3.2381
-3.2381
-3.2381
-3.2381
-3.3333
-3.3333
-3.3333
-3.3333
-3.3333
-3.3333
-3.3333
-3.3333
-3.3333
-3.3333
-3.3333
-3.3333
-3.3333
-3.3333
-3.3333
-3.3333
-3.3333
-3.3333
-3.3333
-3.3333
-3.3333
-3.3333
-3.3333
-3.3333
-3.3333
-3.3333
-3.3333
-3.3333
-3.3333
-3.3333
-3.3333
-3.3333
-3.3333
-3.3333
-3.3333
-3.3333
-3.3333
-3.3333
-3.3333
-3.3333
-3.3333
-3.3333
-3.3333
-3.3333
-3.3333
-3.3333
-3.3333
-3.3333
-3.3333
-3.3333
-3.3333
-3.3333
-3.3333
-3.3333
-3.3333
-3.3333
-3.3333
-3.3333
-3.3333
-3.3333
-3.3333
-3.4286
-3.4286
-3.4286
-3.4286
-3.4286
-3.4286
-3.4286
-3.4286
-3.4286
-3.4286
-3.4286
-3.4286
-3.4286
-3.4286
-3.4286
-3.4286
-3.4286
-3.4286
-3.4286
-3.4286
-3.4286
-3.4286
-3.4286
-3.4286
-3.4286
-3.4286
-3.4286
-3.4286
-3.4286
-3.4286
-3.4286
-3.4286
-3.4286
-3.4286
-3.4286
-3.4286
-3.4286
-3.4286
-3.4286
-3.4286
-3.4286
-3.4286
-3.4286
-3.4286
-3.4286
-3.4286
-3.4286
-3.4286
-3.4286
-3.4286
-3.4286
-3.4286
-3.4286
-3.4286
-3.4286
-3.4286
-3.4286
-3.4286
-3.4286
-3.4286
-3.4286
-3.4286
-3.4286
-3.4286
-3.4286
-3.4286
-3.4286
-3.4286
-3.4286
-3.4286
-3.4286
-3.4286
-3.4286
-3.4286
-3.4286
-3.4286
-3.4286
-3.4286
-3.4286
-3.4286
-3.4286
-3.4286
-3.4286
-3.4286
-3.4286
-3.4286
-3.4286
-3.4286
-3.4286
-3.4286
-3.4286
-3.4286
-3.4286
-3.4286
-3.4286
-3.4286
-3.4286
-3.4286
-3.4286
-3.4286
-3.4286
-3.4286
-3.4286
-3.4286
-3.4286
-3.4286
-3.4286
-3.4286
-3.4286
-3.4286
-3.4286
-3.4286
-3.4286
-3.4286
-3.4286
-3.4286
-3.4286
-3.4286
-3.4286
-3.4286
-3.4286
-3.5238
-3.5238
-3.5238
-3.5238
-3.5238
-3.5238
-3.5238
-3.5238
-3.5238
-3.5238
-3.5238
-3.5238
-3.5238
-3.5238
-3.5238
-3.5238
-3.5238
-3.5238
-3.5238
-3.5238
-3.5238
-3.5238
-3.5238
-3.5238
-3.5238
-3.5238
-3.5238
-3.5238
-3.5238
-3.5238
-3.5238
-3.5238
-3.5238
-3.5238
-3.5238
-3.5238
-3.5238
-3.5238
-3.5238
-3.5238
-3.5238
-3.5238
-3.5238
-3.5238
-3.5238
-3.5238
-3.5238
-3.5238
-3.5238
-3.5238
-3.5238
-3.5238
-3.5238
-3.5238
-3.5238
-3.5238
-3.5238
-3.5238
-3.5238
-3.5238
-3.5238
-3.619
-3.619
-3.619
-3.619
-3.619
-3.619
-3.619
-3.619
-3.619
-3.619
-3.619
-3.619
-3.619
-3.619
-3.619
-3.619
-3.619
-3.619
-3.619
-3.619
-3.619
-3.619
-3.619
-3.619
-3.619
-3.619
-3.619
-3.619
-3.619
-3.619
-3.619
-3.619
-3.619
-3.619
-3.619
-3.619
-3.619
-3.619
-3.619
-3.619
-3.619
-3.619
-3.619
-3.619
-3.619
-3.619
-3.619
-3.619
-3.619
-3.619
-3.619
-3.619
-3.619
-3.619
-3.619
-3.619
-3.619
-3.619
-3.619
-3.619
-3.619
-3.619
-3.619
-3.619
-3.619
-3.619
-3.619
-3.619
-3.619
-3.619
-3.619
-3.619
-3.619
-3.619
-3.619
-3.619
-3.619
-3.619
-3.619
-3.619
-3.619
-3.619
-3.619
-3.619
-3.619
-3.619
-3.619
-3.619
-3.619
-3.619
-3.619
-3.619
-3.619
-3.619
-3.619
-3.619
-3.619
-3.619
-3.619
-3.619
-3.619
-3.619
-3.619
-3.619
-3.619
-3.619
-3.619
-3.619
-3.619
-3.619
-3.619
-3.619
-3.619
-3.619
-3.619
-3.619
-3.619
-3.619
-3.619
-3.619
-3.619
-3.7143
-3.7143
-3.7143
-3.7143
-3.7143
-3.7143
-3.7143
-3.7143
-3.7143
-3.7143
-3.7143
-3.7143
-3.7143
-3.7143
-3.7143
-3.7143
-3.7143
-3.7143
-3.7143
-3.7143
-3.7143
-3.7143
-3.7143
-3.7143
-3.7143
-3.7143
-3.7143
-3.7143
-3.7143
-3.7143
-3.7143
-3.7143
-3.7143
-3.7143
-3.7143
-3.7143
-3.7143
-3.7143
-3.7143
-3.7143
-3.7143
-3.7143
-3.7143
-3.7143
-3.7143
-3.7143
-3.7143
-3.7143
-3.7143
-3.7143
-3.7143
-3.7143
-3.7143
-3.7143
-3.7143
-3.7143
-3.7143
-3.7143
-3.7143
-3.7143
-3.7143
-3.8095
-3.8095
-3.8095
-3.8095
-3.8095
-3.8095
-3.8095
-3.8095
-3.8095
-3.8095
-3.8095
-3.8095
-3.8095
-3.8095
-3.8095
-3.8095
-3.8095
-3.8095
-3.8095
-3.8095
-3.8095
-3.8095
-3.8095
-3.8095
-3.8095
-3.8095
-3.8095
-3.8095
-3.8095
-3.8095
-3.8095
-3.8095
-3.8095
-3.8095
-3.8095
-3.8095
-3.8095
-3.8095
-3.8095
-3.8095
-3.8095
-3.8095
-3.8095
-3.8095
-3.8095
-3.8095
-3.8095
-3.8095
-3.8095
-3.8095
-3.8095
-3.8095
-3.8095
-3.8095
-3.8095
-3.8095
-3.8095
-3.8095
-3.8095
-3.8095
-3.8095
-3.8095
-3.8095
-3.8095
-3.8095
-3.8095
-3.8095
-3.8095
-3.8095
-3.8095
-3.8095
-3.8095
-3.8095
-3.8095
-3.8095
-3.8095
-3.8095
-3.8095
-3.8095
-3.8095
-3.8095
-3.8095
-3.8095
-3.8095
-3.8095
-3.8095
-3.8095
-3.8095
-3.8095
-3.8095
-3.8095
-3.8095
-3.8095
-3.8095
-3.8095
-3.8095
-3.8095
-3.8095
-3.8095
-3.8095
-3.8095
-3.8095
-3.8095
-3.8095
-3.8095
-3.8095
-3.8095
-3.8095
-3.8095
-3.8095
-3.8095
-3.8095
-3.8095
-3.8095
-3.8095
-3.8095
-3.8095
-3.8095
-3.8095
-3.8095
-3.8095
-3.9048
-3.9048
-3.9048
-3.9048
-3.9048
-3.9048
-3.9048
-3.9048
-3.9048
-3.9048
-3.9048
-3.9048
-3.9048
-3.9048
-3.9048
-3.9048
-3.9048
-3.9048
-3.9048
-3.9048
-3.9048
-3.9048
-3.9048
-3.9048
-3.9048
-3.9048
-3.9048
-3.9048
-3.9048
-3.9048
-3.9048
-3.9048
-3.9048
-3.9048
-3.9048
-3.9048
-3.9048
-3.9048
-3.9048
-3.9048
-3.9048
-3.9048
-3.9048
-3.9048
-3.9048
-3.9048
-3.9048
-3.9048
-3.9048
-3.9048
-3.9048
-3.9048
-3.9048
-3.9048
-3.9048
-3.9048
-3.9048
-3.9048
-3.9048
-3.9048
-3.9048
-4
-4
-4
-4
-4
-4
-4
-4
-4
-4
-4
-4
-4
-4
-4
-4
-4
-4
-4
-4
-4
-4
-4
-4
-4
-4
-4
-4
-4
-4
-4
-4
-4
-4
-4
-4
-4
-4
-4
-4
-4
-4
-4
-4
-4
-4
-4
-4
-4
-4
-4
-4
-4
-4
-4
-4
-4
-4
-4
-4
-4
-4
-4
-4
-4
-4
-4
-4
-4
-4
-4
-4
-4
-4
-4
-4
-4
-4
-4
-4
-4
-4
-4
-4
-4
-4
-4
-4
-4
-4
-4
-4
-4
-4
-4
-4
-4
-4
-4
-4
-4
-4
-4
-4
-4
-4
-4
-4
-4
-4
-4
-4
-4
-4
-4
-4
-4
-4
-4
-4
-4
-4.1
-4.1
-4.1
-4.1
-4.1
-4.1
-4.1
-4.1
-4.1
-4.1
-4.1
-4.1
-4.1
-4.1
-4.1
-4.1
-4.1
-4.1
-4.1
-4.1
-4.1
-4.1
-4.1
-4.1
-4.1
-4.1
-4.1
-4.1
-4.1
-4.1
-4.1
-4.1
-4.1
-4.1
-4.1
-4.1
-4.1
-4.1
-4.1
-4.1
-4.1
-4.1
-4.1
-4.1
-4.1
-4.1
-4.1
-4.1
-4.1
-4.1
-4.1
-4.1
-4.1
-4.1
-4.1
-4.1
-4.1
-4.1
-4.1
-4.1
-4.1
-4.2
-4.2
-4.2
-4.2
-4.2
-4.2
-4.2
-4.2
-4.2
-4.2
-4.2
-4.2
-4.2
-4.2
-4.2
-4.2
-4.2
-4.2
-4.2
-4.2
-4.2
-4.2
-4.2
-4.2
-4.2
-4.2
-4.2
-4.2
-4.2
-4.2
-4.2
-4.2
-4.2
-4.2
-4.2
-4.2
-4.2
-4.2
-4.2
-4.2
-4.2
-4.2
-4.2
-4.2
-4.2
-4.2
-4.2
-4.2
-4.2
-4.2
-4.2
-4.2
-4.2
-4.2
-4.2
-4.2
-4.2
-4.2
-4.2
-4.2
-4.2
-4.2
-4.2
-4.2
-4.2
-4.2
-4.2
-4.2
-4.2
-4.2
-4.2
-4.2
-4.2
-4.2
-4.2
-4.2
-4.2
-4.2
-4.2
-4.2
-4.2
-4.2
-4.2
-4.2
-4.2
-4.2
-4.2
-4.2
-4.2
-4.2
-4.2
-4.2
-4.2
-4.2
-4.2
-4.2
-4.2
-4.2
-4.2
-4.2
-4.2
-4.2
-4.2
-4.2
-4.2
-4.2
-4.2
-4.2
-4.2
-4.2
-4.2
-4.2
-4.2
-4.2
-4.2
-4.2
-4.2
-4.2
-4.2
-4.2
-4.2
-4.3
-4.3
-4.3
-4.3
-4.3
-4.3
-4.3
-4.3
-4.3
-4.3
-4.3
-4.3
-4.3
-4.3
-4.3
-4.3
-4.3
-4.3
-4.3
-4.3
-4.3
-4.3
-4.3
-4.3
-4.3
-4.3
-4.3
-4.3
-4.3
-4.3
-4.3
-4.3
-4.3
-4.3
-4.3
-4.3
-4.3
-4.3
-4.3
-4.3
-4.3
-4.3
-4.3
-4.3
-4.3
-4.3
-4.3
-4.3
-4.3
-4.3
-4.3
-4.3
-4.3
-4.3
-4.3
-4.3
-4.3
-4.3
-4.3
-4.3
-4.3
-4.4
-4.4
-4.4
-4.4
-4.4
-4.4
-4.4
-4.4
-4.4
-4.4
-4.4
-4.4
-4.4
-4.4
-4.4
-4.4
-4.4
-4.4
-4.4
-4.4
-4.4
-4.4
-4.4
-4.4
-4.4
-4.4
-4.4
-4.4
-4.4
-4.4
-4.4
-4.4
-4.4
-4.4
-4.4
-4.4
-4.4
-4.4
-4.4
-4.4
-4.4
-4.4
-4.4
-4.4
-4.4
-4.4
-4.4
-4.4
-4.4
-4.4
-4.4
-4.4
-4.4
-4.4
-4.4
-4.4
-4.4
-4.4
-4.4
-4.4
-4.4
-4.4
-4.4
-4.4
-4.4
-4.4
-4.4
-4.4
-4.4
-4.4
-4.4
-4.4
-4.4
-4.4
-4.4
-4.4
-4.4
-4.4
-4.4
-4.4
-4.4
-4.4
-4.4
-4.4
-4.4
-4.4
-4.4
-4.4
-4.4
-4.4
-4.4
-4.4
-4.4
-4.4
-4.4
-4.4
-4.4
-4.4
-4.4
-4.4
-4.4
-4.4
-4.4
-4.4
-4.4
-4.4
-4.4
-4.4
-4.4
-4.4
-4.4
-4.4
-4.4
-4.4
-4.4
-4.4
-4.4
-4.4
-4.4
-4.4
-4.4
-4.5
-4.5
-4.5
-4.5
-4.5
-4.5
-4.5
-4.5
-4.5
-4.5
-4.5
-4.5
-4.5
-4.5
-4.5
-4.5
-4.5
-4.5
-4.5
-4.5
-4.5
-4.5
-4.5
-4.5
-4.5
-4.5
-4.5
-4.5
-4.5
-4.5
-4.5
-4.5
-4.5
-4.5
-4.5
-4.5
-4.5
-4.5
-4.5
-4.5
-4.5
-4.5
-4.5
-4.5
-4.5
-4.5
-4.5
-4.5
-4.5
-4.5
-4.5
-4.5
-4.5
-4.5
-4.5
-4.5
-4.5
-4.5
-4.5
-4.5
-4.5
-4.6
-4.6
-4.6
-4.6
-4.6
-4.6
-4.6
-4.6
-4.6
-4.6
-4.6
-4.6
-4.6
-4.6
-4.6
-4.6
-4.6
-4.6
-4.6
-4.6
-4.6
-4.6
-4.6
-4.6
-4.6
-4.6
-4.6
-4.6
-4.6
-4.6
-4.6
-4.6
-4.6
-4.6
-4.6
-4.6
-4.6
-4.6
-4.6
-4.6
-4.6
-4.6
-4.6
-4.6
-4.6
-4.6
-4.6
-4.6
-4.6
-4.6
-4.6
-4.6
-4.6
-4.6
-4.6
-4.6
-4.6
-4.6
-4.6
-4.6
-4.6
-4.6
-4.6
-4.6
-4.6
-4.6
-4.6
-4.6
-4.6
-4.6
-4.6
-4.6
-4.6
-4.6
-4.6
-4.6
-4.6
-4.6
-4.6
-4.6
-4.6
-4.6
-4.6
-4.6
-4.6
-4.6
-4.6
-4.6
-4.6
-4.6
-4.6
-4.6
-4.6
-4.6
-4.6
-4.6
-4.6
-4.6
-4.6
-4.6
-4.6
-4.6
-4.6
-4.6
-4.6
-4.6
-4.6
-4.6
-4.6
-4.6
-4.6
-4.6
-4.6
-4.6
-4.6
-4.6
-4.6
-4.6
-4.6
-4.6
-4.6
-4.7
-4.7
-4.7
-4.7
-4.7
-4.7
-4.7
-4.7
-4.7
-4.7
-4.7
-4.7
-4.7
-4.7
-4.7
-4.7
-4.7
-4.7
-4.7
-4.7
-4.7
-4.7
-4.7
-4.7
-4.7
-4.7
-4.7
-4.7
-4.7
-4.7
-4.7
-4.7
-4.7
-4.7
-4.7
-4.7
-4.7
-4.7
-4.7
-4.7
-4.7
-4.7
-4.7
-4.7
-4.7
-4.7
-4.7
-4.7
-4.7
-4.7
-4.7
-4.7
-4.7
-4.7
-4.7
-4.7
-4.7
-4.7
-4.7
-4.7
-4.7
-4.8
-4.8
-4.8
-4.8
-4.8
-4.8
-4.8
-4.8
-4.8
-4.8
-4.8
-4.8
-4.8
-4.8
-4.8
-4.8
-4.8
-4.8
-4.8
-4.8
-4.8
-4.8
-4.8
-4.8
-4.8
-4.8
-4.8
-4.8
-4.8
-4.8
-4.8
-4.8
-4.8
-4.8
-4.8
-4.8
-4.8
-4.8
-4.8
-4.8
-4.8
-4.8
-4.8
-4.8
-4.8
-4.8
-4.8
-4.8
-4.8
-4.8
-4.8
-4.8
-4.8
-4.8
-4.8
-4.8
-4.8
-4.8
-4.8
-4.8
-4.8
-4.8
-4.8
-4.8
-4.8
-4.8
-4.8
-4.8
-4.8
-4.8
-4.8
-4.8
-4.8
-4.8
-4.8
-4.8
-4.8
-4.8
-4.8
-4.8
-4.8
-4.8
-4.8
-4.8
-4.8
-4.8
-4.8
-4.8
-4.8
-4.8
-4.8
-4.8
-4.8
-4.8
-4.8
-4.8
-4.8
-4.8
-4.8
-4.8
-4.8
-4.8
-4.8
-4.8
-4.8
-4.8
-4.8
-4.8
-4.8
-4.8
-4.8
-4.8
-4.8
-4.8
-4.8
-4.8
-4.8
-4.8
-4.8
-4.8
-4.8
-4.9
-4.9
-4.9
-4.9
-4.9
-4.9
-4.9
-4.9
-4.9
-4.9
-4.9
-4.9
-4.9
-4.9
-4.9
-4.9
-4.9
-4.9
-4.9
-4.9
-4.9
-4.9
-4.9
-4.9
-4.9
-4.9
-4.9
-4.9
-4.9
-4.9
-4.9
-4.9
-4.9
-4.9
-4.9
-4.9
-4.9
-4.9
-4.9
-4.9
-4.9
-4.9
-4.9
-4.9
-4.9
-4.9
-4.9
-4.9
-4.9
-4.9
-4.9
-4.9
-4.9
-4.9
-4.9
-4.9
-4.9
-4.9
-4.9
-4.9
-4.9
-5
-5
-5
-5
-5
-5
-5
-5
-5
-5
-5
-5
-5
-5
-5
-5
-5
-5
-5
-5
-5
-5
-5
-5
-5
-5
-5
-5
-5
-5
-5
-5
-5
-5
-5
-5
-5
-5
-5
-5
-5
-5
-5
-5
-5
-5
-5
-5
-5
-5
-5
-5
-5
-5
-5
-5
-5
-5
-5
-5
-5
-5
-5
-5
-5
-5
-5
-5
-5
-5
-5
-5
-5
-5
-5
-5
-5
-5
-5
-5
-5
-5
-5
-5
-5
-5
-5
-5
-5
-5
-5
-5
-5
-5
-5
-5
-5
-5
-5
-5
-5
-5
-5
-5
-5
-5
-5
-5
-5
-5
-5
-5
-5
-5
-5
-5
-5
-5
-5
-5
-5
-5.1
-5.1
-5.1
-5.1
-5.1
-5.1
-5.1
-5.1
-5.1
-5.1
-5.1
-5.1
-5.1
-5.1
-5.1
-5.1
-5.1
-5.1
-5.1
-5.1
-5.1
-5.1
-5.1
-5.1
-5.1
-5.1
-5.1
-5.1
-5.1
-5.1
-5.1
-5.1
-5.1
-5.1
-5.1
-5.1
-5.1
-5.1
-5.1
-5.1
-5.1
-5.1
-5.1
-5.1
-5.1
-5.1
-5.1
-5.1
-5.1
-5.1
-5.1
-5.1
-5.1
-5.1
-5.1
-5.1
-5.1
-5.1
-5.1
-5.1
-5.1
-5.2
-5.2
-5.2
-5.2
-5.2
-5.2
-5.2
-5.2
-5.2
-5.2
-5.2
-5.2
-5.2
-5.2
-5.2
-5.2
-5.2
-5.2
-5.2
-5.2
-5.2
-5.2
-5.2
-5.2
-5.2
-5.2
-5.2
-5.2
-5.2
-5.2
-5.2
-5.2
-5.2
-5.2
-5.2
-5.2
-5.2
-5.2
-5.2
-5.2
-5.2
-5.2
-5.2
-5.2
-5.2
-5.2
-5.2
-5.2
-5.2
-5.2
-5.2
-5.2
-5.2
-5.2
-5.2
-5.2
-5.2
-5.2
-5.2
-5.2
-5.2
-5.2
-5.2
-5.2
-5.2
-5.2
-5.2
-5.2
-5.2
-5.2
-5.2
-5.2
-5.2
-5.2
-5.2
-5.2
-5.2
-5.2
-5.2
-5.2
-5.2
-5.2
-5.2
-5.2
-5.2
-5.2
-5.2
-5.2
-5.2
-5.2
-5.2
-5.2
-5.2
-5.2
-5.2
-5.2
-5.2
-5.2
-5.2
-5.2
-5.2
-5.2
-5.2
-5.2
-5.2
-5.2
-5.2
-5.2
-5.2
-5.2
-5.2
-5.2
-5.2
-5.2
-5.2
-5.2
-5.2
-5.2
-5.2
-5.2
-5.2
-5.3
-5.3
-5.3
-5.3
-5.3
-5.3
-5.3
-5.3
-5.3
-5.3
-5.3
-5.3
-5.3
-5.3
-5.3
-5.3
-5.3
-5.3
-5.3
-5.3
-5.3
-5.3
-5.3
-5.3
-5.3
-5.3
-5.3
-5.3
-5.3
-5.3
-5.3
-5.3
-5.3
-5.3
-5.3
-5.3
-5.3
-5.3
-5.3
-5.3
-5.3
-5.3
-5.3
-5.3
-5.3
-5.3
-5.3
-5.3
-5.3
-5.3
-5.3
-5.3
-5.3
-5.3
-5.3
-5.3
-5.3
-5.3
-5.3
-5.3
-5.3
-5.4
-5.4
-5.4
-5.4
-5.4
-5.4
-5.4
-5.4
-5.4
-5.4
-5.4
-5.4
-5.4
-5.4
-5.4
-5.4
-5.4
-5.4
-5.4
-5.4
-5.4
-5.4
-5.4
-5.4
-5.4
-5.4
-5.4
-5.4
-5.4
-5.4
-5.4
-5.4
-5.4
-5.4
-5.4
-5.4
-5.4
-5.4
-5.4
-5.4
-5.4
-5.4
-5.4
-5.4
-5.4
-5.4
-5.4
-5.4
-5.4
-5.4
-5.4
-5.4
-5.4
-5.4
-5.4
-5.4
-5.4
-5.4
-5.4
-5.4
-5.4
-5.4
-5.4
-5.4
-5.4
-5.4
-5.4
-5.4
-5.4
-5.4
-5.4
-5.4
-5.4
-5.4
-5.4
-5.4
-5.4
-5.4
-5.4
-5.4
-5.4
-5.4
-5.4
-5.4
-5.4
-5.4
-5.4
-5.4
-5.4
-5.4
-5.4
-5.4
-5.4
-5.4
-5.4
-5.4
-5.4
-5.4
-5.4
-5.4
-5.4
-5.4
-5.4
-5.4
-5.4
-5.4
-5.4
-5.4
-5.4
-5.4
-5.4
-5.4
-5.4
-5.4
-5.4
-5.4
-5.4
-5.4
-5.4
-5.4
-5.4
-5.5
-5.5
-5.5
-5.5
-5.5
-5.5
-5.5
-5.5
-5.5
-5.5
-5.5
-5.5
-5.5
-5.5
-5.5
-5.5
-5.5
-5.5
-5.5
-5.5
-5.5
-5.5
-5.5
-5.5
-5.5
-5.5
-5.5
-5.5
-5.5
-5.5
-5.5
-5.5
-5.5
-5.5
-5.5
-5.5
-5.5
-5.5
-5.5
-5.5
-5.5
-5.5
-5.5
-5.5
-5.5
-5.5
-5.5
-5.5
-5.5
-5.5
-5.5
-5.5
-5.5
-5.5
-5.5
-5.5
-5.5
-5.5
-5.5
-5.5
-5.5
-5.6
-5.6
-5.6
-5.6
-5.6
-5.6
-5.6
-5.6
-5.6
-5.6
-5.6
-5.6
-5.6
-5.6
-5.6
-5.6
-5.6
-5.6
-5.6
-5.6
-5.6
-5.6
-5.6
-5.6
-5.6
-5.6
-5.6
-5.6
-5.6
-5.6
-5.6
-5.6
-5.6
-5.6
-5.6
-5.6
-5.6
-5.6
-5.6
-5.6
-5.6
-5.6
-5.6
-5.6
-5.6
-5.6
-5.6
-5.6
-5.6
-5.6
-5.6
-5.6
-5.6
-5.6
-5.6
-5.6
-5.6
-5.6
-5.6
-5.6
-5.6
-5.6
-5.6
-5.6
-5.6
-5.6
-5.6
-5.6
-5.6
-5.6
-5.6
-5.6
-5.6
-5.6
-5.6
-5.6
-5.6
-5.6
-5.6
-5.6
-5.6
-5.6
-5.6
-5.6
-5.6
-5.6
-5.6
-5.6
-5.6
-5.6
-5.6
-5.6
-5.6
-5.6
-5.6
-5.6
-5.6
-5.6
-5.6
-5.6
-5.6
-5.6
-5.6
-5.6
-5.6
-5.6
-5.6
-5.6
-5.6
-5.6
-5.6
-5.6
-5.6
-5.6
-5.6
-5.6
-5.6
-5.6
-5.6
-5.6
-5.6
-5.7
-5.7
-5.7
-5.7
-5.7
-5.7
-5.7
-5.7
-5.7
-5.7
-5.7
-5.7
-5.7
-5.7
-5.7
-5.7
-5.7
-5.7
-5.7
-5.7
-5.7
-5.7
-5.7
-5.7
-5.7
-5.7
-5.7
-5.7
-5.7
-5.7
-5.7
-5.7
-5.7
-5.7
-5.7
-5.7
-5.7
-5.7
-5.7
-5.7
-5.7
-5.7
-5.7
-5.7
-5.7
-5.7
-5.7
-5.7
-5.7
-5.7
-5.7
-5.7
-5.7
-5.7
-5.7
-5.7
-5.7
-5.7
-5.7
-5.7
-5.7
-5.8
-5.8
-5.8
-5.8
-5.8
-5.8
-5.8
-5.8
-5.8
-5.8
-5.8
-5.8
-5.8
-5.8
-5.8
-5.8
-5.8
-5.8
-5.8
-5.8
-5.8
-5.8
-5.8
-5.8
-5.8
-5.8
-5.8
-5.8
-5.8
-5.8
-5.8
-5.8
-5.8
-5.8
-5.8
-5.8
-5.8
-5.8
-5.8
-5.8
-5.8
-5.8
-5.8
-5.8
-5.8
-5.8
-5.8
-5.8
-5.8
-5.8
-5.8
-5.8
-5.8
-5.8
-5.8
-5.8
-5.8
-5.8
-5.8
-5.8
-5.8
-5.8
-5.8
-5.8
-5.8
-5.8
-5.8
-5.8
-5.8
-5.8
-5.8
-5.8
-5.8
-5.8
-5.8
-5.8
-5.8
-5.8
-5.8
-5.8
-5.8
-5.8
-5.8
-5.8
-5.8
-5.8
-5.8
-5.8
-5.8
-5.8
-5.8
-5.8
-5.8
-5.8
-5.8
-5.8
-5.8
-5.8
-5.8
-5.8
-5.8
-5.8
-5.8
-5.8
-5.8
-5.8
-5.8
-5.8
-5.8
-5.8
-5.8
-5.8
-5.8
-5.8
-5.8
-5.8
-5.8
-5.8
-5.8
-5.8
-5.8
-5.9
-5.9
-5.9
-5.9
-5.9
-5.9
-5.9
-5.9
-5.9
-5.9
-5.9
-5.9
-5.9
-5.9
-5.9
-5.9
-5.9
-5.9
-5.9
-5.9
-5.9
-5.9
-5.9
-5.9
-5.9
-5.9
-5.9
-5.9
-5.9
-5.9
-5.9
-5.9
-5.9
-5.9
-5.9
-5.9
-5.9
-5.9
-5.9
-5.9
-5.9
-5.9
-5.9
-5.9
-5.9
-5.9
-5.9
-5.9
-5.9
-5.9
-5.9
-5.9
-5.9
-5.9
-5.9
-5.9
-5.9
-5.9
-5.9
-5.9
-5.9
-6
-6
-6
-6
-6
-6
-6
-6
-6
-6
-6
-6
-6
-6
-6
-6
-6
-6
-6
-6
-6
-6
-6
-6
-6
-6
-6
-6
-6
-6
-6
-6
-6
-6
-6
-6
-6
-6
-6
-6
-6
-6
-6
-6
-6
-6
-6
-6
-6
-6
-6
-6
-6
-6
-6
-6
-6
-6
-6
-6
-6
-6
-6
-6
-6
-6
-6
-6
-6
-6
-6
-6
-6
-6
-6
-6
-6
-6
-6
-6
-6
-6
-6
-6
-6
-6
-6
-6
-6
-6
-6
-6
-6
-6
-6
-6
-6
-6
-6
-6
-6
-6
-6
-6
-6
-6
-6
-6
-6
-6
-6
-6
-6
-6
-6
-6
-6
-6
-6
-6
-6
-6.1
-6.1
-6.1
-6.1
-6.1
-6.1
-6.1
-6.1
-6.1
-6.1
-6.1
-6.1
-6.1
-6.1
-6.1
-6.1
-6.1
-6.1
-6.1
-6.1
-6.1
-6.1
-6.1
-6.1
-6.1
-6.1
-6.1
-6.1
-6.1
-6.1
-6.1
-6.1
-6.1
-6.1
-6.1
-6.1
-6.1
-6.1
-6.1
-6.1
-6.1
-6.1
-6.1
-6.1
-6.1
-6.1
-6.1
-6.1
-6.1
-6.1
-6.1
-6.1
-6.1
-6.1
-6.1
-6.1
-6.1
-6.1
-6.1
-6.1
-6.1
-6.2
-6.2
-6.2
-6.2
-6.2
-6.2
-6.2
-6.2
-6.2
-6.2
-6.2
-6.2
-6.2
-6.2
-6.2
-6.2
-6.2
-6.2
-6.2
-6.2
-6.2
-6.2
-6.2
-6.2
-6.2
-6.2
-6.2
-6.2
-6.2
-6.2
-6.2
-6.2
-6.2
-6.2
-6.2
-6.2
-6.2
-6.2
-6.2
-6.2
-6.2
-6.2
-6.2
-6.2
-6.2
-6.2
-6.2
-6.2
-6.2
-6.2
-6.2
-6.2
-6.2
-6.2
-6.2
-6.2
-6.2
-6.2
-6.2
-6.2
-6.2
-6.2
-6.2
-6.2
-6.2
-6.2
-6.2
-6.2
-6.2
-6.2
-6.2
-6.2
-6.2
-6.2
-6.2
-6.2
-6.2
-6.2
-6.2
-6.2
-6.2
-6.2
-6.2
-6.2
-6.2
-6.2
-6.2
-6.2
-6.2
-6.2
-6.2
-6.2
-6.2
-6.2
-6.2
-6.2
-6.2
-6.2
-6.2
-6.2
-6.2
-6.2
-6.2
-6.2
-6.2
-6.2
-6.2
-6.2
-6.2
-6.2
-6.2
-6.2
-6.2
-6.2
-6.2
-6.2
-6.2
-6.2
-6.2
-6.2
-6.2
-6.3
-6.3
-6.3
-6.3
-6.3
-6.3
-6.3
-6.3
-6.3
-6.3
-6.3
-6.3
-6.3
-6.3
-6.3
-6.3
-6.3
-6.3
-6.3
-6.3
-6.3
-6.3
-6.3
-6.3
-6.3
-6.3
-6.3
-6.3
-6.3
-6.3
-6.3
-6.3
-6.3
-6.3
-6.3
-6.3
-6.3
-6.3
-6.3
-6.3
-6.3
-6.3
-6.3
-6.3
-6.3
-6.3
-6.3
-6.3
-6.3
-6.3
-6.3
-6.3
-6.3
-6.3
-6.3
-6.3
-6.3
-6.3
-6.3
-6.3
-6.3
-6.4
-6.4
-6.4
-6.4
-6.4
-6.4
-6.4
-6.4
-6.4
-6.4
-6.4
-6.4
-6.4
-6.4
-6.4
-6.4
-6.4
-6.4
-6.4
-6.4
-6.4
-6.4
-6.4
-6.4
-6.4
-6.4
-6.4
-6.4
-6.4
-6.4
-6.4
-6.4
-6.4
-6.4
-6.4
-6.4
-6.4
-6.4
-6.4
-6.4
-6.4
-6.4
-6.4
-6.4
-6.4
-6.4
-6.4
-6.4
-6.4
-6.4
-6.4
-6.4
-6.4
-6.4
-6.4
-6.4
-6.4
-6.4
-6.4
-6.4
-6.4
-6.4
-6.4
-6.4
-6.4
-6.4
-6.4
-6.4
-6.4
-6.4
-6.4
-6.4
-6.4
-6.4
-6.4
-6.4
-6.4
-6.4
-6.4
-6.4
-6.4
-6.4
-6.4
-6.4
-6.4
-6.4
-6.4
-6.4
-6.4
-6.4
-6.4
-6.4
-6.4
-6.4
-6.4
-6.4
-6.4
-6.4
-6.4
-6.4
-6.4
-6.4
-6.4
-6.4
-6.4
-6.4
-6.4
-6.4
-6.4
-6.4
-6.4
-6.4
-6.4
-6.4
-6.4
-6.4
-6.4
-6.4
-6.4
-6.4
-6.4
-6.5
-6.5
-6.5
-6.5
-6.5
-6.5
-6.5
-6.5
-6.5
-6.5
-6.5
-6.5
-6.5
-6.5
-6.5
-6.5
-6.5
-6.5
-6.5
-6.5
-6.5
-6.5
-6.5
-6.5
-6.5
-6.5
-6.5
-6.5
-6.5
-6.5
-6.5
-6.5
-6.5
-6.5
-6.5
-6.5
-6.5
-6.5
-6.5
-6.5
-6.5
-6.5
-6.5
-6.5
-6.5
-6.5
-6.5
-6.5
-6.5
-6.5
-6.5
-6.5
-6.5
-6.5
-6.5
-6.5
-6.5
-6.5
-6.5
-6.5
-6.5
-6.6
-6.6
-6.6
-6.6
-6.6
-6.6
-6.6
-6.6
-6.6
-6.6
-6.6
-6.6
-6.6
-6.6
-6.6
-6.6
-6.6
-6.6
-6.6
-6.6
-6.6
-6.6
-6.6
-6.6
-6.6
-6.6
-6.6
-6.6
-6.6
-6.6
-6.6
-6.6
-6.6
-6.6
-6.6
-6.6
-6.6
-6.6
-6.6
-6.6
-6.6
-6.6
-6.6
-6.6
-6.6
-6.6
-6.6
-6.6
-6.6
-6.6
-6.6
-6.6
-6.6
-6.6
-6.6
-6.6
-6.6
-6.6
-6.6
-6.6
-6.6
-6.6
-6.6
-6.6
-6.6
-6.6
-6.6
-6.6
-6.6
-6.6
-6.6
-6.6
-6.6
-6.6
-6.6
-6.6
-6.6
-6.6
-6.6
-6.6
-6.6
-6.6
-6.6
-6.6
-6.6
-6.6
-6.6
-6.6
-6.6
-6.6
-6.6
-6.6
-6.6
-6.6
-6.6
-6.6
-6.6
-6.6
-6.6
-6.6
-6.6
-6.6
-6.6
-6.6
-6.6
-6.6
-6.6
-6.6
-6.6
-6.6
-6.6
-6.6
-6.6
-6.6
-6.6
-6.6
-6.6
-6.6
-6.6
-6.6
-6.6
-6.7
-6.7
-6.7
-6.7
-6.7
-6.7
-6.7
-6.7
-6.7
-6.7
-6.7
-6.7
-6.7
-6.7
-6.7
-6.7
-6.7
-6.7
-6.7
-6.7
-6.7
-6.7
-6.7
-6.7
-6.7
-6.7
-6.7
-6.7
-6.7
-6.7
-6.7
-6.7
-6.7
-6.7
-6.7
-6.7
-6.7
-6.7
-6.7
-6.7
-6.7
-6.7
-6.7
-6.7
-6.7
-6.7
-6.7
-6.7
-6.7
-6.7
-6.7
-6.7
-6.7
-6.7
-6.7
-6.7
-6.7
-6.7
-6.7
-6.7
-6.7
-6.8
-6.8
-6.8
-6.8
-6.8
-6.8
-6.8
-6.8
-6.8
-6.8
-6.8
-6.8
-6.8
-6.8
-6.8
-6.8
-6.8
-6.8
-6.8
-6.8
-6.8
-6.8
-6.8
-6.8
-6.8
-6.8
-6.8
-6.8
-6.8
-6.8
-6.8
-6.8
-6.8
-6.8
-6.8
-6.8
-6.8
-6.8
-6.8
-6.8
-6.8
-6.8
-6.8
-6.8
-6.8
-6.8
-6.8
-6.8
-6.8
-6.8
-6.8
-6.8
-6.8
-6.8
-6.8
-6.8
-6.8
-6.8
-6.8
-6.8
-6.8
-6.8
-6.8
-6.8
-6.8
-6.8
-6.8
-6.8
-6.8
-6.8
-6.8
-6.8
-6.8
-6.8
-6.8
-6.8
-6.8
-6.8
-6.8
-6.8
-6.8
-6.8
-6.8
-6.8
-6.8
-6.8
-6.8
-6.8
-6.8
-6.8
-6.8
-6.8
-6.8
-6.8
-6.8
-6.8
-6.8
-6.8
-6.8
-6.8
-6.8
-6.8
-6.8
-6.8
-6.8
-6.8
-6.8
-6.8
-6.8
-6.8
-6.8
-6.8
-6.8
-6.8
-6.8
-6.8
-6.8
-6.8
-6.8
-6.8
-6.8
-6.9
-6.9
-6.9
-6.9
-6.9
-6.9
-6.9
-6.9
-6.9
-6.9
-6.9
-6.9
-6.9
-6.9
-6.9
-6.9
-6.9
-6.9
-6.9
-6.9
-6.9
-6.9
-6.9
-6.9
-6.9
-6.9
-6.9
-6.9
-6.9
-6.9
-6.9
-6.9
-6.9
-6.9
-6.9
-6.9
-6.9
-6.9
-6.9
-6.9
-6.9
-6.9
-6.9
-6.9
-6.9
-6.9
-6.9
-6.9
-6.9
-6.9
-6.9
-6.9
-6.9
-6.9
-6.9
-6.9
-6.9
-6.9
-6.9
-6.9
-6.9
-7
-7
-7
-7
-7
-7
-7
-7
-7
-7
-7
-7
-7
-7
-7
-7
-7
-7
-7
-7
-7
-7
-7
-7
-7
-7
-7
-7
-7
-7
-7
-7
-7
-7
-7
-7
-7
-7
-7
-7
-7
-7
-7
-7
-7
-7
-7
-7
-7
-7
-7
-7
-7
-7
-7
-7
-7
-7
-7
-7
-7
-7
-7
-7
-7
-7
-7
-7
-7
-7
-7
-7
-7
-7
-7
-7
-7
-7
-7
-7
-7
-7
-7
-7
-7
-7
-7
-7
-7
-7
-7
-7
-7
-7
-7
-7
-7
-7
-7
-7
-7
-7
-7
-7
-7
-7
-7
-7
-7
-7
-7
-7
-7
-7
-7
-7
-7
-7
-7
-7
-7
-7.1
-7.1
-7.1
-7.1
-7.1
-7.1
-7.1
-7.1
-7.1
-7.1
-7.1
-7.1
-7.1
-7.1
-7.1
-7.1
-7.1
-7.1
-7.1
-7.1
-7.1
-7.1
-7.1
-7.1
-7.1
-7.1
-7.1
-7.1
-7.1
-7.1
-7.1
-7.1
-7.1
-7.1
-7.1
-7.1
-7.1
-7.1
-7.1
-7.1
-7.1
-7.1
-7.1
-7.1
-7.1
-7.1
-7.1
-7.1
-7.1
-7.1
-7.1
-7.1
-7.1
-7.1
-7.1
-7.1
-7.1
-7.1
-7.1
-7.1
-7.1
-7.2
-7.2
-7.2
-7.2
-7.2
-7.2
-7.2
-7.2
-7.2
-7.2
-7.2
-7.2
-7.2
-7.2
-7.2
-7.2
-7.2
-7.2
-7.2
-7.2
-7.2
-7.2
-7.2
-7.2
-7.2
-7.2
-7.2
-7.2
-7.2
-7.2
-7.2
-7.2
-7.2
-7.2
-7.2
-7.2
-7.2
-7.2
-7.2
-7.2
-7.2
-7.2
-7.2
-7.2
-7.2
-7.2
-7.2
-7.2
-7.2
-7.2
-7.2
-7.2
-7.2
-7.2
-7.2
-7.2
-7.2
-7.2
-7.2
-7.2
-7.2
-7.2
-7.2
-7.2
-7.2
-7.2
-7.2
-7.2
-7.2
-7.2
-7.2
-7.2
-7.2
-7.2
-7.2
-7.2
-7.2
-7.2
-7.2
-7.2
-7.2
-7.2
-7.2
-7.2
-7.2
-7.2
-7.2
-7.2
-7.2
-7.2
-7.2
-7.2
-7.2
-7.2
-7.2
-7.2
-7.2
-7.2
-7.2
-7.2
-7.2
-7.2
-7.2
-7.2
-7.2
-7.2
-7.2
-7.2
-7.2
-7.2
-7.2
-7.2
-7.2
-7.2
-7.2
-7.2
-7.2
-7.2
-7.2
-7.2
-7.2
-7.3
-7.3
-7.3
-7.3
-7.3
-7.3
-7.3
-7.3
-7.3
-7.3
-7.3
-7.3
-7.3
-7.3
-7.3
-7.3
-7.3
-7.3
-7.3
-7.3
-7.3
-7.3
-7.3
-7.3
-7.3
-7.3
-7.3
-7.3
-7.3
-7.3
-7.3
-7.3
-7.3
-7.3
-7.3
-7.3
-7.3
-7.3
-7.3
-7.3
-7.3
-7.3
-7.3
-7.3
-7.3
-7.3
-7.3
-7.3
-7.3
-7.3
-7.3
-7.3
-7.3
-7.3
-7.3
-7.3
-7.3
-7.3
-7.3
-7.3
-7.3
-7.4
-7.4
-7.4
-7.4
-7.4
-7.4
-7.4
-7.4
-7.4
-7.4
-7.4
-7.4
-7.4
-7.4
-7.4
-7.4
-7.4
-7.4
-7.4
-7.4
-7.4
-7.4
-7.4
-7.4
-7.4
-7.4
-7.4
-7.4
-7.4
-7.4
-7.4
-7.4
-7.4
-7.4
-7.4
-7.4
-7.4
-7.4
-7.4
-7.4
-7.4
-7.4
-7.4
-7.4
-7.4
-7.4
-7.4
-7.4
-7.4
-7.4
-7.4
-7.4
-7.4
-7.4
-7.4
-7.4
-7.4
-7.4
-7.4
-7.4
-7.4
-7.4
-7.4
-7.4
-7.4
-7.4
-7.4
-7.4
-7.4
-7.4
-7.4
-7.4
-7.4
-7.4
-7.4
-7.4
-7.4
-7.4
-7.4
-7.4
-7.4
-7.4
-7.4
-7.4
-7.4
-7.4
-7.4
-7.4
-7.4
-7.4
-7.4
-7.4
-7.4
-7.4
-7.4
-7.4
-7.4
-7.4
-7.4
-7.4
-7.4
-7.4
-7.4
-7.4
-7.4
-7.4
-7.4
-7.4
-7.4
-7.4
-7.4
-7.4
-7.4
-7.4
-7.4
-7.4
-7.4
-7.4
-7.4
-7.4
-7.4
-7.5
-7.5
-7.5
-7.5
-7.5
-7.5
-7.5
-7.5
-7.5
-7.5
-7.5
-7.5
-7.5
-7.5
-7.5
-7.5
-7.5
-7.5
-7.5
-7.5
-7.5
-7.5
-7.5
-7.5
-7.5
-7.5
-7.5
-7.5
-7.5
-7.5
-7.5
-7.5
-7.5
-7.5
-7.5
-7.5
-7.5
-7.5
-7.5
-7.5
-7.5
-7.5
-7.5
-7.5
-7.5
-7.5
-7.5
-7.5
-7.5
-7.5
-7.5
-7.5
-7.5
-7.5
-7.5
-7.5
-7.5
-7.5
-7.5
-7.5
-7.5
-7.6
-7.6
-7.6
-7.6
-7.6
-7.6
-7.6
-7.6
-7.6
-7.6
-7.6
-7.6
-7.6
-7.6
-7.6
-7.6
-7.6
-7.6
-7.6
-7.6
-7.6
-7.6
-7.6
-7.6
-7.6
-7.6
-7.6
-7.6
-7.6
-7.6
-7.6
-7.6
-7.6
-7.6
-7.6
-7.6
-7.6
-7.6
-7.6
-7.6
-7.6
-7.6
-7.6
-7.6
-7.6
-7.6
-7.6
-7.6
-7.6
-7.6
-7.6
-7.6
-7.6
-7.6
-7.6
-7.6
-7.6
-7.6
-7.6
-7.6
-7.6
-7.6
-7.6
-7.6
-7.6
-7.6
-7.6
-7.6
-7.6
-7.6
-7.6
-7.6
-7.6
-7.6
-7.6
-7.6
-7.6
-7.6
-7.6
-7.6
-7.6
-7.6
-7.6
-7.6
-7.6
-7.6
-7.6
-7.6
-7.6
-7.6
-7.6
-7.6
-7.6
-7.6
-7.6
-7.6
-7.6
-7.6
-7.6
-7.6
-7.6
-7.6
-7.6
-7.6
-7.6
-7.6
-7.6
-7.6
-7.6
-7.6
-7.6
-7.6
-7.6
-7.6
-7.6
-7.6
-7.6
-7.6
-7.6
-7.6
-7.6
-7.7
-7.7
-7.7
-7.7
-7.7
-7.7
-7.7
-7.7
-7.7
-7.7
-7.7
-7.7
-7.7
-7.7
-7.7
-7.7
-7.7
-7.7
-7.7
-7.7
-7.7
-7.7
-7.7
-7.7
-7.7
-7.7
-7.7
-7.7
-7.7
-7.7
-7.7
-7.7
-7.7
-7.7
-7.7
-7.7
-7.7
-7.7
-7.7
-7.7
-7.7
-7.7
-7.7
-7.7
-7.7
-7.7
-7.7
-7.7
-7.7
-7.7
-7.7
-7.7
-7.7
-7.7
-7.7
-7.7
-7.7
-7.7
-7.7
-7.7
-7.7
-7.8
-7.8
-7.8
-7.8
-7.8
-7.8
-7.8
-7.8
-7.8
-7.8
-7.8
-7.8
-7.8
-7.8
-7.8
-7.8
-7.8
-7.8
-7.8
-7.8
-7.8
-7.8
-7.8
-7.8
-7.8
-7.8
-7.8
-7.8
-7.8
-7.8
-7.8
-7.8
-7.8
-7.8
-7.8
-7.8
-7.8
-7.8
-7.8
-7.8
-7.8
-7.8
-7.8
-7.8
-7.8
-7.8
-7.8
-7.8
-7.8
-7.8
-7.8
-7.8
-7.8
-7.8
-7.8
-7.8
-7.8
-7.8
-7.8
-7.8
-7.8
-7.8
-7.8
-7.8
-7.8
-7.8
-7.8
-7.8
-7.8
-7.8
-7.8
-7.8
-7.8
-7.8
-7.8
-7.8
-7.8
-7.8
-7.8
-7.8
-7.8
-7.8
-7.8
-7.8
-7.8
-7.8
-7.8
-7.8
-7.8
-7.8
-7.8
-7.8
-7.8
-7.8
-7.8
-7.8
-7.8
-7.8
-7.8
-7.8
-7.8
-7.8
-7.8
-7.8
-7.8
-7.8
-7.8
-7.8
-7.8
-7.8
-7.8
-7.8
-7.8
-7.8
-7.8
-7.8
-7.8
-7.8
-7.8
-7.8
-7.8
-7.9
-7.9
-7.9
-7.9
-7.9
-7.9
-7.9
-7.9
-7.9
-7.9
-7.9
-7.9
-7.9
-7.9
-7.9
-7.9
-7.9
-7.9
-7.9
-7.9
-7.9
-7.9
-7.9
-7.9
-7.9
-7.9
-7.9
-7.9
-7.9
-7.9
-7.9
-7.9
-7.9
-7.9
-7.9
-7.9
-7.9
-7.9
-7.9
-7.9
-7.9
-7.9
-7.9
-7.9
-7.9
-7.9
-7.9
-7.9
-7.9
-7.9
-7.9
-7.9
-7.9
-7.9
-7.9
-7.9
-7.9
-7.9
-7.9
-7.9
-7.9
-8
-8
-8
-8
-8
-8
-8
-8
-8
-8
-8
-8
-8
-8
-8
-8
-8
-8
-8
-8
-8
-8
-8
-8
-8
-8
-8
-8
-8
-8
-8
-8
-8
-8
-8
-8
-8
-8
-8
-8
-8
-8
-8
-8
-8
-8
-8
-8
-8
-8
-8
-8
-8
-8
-8
-8
-8
-8
-8
-8
-8
-8
-8
-8
-8
-8
-8
-8
-8
-8
-8
-8
-8
-8
-8
-8
-8
-8
-8
-8
-8
-8
-8
-8
-8
-8
-8
-8
-8
-8
-8
-8
-8
-8
-8
-8
-8
-8
-8
-8
-8
-8
-8
-8
-8
-8
-8
-8
-8
-8
-8
-8
-8
-8
-8
-8
-8
-8
-8
-8
-8
-8.1579
-8.1579
-8.1579
-8.1579
-8.1579
-8.1579
-8.1579
-8.1579
-8.1579
-8.1579
-8.1579
-8.1579
-8.1579
-8.1579
-8.1579
-8.1579
-8.1579
-8.1579
-8.1579
-8.1579
-8.1579
-8.1579
-8.1579
-8.1579
-8.1579
-8.1579
-8.1579
-8.1579
-8.1579
-8.1579
-8.1579
-8.1579
-8.1579
-8.1579
-8.1579
-8.1579
-8.1579
-8.1579
-8.1579
-8.1579
-8.1579
-8.1579
-8.1579
-8.1579
-8.1579
-8.1579
-8.1579
-8.1579
-8.1579
-8.1579
-8.1579
-8.1579
-8.1579
-8.1579
-8.1579
-8.1579
-8.1579
-8.1579
-8.1579
-8.1579
-8.1579
-8.3158
-8.3158
-8.3158
-8.3158
-8.3158
-8.3158
-8.3158
-8.3158
-8.3158
-8.3158
-8.3158
-8.3158
-8.3158
-8.3158
-8.3158
-8.3158
-8.3158
-8.3158
-8.3158
-8.3158
-8.3158
-8.3158
-8.3158
-8.3158
-8.3158
-8.3158
-8.3158
-8.3158
-8.3158
-8.3158
-8.3158
-8.3158
-8.3158
-8.3158
-8.3158
-8.3158
-8.3158
-8.3158
-8.3158
-8.3158
-8.3158
-8.3158
-8.3158
-8.3158
-8.3158
-8.3158
-8.3158
-8.3158
-8.3158
-8.3158
-8.3158
-8.3158
-8.3158
-8.3158
-8.3158
-8.3158
-8.3158
-8.3158
-8.3158
-8.3158
-8.3158
-8.3158
-8.3158
-8.3158
-8.3158
-8.3158
-8.3158
-8.3158
-8.3158
-8.3158
-8.3158
-8.3158
-8.3158
-8.3158
-8.3158
-8.3158
-8.3158
-8.3158
-8.3158
-8.3158
-8.3158
-8.3158
-8.3158
-8.3158
-8.3158
-8.3158
-8.3158
-8.3158
-8.3158
-8.3158
-8.3158
-8.3158
-8.3158
-8.3158
-8.3158
-8.3158
-8.3158
-8.3158
-8.3158
-8.3158
-8.3158
-8.3158
-8.3158
-8.3158
-8.3158
-8.3158
-8.3158
-8.3158
-8.3158
-8.3158
-8.3158
-8.3158
-8.3158
-8.3158
-8.3158
-8.3158
-8.3158
-8.3158
-8.3158
-8.3158
-8.3158
-8.4737
-8.4737
-8.4737
-8.4737
-8.4737
-8.4737
-8.4737
-8.4737
-8.4737
-8.4737
-8.4737
-8.4737
-8.4737
-8.4737
-8.4737
-8.4737
-8.4737
-8.4737
-8.4737
-8.4737
-8.4737
-8.4737
-8.4737
-8.4737
-8.4737
-8.4737
-8.4737
-8.4737
-8.4737
-8.4737
-8.4737
-8.4737
-8.4737
-8.4737
-8.4737
-8.4737
-8.4737
-8.4737
-8.4737
-8.4737
-8.4737
-8.4737
-8.4737
-8.4737
-8.4737
-8.4737
-8.4737
-8.4737
-8.4737
-8.4737
-8.4737
-8.4737
-8.4737
-8.4737
-8.4737
-8.4737
-8.4737
-8.4737
-8.4737
-8.4737
-8.4737
-8.6316
-8.6316
-8.6316
-8.6316
-8.6316
-8.6316
-8.6316
-8.6316
-8.6316
-8.6316
-8.6316
-8.6316
-8.6316
-8.6316
-8.6316
-8.6316
-8.6316
-8.6316
-8.6316
-8.6316
-8.6316
-8.6316
-8.6316
-8.6316
-8.6316
-8.6316
-8.6316
-8.6316
-8.6316
-8.6316
-8.6316
-8.6316
-8.6316
-8.6316
-8.6316
-8.6316
-8.6316
-8.6316
-8.6316
-8.6316
-8.6316
-8.6316
-8.6316
-8.6316
-8.6316
-8.6316
-8.6316
-8.6316
-8.6316
-8.6316
-8.6316
-8.6316
-8.6316
-8.6316
-8.6316
-8.6316
-8.6316
-8.6316
-8.6316
-8.6316
-8.6316
-8.6316
-8.6316
-8.6316
-8.6316
-8.6316
-8.6316
-8.6316
-8.6316
-8.6316
-8.6316
-8.6316
-8.6316
-8.6316
-8.6316
-8.6316
-8.6316
-8.6316
-8.6316
-8.6316
-8.6316
-8.6316
-8.6316
-8.6316
-8.6316
-8.6316
-8.6316
-8.6316
-8.6316
-8.6316
-8.6316
-8.6316
-8.6316
-8.6316
-8.6316
-8.6316
-8.6316
-8.6316
-8.6316
-8.6316
-8.6316
-8.6316
-8.6316
-8.6316
-8.6316
-8.6316
-8.6316
-8.6316
-8.6316
-8.6316
-8.6316
-8.6316
-8.6316
-8.6316
-8.6316
-8.6316
-8.6316
-8.6316
-8.6316
-8.6316
-8.6316
-8.7895
-8.7895
-8.7895
-8.7895
-8.7895
-8.7895
-8.7895
-8.7895
-8.7895
-8.7895
-8.7895
-8.7895
-8.7895
-8.7895
-8.7895
-8.7895
-8.7895
-8.7895
-8.7895
-8.7895
-8.7895
-8.7895
-8.7895
-8.7895
-8.7895
-8.7895
-8.7895
-8.7895
-8.7895
-8.7895
-8.7895
-8.7895
-8.7895
-8.7895
-8.7895
-8.7895
-8.7895
-8.7895
-8.7895
-8.7895
-8.7895
-8.7895
-8.7895
-8.7895
-8.7895
-8.7895
-8.7895
-8.7895
-8.7895
-8.7895
-8.7895
-8.7895
-8.7895
-8.7895
-8.7895
-8.7895
-8.7895
-8.7895
-8.7895
-8.7895
-8.7895
-8.9474
-8.9474
-8.9474
-8.9474
-8.9474
-8.9474
-8.9474
-8.9474
-8.9474
-8.9474
-8.9474
-8.9474
-8.9474
-8.9474
-8.9474
-8.9474
-8.9474
-8.9474
-8.9474
-8.9474
-8.9474
-8.9474
-8.9474
-8.9474
-8.9474
-8.9474
-8.9474
-8.9474
-8.9474
-8.9474
-8.9474
-8.9474
-8.9474
-8.9474
-8.9474
-8.9474
-8.9474
-8.9474
-8.9474
-8.9474
-8.9474
-8.9474
-8.9474
-8.9474
-8.9474
-8.9474
-8.9474
-8.9474
-8.9474
-8.9474
-8.9474
-8.9474
-8.9474
-8.9474
-8.9474
-8.9474
-8.9474
-8.9474
-8.9474
-8.9474
-8.9474
-8.9474
-8.9474
-8.9474
-8.9474
-8.9474
-8.9474
-8.9474
-8.9474
-8.9474
-8.9474
-8.9474
-8.9474
-8.9474
-8.9474
-8.9474
-8.9474
-8.9474
-8.9474
-8.9474
-8.9474
-8.9474
-8.9474
-8.9474
-8.9474
-8.9474
-8.9474
-8.9474
-8.9474
-8.9474
-8.9474
-8.9474
-8.9474
-8.9474
-8.9474
-8.9474
-8.9474
-8.9474
-8.9474
-8.9474
-8.9474
-8.9474
-8.9474
-8.9474
-8.9474
-8.9474
-8.9474
-8.9474
-8.9474
-8.9474
-8.9474
-8.9474
-8.9474
-8.9474
-8.9474
-8.9474
-8.9474
-8.9474
-8.9474
-8.9474
-8.9474
-9.1053
-9.1053
-9.1053
-9.1053
-9.1053
-9.1053
-9.1053
-9.1053
-9.1053
-9.1053
-9.1053
-9.1053
-9.1053
-9.1053
-9.1053
-9.1053
-9.1053
-9.1053
-9.1053
-9.1053
-9.1053
-9.1053
-9.1053
-9.1053
-9.1053
-9.1053
-9.1053
-9.1053
-9.1053
-9.1053
-9.1053
-9.1053
-9.1053
-9.1053
-9.1053
-9.1053
-9.1053
-9.1053
-9.1053
-9.1053
-9.1053
-9.1053
-9.1053
-9.1053
-9.1053
-9.1053
-9.1053
-9.1053
-9.1053
-9.1053
-9.1053
-9.1053
-9.1053
-9.1053
-9.1053
-9.1053
-9.1053
-9.1053
-9.1053
-9.1053
-9.1053
-9.2632
-9.2632
-9.2632
-9.2632
-9.2632
-9.2632
-9.2632
-9.2632
-9.2632
-9.2632
-9.2632
-9.2632
-9.2632
-9.2632
-9.2632
-9.2632
-9.2632
-9.2632
-9.2632
-9.2632
-9.2632
-9.2632
-9.2632
-9.2632
-9.2632
-9.2632
-9.2632
-9.2632
-9.2632
-9.2632
-9.2632
-9.2632
-9.2632
-9.2632
-9.2632
-9.2632
-9.2632
-9.2632
-9.2632
-9.2632
-9.2632
-9.2632
-9.2632
-9.2632
-9.2632
-9.2632
-9.2632
-9.2632
-9.2632
-9.2632
-9.2632
-9.2632
-9.2632
-9.2632
-9.2632
-9.2632
-9.2632
-9.2632
-9.2632
-9.2632
-9.2632
-9.2632
-9.2632
-9.2632
-9.2632
-9.2632
-9.2632
-9.2632
-9.2632
-9.2632
-9.2632
-9.2632
-9.2632
-9.2632
-9.2632
-9.2632
-9.2632
-9.2632
-9.2632
-9.2632
-9.2632
-9.2632
-9.2632
-9.2632
-9.2632
-9.2632
-9.2632
-9.2632
-9.2632
-9.2632
-9.2632
-9.2632
-9.2632
-9.2632
-9.2632
-9.2632
-9.2632
-9.2632
-9.2632
-9.2632
-9.2632
-9.2632
-9.2632
-9.2632
-9.2632
-9.2632
-9.2632
-9.2632
-9.2632
-9.2632
-9.2632
-9.2632
-9.2632
-9.2632
-9.2632
-9.2632
-9.2632
-9.2632
-9.2632
-9.2632
-9.2632
-9.4211
-9.4211
-9.4211
-9.4211
-9.4211
-9.4211
-9.4211
-9.4211
-9.4211
-9.4211
-9.4211
-9.4211
-9.4211
-9.4211
-9.4211
-9.4211
-9.4211
-9.4211
-9.4211
-9.4211
-9.4211
-9.4211
-9.4211
-9.4211
-9.4211
-9.4211
-9.4211
-9.4211
-9.4211
-9.4211
-9.4211
-9.4211
-9.4211
-9.4211
-9.4211
-9.4211
-9.4211
-9.4211
-9.4211
-9.4211
-9.4211
-9.4211
-9.4211
-9.4211
-9.4211
-9.4211
-9.4211
-9.4211
-9.4211
-9.4211
-9.4211
-9.4211
-9.4211
-9.4211
-9.4211
-9.4211
-9.4211
-9.4211
-9.4211
-9.4211
-9.4211
-9.5789
-9.5789
-9.5789
-9.5789
-9.5789
-9.5789
-9.5789
-9.5789
-9.5789
-9.5789
-9.5789
-9.5789
-9.5789
-9.5789
-9.5789
-9.5789
-9.5789
-9.5789
-9.5789
-9.5789
-9.5789
-9.5789
-9.5789
-9.5789
-9.5789
-9.5789
-9.5789
-9.5789
-9.5789
-9.5789
-9.5789
-9.5789
-9.5789
-9.5789
-9.5789
-9.5789
-9.5789
-9.5789
-9.5789
-9.5789
-9.5789
-9.5789
-9.5789
-9.5789
-9.5789
-9.5789
-9.5789
-9.5789
-9.5789
-9.5789
-9.5789
-9.5789
-9.5789
-9.5789
-9.5789
-9.5789
-9.5789
-9.5789
-9.5789
-9.5789
-9.5789
-9.5789
-9.5789
-9.5789
-9.5789
-9.5789
-9.5789
-9.5789
-9.5789
-9.5789
-9.5789
-9.5789
-9.5789
-9.5789
-9.5789
-9.5789
-9.5789
-9.5789
-9.5789
-9.5789
-9.5789
-9.5789
-9.5789
-9.5789
-9.5789
-9.5789
-9.5789
-9.5789
-9.5789
-9.5789
-9.5789
-9.5789
-9.5789
-9.5789
-9.5789
-9.5789
-9.5789
-9.5789
-9.5789
-9.5789
-9.5789
-9.5789
-9.5789
-9.5789
-9.5789
-9.5789
-9.5789
-9.5789
-9.5789
-9.5789
-9.5789
-9.5789
-9.5789
-9.5789
-9.5789
-9.5789
-9.5789
-9.5789
-9.5789
-9.5789
-9.5789
-9.7368
-9.7368
-9.7368
-9.7368
-9.7368
-9.7368
-9.7368
-9.7368
-9.7368
-9.7368
-9.7368
-9.7368
-9.7368
-9.7368
-9.7368
-9.7368
-9.7368
-9.7368
-9.7368
-9.7368
-9.7368
-9.7368
-9.7368
-9.7368
-9.7368
-9.7368
-9.7368
-9.7368
-9.7368
-9.7368
-9.7368
-9.7368
-9.7368
-9.7368
-9.7368
-9.7368
-9.7368
-9.7368
-9.7368
-9.7368
-9.7368
-9.7368
-9.7368
-9.7368
-9.7368
-9.7368
-9.7368
-9.7368
-9.7368
-9.7368
-9.7368
-9.7368
-9.7368
-9.7368
-9.7368
-9.7368
-9.7368
-9.7368
-9.7368
-9.7368
-9.7368
-9.8947
-9.8947
-9.8947
-9.8947
-9.8947
-9.8947
-9.8947
-9.8947
-9.8947
-9.8947
-9.8947
-9.8947
-9.8947
-9.8947
-9.8947
-9.8947
-9.8947
-9.8947
-9.8947
-9.8947
-9.8947
-9.8947
-9.8947
-9.8947
-9.8947
-9.8947
-9.8947
-9.8947
-9.8947
-9.8947
-9.8947
-9.8947
-9.8947
-9.8947
-9.8947
-9.8947
-9.8947
-9.8947
-9.8947
-9.8947
-9.8947
-9.8947
-9.8947
-9.8947
-9.8947
-9.8947
-9.8947
-9.8947
-9.8947
-9.8947
-9.8947
-9.8947
-9.8947
-9.8947
-9.8947
-9.8947
-9.8947
-9.8947
-9.8947
-9.8947
-9.8947
-9.8947
-9.8947
-9.8947
-9.8947
-9.8947
-9.8947
-9.8947
-9.8947
-9.8947
-9.8947
-9.8947
-9.8947
-9.8947
-9.8947
-9.8947
-9.8947
-9.8947
-9.8947
-9.8947
-9.8947
-9.8947
-9.8947
-9.8947
-9.8947
-9.8947
-9.8947
-9.8947
-9.8947
-9.8947
-9.8947
-9.8947
-9.8947
-9.8947
-9.8947
-9.8947
-9.8947
-9.8947
-9.8947
-9.8947
-9.8947
-9.8947
-9.8947
-9.8947
-9.8947
-9.8947
-9.8947
-9.8947
-9.8947
-9.8947
-9.8947
-9.8947
-9.8947
-9.8947
-9.8947
-9.8947
-9.8947
-9.8947
-9.8947
-9.8947
-9.8947
-10.0526
-10.0526
-10.0526
-10.0526
-10.0526
-10.0526
-10.0526
-10.0526
-10.0526
-10.0526
-10.0526
-10.0526
-10.0526
-10.0526
-10.0526
-10.0526
-10.0526
-10.0526
-10.0526
-10.0526
-10.0526
-10.0526
-10.0526
-10.0526
-10.0526
-10.0526
-10.0526
-10.0526
-10.0526
-10.0526
-10.0526
-10.0526
-10.0526
-10.0526
-10.0526
-10.0526
-10.0526
-10.0526
-10.0526
-10.0526
-10.0526
-10.0526
-10.0526
-10.0526
-10.0526
-10.0526
-10.0526
-10.0526
-10.0526
-10.0526
-10.0526
-10.0526
-10.0526
-10.0526
-10.0526
-10.0526
-10.0526
-10.0526
-10.0526
-10.0526
-10.0526
-10.2105
-10.2105
-10.2105
-10.2105
-10.2105
-10.2105
-10.2105
-10.2105
-10.2105
-10.2105
-10.2105
-10.2105
-10.2105
-10.2105
-10.2105
-10.2105
-10.2105
-10.2105
-10.2105
-10.2105
-10.2105
-10.2105
-10.2105
-10.2105
-10.2105
-10.2105
-10.2105
-10.2105
-10.2105
-10.2105
-10.2105
-10.2105
-10.2105
-10.2105
-10.2105
-10.2105
-10.2105
-10.2105
-10.2105
-10.2105
-10.2105
-10.2105
-10.2105
-10.2105
-10.2105
-10.2105
-10.2105
-10.2105
-10.2105
-10.2105
-10.2105
-10.2105
-10.2105
-10.2105
-10.2105
-10.2105
-10.2105
-10.2105
-10.2105
-10.2105
-10.2105
-10.2105
-10.2105
-10.2105
-10.2105
-10.2105
-10.2105
-10.2105
-10.2105
-10.2105
-10.2105
-10.2105
-10.2105
-10.2105
-10.2105
-10.2105
-10.2105
-10.2105
-10.2105
-10.2105
-10.2105
-10.2105
-10.2105
-10.2105
-10.2105
-10.2105
-10.2105
-10.2105
-10.2105
-10.2105
-10.2105
-10.2105
-10.2105
-10.2105
-10.2105
-10.2105
-10.2105
-10.2105
-10.2105
-10.2105
-10.2105
-10.2105
-10.2105
-10.2105
-10.2105
-10.2105
-10.2105
-10.2105
-10.2105
-10.2105
-10.2105
-10.2105
-10.2105
-10.2105
-10.2105
-10.2105
-10.2105
-10.2105
-10.2105
-10.2105
-10.2105
-10.3684
-10.3684
-10.3684
-10.3684
-10.3684
-10.3684
-10.3684
-10.3684
-10.3684
-10.3684
-10.3684
-10.3684
-10.3684
-10.3684
-10.3684
-10.3684
-10.3684
-10.3684
-10.3684
-10.3684
-10.3684
-10.3684
-10.3684
-10.3684
-10.3684
-10.3684
-10.3684
-10.3684
-10.3684
-10.3684
-10.3684
-10.3684
-10.3684
-10.3684
-10.3684
-10.3684
-10.3684
-10.3684
-10.3684
-10.3684
-10.3684
-10.3684
-10.3684
-10.3684
-10.3684
-10.3684
-10.3684
-10.3684
-10.3684
-10.3684
-10.3684
-10.3684
-10.3684
-10.3684
-10.3684
-10.3684
-10.3684
-10.3684
-10.3684
-10.3684
-10.3684
-10.5263
-10.5263
-10.5263
-10.5263
-10.5263
-10.5263
-10.5263
-10.5263
-10.5263
-10.5263
-10.5263
-10.5263
-10.5263
-10.5263
-10.5263
-10.5263
-10.5263
-10.5263
-10.5263
-10.5263
-10.5263
-10.5263
-10.5263
-10.5263
-10.5263
-10.5263
-10.5263
-10.5263
-10.5263
-10.5263
-10.5263
-10.5263
-10.5263
-10.5263
-10.5263
-10.5263
-10.5263
-10.5263
-10.5263
-10.5263
-10.5263
-10.5263
-10.5263
-10.5263
-10.5263
-10.5263
-10.5263
-10.5263
-10.5263
-10.5263
-10.5263
-10.5263
-10.5263
-10.5263
-10.5263
-10.5263
-10.5263
-10.5263
-10.5263
-10.5263
-10.5263
-10.5263
-10.5263
-10.5263
-10.5263
-10.5263
-10.5263
-10.5263
-10.5263
-10.5263
-10.5263
-10.5263
-10.5263
-10.5263
-10.5263
-10.5263
-10.5263
-10.5263
-10.5263
-10.5263
-10.5263
-10.5263
-10.5263
-10.5263
-10.5263
-10.5263
-10.5263
-10.5263
-10.5263
-10.5263
-10.5263
-10.5263
-10.5263
-10.5263
-10.5263
-10.5263
-10.5263
-10.5263
-10.5263
-10.5263
-10.5263
-10.5263
-10.5263
-10.5263
-10.5263
-10.5263
-10.5263
-10.5263
-10.5263
-10.5263
-10.5263
-10.5263
-10.5263
-10.5263
-10.5263
-10.5263
-10.5263
-10.5263
-10.5263
-10.5263
-10.5263
-10.6842
-10.6842
-10.6842
-10.6842
-10.6842
-10.6842
-10.6842
-10.6842
-10.6842
-10.6842
-10.6842
-10.6842
-10.6842
-10.6842
-10.6842
-10.6842
-10.6842
-10.6842
-10.6842
-10.6842
-10.6842
-10.6842
-10.6842
-10.6842
-10.6842
-10.6842
-10.6842
-10.6842
-10.6842
-10.6842
-10.6842
-10.6842
-10.6842
-10.6842
-10.6842
-10.6842
-10.6842
-10.6842
-10.6842
-10.6842
-10.6842
-10.6842
-10.6842
-10.6842
-10.6842
-10.6842
-10.6842
-10.6842
-10.6842
-10.6842
-10.6842
-10.6842
-10.6842
-10.6842
-10.6842
-10.6842
-10.6842
-10.6842
-10.6842
-10.6842
-10.6842
-10.8421
-10.8421
-10.8421
-10.8421
-10.8421
-10.8421
-10.8421
-10.8421
-10.8421
-10.8421
-10.8421
-10.8421
-10.8421
-10.8421
-10.8421
-10.8421
-10.8421
-10.8421
-10.8421
-10.8421
-10.8421
-10.8421
-10.8421
-10.8421
-10.8421
-10.8421
-10.8421
-10.8421
-10.8421
-10.8421
-10.8421
-10.8421
-10.8421
-10.8421
-10.8421
-10.8421
-10.8421
-10.8421
-10.8421
-10.8421
-10.8421
-10.8421
-10.8421
-10.8421
-10.8421
-10.8421
-10.8421
-10.8421
-10.8421
-10.8421
-10.8421
-10.8421
-10.8421
-10.8421
-10.8421
-10.8421
-10.8421
-10.8421
-10.8421
-10.8421
-10.8421
-10.8421
-10.8421
-10.8421
-10.8421
-10.8421
-10.8421
-10.8421
-10.8421
-10.8421
-10.8421
-10.8421
-10.8421
-10.8421
-10.8421
-10.8421
-10.8421
-10.8421
-10.8421
-10.8421
-10.8421
-10.8421
-10.8421
-10.8421
-10.8421
-10.8421
-10.8421
-10.8421
-10.8421
-10.8421
-10.8421
-10.8421
-10.8421
-10.8421
-10.8421
-10.8421
-10.8421
-10.8421
-10.8421
-10.8421
-10.8421
-10.8421
-10.8421
-10.8421
-10.8421
-10.8421
-10.8421
-10.8421
-10.8421
-10.8421
-10.8421
-10.8421
-10.8421
-10.8421
-10.8421
-10.8421
-10.8421
-10.8421
-10.8421
-10.8421
-10.8421
-11
-11
-11
-11
-11
-11
-11
-11
-11
-11
-11
-11
-11
-11
-11
-11
-11
-11
-11
-11
-11
-11
-11
-11
-11
-11
-11
-11
-11
-11
-11
-11
-11
-11
-11
-11
-11
-11
-11
-11
-11
-11
-11
-11
-11
-11
-11
-11
-11
-11
-11
-11
-11
-11
-11
-11
-11
-11
-11
-11
-11
-11.1579
-11.1579
-11.1579
-11.1579
-11.1579
-11.1579
-11.1579
-11.1579
-11.1579
-11.1579
-11.1579
-11.1579
-11.1579
-11.1579
-11.1579
-11.1579
-11.1579
-11.1579
-11.1579
-11.1579
-11.1579
-11.1579
-11.1579
-11.1579
-11.1579
-11.1579
-11.1579
-11.1579
-11.1579
-11.1579
-11.1579
-11.1579
-11.1579
-11.1579
-11.1579
-11.1579
-11.1579
-11.1579
-11.1579
-11.1579
-11.1579
-11.1579
-11.1579
-11.1579
-11.1579
-11.1579
-11.1579
-11.1579
-11.1579
-11.1579
-11.1579
-11.1579
-11.1579
-11.1579
-11.1579
-11.1579
-11.1579
-11.1579
-11.1579
-11.1579
-11.1579
-11.1579
-11.1579
-11.1579
-11.1579
-11.1579
-11.1579
-11.1579
-11.1579
-11.1579
-11.1579
-11.1579
-11.1579
-11.1579
-11.1579
-11.1579
-11.1579
-11.1579
-11.1579
-11.1579
-11.1579
-11.1579
-11.1579
-11.1579
-11.1579
-11.1579
-11.1579
-11.1579
-11.1579
-11.1579
-11.1579
-11.1579
-11.1579
-11.1579
-11.1579
-11.1579
-11.1579
-11.1579
-11.1579
-11.1579
-11.1579
-11.1579
-11.1579
-11.1579
-11.1579
-11.1579
-11.1579
-11.1579
-11.1579
-11.1579
-11.1579
-11.1579
-11.1579
-11.1579
-11.1579
-11.1579
-11.1579
-11.1579
-11.1579
-11.1579
-11.1579
-11.3158
-11.3158
-11.3158
-11.3158
-11.3158
-11.3158
-11.3158
-11.3158
-11.3158
-11.3158
-11.3158
-11.3158
-11.3158
-11.3158
-11.3158
-11.3158
-11.3158
-11.3158
-11.3158
-11.3158
-11.3158
-11.3158
-11.3158
-11.3158
-11.3158
-11.3158
-11.3158
-11.3158
-11.3158
-11.3158
-11.3158
-11.3158
-11.3158
-11.3158
-11.3158
-11.3158
-11.3158
-11.3158
-11.3158
-11.3158
-11.3158
-11.3158
-11.3158
-11.3158
-11.3158
-11.3158
-11.3158
-11.3158
-11.3158
-11.3158
-11.3158
-11.3158
-11.3158
-11.3158
-11.3158
-11.3158
-11.3158
-11.3158
-11.3158
-11.3158
-11.3158
-11.4737
-11.4737
-11.4737
-11.4737
-11.4737
-11.4737
-11.4737
-11.4737
-11.4737
-11.4737
-11.4737
-11.4737
-11.4737
-11.4737
-11.4737
-11.4737
-11.4737
-11.4737
-11.4737
-11.4737
-11.4737
-11.4737
-11.4737
-11.4737
-11.4737
-11.4737
-11.4737
-11.4737
-11.4737
-11.4737
-11.4737
-11.4737
-11.4737
-11.4737
-11.4737
-11.4737
-11.4737
-11.4737
-11.4737
-11.4737
-11.4737
-11.4737
-11.4737
-11.4737
-11.4737
-11.4737
-11.4737
-11.4737
-11.4737
-11.4737
-11.4737
-11.4737
-11.4737
-11.4737
-11.4737
-11.4737
-11.4737
-11.4737
-11.4737
-11.4737
-11.4737
-11.4737
-11.4737
-11.4737
-11.4737
-11.4737
-11.4737
-11.4737
-11.4737
-11.4737
-11.4737
-11.4737
-11.4737
-11.4737
-11.4737
-11.4737
-11.4737
-11.4737
-11.4737
-11.4737
-11.4737
-11.4737
-11.4737
-11.4737
-11.4737
-11.4737
-11.4737
-11.4737
-11.4737
-11.4737
-11.4737
-11.4737
-11.4737
-11.4737
-11.4737
-11.4737
-11.4737
-11.4737
-11.4737
-11.4737
-11.4737
-11.4737
-11.4737
-11.4737
-11.4737
-11.4737
-11.4737
-11.4737
-11.4737
-11.4737
-11.4737
-11.4737
-11.4737
-11.4737
-11.4737
-11.4737
-11.4737
-11.4737
-11.4737
-11.4737
-11.4737
-11.6316
-11.6316
-11.6316
-11.6316
-11.6316
-11.6316
-11.6316
-11.6316
-11.6316
-11.6316
-11.6316
-11.6316
-11.6316
-11.6316
-11.6316
-11.6316
-11.6316
-11.6316
-11.6316
-11.6316
-11.6316
-11.6316
-11.6316
-11.6316
-11.6316
-11.6316
-11.6316
-11.6316
-11.6316
-11.6316
-11.6316
-11.6316
-11.6316
-11.6316
-11.6316
-11.6316
-11.6316
-11.6316
-11.6316
-11.6316
-11.6316
-11.6316
-11.6316
-11.6316
-11.6316
-11.6316
-11.6316
-11.6316
-11.6316
-11.6316
-11.6316
-11.6316
-11.6316
-11.6316
-11.6316
-11.6316
-11.6316
-11.6316
-11.6316
-11.6316
-11.6316
-11.7895
-11.7895
-11.7895
-11.7895
-11.7895
-11.7895
-11.7895
-11.7895
-11.7895
-11.7895
-11.7895
-11.7895
-11.7895
-11.7895
-11.7895
-11.7895
-11.7895
-11.7895
-11.7895
-11.7895
-11.7895
-11.7895
-11.7895
-11.7895
-11.7895
-11.7895
-11.7895
-11.7895
-11.7895
-11.7895
-11.7895
-11.7895
-11.7895
-11.7895
-11.7895
-11.7895
-11.7895
-11.7895
-11.7895
-11.7895
-11.7895
-11.7895
-11.7895
-11.7895
-11.7895
-11.7895
-11.7895
-11.7895
-11.7895
-11.7895
-11.7895
-11.7895
-11.7895
-11.7895
-11.7895
-11.7895
-11.7895
-11.7895
-11.7895
-11.7895
-11.7895
-11.7895
-11.7895
-11.7895
-11.7895
-11.7895
-11.7895
-11.7895
-11.7895
-11.7895
-11.7895
-11.7895
-11.7895
-11.7895
-11.7895
-11.7895
-11.7895
-11.7895
-11.7895
-11.7895
-11.7895
-11.7895
-11.7895
-11.7895
-11.7895
-11.7895
-11.7895
-11.7895
-11.7895
-11.7895
-11.7895
-11.7895
-11.7895
-11.7895
-11.7895
-11.7895
-11.7895
-11.7895
-11.7895
-11.7895
-11.7895
-11.7895
-11.7895
-11.7895
-11.7895
-11.7895
-11.7895
-11.7895
-11.7895
-11.7895
-11.7895
-11.7895
-11.7895
-11.7895
-11.7895
-11.7895
-11.7895
-11.7895
-11.7895
-11.7895
-11.7895
-11.9474
-11.9474
-11.9474
-11.9474
-11.9474
-11.9474
-11.9474
-11.9474
-11.9474
-11.9474
-11.9474
-11.9474
-11.9474
-11.9474
-11.9474
-11.9474
-11.9474
-11.9474
-11.9474
-11.9474
-11.9474
-11.9474
-11.9474
-11.9474
-11.9474
-11.9474
-11.9474
-11.9474
-11.9474
-11.9474
-11.9474
-11.9474
-11.9474
-11.9474
-11.9474
-11.9474
-11.9474
-11.9474
-11.9474
-11.9474
-11.9474
-11.9474
-11.9474
-11.9474
-11.9474
-11.9474
-11.9474
-11.9474
-11.9474
-11.9474
-11.9474
-11.9474
-11.9474
-11.9474
-11.9474
-11.9474
-11.9474
-11.9474
-11.9474
-11.9474
-11.9474
-12.1053
-12.1053
-12.1053
-12.1053
-12.1053
-12.1053
-12.1053
-12.1053
-12.1053
-12.1053
-12.1053
-12.1053
-12.1053
-12.1053
-12.1053
-12.1053
-12.1053
-12.1053
-12.1053
-12.1053
-12.1053
-12.1053
-12.1053
-12.1053
-12.1053
-12.1053
-12.1053
-12.1053
-12.1053
-12.1053
-12.1053
-12.1053
-12.1053
-12.1053
-12.1053
-12.1053
-12.1053
-12.1053
-12.1053
-12.1053
-12.1053
-12.1053
-12.1053
-12.1053
-12.1053
-12.1053
-12.1053
-12.1053
-12.1053
-12.1053
-12.1053
-12.1053
-12.1053
-12.1053
-12.1053
-12.1053
-12.1053
-12.1053
-12.1053
-12.1053
-12.1053
-12.1053
-12.1053
-12.1053
-12.1053
-12.1053
-12.1053
-12.1053
-12.1053
-12.1053
-12.1053
-12.1053
-12.1053
-12.1053
-12.1053
-12.1053
-12.1053
-12.1053
-12.1053
-12.1053
-12.1053
-12.1053
-12.1053
-12.1053
-12.1053
-12.1053
-12.1053
-12.1053
-12.1053
-12.1053
-12.1053
-12.1053
-12.1053
-12.1053
-12.1053
-12.1053
-12.1053
-12.1053
-12.1053
-12.1053
-12.1053
-12.1053
-12.1053
-12.1053
-12.1053
-12.1053
-12.1053
-12.1053
-12.1053
-12.1053
-12.1053
-12.1053
-12.1053
-12.1053
-12.1053
-12.1053
-12.1053
-12.1053
-12.1053
-12.1053
-12.1053
-12.2632
-12.2632
-12.2632
-12.2632
-12.2632
-12.2632
-12.2632
-12.2632
-12.2632
-12.2632
-12.2632
-12.2632
-12.2632
-12.2632
-12.2632
-12.2632
-12.2632
-12.2632
-12.2632
-12.2632
-12.2632
-12.2632
-12.2632
-12.2632
-12.2632
-12.2632
-12.2632
-12.2632
-12.2632
-12.2632
-12.2632
-12.2632
-12.2632
-12.2632
-12.2632
-12.2632
-12.2632
-12.2632
-12.2632
-12.2632
-12.2632
-12.2632
-12.2632
-12.2632
-12.2632
-12.2632
-12.2632
-12.2632
-12.2632
-12.2632
-12.2632
-12.2632
-12.2632
-12.2632
-12.2632
-12.2632
-12.2632
-12.2632
-12.2632
-12.2632
-12.2632
-12.4211
-12.4211
-12.4211
-12.4211
-12.4211
-12.4211
-12.4211
-12.4211
-12.4211
-12.4211
-12.4211
-12.4211
-12.4211
-12.4211
-12.4211
-12.4211
-12.4211
-12.4211
-12.4211
-12.4211
-12.4211
-12.4211
-12.4211
-12.4211
-12.4211
-12.4211
-12.4211
-12.4211
-12.4211
-12.4211
-12.4211
-12.4211
-12.4211
-12.4211
-12.4211
-12.4211
-12.4211
-12.4211
-12.4211
-12.4211
-12.4211
-12.4211
-12.4211
-12.4211
-12.4211
-12.4211
-12.4211
-12.4211
-12.4211
-12.4211
-12.4211
-12.4211
-12.4211
-12.4211
-12.4211
-12.4211
-12.4211
-12.4211
-12.4211
-12.4211
-12.4211
-12.4211
-12.4211
-12.4211
-12.4211
-12.4211
-12.4211
-12.4211
-12.4211
-12.4211
-12.4211
-12.4211
-12.4211
-12.4211
-12.4211
-12.4211
-12.4211
-12.4211
-12.4211
-12.4211
-12.4211
-12.4211
-12.4211
-12.4211
-12.4211
-12.4211
-12.4211
-12.4211
-12.4211
-12.4211
-12.4211
-12.4211
-12.4211
-12.4211
-12.4211
-12.4211
-12.4211
-12.4211
-12.4211
-12.4211
-12.4211
-12.4211
-12.4211
-12.4211
-12.4211
-12.4211
-12.4211
-12.4211
-12.4211
-12.4211
-12.4211
-12.4211
-12.4211
-12.4211
-12.4211
-12.4211
-12.4211
-12.4211
-12.4211
-12.4211
-12.4211
-12.5789
-12.5789
-12.5789
-12.5789
-12.5789
-12.5789
-12.5789
-12.5789
-12.5789
-12.5789
-12.5789
-12.5789
-12.5789
-12.5789
-12.5789
-12.5789
-12.5789
-12.5789
-12.5789
-12.5789
-12.5789
-12.5789
-12.5789
-12.5789
-12.5789
-12.5789
-12.5789
-12.5789
-12.5789
-12.5789
-12.5789
-12.5789
-12.5789
-12.5789
-12.5789
-12.5789
-12.5789
-12.5789
-12.5789
-12.5789
-12.5789
-12.5789
-12.5789
-12.5789
-12.5789
-12.5789
-12.5789
-12.5789
-12.5789
-12.5789
-12.5789
-12.5789
-12.5789
-12.5789
-12.5789
-12.5789
-12.5789
-12.5789
-12.5789
-12.5789
-12.5789
-12.7368
-12.7368
-12.7368
-12.7368
-12.7368
-12.7368
-12.7368
-12.7368
-12.7368
-12.7368
-12.7368
-12.7368
-12.7368
-12.7368
-12.7368
-12.7368
-12.7368
-12.7368
-12.7368
-12.7368
-12.7368
-12.7368
-12.7368
-12.7368
-12.7368
-12.7368
-12.7368
-12.7368
-12.7368
-12.7368
-12.7368
-12.7368
-12.7368
-12.7368
-12.7368
-12.7368
-12.7368
-12.7368
-12.7368
-12.7368
-12.7368
-12.7368
-12.7368
-12.7368
-12.7368
-12.7368
-12.7368
-12.7368
-12.7368
-12.7368
-12.7368
-12.7368
-12.7368
-12.7368
-12.7368
-12.7368
-12.7368
-12.7368
-12.7368
-12.7368
-12.7368
-12.7368
-12.7368
-12.7368
-12.7368
-12.7368
-12.7368
-12.7368
-12.7368
-12.7368
-12.7368
-12.7368
-12.7368
-12.7368
-12.7368
-12.7368
-12.7368
-12.7368
-12.7368
-12.7368
-12.7368
-12.7368
-12.7368
-12.7368
-12.7368
-12.7368
-12.7368
-12.7368
-12.7368
-12.7368
-12.7368
-12.7368
-12.7368
-12.7368
-12.7368
-12.7368
-12.7368
-12.7368
-12.7368
-12.7368
-12.7368
-12.7368
-12.7368
-12.7368
-12.7368
-12.7368
-12.7368
-12.7368
-12.7368
-12.7368
-12.7368
-12.7368
-12.7368
-12.7368
-12.7368
-12.7368
-12.7368
-12.7368
-12.7368
-12.7368
-12.7368
-12.8947
-12.8947
-12.8947
-12.8947
-12.8947
-12.8947
-12.8947
-12.8947
-12.8947
-12.8947
-12.8947
-12.8947
-12.8947
-12.8947
-12.8947
-12.8947
-12.8947
-12.8947
-12.8947
-12.8947
-12.8947
-12.8947
-12.8947
-12.8947
-12.8947
-12.8947
-12.8947
-12.8947
-12.8947
-12.8947
-12.8947
-12.8947
-12.8947
-12.8947
-12.8947
-12.8947
-12.8947
-12.8947
-12.8947
-12.8947
-12.8947
-12.8947
-12.8947
-12.8947
-12.8947
-12.8947
-12.8947
-12.8947
-12.8947
-12.8947
-12.8947
-12.8947
-12.8947
-12.8947
-12.8947
-12.8947
-12.8947
-12.8947
-12.8947
-12.8947
-12.8947
-13.0526
-13.0526
-13.0526
-13.0526
-13.0526
-13.0526
-13.0526
-13.0526
-13.0526
-13.0526
-13.0526
-13.0526
-13.0526
-13.0526
-13.0526
-13.0526
-13.0526
-13.0526
-13.0526
-13.0526
-13.0526
-13.0526
-13.0526
-13.0526
-13.0526
-13.0526
-13.0526
-13.0526
-13.0526
-13.0526
-13.0526
-13.0526
-13.0526
-13.0526
-13.0526
-13.0526
-13.0526
-13.0526
-13.0526
-13.0526
-13.0526
-13.0526
-13.0526
-13.0526
-13.0526
-13.0526
-13.0526
-13.0526
-13.0526
-13.0526
-13.0526
-13.0526
-13.0526
-13.0526
-13.0526
-13.0526
-13.0526
-13.0526
-13.0526
-13.0526
-13.0526
-13.0526
-13.0526
-13.0526
-13.0526
-13.0526
-13.0526
-13.0526
-13.0526
-13.0526
-13.0526
-13.0526
-13.0526
-13.0526
-13.0526
-13.0526
-13.0526
-13.0526
-13.0526
-13.0526
-13.0526
-13.0526
-13.0526
-13.0526
-13.0526
-13.0526
-13.0526
-13.0526
-13.0526
-13.0526
-13.0526
-13.0526
-13.0526
-13.0526
-13.0526
-13.0526
-13.0526
-13.0526
-13.0526
-13.0526
-13.0526
-13.0526
-13.0526
-13.0526
-13.0526
-13.0526
-13.0526
-13.0526
-13.0526
-13.0526
-13.0526
-13.0526
-13.0526
-13.0526
-13.0526
-13.0526
-13.0526
-13.0526
-13.0526
-13.0526
-13.0526
-13.2105
-13.2105
-13.2105
-13.2105
-13.2105
-13.2105
-13.2105
-13.2105
-13.2105
-13.2105
-13.2105
-13.2105
-13.2105
-13.2105
-13.2105
-13.2105
-13.2105
-13.2105
-13.2105
-13.2105
-13.2105
-13.2105
-13.2105
-13.2105
-13.2105
-13.2105
-13.2105
-13.2105
-13.2105
-13.2105
-13.2105
-13.2105
-13.2105
-13.2105
-13.2105
-13.2105
-13.2105
-13.2105
-13.2105
-13.2105
-13.2105
-13.2105
-13.2105
-13.2105
-13.2105
-13.2105
-13.2105
-13.2105
-13.2105
-13.2105
-13.2105
-13.2105
-13.2105
-13.2105
-13.2105
-13.2105
-13.2105
-13.2105
-13.2105
-13.2105
-13.2105
-13.3684
-13.3684
-13.3684
-13.3684
-13.3684
-13.3684
-13.3684
-13.3684
-13.3684
-13.3684
-13.3684
-13.3684
-13.3684
-13.3684
-13.3684
-13.3684
-13.3684
-13.3684
-13.3684
-13.3684
-13.3684
-13.3684
-13.3684
-13.3684
-13.3684
-13.3684
-13.3684
-13.3684
-13.3684
-13.3684
-13.3684
-13.3684
-13.3684
-13.3684
-13.3684
-13.3684
-13.3684
-13.3684
-13.3684
-13.3684
-13.3684
-13.3684
-13.3684
-13.3684
-13.3684
-13.3684
-13.3684
-13.3684
-13.3684
-13.3684
-13.3684
-13.3684
-13.3684
-13.3684
-13.3684
-13.3684
-13.3684
-13.3684
-13.3684
-13.3684
-13.3684
-13.3684
-13.3684
-13.3684
-13.3684
-13.3684
-13.3684
-13.3684
-13.3684
-13.3684
-13.3684
-13.3684
-13.3684
-13.3684
-13.3684
-13.3684
-13.3684
-13.3684
-13.3684
-13.3684
-13.3684
-13.3684
-13.3684
-13.3684
-13.3684
-13.3684
-13.3684
-13.3684
-13.3684
-13.3684
-13.3684
-13.3684
-13.3684
-13.3684
-13.3684
-13.3684
-13.3684
-13.3684
-13.3684
-13.3684
-13.3684
-13.3684
-13.3684
-13.3684
-13.3684
-13.3684
-13.3684
-13.3684
-13.3684
-13.3684
-13.3684
-13.3684
-13.3684
-13.3684
-13.3684
-13.3684
-13.3684
-13.3684
-13.3684
-13.3684
-13.3684
-13.5263
-13.5263
-13.5263
-13.5263
-13.5263
-13.5263
-13.5263
-13.5263
-13.5263
-13.5263
-13.5263
-13.5263
-13.5263
-13.5263
-13.5263
-13.5263
-13.5263
-13.5263
-13.5263
-13.5263
-13.5263
-13.5263
-13.5263
-13.5263
-13.5263
-13.5263
-13.5263
-13.5263
-13.5263
-13.5263
-13.5263
-13.5263
-13.5263
-13.5263
-13.5263
-13.5263
-13.5263
-13.5263
-13.5263
-13.5263
-13.5263
-13.5263
-13.5263
-13.5263
-13.5263
-13.5263
-13.5263
-13.5263
-13.5263
-13.5263
-13.5263
-13.5263
-13.5263
-13.5263
-13.5263
-13.5263
-13.5263
-13.5263
-13.5263
-13.5263
-13.5263
-13.6842
-13.6842
-13.6842
-13.6842
-13.6842
-13.6842
-13.6842
-13.6842
-13.6842
-13.6842
-13.6842
-13.6842
-13.6842
-13.6842
-13.6842
-13.6842
-13.6842
-13.6842
-13.6842
-13.6842
-13.6842
-13.6842
-13.6842
-13.6842
-13.6842
-13.6842
-13.6842
-13.6842
-13.6842
-13.6842
-13.6842
-13.6842
-13.6842
-13.6842
-13.6842
-13.6842
-13.6842
-13.6842
-13.6842
-13.6842
-13.6842
-13.6842
-13.6842
-13.6842
-13.6842
-13.6842
-13.6842
-13.6842
-13.6842
-13.6842
-13.6842
-13.6842
-13.6842
-13.6842
-13.6842
-13.6842
-13.6842
-13.6842
-13.6842
-13.6842
-13.6842
-13.6842
-13.6842
-13.6842
-13.6842
-13.6842
-13.6842
-13.6842
-13.6842
-13.6842
-13.6842
-13.6842
-13.6842
-13.6842
-13.6842
-13.6842
-13.6842
-13.6842
-13.6842
-13.6842
-13.6842
-13.6842
-13.6842
-13.6842
-13.6842
-13.6842
-13.6842
-13.6842
-13.6842
-13.6842
-13.6842
-13.6842
-13.6842
-13.6842
-13.6842
-13.6842
-13.6842
-13.6842
-13.6842
-13.6842
-13.6842
-13.6842
-13.6842
-13.6842
-13.6842
-13.6842
-13.6842
-13.6842
-13.6842
-13.6842
-13.6842
-13.6842
-13.6842
-13.6842
-13.6842
-13.6842
-13.6842
-13.6842
-13.6842
-13.6842
-13.6842
-13.8421
-13.8421
-13.8421
-13.8421
-13.8421
-13.8421
-13.8421
-13.8421
-13.8421
-13.8421
-13.8421
-13.8421
-13.8421
-13.8421
-13.8421
-13.8421
-13.8421
-13.8421
-13.8421
-13.8421
-13.8421
-13.8421
-13.8421
-13.8421
-13.8421
-13.8421
-13.8421
-13.8421
-13.8421
-13.8421
-13.8421
-13.8421
-13.8421
-13.8421
-13.8421
-13.8421
-13.8421
-13.8421
-13.8421
-13.8421
-13.8421
-13.8421
-13.8421
-13.8421
-13.8421
-13.8421
-13.8421
-13.8421
-13.8421
-13.8421
-13.8421
-13.8421
-13.8421
-13.8421
-13.8421
-13.8421
-13.8421
-13.8421
-13.8421
-13.8421
-13.8421
-14
-14
-14
-14
-14
-14
-14
-14
-14
-14
-14
-14
-14
-14
-14
-14
-14
-14
-14
-14
-14
-14
-14
-14
-14
-14
-14
-14
-14
-14
-14
-14
-14
-14
-14
-14
-14
-14
-14
-14
-14
-14
-14
-14
-14
-14
-14
-14
-14
-14
-14
-14
-14
-14
-14
-14
-14
-14
-14
-14
-14
-14
-14
-14
-14
-14
-14
-14
-14
-14
-14
-14
-14
-14
-14
-14
-14
-14
-14
-14
-14
-14
-14
-14
-14
-14
-14
-14
-14
-14
-14
-14
-14
-14
-14
-14
-14
-14
-14
-14
-14
-14
-14
-14
-14
-14
-14
-14
-14
-14
-14
-14
-14
-14
-14
-14
-14
-14
-14
-14
-14
-14.1176
-14.1176
-14.1176
-14.1176
-14.1176
-14.1176
-14.1176
-14.1176
-14.1176
-14.1176
-14.1176
-14.1176
-14.1176
-14.1176
-14.1176
-14.1176
-14.1176
-14.1176
-14.1176
-14.1176
-14.1176
-14.1176
-14.1176
-14.1176
-14.1176
-14.1176
-14.1176
-14.1176
-14.1176
-14.1176
-14.1176
-14.1176
-14.1176
-14.1176
-14.1176
-14.1176
-14.1176
-14.1176
-14.1176
-14.1176
-14.1176
-14.1176
-14.1176
-14.1176
-14.1176
-14.1176
-14.1176
-14.1176
-14.1176
-14.1176
-14.1176
-14.1176
-14.1176
-14.1176
-14.1176
-14.1176
-14.1176
-14.1176
-14.1176
-14.1176
-14.1176
-14.2353
-14.2353
-14.2353
-14.2353
-14.2353
-14.2353
-14.2353
-14.2353
-14.2353
-14.2353
-14.2353
-14.2353
-14.2353
-14.2353
-14.2353
-14.2353
-14.2353
-14.2353
-14.2353
-14.2353
-14.2353
-14.2353
-14.2353
-14.2353
-14.2353
-14.2353
-14.2353
-14.2353
-14.2353
-14.2353
-14.2353
-14.2353
-14.2353
-14.2353
-14.2353
-14.2353
-14.2353
-14.2353
-14.2353
-14.2353
-14.2353
-14.2353
-14.2353
-14.2353
-14.2353
-14.2353
-14.2353
-14.2353
-14.2353
-14.2353
-14.2353
-14.2353
-14.2353
-14.2353
-14.2353
-14.2353
-14.2353
-14.2353
-14.2353
-14.2353
-14.2353
-14.2353
-14.2353
-14.2353
-14.2353
-14.2353
-14.2353
-14.2353
-14.2353
-14.2353
-14.2353
-14.2353
-14.2353
-14.2353
-14.2353
-14.2353
-14.2353
-14.2353
-14.2353
-14.2353
-14.2353
-14.2353
-14.2353
-14.2353
-14.2353
-14.2353
-14.2353
-14.2353
-14.2353
-14.2353
-14.2353
-14.2353
-14.2353
-14.2353
-14.2353
-14.2353
-14.2353
-14.2353
-14.2353
-14.2353
-14.2353
-14.2353
-14.2353
-14.2353
-14.2353
-14.2353
-14.2353
-14.2353
-14.2353
-14.2353
-14.2353
-14.2353
-14.2353
-14.2353
-14.2353
-14.2353
-14.2353
-14.2353
-14.2353
-14.2353
-14.2353
-14.3529
-14.3529
-14.3529
-14.3529
-14.3529
-14.3529
-14.3529
-14.3529
-14.3529
-14.3529
-14.3529
-14.3529
-14.3529
-14.3529
-14.3529
-14.3529
-14.3529
-14.3529
-14.3529
-14.3529
-14.3529
-14.3529
-14.3529
-14.3529
-14.3529
-14.3529
-14.3529
-14.3529
-14.3529
-14.3529
-14.3529
-14.3529
-14.3529
-14.3529
-14.3529
-14.3529
-14.3529
-14.3529
-14.3529
-14.3529
-14.3529
-14.3529
-14.3529
-14.3529
-14.3529
-14.3529
-14.3529
-14.3529
-14.3529
-14.3529
-14.3529
-14.3529
-14.3529
-14.3529
-14.3529
-14.3529
-14.3529
-14.3529
-14.3529
-14.3529
-14.3529
-14.4706
-14.4706
-14.4706
-14.4706
-14.4706
-14.4706
-14.4706
-14.4706
-14.4706
-14.4706
-14.4706
-14.4706
-14.4706
-14.4706
-14.4706
-14.4706
-14.4706
-14.4706
-14.4706
-14.4706
-14.4706
-14.4706
-14.4706
-14.4706
-14.4706
-14.4706
-14.4706
-14.4706
-14.4706
-14.4706
-14.4706
-14.4706
-14.4706
-14.4706
-14.4706
-14.4706
-14.4706
-14.4706
-14.4706
-14.4706
-14.4706
-14.4706
-14.4706
-14.4706
-14.4706
-14.4706
-14.4706
-14.4706
-14.4706
-14.4706
-14.4706
-14.4706
-14.4706
-14.4706
-14.4706
-14.4706
-14.4706
-14.4706
-14.4706
-14.4706
-14.4706
-14.4706
-14.4706
-14.4706
-14.4706
-14.4706
-14.4706
-14.4706
-14.4706
-14.4706
-14.4706
-14.4706
-14.4706
-14.4706
-14.4706
-14.4706
-14.4706
-14.4706
-14.4706
-14.4706
-14.4706
-14.4706
-14.4706
-14.4706
-14.4706
-14.4706
-14.4706
-14.4706
-14.4706
-14.4706
-14.4706
-14.4706
-14.4706
-14.4706
-14.4706
-14.4706
-14.4706
-14.4706
-14.4706
-14.4706
-14.4706
-14.4706
-14.4706
-14.4706
-14.4706
-14.4706
-14.4706
-14.4706
-14.4706
-14.4706
-14.4706
-14.4706
-14.4706
-14.4706
-14.4706
-14.4706
-14.4706
-14.4706
-14.4706
-14.4706
-14.4706
-14.5882
-14.5882
-14.5882
-14.5882
-14.5882
-14.5882
-14.5882
-14.5882
-14.5882
-14.5882
-14.5882
-14.5882
-14.5882
-14.5882
-14.5882
-14.5882
-14.5882
-14.5882
-14.5882
-14.5882
-14.5882
-14.5882
-14.5882
-14.5882
-14.5882
-14.5882
-14.5882
-14.5882
-14.5882
-14.5882
-14.5882
-14.5882
-14.5882
-14.5882
-14.5882
-14.5882
-14.5882
-14.5882
-14.5882
-14.5882
-14.5882
-14.5882
-14.5882
-14.5882
-14.5882
-14.5882
-14.5882
-14.5882
-14.5882
-14.5882
-14.5882
-14.5882
-14.5882
-14.5882
-14.5882
-14.5882
-14.5882
-14.5882
-14.5882
-14.5882
-14.5882
-14.7059
-14.7059
-14.7059
-14.7059
-14.7059
-14.7059
-14.7059
-14.7059
-14.7059
-14.7059
-14.7059
-14.7059
-14.7059
-14.7059
-14.7059
-14.7059
-14.7059
-14.7059
-14.7059
-14.7059
-14.7059
-14.7059
-14.7059
-14.7059
-14.7059
-14.7059
-14.7059
-14.7059
-14.7059
-14.7059
-14.7059
-14.7059
-14.7059
-14.7059
-14.7059
-14.7059
-14.7059
-14.7059
-14.7059
-14.7059
-14.7059
-14.7059
-14.7059
-14.7059
-14.7059
-14.7059
-14.7059
-14.7059
-14.7059
-14.7059
-14.7059
-14.7059
-14.7059
-14.7059
-14.7059
-14.7059
-14.7059
-14.7059
-14.7059
-14.7059
-14.7059
-14.7059
-14.7059
-14.7059
-14.7059
-14.7059
-14.7059
-14.7059
-14.7059
-14.7059
-14.7059
-14.7059
-14.7059
-14.7059
-14.7059
-14.7059
-14.7059
-14.7059
-14.7059
-14.7059
-14.7059
-14.7059
-14.7059
-14.7059
-14.7059
-14.7059
-14.7059
-14.7059
-14.7059
-14.7059
-14.7059
-14.7059
-14.7059
-14.7059
-14.7059
-14.7059
-14.7059
-14.7059
-14.7059
-14.7059
-14.7059
-14.7059
-14.7059
-14.7059
-14.7059
-14.7059
-14.7059
-14.7059
-14.7059
-14.7059
-14.7059
-14.7059
-14.7059
-14.7059
-14.7059
-14.7059
-14.7059
-14.7059
-14.7059
-14.7059
-14.7059
-14.8235
-14.8235
-14.8235
-14.8235
-14.8235
-14.8235
-14.8235
-14.8235
-14.8235
-14.8235
-14.8235
-14.8235
-14.8235
-14.8235
-14.8235
-14.8235
-14.8235
-14.8235
-14.8235
-14.8235
-14.8235
-14.8235
-14.8235
-14.8235
-14.8235
-14.8235
-14.8235
-14.8235
-14.8235
-14.8235
-14.8235
-14.8235
-14.8235
-14.8235
-14.8235
-14.8235
-14.8235
-14.8235
-14.8235
-14.8235
-14.8235
-14.8235
-14.8235
-14.8235
-14.8235
-14.8235
-14.8235
-14.8235
-14.8235
-14.8235
-14.8235
-14.8235
-14.8235
-14.8235
-14.8235
-14.8235
-14.8235
-14.8235
-14.8235
-14.8235
-14.8235
-14.9412
-14.9412
-14.9412
-14.9412
-14.9412
-14.9412
-14.9412
-14.9412
-14.9412
-14.9412
-14.9412
-14.9412
-14.9412
-14.9412
-14.9412
-14.9412
-14.9412
-14.9412
-14.9412
-14.9412
-14.9412
-14.9412
-14.9412
-14.9412
-14.9412
-14.9412
-14.9412
-14.9412
-14.9412
-14.9412
-14.9412
-14.9412
-14.9412
-14.9412
-14.9412
-14.9412
-14.9412
-14.9412
-14.9412
-14.9412
-14.9412
-14.9412
-14.9412
-14.9412
-14.9412
-14.9412
-14.9412
-14.9412
-14.9412
-14.9412
-14.9412
-14.9412
-14.9412
-14.9412
-14.9412
-14.9412
-14.9412
-14.9412
-14.9412
-14.9412
-14.9412
-14.9412
-14.9412
-14.9412
-14.9412
-14.9412
-14.9412
-14.9412
-14.9412
-14.9412
-14.9412
-14.9412
-14.9412
-14.9412
-14.9412
-14.9412
-14.9412
-14.9412
-14.9412
-14.9412
-14.9412
-14.9412
-14.9412
-14.9412
-14.9412
-14.9412
-14.9412
-14.9412
-14.9412
-14.9412
-14.9412
-14.9412
-14.9412
-14.9412
-14.9412
-14.9412
-14.9412
-14.9412
-14.9412
-14.9412
-14.9412
-14.9412
-14.9412
-14.9412
-14.9412
-14.9412
-14.9412
-14.9412
-14.9412
-14.9412
-14.9412
-14.9412
-14.9412
-14.9412
-14.9412
-14.9412
-14.9412
-14.9412
-14.9412
-14.9412
-14.9412
-15.0588
-15.0588
-15.0588
-15.0588
-15.0588
-15.0588
-15.0588
-15.0588
-15.0588
-15.0588
-15.0588
-15.0588
-15.0588
-15.0588
-15.0588
-15.0588
-15.0588
-15.0588
-15.0588
-15.0588
-15.0588
-15.0588
-15.0588
-15.0588
-15.0588
-15.0588
-15.0588
-15.0588
-15.0588
-15.0588
-15.0588
-15.0588
-15.0588
-15.0588
-15.0588
-15.0588
-15.0588
-15.0588
-15.0588
-15.0588
-15.0588
-15.0588
-15.0588
-15.0588
-15.0588
-15.0588
-15.0588
-15.0588
-15.0588
-15.0588
-15.0588
-15.0588
-15.0588
-15.0588
-15.0588
-15.0588
-15.0588
-15.0588
-15.0588
-15.0588
-15.0588
-15.1765
-15.1765
-15.1765
-15.1765
-15.1765
-15.1765
-15.1765
-15.1765
-15.1765
-15.1765
-15.1765
-15.1765
-15.1765
-15.1765
-15.1765
-15.1765
-15.1765
-15.1765
-15.1765
-15.1765
-15.1765
-15.1765
-15.1765
-15.1765
-15.1765
-15.1765
-15.1765
-15.1765
-15.1765
-15.1765
-15.1765
-15.1765
-15.1765
-15.1765
-15.1765
-15.1765
-15.1765
-15.1765
-15.1765
-15.1765
-15.1765
-15.1765
-15.1765
-15.1765
-15.1765
-15.1765
-15.1765
-15.1765
-15.1765
-15.1765
-15.1765
-15.1765
-15.1765
-15.1765
-15.1765
-15.1765
-15.1765
-15.1765
-15.1765
-15.1765
-15.1765
-15.1765
-15.1765
-15.1765
-15.1765
-15.1765
-15.1765
-15.1765
-15.1765
-15.1765
-15.1765
-15.1765
-15.1765
-15.1765
-15.1765
-15.1765
-15.1765
-15.1765
-15.1765
-15.1765
-15.1765
-15.1765
-15.1765
-15.1765
-15.1765
-15.1765
-15.1765
-15.1765
-15.1765
-15.1765
-15.1765
-15.1765
-15.1765
-15.1765
-15.1765
-15.1765
-15.1765
-15.1765
-15.1765
-15.1765
-15.1765
-15.1765
-15.1765
-15.1765
-15.1765
-15.1765
-15.1765
-15.1765
-15.1765
-15.1765
-15.1765
-15.1765
-15.1765
-15.1765
-15.1765
-15.1765
-15.1765
-15.1765
-15.1765
-15.1765
-15.1765
-15.2941
-15.2941
-15.2941
-15.2941
-15.2941
-15.2941
-15.2941
-15.2941
-15.2941
-15.2941
-15.2941
-15.2941
-15.2941
-15.2941
-15.2941
-15.2941
-15.2941
-15.2941
-15.2941
-15.2941
-15.2941
-15.2941
-15.2941
-15.2941
-15.2941
-15.2941
-15.2941
-15.2941
-15.2941
-15.2941
-15.2941
-15.2941
-15.2941
-15.2941
-15.2941
-15.2941
-15.2941
-15.2941
-15.2941
-15.2941
-15.2941
-15.2941
-15.2941
-15.2941
-15.2941
-15.2941
-15.2941
-15.2941
-15.2941
-15.2941
-15.2941
-15.2941
-15.2941
-15.2941
-15.2941
-15.2941
-15.2941
-15.2941
-15.2941
-15.2941
-15.2941
-15.4118
-15.4118
-15.4118
-15.4118
-15.4118
-15.4118
-15.4118
-15.4118
-15.4118
-15.4118
-15.4118
-15.4118
-15.4118
-15.4118
-15.4118
-15.4118
-15.4118
-15.4118
-15.4118
-15.4118
-15.4118
-15.4118
-15.4118
-15.4118
-15.4118
-15.4118
-15.4118
-15.4118
-15.4118
-15.4118
-15.4118
-15.4118
-15.4118
-15.4118
-15.4118
-15.4118
-15.4118
-15.4118
-15.4118
-15.4118
-15.4118
-15.4118
-15.4118
-15.4118
-15.4118
-15.4118
-15.4118
-15.4118
-15.4118
-15.4118
-15.4118
-15.4118
-15.4118
-15.4118
-15.4118
-15.4118
-15.4118
-15.4118
-15.4118
-15.4118
-15.4118
-15.4118
-15.4118
-15.4118
-15.4118
-15.4118
-15.4118
-15.4118
-15.4118
-15.4118
-15.4118
-15.4118
-15.4118
-15.4118
-15.4118
-15.4118
-15.4118
-15.4118
-15.4118
-15.4118
-15.4118
-15.4118
-15.4118
-15.4118
-15.4118
-15.4118
-15.4118
-15.4118
-15.4118
-15.4118
-15.4118
-15.4118
-15.4118
-15.4118
-15.4118
-15.4118
-15.4118
-15.4118
-15.4118
-15.4118
-15.4118
-15.4118
-15.4118
-15.4118
-15.4118
-15.4118
-15.4118
-15.4118
-15.4118
-15.4118
-15.4118
-15.4118
-15.4118
-15.4118
-15.4118
-15.4118
-15.4118
-15.4118
-15.4118
-15.4118
-15.4118
-15.5294
-15.5294
-15.5294
-15.5294
-15.5294
-15.5294
-15.5294
-15.5294
-15.5294
-15.5294
-15.5294
-15.5294
-15.5294
-15.5294
-15.5294
-15.5294
-15.5294
-15.5294
-15.5294
-15.5294
-15.5294
-15.5294
-15.5294
-15.5294
-15.5294
-15.5294
-15.5294
-15.5294
-15.5294
-15.5294
-15.5294
-15.5294
-15.5294
-15.5294
-15.5294
-15.5294
-15.5294
-15.5294
-15.5294
-15.5294
-15.5294
-15.5294
-15.5294
-15.5294
-15.5294
-15.5294
-15.5294
-15.5294
-15.5294
-15.5294
-15.5294
-15.5294
-15.5294
-15.5294
-15.5294
-15.5294
-15.5294
-15.5294
-15.5294
-15.5294
-15.5294
-15.6471
-15.6471
-15.6471
-15.6471
-15.6471
-15.6471
-15.6471
-15.6471
-15.6471
-15.6471
-15.6471
-15.6471
-15.6471
-15.6471
-15.6471
-15.6471
-15.6471
-15.6471
-15.6471
-15.6471
-15.6471
-15.6471
-15.6471
-15.6471
-15.6471
-15.6471
-15.6471
-15.6471
-15.6471
-15.6471
-15.6471
-15.6471
-15.6471
-15.6471
-15.6471
-15.6471
-15.6471
-15.6471
-15.6471
-15.6471
-15.6471
-15.6471
-15.6471
-15.6471
-15.6471
-15.6471
-15.6471
-15.6471
-15.6471
-15.6471
-15.6471
-15.6471
-15.6471
-15.6471
-15.6471
-15.6471
-15.6471
-15.6471
-15.6471
-15.6471
-15.6471
-15.6471
-15.6471
-15.6471
-15.6471
-15.6471
-15.6471
-15.6471
-15.6471
-15.6471
-15.6471
-15.6471
-15.6471
-15.6471
-15.6471
-15.6471
-15.6471
-15.6471
-15.6471
-15.6471
-15.6471
-15.6471
-15.6471
-15.6471
-15.6471
-15.6471
-15.6471
-15.6471
-15.6471
-15.6471
-15.6471
-15.6471
-15.6471
-15.6471
-15.6471
-15.6471
-15.6471
-15.6471
-15.6471
-15.6471
-15.6471
-15.6471
-15.6471
-15.6471
-15.6471
-15.6471
-15.6471
-15.6471
-15.6471
-15.6471
-15.6471
-15.6471
-15.6471
-15.6471
-15.6471
-15.6471
-15.6471
-15.6471
-15.6471
-15.6471
-15.6471
-15.7647
-15.7647
-15.7647
-15.7647
-15.7647
-15.7647
-15.7647
-15.7647
-15.7647
-15.7647
-15.7647
-15.7647
-15.7647
-15.7647
-15.7647
-15.7647
-15.7647
-15.7647
-15.7647
-15.7647
-15.7647
-15.7647
-15.7647
-15.7647
-15.7647
-15.7647
-15.7647
-15.7647
-15.7647
-15.7647
-15.7647
-15.7647
-15.7647
-15.7647
-15.7647
-15.7647
-15.7647
-15.7647
-15.7647
-15.7647
-15.7647
-15.7647
-15.7647
-15.7647
-15.7647
-15.7647
-15.7647
-15.7647
-15.7647
-15.7647
-15.7647
-15.7647
-15.7647
-15.7647
-15.7647
-15.7647
-15.7647
-15.7647
-15.7647
-15.7647
-15.7647
-15.8824
-15.8824
-15.8824
-15.8824
-15.8824
-15.8824
-15.8824
-15.8824
-15.8824
-15.8824
-15.8824
-15.8824
-15.8824
-15.8824
-15.8824
-15.8824
-15.8824
-15.8824
-15.8824
-15.8824
-15.8824
-15.8824
-15.8824
-15.8824
-15.8824
-15.8824
-15.8824
-15.8824
-15.8824
-15.8824
-15.8824
-15.8824
-15.8824
-15.8824
-15.8824
-15.8824
-15.8824
-15.8824
-15.8824
-15.8824
-15.8824
-15.8824
-15.8824
-15.8824
-15.8824
-15.8824
-15.8824
-15.8824
-15.8824
-15.8824
-15.8824
-15.8824
-15.8824
-15.8824
-15.8824
-15.8824
-15.8824
-15.8824
-15.8824
-15.8824
-15.8824
-15.8824
-15.8824
-15.8824
-15.8824
-15.8824
-15.8824
-15.8824
-15.8824
-15.8824
-15.8824
-15.8824
-15.8824
-15.8824
-15.8824
-15.8824
-15.8824
-15.8824
-15.8824
-15.8824
-15.8824
-15.8824
-15.8824
-15.8824
-15.8824
-15.8824
-15.8824
-15.8824
-15.8824
-15.8824
-15.8824
-15.8824
-15.8824
-15.8824
-15.8824
-15.8824
-15.8824
-15.8824
-15.8824
-15.8824
-15.8824
-15.8824
-15.8824
-15.8824
-15.8824
-15.8824
-15.8824
-15.8824
-15.8824
-15.8824
-15.8824
-15.8824
-15.8824
-15.8824
-15.8824
-15.8824
-15.8824
-15.8824
-15.8824
-15.8824
-15.8824
-16
-16
-16
-16
-16
-16
-16
-16
-16
-16
-16
-16
-16
-16
-16
-16
-16
-16
-16
-16
-16
-16
-16
-16
-16
-16
-16
-16
-16
-16
-16
-16
-16
-16
-16
-16
-16
-16
-16
-16
-16
-16
-16
-16
-16
-16
-16
-16
-16
-16
-16
-16
-16
-16
-16
-16
-16
-16
-16
-16
-16
-16.1176
-16.1176
-16.1176
-16.1176
-16.1176
-16.1176
-16.1176
-16.1176
-16.1176
-16.1176
-16.1176
-16.1176
-16.1176
-16.1176
-16.1176
-16.1176
-16.1176
-16.1176
-16.1176
-16.1176
-16.1176
-16.1176
-16.1176
-16.1176
-16.1176
-16.1176
-16.1176
-16.1176
-16.1176
-16.1176
-16.1176
-16.1176
-16.1176
-16.1176
-16.1176
-16.1176
-16.1176
-16.1176
-16.1176
-16.1176
-16.1176
-16.1176
-16.1176
-16.1176
-16.1176
-16.1176
-16.1176
-16.1176
-16.1176
-16.1176
-16.1176
-16.1176
-16.1176
-16.1176
-16.1176
-16.1176
-16.1176
-16.1176
-16.1176
-16.1176
-16.1176
-16.1176
-16.1176
-16.1176
-16.1176
-16.1176
-16.1176
-16.1176
-16.1176
-16.1176
-16.1176
-16.1176
-16.1176
-16.1176
-16.1176
-16.1176
-16.1176
-16.1176
-16.1176
-16.1176
-16.1176
-16.1176
-16.1176
-16.1176
-16.1176
-16.1176
-16.1176
-16.1176
-16.1176
-16.1176
-16.1176
-16.1176
-16.1176
-16.1176
-16.1176
-16.1176
-16.1176
-16.1176
-16.1176
-16.1176
-16.1176
-16.1176
-16.1176
-16.1176
-16.1176
-16.1176
-16.1176
-16.1176
-16.1176
-16.1176
-16.1176
-16.1176
-16.1176
-16.1176
-16.1176
-16.1176
-16.1176
-16.1176
-16.1176
-16.1176
-16.1176
-16.2353
-16.2353
-16.2353
-16.2353
-16.2353
-16.2353
-16.2353
-16.2353
-16.2353
-16.2353
-16.2353
-16.2353
-16.2353
-16.2353
-16.2353
-16.2353
-16.2353
-16.2353
-16.2353
-16.2353
-16.2353
-16.2353
-16.2353
-16.2353
-16.2353
-16.2353
-16.2353
-16.2353
-16.2353
-16.2353
-16.2353
-16.2353
-16.2353
-16.2353
-16.2353
-16.2353
-16.2353
-16.2353
-16.2353
-16.2353
-16.2353
-16.2353
-16.2353
-16.2353
-16.2353
-16.2353
-16.2353
-16.2353
-16.2353
-16.2353
-16.2353
-16.2353
-16.2353
-16.2353
-16.2353
-16.2353
-16.2353
-16.2353
-16.2353
-16.2353
-16.2353
-16.3529
-16.3529
-16.3529
-16.3529
-16.3529
-16.3529
-16.3529
-16.3529
-16.3529
-16.3529
-16.3529
-16.3529
-16.3529
-16.3529
-16.3529
-16.3529
-16.3529
-16.3529
-16.3529
-16.3529
-16.3529
-16.3529
-16.3529
-16.3529
-16.3529
-16.3529
-16.3529
-16.3529
-16.3529
-16.3529
-16.3529
-16.3529
-16.3529
-16.3529
-16.3529
-16.3529
-16.3529
-16.3529
-16.3529
-16.3529
-16.3529
-16.3529
-16.3529
-16.3529
-16.3529
-16.3529
-16.3529
-16.3529
-16.3529
-16.3529
-16.3529
-16.3529
-16.3529
-16.3529
-16.3529
-16.3529
-16.3529
-16.3529
-16.3529
-16.3529
-16.3529
-16.3529
-16.3529
-16.3529
-16.3529
-16.3529
-16.3529
-16.3529
-16.3529
-16.3529
-16.3529
-16.3529
-16.3529
-16.3529
-16.3529
-16.3529
-16.3529
-16.3529
-16.3529
-16.3529
-16.3529
-16.3529
-16.3529
-16.3529
-16.3529
-16.3529
-16.3529
-16.3529
-16.3529
-16.3529
-16.3529
-16.3529
-16.3529
-16.3529
-16.3529
-16.3529
-16.3529
-16.3529
-16.3529
-16.3529
-16.3529
-16.3529
-16.3529
-16.3529
-16.3529
-16.3529
-16.3529
-16.3529
-16.3529
-16.3529
-16.3529
-16.3529
-16.3529
-16.3529
-16.3529
-16.3529
-16.3529
-16.3529
-16.3529
-16.3529
-16.3529
-16.4706
-16.4706
-16.4706
-16.4706
-16.4706
-16.4706
-16.4706
-16.4706
-16.4706
-16.4706
-16.4706
-16.4706
-16.4706
-16.4706
-16.4706
-16.4706
-16.4706
-16.4706
-16.4706
-16.4706
-16.4706
-16.4706
-16.4706
-16.4706
-16.4706
-16.4706
-16.4706
-16.4706
-16.4706
-16.4706
-16.4706
-16.4706
-16.4706
-16.4706
-16.4706
-16.4706
-16.4706
-16.4706
-16.4706
-16.4706
-16.4706
-16.4706
-16.4706
-16.4706
-16.4706
-16.4706
-16.4706
-16.4706
-16.4706
-16.4706
-16.4706
-16.4706
-16.4706
-16.4706
-16.4706
-16.4706
-16.4706
-16.4706
-16.4706
-16.4706
-16.4706
-16.5882
-16.5882
-16.5882
-16.5882
-16.5882
-16.5882
-16.5882
-16.5882
-16.5882
-16.5882
-16.5882
-16.5882
-16.5882
-16.5882
-16.5882
-16.5882
-16.5882
-16.5882
-16.5882
-16.5882
-16.5882
-16.5882
-16.5882
-16.5882
-16.5882
-16.5882
-16.5882
-16.5882
-16.5882
-16.5882
-16.5882
-16.5882
-16.5882
-16.5882
-16.5882
-16.5882
-16.5882
-16.5882
-16.5882
-16.5882
-16.5882
-16.5882
-16.5882
-16.5882
-16.5882
-16.5882
-16.5882
-16.5882
-16.5882
-16.5882
-16.5882
-16.5882
-16.5882
-16.5882
-16.5882
-16.5882
-16.5882
-16.5882
-16.5882
-16.5882
-16.5882
-16.5882
-16.5882
-16.5882
-16.5882
-16.5882
-16.5882
-16.5882
-16.5882
-16.5882
-16.5882
-16.5882
-16.5882
-16.5882
-16.5882
-16.5882
-16.5882
-16.5882
-16.5882
-16.5882
-16.5882
-16.5882
-16.5882
-16.5882
-16.5882
-16.5882
-16.5882
-16.5882
-16.5882
-16.5882
-16.5882
-16.5882
-16.5882
-16.5882
-16.5882
-16.5882
-16.5882
-16.5882
-16.5882
-16.5882
-16.5882
-16.5882
-16.5882
-16.5882
-16.5882
-16.5882
-16.5882
-16.5882
-16.5882
-16.5882
-16.5882
-16.5882
-16.5882
-16.5882
-16.5882
-16.5882
-16.5882
-16.5882
-16.5882
-16.5882
-16.5882
-16.7059
-16.7059
-16.7059
-16.7059
-16.7059
-16.7059
-16.7059
-16.7059
-16.7059
-16.7059
-16.7059
-16.7059
-16.7059
-16.7059
-16.7059
-16.7059
-16.7059
-16.7059
-16.7059
-16.7059
-16.7059
-16.7059
-16.7059
-16.7059
-16.7059
-16.7059
-16.7059
-16.7059
-16.7059
-16.7059
-16.7059
-16.7059
-16.7059
-16.7059
-16.7059
-16.7059
-16.7059
-16.7059
-16.7059
-16.7059
-16.7059
-16.7059
-16.7059
-16.7059
-16.7059
-16.7059
-16.7059
-16.7059
-16.7059
-16.7059
-16.7059
-16.7059
-16.7059
-16.7059
-16.7059
-16.7059
-16.7059
-16.7059
-16.7059
-16.7059
-16.7059
-16.8235
-16.8235
-16.8235
-16.8235
-16.8235
-16.8235
-16.8235
-16.8235
-16.8235
-16.8235
-16.8235
-16.8235
-16.8235
-16.8235
-16.8235
-16.8235
-16.8235
-16.8235
-16.8235
-16.8235
-16.8235
-16.8235
-16.8235
-16.8235
-16.8235
-16.8235
-16.8235
-16.8235
-16.8235
-16.8235
-16.8235
-16.8235
-16.8235
-16.8235
-16.8235
-16.8235
-16.8235
-16.8235
-16.8235
-16.8235
-16.8235
-16.8235
-16.8235
-16.8235
-16.8235
-16.8235
-16.8235
-16.8235
-16.8235
-16.8235
-16.8235
-16.8235
-16.8235
-16.8235
-16.8235
-16.8235
-16.8235
-16.8235
-16.8235
-16.8235
-16.8235
-16.8235
-16.8235
-16.8235
-16.8235
-16.8235
-16.8235
-16.8235
-16.8235
-16.8235
-16.8235
-16.8235
-16.8235
-16.8235
-16.8235
-16.8235
-16.8235
-16.8235
-16.8235
-16.8235
-16.8235
-16.8235
-16.8235
-16.8235
-16.8235
-16.8235
-16.8235
-16.8235
-16.8235
-16.8235
-16.8235
-16.8235
-16.8235
-16.8235
-16.8235
-16.8235
-16.8235
-16.8235
-16.8235
-16.8235
-16.8235
-16.8235
-16.8235
-16.8235
-16.8235
-16.8235
-16.8235
-16.8235
-16.8235
-16.8235
-16.8235
-16.8235
-16.8235
-16.8235
-16.8235
-16.8235
-16.8235
-16.8235
-16.8235
-16.8235
-16.8235
-16.9412
-16.9412
-16.9412
-16.9412
-16.9412
-16.9412
-16.9412
-16.9412
-16.9412
-16.9412
-16.9412
-16.9412
-16.9412
-16.9412
-16.9412
-16.9412
-16.9412
-16.9412
-16.9412
-16.9412
-16.9412
-16.9412
-16.9412
-16.9412
-16.9412
-16.9412
-16.9412
-16.9412
-16.9412
-16.9412
-16.9412
-16.9412
-16.9412
-16.9412
-16.9412
-16.9412
-16.9412
-16.9412
-16.9412
-16.9412
-16.9412
-16.9412
-16.9412
-16.9412
-16.9412
-16.9412
-16.9412
-16.9412
-16.9412
-16.9412
-16.9412
-16.9412
-16.9412
-16.9412
-16.9412
-16.9412
-16.9412
-16.9412
-16.9412
-16.9412
-16.9412
-17.0588
-17.0588
-17.0588
-17.0588
-17.0588
-17.0588
-17.0588
-17.0588
-17.0588
-17.0588
-17.0588
-17.0588
-17.0588
-17.0588
-17.0588
-17.0588
-17.0588
-17.0588
-17.0588
-17.0588
-17.0588
-17.0588
-17.0588
-17.0588
-17.0588
-17.0588
-17.0588
-17.0588
-17.0588
-17.0588
-17.0588
-17.0588
-17.0588
-17.0588
-17.0588
-17.0588
-17.0588
-17.0588
-17.0588
-17.0588
-17.0588
-17.0588
-17.0588
-17.0588
-17.0588
-17.0588
-17.0588
-17.0588
-17.0588
-17.0588
-17.0588
-17.0588
-17.0588
-17.0588
-17.0588
-17.0588
-17.0588
-17.0588
-17.0588
-17.0588
-17.0588
-17.0588
-17.0588
-17.0588
-17.0588
-17.0588
-17.0588
-17.0588
-17.0588
-17.0588
-17.0588
-17.0588
-17.0588
-17.0588
-17.0588
-17.0588
-17.0588
-17.0588
-17.0588
-17.0588
-17.0588
-17.0588
-17.0588
-17.0588
-17.0588
-17.0588
-17.0588
-17.0588
-17.0588
-17.0588
-17.0588
-17.0588
-17.0588
-17.0588
-17.0588
-17.0588
-17.0588
-17.0588
-17.0588
-17.0588
-17.0588
-17.0588
-17.0588
-17.0588
-17.0588
-17.0588
-17.0588
-17.0588
-17.0588
-17.0588
-17.0588
-17.0588
-17.0588
-17.0588
-17.0588
-17.0588
-17.0588
-17.0588
-17.0588
-17.0588
-17.0588
-17.1765
-17.1765
-17.1765
-17.1765
-17.1765
-17.1765
-17.1765
-17.1765
-17.1765
-17.1765
-17.1765
-17.1765
-17.1765
-17.1765
-17.1765
-17.1765
-17.1765
-17.1765
-17.1765
-17.1765
-17.1765
-17.1765
-17.1765
-17.1765
-17.1765
-17.1765
-17.1765
-17.1765
-17.1765
-17.1765
-17.1765
-17.1765
-17.1765
-17.1765
-17.1765
-17.1765
-17.1765
-17.1765
-17.1765
-17.1765
-17.1765
-17.1765
-17.1765
-17.1765
-17.1765
-17.1765
-17.1765
-17.1765
-17.1765
-17.1765
-17.1765
-17.1765
-17.1765
-17.1765
-17.1765
-17.1765
-17.1765
-17.1765
-17.1765
-17.1765
-17.1765
-17.2941
-17.2941
-17.2941
-17.2941
-17.2941
-17.2941
-17.2941
-17.2941
-17.2941
-17.2941
-17.2941
-17.2941
-17.2941
-17.2941
-17.2941
-17.2941
-17.2941
-17.2941
-17.2941
-17.2941
-17.2941
-17.2941
-17.2941
-17.2941
-17.2941
-17.2941
-17.2941
-17.2941
-17.2941
-17.2941
-17.2941
-17.2941
-17.2941
-17.2941
-17.2941
-17.2941
-17.2941
-17.2941
-17.2941
-17.2941
-17.2941
-17.2941
-17.2941
-17.2941
-17.2941
-17.2941
-17.2941
-17.2941
-17.2941
-17.2941
-17.2941
-17.2941
-17.2941
-17.2941
-17.2941
-17.2941
-17.2941
-17.2941
-17.2941
-17.2941
-17.2941
-17.2941
-17.2941
-17.2941
-17.2941
-17.2941
-17.2941
-17.2941
-17.2941
-17.2941
-17.2941
-17.2941
-17.2941
-17.2941
-17.2941
-17.2941
-17.2941
-17.2941
-17.2941
-17.2941
-17.2941
-17.2941
-17.2941
-17.2941
-17.2941
-17.2941
-17.2941
-17.2941
-17.2941
-17.2941
-17.2941
-17.2941
-17.2941
-17.2941
-17.2941
-17.2941
-17.2941
-17.2941
-17.2941
-17.2941
-17.2941
-17.2941
-17.2941
-17.2941
-17.2941
-17.2941
-17.2941
-17.2941
-17.2941
-17.2941
-17.2941
-17.2941
-17.2941
-17.2941
-17.2941
-17.2941
-17.2941
-17.2941
-17.2941
-17.2941
-17.2941
-17.4118
-17.4118
-17.4118
-17.4118
-17.4118
-17.4118
-17.4118
-17.4118
-17.4118
-17.4118
-17.4118
-17.4118
-17.4118
-17.4118
-17.4118
-17.4118
-17.4118
-17.4118
-17.4118
-17.4118
-17.4118
-17.4118
-17.4118
-17.4118
-17.4118
-17.4118
-17.4118
-17.4118
-17.4118
-17.4118
-17.4118
-17.4118
-17.4118
-17.4118
-17.4118
-17.4118
-17.4118
-17.4118
-17.4118
-17.4118
-17.4118
-17.4118
-17.4118
-17.4118
-17.4118
-17.4118
-17.4118
-17.4118
-17.4118
-17.4118
-17.4118
-17.4118
-17.4118
-17.4118
-17.4118
-17.4118
-17.4118
-17.4118
-17.4118
-17.4118
-17.4118
-17.5294
-17.5294
-17.5294
-17.5294
-17.5294
-17.5294
-17.5294
-17.5294
-17.5294
-17.5294
-17.5294
-17.5294
-17.5294
-17.5294
-17.5294
-17.5294
-17.5294
-17.5294
-17.5294
-17.5294
-17.5294
-17.5294
-17.5294
-17.5294
-17.5294
-17.5294
-17.5294
-17.5294
-17.5294
-17.5294
-17.5294
-17.5294
-17.5294
-17.5294
-17.5294
-17.5294
-17.5294
-17.5294
-17.5294
-17.5294
-17.5294
-17.5294
-17.5294
-17.5294
-17.5294
-17.5294
-17.5294
-17.5294
-17.5294
-17.5294
-17.5294
-17.5294
-17.5294
-17.5294
-17.5294
-17.5294
-17.5294
-17.5294
-17.5294
-17.5294
-17.5294
-17.5294
-17.5294
-17.5294
-17.5294
-17.5294
-17.5294
-17.5294
-17.5294
-17.5294
-17.5294
-17.5294
-17.5294
-17.5294
-17.5294
-17.5294
-17.5294
-17.5294
-17.5294
-17.5294
-17.5294
-17.5294
-17.5294
-17.5294
-17.5294
-17.5294
-17.5294
-17.5294
-17.5294
-17.5294
-17.5294
-17.5294
-17.5294
-17.5294
-17.5294
-17.5294
-17.5294
-17.5294
-17.5294
-17.5294
-17.5294
-17.5294
-17.5294
-17.5294
-17.5294
-17.5294
-17.5294
-17.5294
-17.5294
-17.5294
-17.5294
-17.5294
-17.5294
-17.5294
-17.5294
-17.5294
-17.5294
-17.5294
-17.5294
-17.5294
-17.5294
-17.6471
-17.6471
-17.6471
-17.6471
-17.6471
-17.6471
-17.6471
-17.6471
-17.6471
-17.6471
-17.6471
-17.6471
-17.6471
-17.6471
-17.6471
-17.6471
-17.6471
-17.6471
-17.6471
-17.6471
-17.6471
-17.6471
-17.6471
-17.6471
-17.6471
-17.6471
-17.6471
-17.6471
-17.6471
-17.6471
-17.6471
-17.6471
-17.6471
-17.6471
-17.6471
-17.6471
-17.6471
-17.6471
-17.6471
-17.6471
-17.6471
-17.6471
-17.6471
-17.6471
-17.6471
-17.6471
-17.6471
-17.6471
-17.6471
-17.6471
-17.6471
-17.6471
-17.6471
-17.6471
-17.6471
-17.6471
-17.6471
-17.6471
-17.6471
-17.6471
-17.6471
-17.7647
-17.7647
-17.7647
-17.7647
-17.7647
-17.7647
-17.7647
-17.7647
-17.7647
-17.7647
-17.7647
-17.7647
-17.7647
-17.7647
-17.7647
-17.7647
-17.7647
-17.7647
-17.7647
-17.7647
-17.7647
-17.7647
-17.7647
-17.7647
-17.7647
-17.7647
-17.7647
-17.7647
-17.7647
-17.7647
-17.7647
-17.7647
-17.7647
-17.7647
-17.7647
-17.7647
-17.7647
-17.7647
-17.7647
-17.7647
-17.7647
-17.7647
-17.7647
-17.7647
-17.7647
-17.7647
-17.7647
-17.7647
-17.7647
-17.7647
-17.7647
-17.7647
-17.7647
-17.7647
-17.7647
-17.7647
-17.7647
-17.7647
-17.7647
-17.7647
-17.7647
-17.7647
-17.7647
-17.7647
-17.7647
-17.7647
-17.7647
-17.7647
-17.7647
-17.7647
-17.7647
-17.7647
-17.7647
-17.7647
-17.7647
-17.7647
-17.7647
-17.7647
-17.7647
-17.7647
-17.7647
-17.7647
-17.7647
-17.7647
-17.7647
-17.7647
-17.7647
-17.7647
-17.7647
-17.7647
-17.7647
-17.7647
-17.7647
-17.7647
-17.7647
-17.7647
-17.7647
-17.7647
-17.7647
-17.7647
-17.7647
-17.7647
-17.7647
-17.7647
-17.7647
-17.7647
-17.7647
-17.7647
-17.7647
-17.7647
-17.7647
-17.7647
-17.7647
-17.7647
-17.7647
-17.7647
-17.7647
-17.7647
-17.7647
-17.7647
-17.7647
-17.8824
-17.8824
-17.8824
-17.8824
-17.8824
-17.8824
-17.8824
-17.8824
-17.8824
-17.8824
-17.8824
-17.8824
-17.8824
-17.8824
-17.8824
-17.8824
-17.8824
-17.8824
-17.8824
-17.8824
-17.8824
-17.8824
-17.8824
-17.8824
-17.8824
-17.8824
-17.8824
-17.8824
-17.8824
-17.8824
-17.8824
-17.8824
-17.8824
-17.8824
-17.8824
-17.8824
-17.8824
-17.8824
-17.8824
-17.8824
-17.8824
-17.8824
-17.8824
-17.8824
-17.8824
-17.8824
-17.8824
-17.8824
-17.8824
-17.8824
-17.8824
-17.8824
-17.8824
-17.8824
-17.8824
-17.8824
-17.8824
-17.8824
-17.8824
-17.8824
-17.8824
-18
-18
-18
-18
-18
-18
-18
-18
-18
-18
-18
-18
-18
-18
-18
-18
-18
-18
-18
-18
-18
-18
-18
-18
-18
-18
-18
-18
-18
-18
-18
-18
-18
-18
-18
-18
-18
-18
-18
-18
-18
-18
-18
-18
-18
-18
-18
-18
-18
-18
-18
-18
-18
-18
-18
-18
-18
-18
-18
-18
-18
-18
-18
-18
-18
-18
-18
-18
-18
-18
-18
-18
-18
-18
-18
-18
-18
-18
-18
-18
-18
-18
-18
-18
-18
-18
-18
-18
-18
-18
-18
-18
-18
-18
-18
-18
-18
-18
-18
-18
-18
-18
-18
-18
-18
-18
-18
-18
-18
-18
-18
-18
-18
-18
-18
-18
-18
-18
-18
-18
-18
-25.4
-25.4
-25.4
-25.4
-25.4
-25.4
-25.4
-25.4
-25.4
-25.4
-25.4
-25.4
-25.4
-25.4
-25.4
-25.4
-25.4
-25.4
-25.4
-25.4
-25.4
-25.4
-25.4
-25.4
-25.4
-25.4
-25.4
-25.4
-25.4
-25.4
-25.4
-25.4
-25.4
-25.4
-25.4
-25.4
-25.4
-25.4
-25.4
-25.4
-25.4
-25.4
-25.4
-25.4
-25.4
-25.4
-25.4
-25.4
-25.4
-25.4
-25.4
-25.4
-25.4
-25.4
-25.4
-25.4
-25.4
-25.4
-25.4
-25.4
-25.4
-32.8
-32.8
-32.8
-32.8
-32.8
-32.8
-32.8
-32.8
-32.8
-32.8
-32.8
-32.8
-32.8
-32.8
-32.8
-32.8
-32.8
-32.8
-32.8
-32.8
-32.8
-32.8
-32.8
-32.8
-32.8
-32.8
-32.8
-32.8
-32.8
-32.8
-32.8
-32.8
-32.8
-32.8
-32.8
-32.8
-32.8
-32.8
-32.8
-32.8
-32.8
-32.8
-32.8
-32.8
-32.8
-32.8
-32.8
-32.8
-32.8
-32.8
-32.8
-32.8
-32.8
-32.8
-32.8
-32.8
-32.8
-32.8
-32.8
-32.8
-32.8
-32.8
-32.8
-32.8
-32.8
-32.8
-32.8
-32.8
-32.8
-32.8
-32.8
-32.8
-32.8
-32.8
-32.8
-32.8
-32.8
-32.8
-32.8
-32.8
-32.8
-32.8
-32.8
-32.8
-32.8
-32.8
-32.8
-32.8
-32.8
-32.8
-32.8
-32.8
-32.8
-32.8
-32.8
-32.8
-32.8
-32.8
-32.8
-32.8
-32.8
-32.8
-32.8
-32.8
-32.8
-32.8
-32.8
-32.8
-32.8
-32.8
-32.8
-32.8
-32.8
-32.8
-32.8
-32.8
-32.8
-32.8
-32.8
-32.8
-32.8
-40.2
-40.2
-40.2
-40.2
-40.2
-40.2
-40.2
-40.2
-40.2
-40.2
-40.2
-40.2
-40.2
-40.2
-40.2
-40.2
-40.2
-40.2
-40.2
-40.2
-40.2
-40.2
-40.2
-40.2
-40.2
-40.2
-40.2
-40.2
-40.2
-40.2
-40.2
-40.2
-40.2
-40.2
-40.2
-40.2
-40.2
-40.2
-40.2
-40.2
-40.2
-40.2
-40.2
-40.2
-40.2
-40.2
-40.2
-40.2
-40.2
-40.2
-40.2
-40.2
-40.2
-40.2
-40.2
-40.2
-40.2
-40.2
-40.2
-40.2
-40.2
-47.6
-47.6
-47.6
-47.6
-47.6
-47.6
-47.6
-47.6
-47.6
-47.6
-47.6
-47.6
-47.6
-47.6
-47.6
-47.6
-47.6
-47.6
-47.6
-47.6
-47.6
-47.6
-47.6
-47.6
-47.6
-47.6
-47.6
-47.6
-47.6
-47.6
-47.6
-47.6
-47.6
-47.6
-47.6
-47.6
-47.6
-47.6
-47.6
-47.6
-47.6
-47.6
-47.6
-47.6
-47.6
-47.6
-47.6
-47.6
-47.6
-47.6
-47.6
-47.6
-47.6
-47.6
-47.6
-47.6
-47.6
-47.6
-47.6
-47.6
-47.6
-47.6
-47.6
-47.6
-47.6
-47.6
-47.6
-47.6
-47.6
-47.6
-47.6
-47.6
-47.6
-47.6
-47.6
-47.6
-47.6
-47.6
-47.6
-47.6
-47.6
-47.6
-47.6
-47.6
-47.6
-47.6
-47.6
-47.6
-47.6
-47.6
-47.6
-47.6
-47.6
-47.6
-47.6
-47.6
-47.6
-47.6
-47.6
-47.6
-47.6
-47.6
-47.6
-47.6
-47.6
-47.6
-47.6
-47.6
-47.6
-47.6
-47.6
-47.6
-47.6
-47.6
-47.6
-47.6
-47.6
-47.6
-47.6
-47.6
-47.6
-55
-55
-55
-55
-55
-55
-55
-55
-55
-55
-55
-55
-55
-55
-55
-55
-55
-55
-55
-55
-55
-55
-55
-55
-55
-55
-55
-55
-55
-55
-55
-55
-55
-55
-55
-55
-55
-55
-55
-55
-55
-55
-55
-55
-55
-55
-55
-55
-55
-55
-55
-55
-55
-55
-55
-55
-55
-55
-55
-55
-55
-62.4
-62.4
-62.4
-62.4
-62.4
-62.4
-62.4
-62.4
-62.4
-62.4
-62.4
-62.4
-62.4
-62.4
-62.4
-62.4
-62.4
-62.4
-62.4
-62.4
-62.4
-62.4
-62.4
-62.4
-62.4
-62.4
-62.4
-62.4
-62.4
-62.4
-62.4
-62.4
-62.4
-62.4
-62.4
-62.4
-62.4
-62.4
-62.4
-62.4
-62.4
-62.4
-62.4
-62.4
-62.4
-62.4
-62.4
-62.4
-62.4
-62.4
-62.4
-62.4
-62.4
-62.4
-62.4
-62.4
-62.4
-62.4
-62.4
-62.4
-62.4
-62.4
-62.4
-62.4
-62.4
-62.4
-62.4
-62.4
-62.4
-62.4
-62.4
-62.4
-62.4
-62.4
-62.4
-62.4
-62.4
-62.4
-62.4
-62.4
-62.4
-62.4
-62.4
-62.4
-62.4
-62.4
-62.4
-62.4
-62.4
-62.4
-62.4
-62.4
-62.4
-62.4
-62.4
-62.4
-62.4
-62.4
-62.4
-62.4
-62.4
-62.4
-62.4
-62.4
-62.4
-62.4
-62.4
-62.4
-62.4
-62.4
-62.4
-62.4
-62.4
-62.4
-62.4
-62.4
-62.4
-62.4
-62.4
-62.4
-62.4
-69.8
-69.8
-69.8
-69.8
-69.8
-69.8
-69.8
-69.8
-69.8
-69.8
-69.8
-69.8
-69.8
-69.8
-69.8
-69.8
-69.8
-69.8
-69.8
-69.8
-69.8
-69.8
-69.8
-69.8
-69.8
-69.8
-69.8
-69.8
-69.8
-69.8
-69.8
-69.8
-69.8
-69.8
-69.8
-69.8
-69.8
-69.8
-69.8
-69.8
-69.8
-69.8
-69.8
-69.8
-69.8
-69.8
-69.8
-69.8
-69.8
-69.8
-69.8
-69.8
-69.8
-69.8
-69.8
-69.8
-69.8
-69.8
-69.8
-69.8
-69.8
-77.2
-77.2
-77.2
-77.2
-77.2
-77.2
-77.2
-77.2
-77.2
-77.2
-77.2
-77.2
-77.2
-77.2
-77.2
-77.2
-77.2
-77.2
-77.2
-77.2
-77.2
-77.2
-77.2
-77.2
-77.2
-77.2
-77.2
-77.2
-77.2
-77.2
-77.2
-77.2
-77.2
-77.2
-77.2
-77.2
-77.2
-77.2
-77.2
-77.2
-77.2
-77.2
-77.2
-77.2
-77.2
-77.2
-77.2
-77.2
-77.2
-77.2
-77.2
-77.2
-77.2
-77.2
-77.2
-77.2
-77.2
-77.2
-77.2
-77.2
-77.2
-77.2
-77.2
-77.2
-77.2
-77.2
-77.2
-77.2
-77.2
-77.2
-77.2
-77.2
-77.2
-77.2
-77.2
-77.2
-77.2
-77.2
-77.2
-77.2
-77.2
-77.2
-77.2
-77.2
-77.2
-77.2
-77.2
-77.2
-77.2
-77.2
-77.2
-77.2
-77.2
-77.2
-77.2
-77.2
-77.2
-77.2
-77.2
-77.2
-77.2
-77.2
-77.2
-77.2
-77.2
-77.2
-77.2
-77.2
-77.2
-77.2
-77.2
-77.2
-77.2
-77.2
-77.2
-77.2
-77.2
-77.2
-77.2
-77.2
-77.2
-84.6
-84.6
-84.6
-84.6
-84.6
-84.6
-84.6
-84.6
-84.6
-84.6
-84.6
-84.6
-84.6
-84.6
-84.6
-84.6
-84.6
-84.6
-84.6
-84.6
-84.6
-84.6
-84.6
-84.6
-84.6
-84.6
-84.6
-84.6
-84.6
-84.6
-84.6
-84.6
-84.6
-84.6
-84.6
-84.6
-84.6
-84.6
-84.6
-84.6
-84.6
-84.6
-84.6
-84.6
-84.6
-84.6
-84.6
-84.6
-84.6
-84.6
-84.6
-84.6
-84.6
-84.6
-84.6
-84.6
-84.6
-84.6
-84.6
-84.6
-84.6
-92
-92
-92
-92
-92
-92
-92
-92
-92
-92
-92
-92
-92
-92
-92
-92
-92
-92
-92
-92
-92
-92
-92
-92
-92
-92
-92
-92
-92
-92
-92
-92
-92
-92
-92
-92
-92
-92
-92
-92
-92
-92
-92
-92
-92
-92
-92
-92
-92
-92
-92
-92
-92
-92
-92
-92
-92
-92
-92
-92
-92
-92
-92
-92
-92
-92
-92
-92
-92
-92
-92
-92
-92
-92
-92
-92
-92
-92
-92
-92
-92
-92
-92
-92
-92
-92
-92
-92
-92
-92
-92
-92
-92
-92
-92
-92
-92
-92
-92
-92
-92
-92
-92
-92
-92
-92
-92
-92
-92
-92
-92
-92
-92
-92
-92
-92
-92
-92
-92
-92
-92
-99.4
-99.4
-99.4
-99.4
-99.4
-99.4
-99.4
-99.4
-99.4
-99.4
-99.4
-99.4
-99.4
-99.4
-99.4
-99.4
-99.4
-99.4
-99.4
-99.4
-99.4
-99.4
-99.4
-99.4
-99.4
-99.4
-99.4
-99.4
-99.4
-99.4
-99.4
-99.4
-99.4
-99.4
-99.4
-99.4
-99.4
-99.4
-99.4
-99.4
-99.4
-99.4
-99.4
-99.4
-99.4
-99.4
-99.4
-99.4
-99.4
-99.4
-99.4
-99.4
-99.4
-99.4
-99.4
-99.4
-99.4
-99.4
-99.4
-99.4
-99.4
-106.8
-106.8
-106.8
-106.8
-106.8
-106.8
-106.8
-106.8
-106.8
-106.8
-106.8
-106.8
-106.8
-106.8
-106.8
-106.8
-106.8
-106.8
-106.8
-106.8
-106.8
-106.8
-106.8
-106.8
-106.8
-106.8
-106.8
-106.8
-106.8
-106.8
-106.8
-106.8
-106.8
-106.8
-106.8
-106.8
-106.8
-106.8
-106.8
-106.8
-106.8
-106.8
-106.8
-106.8
-106.8
-106.8
-106.8
-106.8
-106.8
-106.8
-106.8
-106.8
-106.8
-106.8
-106.8
-106.8
-106.8
-106.8
-106.8
-106.8
-106.8
-106.8
-106.8
-106.8
-106.8
-106.8
-106.8
-106.8
-106.8
-106.8
-106.8
-106.8
-106.8
-106.8
-106.8
-106.8
-106.8
-106.8
-106.8
-106.8
-106.8
-106.8
-106.8
-106.8
-106.8
-106.8
-106.8
-106.8
-106.8
-106.8
-106.8
-106.8
-106.8
-106.8
-106.8
-106.8
-106.8
-106.8
-106.8
-106.8
-106.8
-106.8
-106.8
-106.8
-106.8
-106.8
-106.8
-106.8
-106.8
-106.8
-106.8
-106.8
-106.8
-106.8
-106.8
-106.8
-106.8
-106.8
-106.8
-106.8
-106.8
-114.2
-114.2
-114.2
-114.2
-114.2
-114.2
-114.2
-114.2
-114.2
-114.2
-114.2
-114.2
-114.2
-114.2
-114.2
-114.2
-114.2
-114.2
-114.2
-114.2
-114.2
-114.2
-114.2
-114.2
-114.2
-114.2
-114.2
-114.2
-114.2
-114.2
-114.2
-114.2
-114.2
-114.2
-114.2
-114.2
-114.2
-114.2
-114.2
-114.2
-114.2
-114.2
-114.2
-114.2
-114.2
-114.2
-114.2
-114.2
-114.2
-114.2
-114.2
-114.2
-114.2
-114.2
-114.2
-114.2
-114.2
-114.2
-114.2
-114.2
-114.2
-121.6
-121.6
-121.6
-121.6
-121.6
-121.6
-121.6
-121.6
-121.6
-121.6
-121.6
-121.6
-121.6
-121.6
-121.6
-121.6
-121.6
-121.6
-121.6
-121.6
-121.6
-121.6
-121.6
-121.6
-121.6
-121.6
-121.6
-121.6
-121.6
-121.6
-121.6
-121.6
-121.6
-121.6
-121.6
-121.6
-121.6
-121.6
-121.6
-121.6
-121.6
-121.6
-121.6
-121.6
-121.6
-121.6
-121.6
-121.6
-121.6
-121.6
-121.6
-121.6
-121.6
-121.6
-121.6
-121.6
-121.6
-121.6
-121.6
-121.6
-121.6
-121.6
-121.6
-121.6
-121.6
-121.6
-121.6
-121.6
-121.6
-121.6
-121.6
-121.6
-121.6
-121.6
-121.6
-121.6
-121.6
-121.6
-121.6
-121.6
-121.6
-121.6
-121.6
-121.6
-121.6
-121.6
-121.6
-121.6
-121.6
-121.6
-121.6
-121.6
-121.6
-121.6
-121.6
-121.6
-121.6
-121.6
-121.6
-121.6
-121.6
-121.6
-121.6
-121.6
-121.6
-121.6
-121.6
-121.6
-121.6
-121.6
-121.6
-121.6
-121.6
-121.6
-121.6
-121.6
-121.6
-121.6
-121.6
-121.6
-121.6
-129
-129
-129
-129
-129
-129
-129
-129
-129
-129
-129
-129
-129
-129
-129
-129
-129
-129
-129
-129
-129
-129
-129
-129
-129
-129
-129
-129
-129
-129
-129
-129
-129
-129
-129
-129
-129
-129
-129
-129
-129
-129
-129
-129
-129
-129
-129
-129
-129
-129
-129
-129
-129
-129
-129
-129
-129
-129
-129
-129
-129
-136.4
-136.4
-136.4
-136.4
-136.4
-136.4
-136.4
-136.4
-136.4
-136.4
-136.4
-136.4
-136.4
-136.4
-136.4
-136.4
-136.4
-136.4
-136.4
-136.4
-136.4
-136.4
-136.4
-136.4
-136.4
-136.4
-136.4
-136.4
-136.4
-136.4
-136.4
-136.4
-136.4
-136.4
-136.4
-136.4
-136.4
-136.4
-136.4
-136.4
-136.4
-136.4
-136.4
-136.4
-136.4
-136.4
-136.4
-136.4
-136.4
-136.4
-136.4
-136.4
-136.4
-136.4
-136.4
-136.4
-136.4
-136.4
-136.4
-136.4
-136.4
-136.4
-136.4
-136.4
-136.4
-136.4
-136.4
-136.4
-136.4
-136.4
-136.4
-136.4
-136.4
-136.4
-136.4
-136.4
-136.4
-136.4
-136.4
-136.4
-136.4
-136.4
-136.4
-136.4
-136.4
-136.4
-136.4
-136.4
-136.4
-136.4
-136.4
-136.4
-136.4
-136.4
-136.4
-136.4
-136.4
-136.4
-136.4
-136.4
-136.4
-136.4
-136.4
-136.4
-136.4
-136.4
-136.4
-136.4
-136.4
-136.4
-136.4
-136.4
-136.4
-136.4
-136.4
-136.4
-136.4
-136.4
-136.4
-136.4
-136.4
-143.8
-143.8
-143.8
-143.8
-143.8
-143.8
-143.8
-143.8
-143.8
-143.8
-143.8
-143.8
-143.8
-143.8
-143.8
-143.8
-143.8
-143.8
-143.8
-143.8
-143.8
-143.8
-143.8
-143.8
-143.8
-143.8
-143.8
-143.8
-143.8
-143.8
-143.8
-143.8
-143.8
-143.8
-143.8
-143.8
-143.8
-143.8
-143.8
-143.8
-143.8
-143.8
-143.8
-143.8
-143.8
-143.8
-143.8
-143.8
-143.8
-143.8
-143.8
-143.8
-143.8
-143.8
-143.8
-143.8
-143.8
-143.8
-143.8
-143.8
-143.8
-151.2
-151.2
-151.2
-151.2
-151.2
-151.2
-151.2
-151.2
-151.2
-151.2
-151.2
-151.2
-151.2
-151.2
-151.2
-151.2
-151.2
-151.2
-151.2
-151.2
-151.2
-151.2
-151.2
-151.2
-151.2
-151.2
-151.2
-151.2
-151.2
-151.2
-151.2
-151.2
-151.2
-151.2
-151.2
-151.2
-151.2
-151.2
-151.2
-151.2
-151.2
-151.2
-151.2
-151.2
-151.2
-151.2
-151.2
-151.2
-151.2
-151.2
-151.2
-151.2
-151.2
-151.2
-151.2
-151.2
-151.2
-151.2
-151.2
-151.2
-151.2
-151.2
-151.2
-151.2
-151.2
-151.2
-151.2
-151.2
-151.2
-151.2
-151.2
-151.2
-151.2
-151.2
-151.2
-151.2
-151.2
-151.2
-151.2
-151.2
-151.2
-151.2
-151.2
-151.2
-151.2
-151.2
-151.2
-151.2
-151.2
-151.2
-151.2
-151.2
-151.2
-151.2
-151.2
-151.2
-151.2
-151.2
-151.2
-151.2
-151.2
-151.2
-151.2
-151.2
-151.2
-151.2
-151.2
-151.2
-151.2
-151.2
-151.2
-151.2
-151.2
-151.2
-151.2
-151.2
-151.2
-151.2
-151.2
-151.2
-151.2
-158.6
-158.6
-158.6
-158.6
-158.6
-158.6
-158.6
-158.6
-158.6
-158.6
-158.6
-158.6
-158.6
-158.6
-158.6
-158.6
-158.6
-158.6
-158.6
-158.6
-158.6
-158.6
-158.6
-158.6
-158.6
-158.6
-158.6
-158.6
-158.6
-158.6
-158.6
-158.6
-158.6
-158.6
-158.6
-158.6
-158.6
-158.6
-158.6
-158.6
-158.6
-158.6
-158.6
-158.6
-158.6
-158.6
-158.6
-158.6
-158.6
-158.6
-158.6
-158.6
-158.6
-158.6
-158.6
-158.6
-158.6
-158.6
-158.6
-158.6
-158.6
-166
-166
-166
-166
-166
-166
-166
-166
-166
-166
-166
-166
-166
-166
-166
-166
-166
-166
-166
-166
-166
-166
-166
-166
-166
-166
-166
-166
-166
-166
-166
-166
-166
-166
-166
-166
-166
-166
-166
-166
-166
-166
-166
-166
-166
-166
-166
-166
-166
-166
-166
-166
-166
-166
-166
-166
-166
-166
-166
-166
-166
-166
-166
-166
-166
-166
-166
-166
-166
-166
-166
-166
-166
-166
-166
-166
-166
-166
-166
-166
-166
-166
-166
-166
-166
-166
-166
-166
-166
-166
-166
-166
-166
-166
-166
-166
-166
-166
-166
-166
-166
-166
-166
-166
-166
-166
-166
-166
-166
-166
-166
-166
-166
-166
-166
-166
-166
-166
-166
-166
-166
-173.4
-173.4
-173.4
-173.4
-173.4
-173.4
-173.4
-173.4
-173.4
-173.4
-173.4
-173.4
-173.4
-173.4
-173.4
-173.4
-173.4
-173.4
-173.4
-173.4
-173.4
-173.4
-173.4
-173.4
-173.4
-173.4
-173.4
-173.4
-173.4
-173.4
-173.4
-173.4
-173.4
-173.4
-173.4
-173.4
-173.4
-173.4
-173.4
-173.4
-173.4
-173.4
-173.4
-173.4
-173.4
-173.4
-173.4
-173.4
-173.4
-173.4
-173.4
-173.4
-173.4
-173.4
-173.4
-173.4
-173.4
-173.4
-173.4
-173.4
-173.4
-180.8
-180.8
-180.8
-180.8
-180.8
-180.8
-180.8
-180.8
-180.8
-180.8
-180.8
-180.8
-180.8
-180.8
-180.8
-180.8
-180.8
-180.8
-180.8
-180.8
-180.8
-180.8
-180.8
-180.8
-180.8
-180.8
-180.8
-180.8
-180.8
-180.8
-180.8
-180.8
-180.8
-180.8
-180.8
-180.8
-180.8
-180.8
-180.8
-180.8
-180.8
-180.8
-180.8
-180.8
-180.8
-180.8
-180.8
-180.8
-180.8
-180.8
-180.8
-180.8
-180.8
-180.8
-180.8
-180.8
-180.8
-180.8
-180.8
-180.8
-180.8
-180.8
-180.8
-180.8
-180.8
-180.8
-180.8
-180.8
-180.8
-180.8
-180.8
-180.8
-180.8
-180.8
-180.8
-180.8
-180.8
-180.8
-180.8
-180.8
-180.8
-180.8
-180.8
-180.8
-180.8
-180.8
-180.8
-180.8
-180.8
-180.8
-180.8
-180.8
-180.8
-180.8
-180.8
-180.8
-180.8
-180.8
-180.8
-180.8
-180.8
-180.8
-180.8
-180.8
-180.8
-180.8
-180.8
-180.8
-180.8
-180.8
-180.8
-180.8
-180.8
-180.8
-180.8
-180.8
-180.8
-180.8
-180.8
-180.8
-180.8
-188.2
-188.2
-188.2
-188.2
-188.2
-188.2
-188.2
-188.2
-188.2
-188.2
-188.2
-188.2
-188.2
-188.2
-188.2
-188.2
-188.2
-188.2
-188.2
-188.2
-188.2
-188.2
-188.2
-188.2
-188.2
-188.2
-188.2
-188.2
-188.2
-188.2
-188.2
-188.2
-188.2
-188.2
-188.2
-188.2
-188.2
-188.2
-188.2
-188.2
-188.2
-188.2
-188.2
-188.2
-188.2
-188.2
-188.2
-188.2
-188.2
-188.2
-188.2
-188.2
-188.2
-188.2
-188.2
-188.2
-188.2
-188.2
-188.2
-188.2
-188.2
-195.6
-195.6
-195.6
-195.6
-195.6
-195.6
-195.6
-195.6
-195.6
-195.6
-195.6
-195.6
-195.6
-195.6
-195.6
-195.6
-195.6
-195.6
-195.6
-195.6
-195.6
-195.6
-195.6
-195.6
-195.6
-195.6
-195.6
-195.6
-195.6
-195.6
-195.6
-195.6
-195.6
-195.6
-195.6
-195.6
-195.6
-195.6
-195.6
-195.6
-195.6
-195.6
-195.6
-195.6
-195.6
-195.6
-195.6
-195.6
-195.6
-195.6
-195.6
-195.6
-195.6
-195.6
-195.6
-195.6
-195.6
-195.6
-195.6
-195.6
-195.6
-195.6
-195.6
-195.6
-195.6
-195.6
-195.6
-195.6
-195.6
-195.6
-195.6
-195.6
-195.6
-195.6
-195.6
-195.6
-195.6
-195.6
-195.6
-195.6
-195.6
-195.6
-195.6
-195.6
-195.6
-195.6
-195.6
-195.6
-195.6
-195.6
-195.6
-195.6
-195.6
-195.6
-195.6
-195.6
-195.6
-195.6
-195.6
-195.6
-195.6
-195.6
-195.6
-195.6
-195.6
-195.6
-195.6
-195.6
-195.6
-195.6
-195.6
-195.6
-195.6
-195.6
-195.6
-195.6
-195.6
-195.6
-195.6
-195.6
-195.6
-203
-203
-203
-203
-203
-203
-203
-203
-203
-203
-203
-203
-203
-203
-203
-203
-203
-203
-203
-203
-203
-203
-203
-203
-203
-203
-203
-203
-203
-203
-203
-203
-203
-203
-203
-203
-203
-203
-203
-203
-203
-203
-203
-203
-203
-203
-203
-203
-203
-203
-203
-203
-203
-203
-203
-203
-203
-203
-203
-203
-203
-210.4
-210.4
-210.4
-210.4
-210.4
-210.4
-210.4
-210.4
-210.4
-210.4
-210.4
-210.4
-210.4
-210.4
-210.4
-210.4
-210.4
-210.4
-210.4
-210.4
-210.4
-210.4
-210.4
-210.4
-210.4
-210.4
-210.4
-210.4
-210.4
-210.4
-210.4
-210.4
-210.4
-210.4
-210.4
-210.4
-210.4
-210.4
-210.4
-210.4
-210.4
-210.4
-210.4
-210.4
-210.4
-210.4
-210.4
-210.4
-210.4
-210.4
-210.4
-210.4
-210.4
-210.4
-210.4
-210.4
-210.4
-210.4
-210.4
-210.4
-210.4
-210.4
-210.4
-210.4
-210.4
-210.4
-210.4
-210.4
-210.4
-210.4
-210.4
-210.4
-210.4
-210.4
-210.4
-210.4
-210.4
-210.4
-210.4
-210.4
-210.4
-210.4
-210.4
-210.4
-210.4
-210.4
-210.4
-210.4
-210.4
-210.4
-210.4
-210.4
-210.4
-210.4
-210.4
-210.4
-210.4
-210.4
-210.4
-210.4
-210.4
-210.4
-210.4
-210.4
-210.4
-210.4
-210.4
-210.4
-210.4
-210.4
-210.4
-210.4
-210.4
-210.4
-210.4
-210.4
-210.4
-210.4
-210.4
-210.4
-210.4
-217.8
-217.8
-217.8
-217.8
-217.8
-217.8
-217.8
-217.8
-217.8
-217.8
-217.8
-217.8
-217.8
-217.8
-217.8
-217.8
-217.8
-217.8
-217.8
-217.8
-217.8
-217.8
-217.8
-217.8
-217.8
-217.8
-217.8
-217.8
-217.8
-217.8
-217.8
-217.8
-217.8
-217.8
-217.8
-217.8
-217.8
-217.8
-217.8
-217.8
-217.8
-217.8
-217.8
-217.8
-217.8
-217.8
-217.8
-217.8
-217.8
-217.8
-217.8
-217.8
-217.8
-217.8
-217.8
-217.8
-217.8
-217.8
-217.8
-217.8
-217.8
-225.2
-225.2
-225.2
-225.2
-225.2
-225.2
-225.2
-225.2
-225.2
-225.2
-225.2
-225.2
-225.2
-225.2
-225.2
-225.2
-225.2
-225.2
-225.2
-225.2
-225.2
-225.2
-225.2
-225.2
-225.2
-225.2
-225.2
-225.2
-225.2
-225.2
-225.2
-225.2
-225.2
-225.2
-225.2
-225.2
-225.2
-225.2
-225.2
-225.2
-225.2
-225.2
-225.2
-225.2
-225.2
-225.2
-225.2
-225.2
-225.2
-225.2
-225.2
-225.2
-225.2
-225.2
-225.2
-225.2
-225.2
-225.2
-225.2
-225.2
-225.2
-225.2
-225.2
-225.2
-225.2
-225.2
-225.2
-225.2
-225.2
-225.2
-225.2
-225.2
-225.2
-225.2
-225.2
-225.2
-225.2
-225.2
-225.2
-225.2
-225.2
-225.2
-225.2
-225.2
-225.2
-225.2
-225.2
-225.2
-225.2
-225.2
-225.2
-225.2
-225.2
-225.2
-225.2
-225.2
-225.2
-225.2
-225.2
-225.2
-225.2
-225.2
-225.2
-225.2
-225.2
-225.2
-225.2
-225.2
-225.2
-225.2
-225.2
-225.2
-225.2
-225.2
-225.2
-225.2
-225.2
-225.2
-225.2
-225.2
-225.2
-232.6
-232.6
-232.6
-232.6
-232.6
-232.6
-232.6
-232.6
-232.6
-232.6
-232.6
-232.6
-232.6
-232.6
-232.6
-232.6
-232.6
-232.6
-232.6
-232.6
-232.6
-232.6
-232.6
-232.6
-232.6
-232.6
-232.6
-232.6
-232.6
-232.6
-232.6
-232.6
-232.6
-232.6
-232.6
-232.6
-232.6
-232.6
-232.6
-232.6
-232.6
-232.6
-232.6
-232.6
-232.6
-232.6
-232.6
-232.6
-232.6
-232.6
-232.6
-232.6
-232.6
-232.6
-232.6
-232.6
-232.6
-232.6
-232.6
-232.6
-232.6
-240
-240
-240
-240
-240
-240
-240
-240
-240
-240
-240
-240
-240
-240
-240
-240
-240
-240
-240
-240
-240
-240
-240
-240
-240
-240
-240
-240
-240
-240
-240
-240
-240
-240
-240
-240
-240
-240
-240
-240
-240
-240
-240
-240
-240
-240
-240
-240
-240
-240
-240
-240
-240
-240
-240
-240
-240
-240
-240
-240
-240
-240
-240
-240
-240
-240
-240
-240
-240
-240
-240
-240
-240
-240
-240
-240
-240
-240
-240
-240
-240
-240
-240
-240
-240
-240
-240
-240
-240
-240
-240
-240
-240
-240
-240
-240
-240
-240
-240
-240
-240
-240
-240
-240
-240
-240
-240
-240
-240
-240
-240
-240
-240
-240
-240
-240
-240
-240
-240
-240
-240
