# vtk DataFile Version 2.0
./vtk
ASCII

DATASET UNSTRUCTURED_GRID
POINTS 1809 double
0 0 0.0
0.25 0 0.0
0.5 0 0.0
0.75 0 0.0
1 0 0.0
1.25 0 0.0
1.5 0 0.0
1.75 0 0.0
2 0 0.0
2.25 0 0.0
2.5 0 0.0
2.75 0 0.0
3 0 0.0
3.25 0 0.0
3.5 0 0.0
3.75 0 0.0
4 0 0.0
4.25 0 0.0
4.5 0 0.0
4.75 0 0.0
5 0 0.0
5.7289 0 0.0
6.4577 0 0.0
7.3991 0 0.0
8.3405 0 0.0
9.5563 0 0.0
10.7722 0 0.0
12.3425 0 0.0
13.9128 0 0.0
15.9409 0 0.0
17.9691 0 0.0
20.5885 0 0.0
23.2079 0 0.0
26.5911 0 0.0
29.9742 0 0.0
34.3437 0 0.0
38.7132 0 0.0
44.3566 0 0.0
50 0 0.0
0 -0.2 0.0
0.5 -0.2 0.0
1 -0.2 0.0
1.5 -0.2 0.0
2 -0.2 0.0
2.5 -0.2 0.0
3 -0.2 0.0
3.5 -0.2 0.0
4 -0.2 0.0
4.5 -0.2 0.0
5 -0.2 0.0
6.4577 -0.2 0.0
8.3405 -0.2 0.0
10.7722 -0.2 0.0
13.9128 -0.2 0.0
17.9691 -0.2 0.0
23.2079 -0.2 0.0
29.9742 -0.2 0.0
38.7132 -0.2 0.0
50 -0.2 0.0
0 -0.4 0.0
0.25 -0.4 0.0
0.5 -0.4 0.0
0.75 -0.4 0.0
1 -0.4 0.0
1.25 -0.4 0.0
1.5 -0.4 0.0
1.75 -0.4 0.0
2 -0.4 0.0
2.25 -0.4 0.0
2.5 -0.4 0.0
2.75 -0.4 0.0
3 -0.4 0.0
3.25 -0.4 0.0
3.5 -0.4 0.0
3.75 -0.4 0.0
4 -0.4 0.0
4.25 -0.4 0.0
4.5 -0.4 0.0
4.75 -0.4 0.0
5 -0.4 0.0
5.7289 -0.4 0.0
6.4577 -0.4 0.0
7.3991 -0.4 0.0
8.3405 -0.4 0.0
9.5563 -0.4 0.0
10.7722 -0.4 0.0
12.3425 -0.4 0.0
13.9128 -0.4 0.0
15.9409 -0.4 0.0
17.9691 -0.4 0.0
20.5885 -0.4 0.0
23.2079 -0.4 0.0
26.5911 -0.4 0.0
29.9742 -0.4 0.0
34.3437 -0.4 0.0
38.7132 -0.4 0.0
44.3566 -0.4 0.0
50 -0.4 0.0
0 -0.6 0.0
0.5 -0.6 0.0
1 -0.6 0.0
1.5 -0.6 0.0
2 -0.6 0.0
2.5 -0.6 0.0
3 -0.6 0.0
3.5 -0.6 0.0
4 -0.6 0.0
4.5 -0.6 0.0
5 -0.6 0.0
6.4577 -0.6 0.0
8.3405 -0.6 0.0
10.7722 -0.6 0.0
13.9128 -0.6 0.0
17.9691 -0.6 0.0
23.2079 -0.6 0.0
29.9742 -0.6 0.0
38.7132 -0.6 0.0
50 -0.6 0.0
0 -0.8 0.0
0.25 -0.8 0.0
0.5 -0.8 0.0
0.75 -0.8 0.0
1 -0.8 0.0
1.25 -0.8 0.0
1.5 -0.8 0.0
1.75 -0.8 0.0
2 -0.8 0.0
2.25 -0.8 0.0
2.5 -0.8 0.0
2.75 -0.8 0.0
3 -0.8 0.0
3.25 -0.8 0.0
3.5 -0.8 0.0
3.75 -0.8 0.0
4 -0.8 0.0
4.25 -0.8 0.0
4.5 -0.8 0.0
4.75 -0.8 0.0
5 -0.8 0.0
5.7289 -0.8 0.0
6.4577 -0.8 0.0
7.3991 -0.8 0.0
8.3405 -0.8 0.0
9.5563 -0.8 0.0
10.7722 -0.8 0.0
12.3425 -0.8 0.0
13.9128 -0.8 0.0
15.9409 -0.8 0.0
17.9691 -0.8 0.0
20.5885 -0.8 0.0
23.2079 -0.8 0.0
26.5911 -0.8 0.0
29.9742 -0.8 0.0
34.3437 -0.8 0.0
38.7132 -0.8 0.0
44.3566 -0.8 0.0
50 -0.8 0.0
0 -1 0.0
0.5 -1 0.0
1 -1 0.0
1.5 -1 0.0
2 -1 0.0
2.5 -1 0.0
3 -1 0.0
3.5 -1 0.0
4 -1 0.0
4.5 -1 0.0
5 -1 0.0
6.4577 -1 0.0
8.3405 -1 0.0
10.7722 -1 0.0
13.9128 -1 0.0
17.9691 -1 0.0
23.2079 -1 0.0
29.9742 -1 0.0
38.7132 -1 0.0
50 -1 0.0
0 -1.2 0.0
0.25 -1.2 0.0
0.5 -1.2 0.0
0.75 -1.2 0.0
1 -1.2 0.0
1.25 -1.2 0.0
1.5 -1.2 0.0
1.75 -1.2 0.0
2 -1.2 0.0
2.25 -1.2 0.0
2.5 -1.2 0.0
2.75 -1.2 0.0
3 -1.2 0.0
3.25 -1.2 0.0
3.5 -1.2 0.0
3.75 -1.2 0.0
4 -1.2 0.0
4.25 -1.2 0.0
4.5 -1.2 0.0
4.75 -1.2 0.0
5 -1.2 0.0
5.7289 -1.2 0.0
6.4577 -1.2 0.0
7.3991 -1.2 0.0
8.3405 -1.2 0.0
9.5563 -1.2 0.0
10.7722 -1.2 0.0
12.3425 -1.2 0.0
13.9128 -1.2 0.0
15.9409 -1.2 0.0
17.9691 -1.2 0.0
20.5885 -1.2 0.0
23.2079 -1.2 0.0
26.5911 -1.2 0.0
29.9742 -1.2 0.0
34.3437 -1.2 0.0
38.7132 -1.2 0.0
44.3566 -1.2 0.0
50 -1.2 0.0
0 -1.4 0.0
0.5 -1.4 0.0
1 -1.4 0.0
1.5 -1.4 0.0
2 -1.4 0.0
2.5 -1.4 0.0
3 -1.4 0.0
3.5 -1.4 0.0
4 -1.4 0.0
4.5 -1.4 0.0
5 -1.4 0.0
6.4577 -1.4 0.0
8.3405 -1.4 0.0
10.7722 -1.4 0.0
13.9128 -1.4 0.0
17.9691 -1.4 0.0
23.2079 -1.4 0.0
29.9742 -1.4 0.0
38.7132 -1.4 0.0
50 -1.4 0.0
0 -1.6 0.0
0.25 -1.6 0.0
0.5 -1.6 0.0
0.75 -1.6 0.0
1 -1.6 0.0
1.25 -1.6 0.0
1.5 -1.6 0.0
1.75 -1.6 0.0
2 -1.6 0.0
2.25 -1.6 0.0
2.5 -1.6 0.0
2.75 -1.6 0.0
3 -1.6 0.0
3.25 -1.6 0.0
3.5 -1.6 0.0
3.75 -1.6 0.0
4 -1.6 0.0
4.25 -1.6 0.0
4.5 -1.6 0.0
4.75 -1.6 0.0
5 -1.6 0.0
5.7289 -1.6 0.0
6.4577 -1.6 0.0
7.3991 -1.6 0.0
8.3405 -1.6 0.0
9.5563 -1.6 0.0
10.7722 -1.6 0.0
12.3425 -1.6 0.0
13.9128 -1.6 0.0
15.9409 -1.6 0.0
17.9691 -1.6 0.0
20.5885 -1.6 0.0
23.2079 -1.6 0.0
26.5911 -1.6 0.0
29.9742 -1.6 0.0
34.3437 -1.6 0.0
38.7132 -1.6 0.0
44.3566 -1.6 0.0
50 -1.6 0.0
0 -1.8 0.0
0.5 -1.8 0.0
1 -1.8 0.0
1.5 -1.8 0.0
2 -1.8 0.0
2.5 -1.8 0.0
3 -1.8 0.0
3.5 -1.8 0.0
4 -1.8 0.0
4.5 -1.8 0.0
5 -1.8 0.0
6.4577 -1.8 0.0
8.3405 -1.8 0.0
10.7722 -1.8 0.0
13.9128 -1.8 0.0
17.9691 -1.8 0.0
23.2079 -1.8 0.0
29.9742 -1.8 0.0
38.7132 -1.8 0.0
50 -1.8 0.0
0 -2 0.0
0.25 -2 0.0
0.5 -2 0.0
0.75 -2 0.0
1 -2 0.0
1.25 -2 0.0
1.5 -2 0.0
1.75 -2 0.0
2 -2 0.0
2.25 -2 0.0
2.5 -2 0.0
2.75 -2 0.0
3 -2 0.0
3.25 -2 0.0
3.5 -2 0.0
3.75 -2 0.0
4 -2 0.0
4.25 -2 0.0
4.5 -2 0.0
4.75 -2 0.0
5 -2 0.0
5.7289 -2 0.0
6.4577 -2 0.0
7.3991 -2 0.0
8.3405 -2 0.0
9.5563 -2 0.0
10.7722 -2 0.0
12.3425 -2 0.0
13.9128 -2 0.0
15.9409 -2 0.0
17.9691 -2 0.0
20.5885 -2 0.0
23.2079 -2 0.0
26.5911 -2 0.0
29.9742 -2 0.0
34.3437 -2 0.0
38.7132 -2 0.0
44.3566 -2 0.0
50 -2 0.0
0 -2.2 0.0
0.5 -2.2 0.0
1 -2.2 0.0
1.5 -2.2 0.0
2 -2.2 0.0
2.5 -2.2 0.0
3 -2.2 0.0
3.5 -2.2 0.0
4 -2.2 0.0
4.5 -2.2 0.0
5 -2.2 0.0
6.4577 -2.2 0.0
8.3405 -2.2 0.0
10.7722 -2.2 0.0
13.9128 -2.2 0.0
17.9691 -2.2 0.0
23.2079 -2.2 0.0
29.9742 -2.2 0.0
38.7132 -2.2 0.0
50 -2.2 0.0
0 -2.4 0.0
0.25 -2.4 0.0
0.5 -2.4 0.0
0.75 -2.4 0.0
1 -2.4 0.0
1.25 -2.4 0.0
1.5 -2.4 0.0
1.75 -2.4 0.0
2 -2.4 0.0
2.25 -2.4 0.0
2.5 -2.4 0.0
2.75 -2.4 0.0
3 -2.4 0.0
3.25 -2.4 0.0
3.5 -2.4 0.0
3.75 -2.4 0.0
4 -2.4 0.0
4.25 -2.4 0.0
4.5 -2.4 0.0
4.75 -2.4 0.0
5 -2.4 0.0
5.7289 -2.4 0.0
6.4577 -2.4 0.0
7.3991 -2.4 0.0
8.3405 -2.4 0.0
9.5563 -2.4 0.0
10.7722 -2.4 0.0
12.3425 -2.4 0.0
13.9128 -2.4 0.0
15.9409 -2.4 0.0
17.9691 -2.4 0.0
20.5885 -2.4 0.0
23.2079 -2.4 0.0
26.5911 -2.4 0.0
29.9742 -2.4 0.0
34.3437 -2.4 0.0
38.7132 -2.4 0.0
44.3566 -2.4 0.0
50 -2.4 0.0
0 -2.6 0.0
0.5 -2.6 0.0
1 -2.6 0.0
1.5 -2.6 0.0
2 -2.6 0.0
2.5 -2.6 0.0
3 -2.6 0.0
3.5 -2.6 0.0
4 -2.6 0.0
4.5 -2.6 0.0
5 -2.6 0.0
6.4577 -2.6 0.0
8.3405 -2.6 0.0
10.7722 -2.6 0.0
13.9128 -2.6 0.0
17.9691 -2.6 0.0
23.2079 -2.6 0.0
29.9742 -2.6 0.0
38.7132 -2.6 0.0
50 -2.6 0.0
0 -2.8 0.0
0.25 -2.8 0.0
0.5 -2.8 0.0
0.75 -2.8 0.0
1 -2.8 0.0
1.25 -2.8 0.0
1.5 -2.8 0.0
1.75 -2.8 0.0
2 -2.8 0.0
2.25 -2.8 0.0
2.5 -2.8 0.0
2.75 -2.8 0.0
3 -2.8 0.0
3.25 -2.8 0.0
3.5 -2.8 0.0
3.75 -2.8 0.0
4 -2.8 0.0
4.25 -2.8 0.0
4.5 -2.8 0.0
4.75 -2.8 0.0
5 -2.8 0.0
5.7289 -2.8 0.0
6.4577 -2.8 0.0
7.3991 -2.8 0.0
8.3405 -2.8 0.0
9.5563 -2.8 0.0
10.7722 -2.8 0.0
12.3425 -2.8 0.0
13.9128 -2.8 0.0
15.9409 -2.8 0.0
17.9691 -2.8 0.0
20.5885 -2.8 0.0
23.2079 -2.8 0.0
26.5911 -2.8 0.0
29.9742 -2.8 0.0
34.3437 -2.8 0.0
38.7132 -2.8 0.0
44.3566 -2.8 0.0
50 -2.8 0.0
0 -3 0.0
0.5 -3 0.0
1 -3 0.0
1.5 -3 0.0
2 -3 0.0
2.5 -3 0.0
3 -3 0.0
3.5 -3 0.0
4 -3 0.0
4.5 -3 0.0
5 -3 0.0
6.4577 -3 0.0
8.3405 -3 0.0
10.7722 -3 0.0
13.9128 -3 0.0
17.9691 -3 0.0
23.2079 -3 0.0
29.9742 -3 0.0
38.7132 -3 0.0
50 -3 0.0
0 -3.2 0.0
0.25 -3.2 0.0
0.5 -3.2 0.0
0.75 -3.2 0.0
1 -3.2 0.0
1.25 -3.2 0.0
1.5 -3.2 0.0
1.75 -3.2 0.0
2 -3.2 0.0
2.25 -3.2 0.0
2.5 -3.2 0.0
2.75 -3.2 0.0
3 -3.2 0.0
3.25 -3.2 0.0
3.5 -3.2 0.0
3.75 -3.2 0.0
4 -3.2 0.0
4.25 -3.2 0.0
4.5 -3.2 0.0
4.75 -3.2 0.0
5 -3.2 0.0
5.7289 -3.2 0.0
6.4577 -3.2 0.0
7.3991 -3.2 0.0
8.3405 -3.2 0.0
9.5563 -3.2 0.0
10.7722 -3.2 0.0
12.3425 -3.2 0.0
13.9128 -3.2 0.0
15.9409 -3.2 0.0
17.9691 -3.2 0.0
20.5885 -3.2 0.0
23.2079 -3.2 0.0
26.5911 -3.2 0.0
29.9742 -3.2 0.0
34.3437 -3.2 0.0
38.7132 -3.2 0.0
44.3566 -3.2 0.0
50 -3.2 0.0
0 -3.4 0.0
0.5 -3.4 0.0
1 -3.4 0.0
1.5 -3.4 0.0
2 -3.4 0.0
2.5 -3.4 0.0
3 -3.4 0.0
3.5 -3.4 0.0
4 -3.4 0.0
4.5 -3.4 0.0
5 -3.4 0.0
6.4577 -3.4 0.0
8.3405 -3.4 0.0
10.7722 -3.4 0.0
13.9128 -3.4 0.0
17.9691 -3.4 0.0
23.2079 -3.4 0.0
29.9742 -3.4 0.0
38.7132 -3.4 0.0
50 -3.4 0.0
0 -3.6 0.0
0.25 -3.6 0.0
0.5 -3.6 0.0
0.75 -3.6 0.0
1 -3.6 0.0
1.25 -3.6 0.0
1.5 -3.6 0.0
1.75 -3.6 0.0
2 -3.6 0.0
2.25 -3.6 0.0
2.5 -3.6 0.0
2.75 -3.6 0.0
3 -3.6 0.0
3.25 -3.6 0.0
3.5 -3.6 0.0
3.75 -3.6 0.0
4 -3.6 0.0
4.25 -3.6 0.0
4.5 -3.6 0.0
4.75 -3.6 0.0
5 -3.6 0.0
5.7289 -3.6 0.0
6.4577 -3.6 0.0
7.3991 -3.6 0.0
8.3405 -3.6 0.0
9.5563 -3.6 0.0
10.7722 -3.6 0.0
12.3425 -3.6 0.0
13.9128 -3.6 0.0
15.9409 -3.6 0.0
17.9691 -3.6 0.0
20.5885 -3.6 0.0
23.2079 -3.6 0.0
26.5911 -3.6 0.0
29.9742 -3.6 0.0
34.3437 -3.6 0.0
38.7132 -3.6 0.0
44.3566 -3.6 0.0
50 -3.6 0.0
0 -3.8 0.0
0.5 -3.8 0.0
1 -3.8 0.0
1.5 -3.8 0.0
2 -3.8 0.0
2.5 -3.8 0.0
3 -3.8 0.0
3.5 -3.8 0.0
4 -3.8 0.0
4.5 -3.8 0.0
5 -3.8 0.0
6.4577 -3.8 0.0
8.3405 -3.8 0.0
10.7722 -3.8 0.0
13.9128 -3.8 0.0
17.9691 -3.8 0.0
23.2079 -3.8 0.0
29.9742 -3.8 0.0
38.7132 -3.8 0.0
50 -3.8 0.0
0 -4 0.0
0.25 -4 0.0
0.5 -4 0.0
0.75 -4 0.0
1 -4 0.0
1.25 -4 0.0
1.5 -4 0.0
1.75 -4 0.0
2 -4 0.0
2.25 -4 0.0
2.5 -4 0.0
2.75 -4 0.0
3 -4 0.0
3.25 -4 0.0
3.5 -4 0.0
3.75 -4 0.0
4 -4 0.0
4.25 -4 0.0
4.5 -4 0.0
4.75 -4 0.0
5 -4 0.0
5.7289 -4 0.0
6.4577 -4 0.0
7.3991 -4 0.0
8.3405 -4 0.0
9.5563 -4 0.0
10.7722 -4 0.0
12.3425 -4 0.0
13.9128 -4 0.0
15.9409 -4 0.0
17.9691 -4 0.0
20.5885 -4 0.0
23.2079 -4 0.0
26.5911 -4 0.0
29.9742 -4 0.0
34.3437 -4 0.0
38.7132 -4 0.0
44.3566 -4 0.0
50 -4 0.0
0 -4.55 0.0
0.5 -4.55 0.0
1 -4.55 0.0
1.5 -4.55 0.0
2 -4.55 0.0
2.5 -4.55 0.0
3 -4.55 0.0
3.5 -4.55 0.0
4 -4.55 0.0
4.5 -4.55 0.0
5 -4.55 0.0
6.4577 -4.55 0.0
8.3405 -4.55 0.0
10.7722 -4.55 0.0
13.9128 -4.55 0.0
17.9691 -4.55 0.0
23.2079 -4.55 0.0
29.9742 -4.55 0.0
38.7132 -4.55 0.0
50 -4.55 0.0
0 -5.1 0.0
0.25 -5.1 0.0
0.5 -5.1 0.0
0.75 -5.1 0.0
1 -5.1 0.0
1.25 -5.1 0.0
1.5 -5.1 0.0
1.75 -5.1 0.0
2 -5.1 0.0
2.25 -5.1 0.0
2.5 -5.1 0.0
2.75 -5.1 0.0
3 -5.1 0.0
3.25 -5.1 0.0
3.5 -5.1 0.0
3.75 -5.1 0.0
4 -5.1 0.0
4.25 -5.1 0.0
4.5 -5.1 0.0
4.75 -5.1 0.0
5 -5.1 0.0
5.7289 -5.1 0.0
6.4577 -5.1 0.0
7.3991 -5.1 0.0
8.3405 -5.1 0.0
9.5563 -5.1 0.0
10.7722 -5.1 0.0
12.3425 -5.1 0.0
13.9128 -5.1 0.0
15.9409 -5.1 0.0
17.9691 -5.1 0.0
20.5885 -5.1 0.0
23.2079 -5.1 0.0
26.5911 -5.1 0.0
29.9742 -5.1 0.0
34.3437 -5.1 0.0
38.7132 -5.1 0.0
44.3566 -5.1 0.0
50 -5.1 0.0
0 -5.65 0.0
0.5 -5.65 0.0
1 -5.65 0.0
1.5 -5.65 0.0
2 -5.65 0.0
2.5 -5.65 0.0
3 -5.65 0.0
3.5 -5.65 0.0
4 -5.65 0.0
4.5 -5.65 0.0
5 -5.65 0.0
6.4577 -5.65 0.0
8.3405 -5.65 0.0
10.7722 -5.65 0.0
13.9128 -5.65 0.0
17.9691 -5.65 0.0
23.2079 -5.65 0.0
29.9742 -5.65 0.0
38.7132 -5.65 0.0
50 -5.65 0.0
0 -6.2 0.0
0.25 -6.2 0.0
0.5 -6.2 0.0
0.75 -6.2 0.0
1 -6.2 0.0
1.25 -6.2 0.0
1.5 -6.2 0.0
1.75 -6.2 0.0
2 -6.2 0.0
2.25 -6.2 0.0
2.5 -6.2 0.0
2.75 -6.2 0.0
3 -6.2 0.0
3.25 -6.2 0.0
3.5 -6.2 0.0
3.75 -6.2 0.0
4 -6.2 0.0
4.25 -6.2 0.0
4.5 -6.2 0.0
4.75 -6.2 0.0
5 -6.2 0.0
5.7289 -6.2 0.0
6.4577 -6.2 0.0
7.3991 -6.2 0.0
8.3405 -6.2 0.0
9.5563 -6.2 0.0
10.7722 -6.2 0.0
12.3425 -6.2 0.0
13.9128 -6.2 0.0
15.9409 -6.2 0.0
17.9691 -6.2 0.0
20.5885 -6.2 0.0
23.2079 -6.2 0.0
26.5911 -6.2 0.0
29.9742 -6.2 0.0
34.3437 -6.2 0.0
38.7132 -6.2 0.0
44.3566 -6.2 0.0
50 -6.2 0.0
0 -6.75 0.0
0.5 -6.75 0.0
1 -6.75 0.0
1.5 -6.75 0.0
2 -6.75 0.0
2.5 -6.75 0.0
3 -6.75 0.0
3.5 -6.75 0.0
4 -6.75 0.0
4.5 -6.75 0.0
5 -6.75 0.0
6.4577 -6.75 0.0
8.3405 -6.75 0.0
10.7722 -6.75 0.0
13.9128 -6.75 0.0
17.9691 -6.75 0.0
23.2079 -6.75 0.0
29.9742 -6.75 0.0
38.7132 -6.75 0.0
50 -6.75 0.0
0 -7.3 0.0
0.25 -7.3 0.0
0.5 -7.3 0.0
0.75 -7.3 0.0
1 -7.3 0.0
1.25 -7.3 0.0
1.5 -7.3 0.0
1.75 -7.3 0.0
2 -7.3 0.0
2.25 -7.3 0.0
2.5 -7.3 0.0
2.75 -7.3 0.0
3 -7.3 0.0
3.25 -7.3 0.0
3.5 -7.3 0.0
3.75 -7.3 0.0
4 -7.3 0.0
4.25 -7.3 0.0
4.5 -7.3 0.0
4.75 -7.3 0.0
5 -7.3 0.0
5.7289 -7.3 0.0
6.4577 -7.3 0.0
7.3991 -7.3 0.0
8.3405 -7.3 0.0
9.5563 -7.3 0.0
10.7722 -7.3 0.0
12.3425 -7.3 0.0
13.9128 -7.3 0.0
15.9409 -7.3 0.0
17.9691 -7.3 0.0
20.5885 -7.3 0.0
23.2079 -7.3 0.0
26.5911 -7.3 0.0
29.9742 -7.3 0.0
34.3437 -7.3 0.0
38.7132 -7.3 0.0
44.3566 -7.3 0.0
50 -7.3 0.0
0 -7.85 0.0
0.5 -7.85 0.0
1 -7.85 0.0
1.5 -7.85 0.0
2 -7.85 0.0
2.5 -7.85 0.0
3 -7.85 0.0
3.5 -7.85 0.0
4 -7.85 0.0
4.5 -7.85 0.0
5 -7.85 0.0
6.4577 -7.85 0.0
8.3405 -7.85 0.0
10.7722 -7.85 0.0
13.9128 -7.85 0.0
17.9691 -7.85 0.0
23.2079 -7.85 0.0
29.9742 -7.85 0.0
38.7132 -7.85 0.0
50 -7.85 0.0
0 -8.4 0.0
0.25 -8.4 0.0
0.5 -8.4 0.0
0.75 -8.4 0.0
1 -8.4 0.0
1.25 -8.4 0.0
1.5 -8.4 0.0
1.75 -8.4 0.0
2 -8.4 0.0
2.25 -8.4 0.0
2.5 -8.4 0.0
2.75 -8.4 0.0
3 -8.4 0.0
3.25 -8.4 0.0
3.5 -8.4 0.0
3.75 -8.4 0.0
4 -8.4 0.0
4.25 -8.4 0.0
4.5 -8.4 0.0
4.75 -8.4 0.0
5 -8.4 0.0
5.7289 -8.4 0.0
6.4577 -8.4 0.0
7.3991 -8.4 0.0
8.3405 -8.4 0.0
9.5563 -8.4 0.0
10.7722 -8.4 0.0
12.3425 -8.4 0.0
13.9128 -8.4 0.0
15.9409 -8.4 0.0
17.9691 -8.4 0.0
20.5885 -8.4 0.0
23.2079 -8.4 0.0
26.5911 -8.4 0.0
29.9742 -8.4 0.0
34.3437 -8.4 0.0
38.7132 -8.4 0.0
44.3566 -8.4 0.0
50 -8.4 0.0
0 -8.95 0.0
0.5 -8.95 0.0
1 -8.95 0.0
1.5 -8.95 0.0
2 -8.95 0.0
2.5 -8.95 0.0
3 -8.95 0.0
3.5 -8.95 0.0
4 -8.95 0.0
4.5 -8.95 0.0
5 -8.95 0.0
6.4577 -8.95 0.0
8.3405 -8.95 0.0
10.7722 -8.95 0.0
13.9128 -8.95 0.0
17.9691 -8.95 0.0
23.2079 -8.95 0.0
29.9742 -8.95 0.0
38.7132 -8.95 0.0
50 -8.95 0.0
0 -9.5 0.0
0.25 -9.5 0.0
0.5 -9.5 0.0
0.75 -9.5 0.0
1 -9.5 0.0
1.25 -9.5 0.0
1.5 -9.5 0.0
1.75 -9.5 0.0
2 -9.5 0.0
2.25 -9.5 0.0
2.5 -9.5 0.0
2.75 -9.5 0.0
3 -9.5 0.0
3.25 -9.5 0.0
3.5 -9.5 0.0
3.75 -9.5 0.0
4 -9.5 0.0
4.25 -9.5 0.0
4.5 -9.5 0.0
4.75 -9.5 0.0
5 -9.5 0.0
5.7289 -9.5 0.0
6.4577 -9.5 0.0
7.3991 -9.5 0.0
8.3405 -9.5 0.0
9.5563 -9.5 0.0
10.7722 -9.5 0.0
12.3425 -9.5 0.0
13.9128 -9.5 0.0
15.9409 -9.5 0.0
17.9691 -9.5 0.0
20.5885 -9.5 0.0
23.2079 -9.5 0.0
26.5911 -9.5 0.0
29.9742 -9.5 0.0
34.3437 -9.5 0.0
38.7132 -9.5 0.0
44.3566 -9.5 0.0
50 -9.5 0.0
0 -10.05 0.0
0.5 -10.05 0.0
1 -10.05 0.0
1.5 -10.05 0.0
2 -10.05 0.0
2.5 -10.05 0.0
3 -10.05 0.0
3.5 -10.05 0.0
4 -10.05 0.0
4.5 -10.05 0.0
5 -10.05 0.0
6.4577 -10.05 0.0
8.3405 -10.05 0.0
10.7722 -10.05 0.0
13.9128 -10.05 0.0
17.9691 -10.05 0.0
23.2079 -10.05 0.0
29.9742 -10.05 0.0
38.7132 -10.05 0.0
50 -10.05 0.0
0 -10.6 0.0
0.25 -10.6 0.0
0.5 -10.6 0.0
0.75 -10.6 0.0
1 -10.6 0.0
1.25 -10.6 0.0
1.5 -10.6 0.0
1.75 -10.6 0.0
2 -10.6 0.0
2.25 -10.6 0.0
2.5 -10.6 0.0
2.75 -10.6 0.0
3 -10.6 0.0
3.25 -10.6 0.0
3.5 -10.6 0.0
3.75 -10.6 0.0
4 -10.6 0.0
4.25 -10.6 0.0
4.5 -10.6 0.0
4.75 -10.6 0.0
5 -10.6 0.0
5.7289 -10.6 0.0
6.4577 -10.6 0.0
7.3991 -10.6 0.0
8.3405 -10.6 0.0
9.5563 -10.6 0.0
10.7722 -10.6 0.0
12.3425 -10.6 0.0
13.9128 -10.6 0.0
15.9409 -10.6 0.0
17.9691 -10.6 0.0
20.5885 -10.6 0.0
23.2079 -10.6 0.0
26.5911 -10.6 0.0
29.9742 -10.6 0.0
34.3437 -10.6 0.0
38.7132 -10.6 0.0
44.3566 -10.6 0.0
50 -10.6 0.0
0 -11.15 0.0
0.5 -11.15 0.0
1 -11.15 0.0
1.5 -11.15 0.0
2 -11.15 0.0
2.5 -11.15 0.0
3 -11.15 0.0
3.5 -11.15 0.0
4 -11.15 0.0
4.5 -11.15 0.0
5 -11.15 0.0
6.4577 -11.15 0.0
8.3405 -11.15 0.0
10.7722 -11.15 0.0
13.9128 -11.15 0.0
17.9691 -11.15 0.0
23.2079 -11.15 0.0
29.9742 -11.15 0.0
38.7132 -11.15 0.0
50 -11.15 0.0
0 -11.7 0.0
0.25 -11.7 0.0
0.5 -11.7 0.0
0.75 -11.7 0.0
1 -11.7 0.0
1.25 -11.7 0.0
1.5 -11.7 0.0
1.75 -11.7 0.0
2 -11.7 0.0
2.25 -11.7 0.0
2.5 -11.7 0.0
2.75 -11.7 0.0
3 -11.7 0.0
3.25 -11.7 0.0
3.5 -11.7 0.0
3.75 -11.7 0.0
4 -11.7 0.0
4.25 -11.7 0.0
4.5 -11.7 0.0
4.75 -11.7 0.0
5 -11.7 0.0
5.7289 -11.7 0.0
6.4577 -11.7 0.0
7.3991 -11.7 0.0
8.3405 -11.7 0.0
9.5563 -11.7 0.0
10.7722 -11.7 0.0
12.3425 -11.7 0.0
13.9128 -11.7 0.0
15.9409 -11.7 0.0
17.9691 -11.7 0.0
20.5885 -11.7 0.0
23.2079 -11.7 0.0
26.5911 -11.7 0.0
29.9742 -11.7 0.0
34.3437 -11.7 0.0
38.7132 -11.7 0.0
44.3566 -11.7 0.0
50 -11.7 0.0
0 -12.25 0.0
0.5 -12.25 0.0
1 -12.25 0.0
1.5 -12.25 0.0
2 -12.25 0.0
2.5 -12.25 0.0
3 -12.25 0.0
3.5 -12.25 0.0
4 -12.25 0.0
4.5 -12.25 0.0
5 -12.25 0.0
6.4577 -12.25 0.0
8.3405 -12.25 0.0
10.7722 -12.25 0.0
13.9128 -12.25 0.0
17.9691 -12.25 0.0
23.2079 -12.25 0.0
29.9742 -12.25 0.0
38.7132 -12.25 0.0
50 -12.25 0.0
0 -12.8 0.0
0.25 -12.8 0.0
0.5 -12.8 0.0
0.75 -12.8 0.0
1 -12.8 0.0
1.25 -12.8 0.0
1.5 -12.8 0.0
1.75 -12.8 0.0
2 -12.8 0.0
2.25 -12.8 0.0
2.5 -12.8 0.0
2.75 -12.8 0.0
3 -12.8 0.0
3.25 -12.8 0.0
3.5 -12.8 0.0
3.75 -12.8 0.0
4 -12.8 0.0
4.25 -12.8 0.0
4.5 -12.8 0.0
4.75 -12.8 0.0
5 -12.8 0.0
5.7289 -12.8 0.0
6.4577 -12.8 0.0
7.3991 -12.8 0.0
8.3405 -12.8 0.0
9.5563 -12.8 0.0
10.7722 -12.8 0.0
12.3425 -12.8 0.0
13.9128 -12.8 0.0
15.9409 -12.8 0.0
17.9691 -12.8 0.0
20.5885 -12.8 0.0
23.2079 -12.8 0.0
26.5911 -12.8 0.0
29.9742 -12.8 0.0
34.3437 -12.8 0.0
38.7132 -12.8 0.0
44.3566 -12.8 0.0
50 -12.8 0.0
0 -13.35 0.0
0.5 -13.35 0.0
1 -13.35 0.0
1.5 -13.35 0.0
2 -13.35 0.0
2.5 -13.35 0.0
3 -13.35 0.0
3.5 -13.35 0.0
4 -13.35 0.0
4.5 -13.35 0.0
5 -13.35 0.0
6.4577 -13.35 0.0
8.3405 -13.35 0.0
10.7722 -13.35 0.0
13.9128 -13.35 0.0
17.9691 -13.35 0.0
23.2079 -13.35 0.0
29.9742 -13.35 0.0
38.7132 -13.35 0.0
50 -13.35 0.0
0 -13.9 0.0
0.25 -13.9 0.0
0.5 -13.9 0.0
0.75 -13.9 0.0
1 -13.9 0.0
1.25 -13.9 0.0
1.5 -13.9 0.0
1.75 -13.9 0.0
2 -13.9 0.0
2.25 -13.9 0.0
2.5 -13.9 0.0
2.75 -13.9 0.0
3 -13.9 0.0
3.25 -13.9 0.0
3.5 -13.9 0.0
3.75 -13.9 0.0
4 -13.9 0.0
4.25 -13.9 0.0
4.5 -13.9 0.0
4.75 -13.9 0.0
5 -13.9 0.0
5.7289 -13.9 0.0
6.4577 -13.9 0.0
7.3991 -13.9 0.0
8.3405 -13.9 0.0
9.5563 -13.9 0.0
10.7722 -13.9 0.0
12.3425 -13.9 0.0
13.9128 -13.9 0.0
15.9409 -13.9 0.0
17.9691 -13.9 0.0
20.5885 -13.9 0.0
23.2079 -13.9 0.0
26.5911 -13.9 0.0
29.9742 -13.9 0.0
34.3437 -13.9 0.0
38.7132 -13.9 0.0
44.3566 -13.9 0.0
50 -13.9 0.0
0 -14.45 0.0
0.5 -14.45 0.0
1 -14.45 0.0
1.5 -14.45 0.0
2 -14.45 0.0
2.5 -14.45 0.0
3 -14.45 0.0
3.5 -14.45 0.0
4 -14.45 0.0
4.5 -14.45 0.0
5 -14.45 0.0
6.4577 -14.45 0.0
8.3405 -14.45 0.0
10.7722 -14.45 0.0
13.9128 -14.45 0.0
17.9691 -14.45 0.0
23.2079 -14.45 0.0
29.9742 -14.45 0.0
38.7132 -14.45 0.0
50 -14.45 0.0
0 -15 0.0
0.25 -15 0.0
0.5 -15 0.0
0.75 -15 0.0
1 -15 0.0
1.25 -15 0.0
1.5 -15 0.0
1.75 -15 0.0
2 -15 0.0
2.25 -15 0.0
2.5 -15 0.0
2.75 -15 0.0
3 -15 0.0
3.25 -15 0.0
3.5 -15 0.0
3.75 -15 0.0
4 -15 0.0
4.25 -15 0.0
4.5 -15 0.0
4.75 -15 0.0
5 -15 0.0
5.7289 -15 0.0
6.4577 -15 0.0
7.3991 -15 0.0
8.3405 -15 0.0
9.5563 -15 0.0
10.7722 -15 0.0
12.3425 -15 0.0
13.9128 -15 0.0
15.9409 -15 0.0
17.9691 -15 0.0
20.5885 -15 0.0
23.2079 -15 0.0
26.5911 -15 0.0
29.9742 -15 0.0
34.3437 -15 0.0
38.7132 -15 0.0
44.3566 -15 0.0
50 -15 0.0
0 -19.25 0.0
0.5 -19.25 0.0
1 -19.25 0.0
1.5 -19.25 0.0
2 -19.25 0.0
2.5 -19.25 0.0
3 -19.25 0.0
3.5 -19.25 0.0
4 -19.25 0.0
4.5 -19.25 0.0
5 -19.25 0.0
6.4577 -19.25 0.0
8.3405 -19.25 0.0
10.7722 -19.25 0.0
13.9128 -19.25 0.0
17.9691 -19.25 0.0
23.2079 -19.25 0.0
29.9742 -19.25 0.0
38.7132 -19.25 0.0
50 -19.25 0.0
0 -23.5 0.0
0.25 -23.5 0.0
0.5 -23.5 0.0
0.75 -23.5 0.0
1 -23.5 0.0
1.25 -23.5 0.0
1.5 -23.5 0.0
1.75 -23.5 0.0
2 -23.5 0.0
2.25 -23.5 0.0
2.5 -23.5 0.0
2.75 -23.5 0.0
3 -23.5 0.0
3.25 -23.5 0.0
3.5 -23.5 0.0
3.75 -23.5 0.0
4 -23.5 0.0
4.25 -23.5 0.0
4.5 -23.5 0.0
4.75 -23.5 0.0
5 -23.5 0.0
5.7289 -23.5 0.0
6.4577 -23.5 0.0
7.3991 -23.5 0.0
8.3405 -23.5 0.0
9.5563 -23.5 0.0
10.7722 -23.5 0.0
12.3425 -23.5 0.0
13.9128 -23.5 0.0
15.9409 -23.5 0.0
17.9691 -23.5 0.0
20.5885 -23.5 0.0
23.2079 -23.5 0.0
26.5911 -23.5 0.0
29.9742 -23.5 0.0
34.3437 -23.5 0.0
38.7132 -23.5 0.0
44.3566 -23.5 0.0
50 -23.5 0.0
0 -27.75 0.0
0.5 -27.75 0.0
1 -27.75 0.0
1.5 -27.75 0.0
2 -27.75 0.0
2.5 -27.75 0.0
3 -27.75 0.0
3.5 -27.75 0.0
4 -27.75 0.0
4.5 -27.75 0.0
5 -27.75 0.0
6.4577 -27.75 0.0
8.3405 -27.75 0.0
10.7722 -27.75 0.0
13.9128 -27.75 0.0
17.9691 -27.75 0.0
23.2079 -27.75 0.0
29.9742 -27.75 0.0
38.7132 -27.75 0.0
50 -27.75 0.0
0 -32 0.0
0.25 -32 0.0
0.5 -32 0.0
0.75 -32 0.0
1 -32 0.0
1.25 -32 0.0
1.5 -32 0.0
1.75 -32 0.0
2 -32 0.0
2.25 -32 0.0
2.5 -32 0.0
2.75 -32 0.0
3 -32 0.0
3.25 -32 0.0
3.5 -32 0.0
3.75 -32 0.0
4 -32 0.0
4.25 -32 0.0
4.5 -32 0.0
4.75 -32 0.0
5 -32 0.0
5.7289 -32 0.0
6.4577 -32 0.0
7.3991 -32 0.0
8.3405 -32 0.0
9.5563 -32 0.0
10.7722 -32 0.0
12.3425 -32 0.0
13.9128 -32 0.0
15.9409 -32 0.0
17.9691 -32 0.0
20.5885 -32 0.0
23.2079 -32 0.0
26.5911 -32 0.0
29.9742 -32 0.0
34.3437 -32 0.0
38.7132 -32 0.0
44.3566 -32 0.0
50 -32 0.0
0 -36.25 0.0
0.5 -36.25 0.0
1 -36.25 0.0
1.5 -36.25 0.0
2 -36.25 0.0
2.5 -36.25 0.0
3 -36.25 0.0
3.5 -36.25 0.0
4 -36.25 0.0
4.5 -36.25 0.0
5 -36.25 0.0
6.4577 -36.25 0.0
8.3405 -36.25 0.0
10.7722 -36.25 0.0
13.9128 -36.25 0.0
17.9691 -36.25 0.0
23.2079 -36.25 0.0
29.9742 -36.25 0.0
38.7132 -36.25 0.0
50 -36.25 0.0
0 -40.5 0.0
0.25 -40.5 0.0
0.5 -40.5 0.0
0.75 -40.5 0.0
1 -40.5 0.0
1.25 -40.5 0.0
1.5 -40.5 0.0
1.75 -40.5 0.0
2 -40.5 0.0
2.25 -40.5 0.0
2.5 -40.5 0.0
2.75 -40.5 0.0
3 -40.5 0.0
3.25 -40.5 0.0
3.5 -40.5 0.0
3.75 -40.5 0.0
4 -40.5 0.0
4.25 -40.5 0.0
4.5 -40.5 0.0
4.75 -40.5 0.0
5 -40.5 0.0
5.7289 -40.5 0.0
6.4577 -40.5 0.0
7.3991 -40.5 0.0
8.3405 -40.5 0.0
9.5563 -40.5 0.0
10.7722 -40.5 0.0
12.3425 -40.5 0.0
13.9128 -40.5 0.0
15.9409 -40.5 0.0
17.9691 -40.5 0.0
20.5885 -40.5 0.0
23.2079 -40.5 0.0
26.5911 -40.5 0.0
29.9742 -40.5 0.0
34.3437 -40.5 0.0
38.7132 -40.5 0.0
44.3566 -40.5 0.0
50 -40.5 0.0
0 -44.75 0.0
0.5 -44.75 0.0
1 -44.75 0.0
1.5 -44.75 0.0
2 -44.75 0.0
2.5 -44.75 0.0
3 -44.75 0.0
3.5 -44.75 0.0
4 -44.75 0.0
4.5 -44.75 0.0
5 -44.75 0.0
6.4577 -44.75 0.0
8.3405 -44.75 0.0
10.7722 -44.75 0.0
13.9128 -44.75 0.0
17.9691 -44.75 0.0
23.2079 -44.75 0.0
29.9742 -44.75 0.0
38.7132 -44.75 0.0
50 -44.75 0.0
0 -49 0.0
0.25 -49 0.0
0.5 -49 0.0
0.75 -49 0.0
1 -49 0.0
1.25 -49 0.0
1.5 -49 0.0
1.75 -49 0.0
2 -49 0.0
2.25 -49 0.0
2.5 -49 0.0
2.75 -49 0.0
3 -49 0.0
3.25 -49 0.0
3.5 -49 0.0
3.75 -49 0.0
4 -49 0.0
4.25 -49 0.0
4.5 -49 0.0
4.75 -49 0.0
5 -49 0.0
5.7289 -49 0.0
6.4577 -49 0.0
7.3991 -49 0.0
8.3405 -49 0.0
9.5563 -49 0.0
10.7722 -49 0.0
12.3425 -49 0.0
13.9128 -49 0.0
15.9409 -49 0.0
17.9691 -49 0.0
20.5885 -49 0.0
23.2079 -49 0.0
26.5911 -49 0.0
29.9742 -49 0.0
34.3437 -49 0.0
38.7132 -49 0.0
44.3566 -49 0.0
50 -49 0.0
0 -53.25 0.0
0.5 -53.25 0.0
1 -53.25 0.0
1.5 -53.25 0.0
2 -53.25 0.0
2.5 -53.25 0.0
3 -53.25 0.0
3.5 -53.25 0.0
4 -53.25 0.0
4.5 -53.25 0.0
5 -53.25 0.0
6.4577 -53.25 0.0
8.3405 -53.25 0.0
10.7722 -53.25 0.0
13.9128 -53.25 0.0
17.9691 -53.25 0.0
23.2079 -53.25 0.0
29.9742 -53.25 0.0
38.7132 -53.25 0.0
50 -53.25 0.0
0 -57.5 0.0
0.25 -57.5 0.0
0.5 -57.5 0.0
0.75 -57.5 0.0
1 -57.5 0.0
1.25 -57.5 0.0
1.5 -57.5 0.0
1.75 -57.5 0.0
2 -57.5 0.0
2.25 -57.5 0.0
2.5 -57.5 0.0
2.75 -57.5 0.0
3 -57.5 0.0
3.25 -57.5 0.0
3.5 -57.5 0.0
3.75 -57.5 0.0
4 -57.5 0.0
4.25 -57.5 0.0
4.5 -57.5 0.0
4.75 -57.5 0.0
5 -57.5 0.0
5.7289 -57.5 0.0
6.4577 -57.5 0.0
7.3991 -57.5 0.0
8.3405 -57.5 0.0
9.5563 -57.5 0.0
10.7722 -57.5 0.0
12.3425 -57.5 0.0
13.9128 -57.5 0.0
15.9409 -57.5 0.0
17.9691 -57.5 0.0
20.5885 -57.5 0.0
23.2079 -57.5 0.0
26.5911 -57.5 0.0
29.9742 -57.5 0.0
34.3437 -57.5 0.0
38.7132 -57.5 0.0
44.3566 -57.5 0.0
50 -57.5 0.0
0 -61.75 0.0
0.5 -61.75 0.0
1 -61.75 0.0
1.5 -61.75 0.0
2 -61.75 0.0
2.5 -61.75 0.0
3 -61.75 0.0
3.5 -61.75 0.0
4 -61.75 0.0
4.5 -61.75 0.0
5 -61.75 0.0
6.4577 -61.75 0.0
8.3405 -61.75 0.0
10.7722 -61.75 0.0
13.9128 -61.75 0.0
17.9691 -61.75 0.0
23.2079 -61.75 0.0
29.9742 -61.75 0.0
38.7132 -61.75 0.0
50 -61.75 0.0
0 -66 0.0
0.25 -66 0.0
0.5 -66 0.0
0.75 -66 0.0
1 -66 0.0
1.25 -66 0.0
1.5 -66 0.0
1.75 -66 0.0
2 -66 0.0
2.25 -66 0.0
2.5 -66 0.0
2.75 -66 0.0
3 -66 0.0
3.25 -66 0.0
3.5 -66 0.0
3.75 -66 0.0
4 -66 0.0
4.25 -66 0.0
4.5 -66 0.0
4.75 -66 0.0
5 -66 0.0
5.7289 -66 0.0
6.4577 -66 0.0
7.3991 -66 0.0
8.3405 -66 0.0
9.5563 -66 0.0
10.7722 -66 0.0
12.3425 -66 0.0
13.9128 -66 0.0
15.9409 -66 0.0
17.9691 -66 0.0
20.5885 -66 0.0
23.2079 -66 0.0
26.5911 -66 0.0
29.9742 -66 0.0
34.3437 -66 0.0
38.7132 -66 0.0
44.3566 -66 0.0
50 -66 0.0
0 -70.25 0.0
0.5 -70.25 0.0
1 -70.25 0.0
1.5 -70.25 0.0
2 -70.25 0.0
2.5 -70.25 0.0
3 -70.25 0.0
3.5 -70.25 0.0
4 -70.25 0.0
4.5 -70.25 0.0
5 -70.25 0.0
6.4577 -70.25 0.0
8.3405 -70.25 0.0
10.7722 -70.25 0.0
13.9128 -70.25 0.0
17.9691 -70.25 0.0
23.2079 -70.25 0.0
29.9742 -70.25 0.0
38.7132 -70.25 0.0
50 -70.25 0.0
0 -74.5 0.0
0.25 -74.5 0.0
0.5 -74.5 0.0
0.75 -74.5 0.0
1 -74.5 0.0
1.25 -74.5 0.0
1.5 -74.5 0.0
1.75 -74.5 0.0
2 -74.5 0.0
2.25 -74.5 0.0
2.5 -74.5 0.0
2.75 -74.5 0.0
3 -74.5 0.0
3.25 -74.5 0.0
3.5 -74.5 0.0
3.75 -74.5 0.0
4 -74.5 0.0
4.25 -74.5 0.0
4.5 -74.5 0.0
4.75 -74.5 0.0
5 -74.5 0.0
5.7289 -74.5 0.0
6.4577 -74.5 0.0
7.3991 -74.5 0.0
8.3405 -74.5 0.0
9.5563 -74.5 0.0
10.7722 -74.5 0.0
12.3425 -74.5 0.0
13.9128 -74.5 0.0
15.9409 -74.5 0.0
17.9691 -74.5 0.0
20.5885 -74.5 0.0
23.2079 -74.5 0.0
26.5911 -74.5 0.0
29.9742 -74.5 0.0
34.3437 -74.5 0.0
38.7132 -74.5 0.0
44.3566 -74.5 0.0
50 -74.5 0.0
0 -78.75 0.0
0.5 -78.75 0.0
1 -78.75 0.0
1.5 -78.75 0.0
2 -78.75 0.0
2.5 -78.75 0.0
3 -78.75 0.0
3.5 -78.75 0.0
4 -78.75 0.0
4.5 -78.75 0.0
5 -78.75 0.0
6.4577 -78.75 0.0
8.3405 -78.75 0.0
10.7722 -78.75 0.0
13.9128 -78.75 0.0
17.9691 -78.75 0.0
23.2079 -78.75 0.0
29.9742 -78.75 0.0
38.7132 -78.75 0.0
50 -78.75 0.0
0 -83 0.0
0.25 -83 0.0
0.5 -83 0.0
0.75 -83 0.0
1 -83 0.0
1.25 -83 0.0
1.5 -83 0.0
1.75 -83 0.0
2 -83 0.0
2.25 -83 0.0
2.5 -83 0.0
2.75 -83 0.0
3 -83 0.0
3.25 -83 0.0
3.5 -83 0.0
3.75 -83 0.0
4 -83 0.0
4.25 -83 0.0
4.5 -83 0.0
4.75 -83 0.0
5 -83 0.0
5.7289 -83 0.0
6.4577 -83 0.0
7.3991 -83 0.0
8.3405 -83 0.0
9.5563 -83 0.0
10.7722 -83 0.0
12.3425 -83 0.0
13.9128 -83 0.0
15.9409 -83 0.0
17.9691 -83 0.0
20.5885 -83 0.0
23.2079 -83 0.0
26.5911 -83 0.0
29.9742 -83 0.0
34.3437 -83 0.0
38.7132 -83 0.0
44.3566 -83 0.0
50 -83 0.0
0 -87.25 0.0
0.5 -87.25 0.0
1 -87.25 0.0
1.5 -87.25 0.0
2 -87.25 0.0
2.5 -87.25 0.0
3 -87.25 0.0
3.5 -87.25 0.0
4 -87.25 0.0
4.5 -87.25 0.0
5 -87.25 0.0
6.4577 -87.25 0.0
8.3405 -87.25 0.0
10.7722 -87.25 0.0
13.9128 -87.25 0.0
17.9691 -87.25 0.0
23.2079 -87.25 0.0
29.9742 -87.25 0.0
38.7132 -87.25 0.0
50 -87.25 0.0
0 -91.5 0.0
0.25 -91.5 0.0
0.5 -91.5 0.0
0.75 -91.5 0.0
1 -91.5 0.0
1.25 -91.5 0.0
1.5 -91.5 0.0
1.75 -91.5 0.0
2 -91.5 0.0
2.25 -91.5 0.0
2.5 -91.5 0.0
2.75 -91.5 0.0
3 -91.5 0.0
3.25 -91.5 0.0
3.5 -91.5 0.0
3.75 -91.5 0.0
4 -91.5 0.0
4.25 -91.5 0.0
4.5 -91.5 0.0
4.75 -91.5 0.0
5 -91.5 0.0
5.7289 -91.5 0.0
6.4577 -91.5 0.0
7.3991 -91.5 0.0
8.3405 -91.5 0.0
9.5563 -91.5 0.0
10.7722 -91.5 0.0
12.3425 -91.5 0.0
13.9128 -91.5 0.0
15.9409 -91.5 0.0
17.9691 -91.5 0.0
20.5885 -91.5 0.0
23.2079 -91.5 0.0
26.5911 -91.5 0.0
29.9742 -91.5 0.0
34.3437 -91.5 0.0
38.7132 -91.5 0.0
44.3566 -91.5 0.0
50 -91.5 0.0
0 -95.75 0.0
0.5 -95.75 0.0
1 -95.75 0.0
1.5 -95.75 0.0
2 -95.75 0.0
2.5 -95.75 0.0
3 -95.75 0.0
3.5 -95.75 0.0
4 -95.75 0.0
4.5 -95.75 0.0
5 -95.75 0.0
6.4577 -95.75 0.0
8.3405 -95.75 0.0
10.7722 -95.75 0.0
13.9128 -95.75 0.0
17.9691 -95.75 0.0
23.2079 -95.75 0.0
29.9742 -95.75 0.0
38.7132 -95.75 0.0
50 -95.75 0.0
0 -100 0.0
0.25 -100 0.0
0.5 -100 0.0
0.75 -100 0.0
1 -100 0.0
1.25 -100 0.0
1.5 -100 0.0
1.75 -100 0.0
2 -100 0.0
2.25 -100 0.0
2.5 -100 0.0
2.75 -100 0.0
3 -100 0.0
3.25 -100 0.0
3.5 -100 0.0
3.75 -100 0.0
4 -100 0.0
4.25 -100 0.0
4.5 -100 0.0
4.75 -100 0.0
5 -100 0.0
5.7289 -100 0.0
6.4577 -100 0.0
7.3991 -100 0.0
8.3405 -100 0.0
9.5563 -100 0.0
10.7722 -100 0.0
12.3425 -100 0.0
13.9128 -100 0.0
15.9409 -100 0.0
17.9691 -100 0.0
20.5885 -100 0.0
23.2079 -100 0.0
26.5911 -100 0.0
29.9742 -100 0.0
34.3437 -100 0.0
38.7132 -100 0.0
44.3566 -100 0.0
50 -100 0.0

CELLS 570 5130
8 59 61  2  0 60 40  1 39
8 61 63  4  2 62 41  3 40
8 63 65  6  4 64 42  5 41
8 65 67  8  6 66 43  7 42
8 67 69 10  8 68 44  9 43
8 69 71 12 10 70 45 11 44
8 71 73 14 12 72 46 13 45
8 73 75 16 14 74 47 15 46
8 75 77 18 16 76 48 17 47
8 77 79 20 18 78 49 19 48
8 79 81 22 20 80 50 21 49
8 81 83 24 22 82 51 23 50
8 83 85 26 24 84 52 25 51
8 85 87 28 26 86 53 27 52
8 87 89 30 28 88 54 29 53
8 89 91 32 30 90 55 31 54
8 91 93 34 32 92 56 33 55
8 93 95 36 34 94 57 35 56
8 95 97 38 36 96 58 37 57
8 118 120  61  59 119  99  60  98
8 120 122  63  61 121 100  62  99
8 122 124  65  63 123 101  64 100
8 124 126  67  65 125 102  66 101
8 126 128  69  67 127 103  68 102
8 128 130  71  69 129 104  70 103
8 130 132  73  71 131 105  72 104
8 132 134  75  73 133 106  74 105
8 134 136  77  75 135 107  76 106
8 136 138  79  77 137 108  78 107
8 138 140  81  79 139 109  80 108
8 140 142  83  81 141 110  82 109
8 142 144  85  83 143 111  84 110
8 144 146  87  85 145 112  86 111
8 146 148  89  87 147 113  88 112
8 148 150  91  89 149 114  90 113
8 150 152  93  91 151 115  92 114
8 152 154  95  93 153 116  94 115
8 154 156  97  95 155 117  96 116
8 177 179 120 118 178 158 119 157
8 179 181 122 120 180 159 121 158
8 181 183 124 122 182 160 123 159
8 183 185 126 124 184 161 125 160
8 185 187 128 126 186 162 127 161
8 187 189 130 128 188 163 129 162
8 189 191 132 130 190 164 131 163
8 191 193 134 132 192 165 133 164
8 193 195 136 134 194 166 135 165
8 195 197 138 136 196 167 137 166
8 197 199 140 138 198 168 139 167
8 199 201 142 140 200 169 141 168
8 201 203 144 142 202 170 143 169
8 203 205 146 144 204 171 145 170
8 205 207 148 146 206 172 147 171
8 207 209 150 148 208 173 149 172
8 209 211 152 150 210 174 151 173
8 211 213 154 152 212 175 153 174
8 213 215 156 154 214 176 155 175
8 236 238 179 177 237 217 178 216
8 238 240 181 179 239 218 180 217
8 240 242 183 181 241 219 182 218
8 242 244 185 183 243 220 184 219
8 244 246 187 185 245 221 186 220
8 246 248 189 187 247 222 188 221
8 248 250 191 189 249 223 190 222
8 250 252 193 191 251 224 192 223
8 252 254 195 193 253 225 194 224
8 254 256 197 195 255 226 196 225
8 256 258 199 197 257 227 198 226
8 258 260 201 199 259 228 200 227
8 260 262 203 201 261 229 202 228
8 262 264 205 203 263 230 204 229
8 264 266 207 205 265 231 206 230
8 266 268 209 207 267 232 208 231
8 268 270 211 209 269 233 210 232
8 270 272 213 211 271 234 212 233
8 272 274 215 213 273 235 214 234
8 295 297 238 236 296 276 237 275
8 297 299 240 238 298 277 239 276
8 299 301 242 240 300 278 241 277
8 301 303 244 242 302 279 243 278
8 303 305 246 244 304 280 245 279
8 305 307 248 246 306 281 247 280
8 307 309 250 248 308 282 249 281
8 309 311 252 250 310 283 251 282
8 311 313 254 252 312 284 253 283
8 313 315 256 254 314 285 255 284
8 315 317 258 256 316 286 257 285
8 317 319 260 258 318 287 259 286
8 319 321 262 260 320 288 261 287
8 321 323 264 262 322 289 263 288
8 323 325 266 264 324 290 265 289
8 325 327 268 266 326 291 267 290
8 327 329 270 268 328 292 269 291
8 329 331 272 270 330 293 271 292
8 331 333 274 272 332 294 273 293
8 354 356 297 295 355 335 296 334
8 356 358 299 297 357 336 298 335
8 358 360 301 299 359 337 300 336
8 360 362 303 301 361 338 302 337
8 362 364 305 303 363 339 304 338
8 364 366 307 305 365 340 306 339
8 366 368 309 307 367 341 308 340
8 368 370 311 309 369 342 310 341
8 370 372 313 311 371 343 312 342
8 372 374 315 313 373 344 314 343
8 374 376 317 315 375 345 316 344
8 376 378 319 317 377 346 318 345
8 378 380 321 319 379 347 320 346
8 380 382 323 321 381 348 322 347
8 382 384 325 323 383 349 324 348
8 384 386 327 325 385 350 326 349
8 386 388 329 327 387 351 328 350
8 388 390 331 329 389 352 330 351
8 390 392 333 331 391 353 332 352
8 413 415 356 354 414 394 355 393
8 415 417 358 356 416 395 357 394
8 417 419 360 358 418 396 359 395
8 419 421 362 360 420 397 361 396
8 421 423 364 362 422 398 363 397
8 423 425 366 364 424 399 365 398
8 425 427 368 366 426 400 367 399
8 427 429 370 368 428 401 369 400
8 429 431 372 370 430 402 371 401
8 431 433 374 372 432 403 373 402
8 433 435 376 374 434 404 375 403
8 435 437 378 376 436 405 377 404
8 437 439 380 378 438 406 379 405
8 439 441 382 380 440 407 381 406
8 441 443 384 382 442 408 383 407
8 443 445 386 384 444 409 385 408
8 445 447 388 386 446 410 387 409
8 447 449 390 388 448 411 389 410
8 449 451 392 390 450 412 391 411
8 472 474 415 413 473 453 414 452
8 474 476 417 415 475 454 416 453
8 476 478 419 417 477 455 418 454
8 478 480 421 419 479 456 420 455
8 480 482 423 421 481 457 422 456
8 482 484 425 423 483 458 424 457
8 484 486 427 425 485 459 426 458
8 486 488 429 427 487 460 428 459
8 488 490 431 429 489 461 430 460
8 490 492 433 431 491 462 432 461
8 492 494 435 433 493 463 434 462
8 494 496 437 435 495 464 436 463
8 496 498 439 437 497 465 438 464
8 498 500 441 439 499 466 440 465
8 500 502 443 441 501 467 442 466
8 502 504 445 443 503 468 444 467
8 504 506 447 445 505 469 446 468
8 506 508 449 447 507 470 448 469
8 508 510 451 449 509 471 450 470
8 531 533 474 472 532 512 473 511
8 533 535 476 474 534 513 475 512
8 535 537 478 476 536 514 477 513
8 537 539 480 478 538 515 479 514
8 539 541 482 480 540 516 481 515
8 541 543 484 482 542 517 483 516
8 543 545 486 484 544 518 485 517
8 545 547 488 486 546 519 487 518
8 547 549 490 488 548 520 489 519
8 549 551 492 490 550 521 491 520
8 551 553 494 492 552 522 493 521
8 553 555 496 494 554 523 495 522
8 555 557 498 496 556 524 497 523
8 557 559 500 498 558 525 499 524
8 559 561 502 500 560 526 501 525
8 561 563 504 502 562 527 503 526
8 563 565 506 504 564 528 505 527
8 565 567 508 506 566 529 507 528
8 567 569 510 508 568 530 509 529
8 590 592 533 531 591 571 532 570
8 592 594 535 533 593 572 534 571
8 594 596 537 535 595 573 536 572
8 596 598 539 537 597 574 538 573
8 598 600 541 539 599 575 540 574
8 600 602 543 541 601 576 542 575
8 602 604 545 543 603 577 544 576
8 604 606 547 545 605 578 546 577
8 606 608 549 547 607 579 548 578
8 608 610 551 549 609 580 550 579
8 610 612 553 551 611 581 552 580
8 612 614 555 553 613 582 554 581
8 614 616 557 555 615 583 556 582
8 616 618 559 557 617 584 558 583
8 618 620 561 559 619 585 560 584
8 620 622 563 561 621 586 562 585
8 622 624 565 563 623 587 564 586
8 624 626 567 565 625 588 566 587
8 626 628 569 567 627 589 568 588
8 649 651 592 590 650 630 591 629
8 651 653 594 592 652 631 593 630
8 653 655 596 594 654 632 595 631
8 655 657 598 596 656 633 597 632
8 657 659 600 598 658 634 599 633
8 659 661 602 600 660 635 601 634
8 661 663 604 602 662 636 603 635
8 663 665 606 604 664 637 605 636
8 665 667 608 606 666 638 607 637
8 667 669 610 608 668 639 609 638
8 669 671 612 610 670 640 611 639
8 671 673 614 612 672 641 613 640
8 673 675 616 614 674 642 615 641
8 675 677 618 616 676 643 617 642
8 677 679 620 618 678 644 619 643
8 679 681 622 620 680 645 621 644
8 681 683 624 622 682 646 623 645
8 683 685 626 624 684 647 625 646
8 685 687 628 626 686 648 627 647
8 708 710 651 649 709 689 650 688
8 710 712 653 651 711 690 652 689
8 712 714 655 653 713 691 654 690
8 714 716 657 655 715 692 656 691
8 716 718 659 657 717 693 658 692
8 718 720 661 659 719 694 660 693
8 720 722 663 661 721 695 662 694
8 722 724 665 663 723 696 664 695
8 724 726 667 665 725 697 666 696
8 726 728 669 667 727 698 668 697
8 728 730 671 669 729 699 670 698
8 730 732 673 671 731 700 672 699
8 732 734 675 673 733 701 674 700
8 734 736 677 675 735 702 676 701
8 736 738 679 677 737 703 678 702
8 738 740 681 679 739 704 680 703
8 740 742 683 681 741 705 682 704
8 742 744 685 683 743 706 684 705
8 744 746 687 685 745 707 686 706
8 767 769 710 708 768 748 709 747
8 769 771 712 710 770 749 711 748
8 771 773 714 712 772 750 713 749
8 773 775 716 714 774 751 715 750
8 775 777 718 716 776 752 717 751
8 777 779 720 718 778 753 719 752
8 779 781 722 720 780 754 721 753
8 781 783 724 722 782 755 723 754
8 783 785 726 724 784 756 725 755
8 785 787 728 726 786 757 727 756
8 787 789 730 728 788 758 729 757
8 789 791 732 730 790 759 731 758
8 791 793 734 732 792 760 733 759
8 793 795 736 734 794 761 735 760
8 795 797 738 736 796 762 737 761
8 797 799 740 738 798 763 739 762
8 799 801 742 740 800 764 741 763
8 801 803 744 742 802 765 743 764
8 803 805 746 744 804 766 745 765
8 826 828 769 767 827 807 768 806
8 828 830 771 769 829 808 770 807
8 830 832 773 771 831 809 772 808
8 832 834 775 773 833 810 774 809
8 834 836 777 775 835 811 776 810
8 836 838 779 777 837 812 778 811
8 838 840 781 779 839 813 780 812
8 840 842 783 781 841 814 782 813
8 842 844 785 783 843 815 784 814
8 844 846 787 785 845 816 786 815
8 846 848 789 787 847 817 788 816
8 848 850 791 789 849 818 790 817
8 850 852 793 791 851 819 792 818
8 852 854 795 793 853 820 794 819
8 854 856 797 795 855 821 796 820
8 856 858 799 797 857 822 798 821
8 858 860 801 799 859 823 800 822
8 860 862 803 801 861 824 802 823
8 862 864 805 803 863 825 804 824
8 885 887 828 826 886 866 827 865
8 887 889 830 828 888 867 829 866
8 889 891 832 830 890 868 831 867
8 891 893 834 832 892 869 833 868
8 893 895 836 834 894 870 835 869
8 895 897 838 836 896 871 837 870
8 897 899 840 838 898 872 839 871
8 899 901 842 840 900 873 841 872
8 901 903 844 842 902 874 843 873
8 903 905 846 844 904 875 845 874
8 905 907 848 846 906 876 847 875
8 907 909 850 848 908 877 849 876
8 909 911 852 850 910 878 851 877
8 911 913 854 852 912 879 853 878
8 913 915 856 854 914 880 855 879
8 915 917 858 856 916 881 857 880
8 917 919 860 858 918 882 859 881
8 919 921 862 860 920 883 861 882
8 921 923 864 862 922 884 863 883
8 944 946 887 885 945 925 886 924
8 946 948 889 887 947 926 888 925
8 948 950 891 889 949 927 890 926
8 950 952 893 891 951 928 892 927
8 952 954 895 893 953 929 894 928
8 954 956 897 895 955 930 896 929
8 956 958 899 897 957 931 898 930
8 958 960 901 899 959 932 900 931
8 960 962 903 901 961 933 902 932
8 962 964 905 903 963 934 904 933
8 964 966 907 905 965 935 906 934
8 966 968 909 907 967 936 908 935
8 968 970 911 909 969 937 910 936
8 970 972 913 911 971 938 912 937
8 972 974 915 913 973 939 914 938
8 974 976 917 915 975 940 916 939
8 976 978 919 917 977 941 918 940
8 978 980 921 919 979 942 920 941
8 980 982 923 921 981 943 922 942
8 1003 1005  946  944 1004  984  945  983
8 1005 1007  948  946 1006  985  947  984
8 1007 1009  950  948 1008  986  949  985
8 1009 1011  952  950 1010  987  951  986
8 1011 1013  954  952 1012  988  953  987
8 1013 1015  956  954 1014  989  955  988
8 1015 1017  958  956 1016  990  957  989
8 1017 1019  960  958 1018  991  959  990
8 1019 1021  962  960 1020  992  961  991
8 1021 1023  964  962 1022  993  963  992
8 1023 1025  966  964 1024  994  965  993
8 1025 1027  968  966 1026  995  967  994
8 1027 1029  970  968 1028  996  969  995
8 1029 1031  972  970 1030  997  971  996
8 1031 1033  974  972 1032  998  973  997
8 1033 1035  976  974 1034  999  975  998
8 1035 1037  978  976 1036 1000  977  999
8 1037 1039  980  978 1038 1001  979 1000
8 1039 1041  982  980 1040 1002  981 1001
8 1062 1064 1005 1003 1063 1043 1004 1042
8 1064 1066 1007 1005 1065 1044 1006 1043
8 1066 1068 1009 1007 1067 1045 1008 1044
8 1068 1070 1011 1009 1069 1046 1010 1045
8 1070 1072 1013 1011 1071 1047 1012 1046
8 1072 1074 1015 1013 1073 1048 1014 1047
8 1074 1076 1017 1015 1075 1049 1016 1048
8 1076 1078 1019 1017 1077 1050 1018 1049
8 1078 1080 1021 1019 1079 1051 1020 1050
8 1080 1082 1023 1021 1081 1052 1022 1051
8 1082 1084 1025 1023 1083 1053 1024 1052
8 1084 1086 1027 1025 1085 1054 1026 1053
8 1086 1088 1029 1027 1087 1055 1028 1054
8 1088 1090 1031 1029 1089 1056 1030 1055
8 1090 1092 1033 1031 1091 1057 1032 1056
8 1092 1094 1035 1033 1093 1058 1034 1057
8 1094 1096 1037 1035 1095 1059 1036 1058
8 1096 1098 1039 1037 1097 1060 1038 1059
8 1098 1100 1041 1039 1099 1061 1040 1060
8 1121 1123 1064 1062 1122 1102 1063 1101
8 1123 1125 1066 1064 1124 1103 1065 1102
8 1125 1127 1068 1066 1126 1104 1067 1103
8 1127 1129 1070 1068 1128 1105 1069 1104
8 1129 1131 1072 1070 1130 1106 1071 1105
8 1131 1133 1074 1072 1132 1107 1073 1106
8 1133 1135 1076 1074 1134 1108 1075 1107
8 1135 1137 1078 1076 1136 1109 1077 1108
8 1137 1139 1080 1078 1138 1110 1079 1109
8 1139 1141 1082 1080 1140 1111 1081 1110
8 1141 1143 1084 1082 1142 1112 1083 1111
8 1143 1145 1086 1084 1144 1113 1085 1112
8 1145 1147 1088 1086 1146 1114 1087 1113
8 1147 1149 1090 1088 1148 1115 1089 1114
8 1149 1151 1092 1090 1150 1116 1091 1115
8 1151 1153 1094 1092 1152 1117 1093 1116
8 1153 1155 1096 1094 1154 1118 1095 1117
8 1155 1157 1098 1096 1156 1119 1097 1118
8 1157 1159 1100 1098 1158 1120 1099 1119
8 1180 1182 1123 1121 1181 1161 1122 1160
8 1182 1184 1125 1123 1183 1162 1124 1161
8 1184 1186 1127 1125 1185 1163 1126 1162
8 1186 1188 1129 1127 1187 1164 1128 1163
8 1188 1190 1131 1129 1189 1165 1130 1164
8 1190 1192 1133 1131 1191 1166 1132 1165
8 1192 1194 1135 1133 1193 1167 1134 1166
8 1194 1196 1137 1135 1195 1168 1136 1167
8 1196 1198 1139 1137 1197 1169 1138 1168
8 1198 1200 1141 1139 1199 1170 1140 1169
8 1200 1202 1143 1141 1201 1171 1142 1170
8 1202 1204 1145 1143 1203 1172 1144 1171
8 1204 1206 1147 1145 1205 1173 1146 1172
8 1206 1208 1149 1147 1207 1174 1148 1173
8 1208 1210 1151 1149 1209 1175 1150 1174
8 1210 1212 1153 1151 1211 1176 1152 1175
8 1212 1214 1155 1153 1213 1177 1154 1176
8 1214 1216 1157 1155 1215 1178 1156 1177
8 1216 1218 1159 1157 1217 1179 1158 1178
8 1239 1241 1182 1180 1240 1220 1181 1219
8 1241 1243 1184 1182 1242 1221 1183 1220
8 1243 1245 1186 1184 1244 1222 1185 1221
8 1245 1247 1188 1186 1246 1223 1187 1222
8 1247 1249 1190 1188 1248 1224 1189 1223
8 1249 1251 1192 1190 1250 1225 1191 1224
8 1251 1253 1194 1192 1252 1226 1193 1225
8 1253 1255 1196 1194 1254 1227 1195 1226
8 1255 1257 1198 1196 1256 1228 1197 1227
8 1257 1259 1200 1198 1258 1229 1199 1228
8 1259 1261 1202 1200 1260 1230 1201 1229
8 1261 1263 1204 1202 1262 1231 1203 1230
8 1263 1265 1206 1204 1264 1232 1205 1231
8 1265 1267 1208 1206 1266 1233 1207 1232
8 1267 1269 1210 1208 1268 1234 1209 1233
8 1269 1271 1212 1210 1270 1235 1211 1234
8 1271 1273 1214 1212 1272 1236 1213 1235
8 1273 1275 1216 1214 1274 1237 1215 1236
8 1275 1277 1218 1216 1276 1238 1217 1237
8 1298 1300 1241 1239 1299 1279 1240 1278
8 1300 1302 1243 1241 1301 1280 1242 1279
8 1302 1304 1245 1243 1303 1281 1244 1280
8 1304 1306 1247 1245 1305 1282 1246 1281
8 1306 1308 1249 1247 1307 1283 1248 1282
8 1308 1310 1251 1249 1309 1284 1250 1283
8 1310 1312 1253 1251 1311 1285 1252 1284
8 1312 1314 1255 1253 1313 1286 1254 1285
8 1314 1316 1257 1255 1315 1287 1256 1286
8 1316 1318 1259 1257 1317 1288 1258 1287
8 1318 1320 1261 1259 1319 1289 1260 1288
8 1320 1322 1263 1261 1321 1290 1262 1289
8 1322 1324 1265 1263 1323 1291 1264 1290
8 1324 1326 1267 1265 1325 1292 1266 1291
8 1326 1328 1269 1267 1327 1293 1268 1292
8 1328 1330 1271 1269 1329 1294 1270 1293
8 1330 1332 1273 1271 1331 1295 1272 1294
8 1332 1334 1275 1273 1333 1296 1274 1295
8 1334 1336 1277 1275 1335 1297 1276 1296
8 1357 1359 1300 1298 1358 1338 1299 1337
8 1359 1361 1302 1300 1360 1339 1301 1338
8 1361 1363 1304 1302 1362 1340 1303 1339
8 1363 1365 1306 1304 1364 1341 1305 1340
8 1365 1367 1308 1306 1366 1342 1307 1341
8 1367 1369 1310 1308 1368 1343 1309 1342
8 1369 1371 1312 1310 1370 1344 1311 1343
8 1371 1373 1314 1312 1372 1345 1313 1344
8 1373 1375 1316 1314 1374 1346 1315 1345
8 1375 1377 1318 1316 1376 1347 1317 1346
8 1377 1379 1320 1318 1378 1348 1319 1347
8 1379 1381 1322 1320 1380 1349 1321 1348
8 1381 1383 1324 1322 1382 1350 1323 1349
8 1383 1385 1326 1324 1384 1351 1325 1350
8 1385 1387 1328 1326 1386 1352 1327 1351
8 1387 1389 1330 1328 1388 1353 1329 1352
8 1389 1391 1332 1330 1390 1354 1331 1353
8 1391 1393 1334 1332 1392 1355 1333 1354
8 1393 1395 1336 1334 1394 1356 1335 1355
8 1416 1418 1359 1357 1417 1397 1358 1396
8 1418 1420 1361 1359 1419 1398 1360 1397
8 1420 1422 1363 1361 1421 1399 1362 1398
8 1422 1424 1365 1363 1423 1400 1364 1399
8 1424 1426 1367 1365 1425 1401 1366 1400
8 1426 1428 1369 1367 1427 1402 1368 1401
8 1428 1430 1371 1369 1429 1403 1370 1402
8 1430 1432 1373 1371 1431 1404 1372 1403
8 1432 1434 1375 1373 1433 1405 1374 1404
8 1434 1436 1377 1375 1435 1406 1376 1405
8 1436 1438 1379 1377 1437 1407 1378 1406
8 1438 1440 1381 1379 1439 1408 1380 1407
8 1440 1442 1383 1381 1441 1409 1382 1408
8 1442 1444 1385 1383 1443 1410 1384 1409
8 1444 1446 1387 1385 1445 1411 1386 1410
8 1446 1448 1389 1387 1447 1412 1388 1411
8 1448 1450 1391 1389 1449 1413 1390 1412
8 1450 1452 1393 1391 1451 1414 1392 1413
8 1452 1454 1395 1393 1453 1415 1394 1414
8 1475 1477 1418 1416 1476 1456 1417 1455
8 1477 1479 1420 1418 1478 1457 1419 1456
8 1479 1481 1422 1420 1480 1458 1421 1457
8 1481 1483 1424 1422 1482 1459 1423 1458
8 1483 1485 1426 1424 1484 1460 1425 1459
8 1485 1487 1428 1426 1486 1461 1427 1460
8 1487 1489 1430 1428 1488 1462 1429 1461
8 1489 1491 1432 1430 1490 1463 1431 1462
8 1491 1493 1434 1432 1492 1464 1433 1463
8 1493 1495 1436 1434 1494 1465 1435 1464
8 1495 1497 1438 1436 1496 1466 1437 1465
8 1497 1499 1440 1438 1498 1467 1439 1466
8 1499 1501 1442 1440 1500 1468 1441 1467
8 1501 1503 1444 1442 1502 1469 1443 1468
8 1503 1505 1446 1444 1504 1470 1445 1469
8 1505 1507 1448 1446 1506 1471 1447 1470
8 1507 1509 1450 1448 1508 1472 1449 1471
8 1509 1511 1452 1450 1510 1473 1451 1472
8 1511 1513 1454 1452 1512 1474 1453 1473
8 1534 1536 1477 1475 1535 1515 1476 1514
8 1536 1538 1479 1477 1537 1516 1478 1515
8 1538 1540 1481 1479 1539 1517 1480 1516
8 1540 1542 1483 1481 1541 1518 1482 1517
8 1542 1544 1485 1483 1543 1519 1484 1518
8 1544 1546 1487 1485 1545 1520 1486 1519
8 1546 1548 1489 1487 1547 1521 1488 1520
8 1548 1550 1491 1489 1549 1522 1490 1521
8 1550 1552 1493 1491 1551 1523 1492 1522
8 1552 1554 1495 1493 1553 1524 1494 1523
8 1554 1556 1497 1495 1555 1525 1496 1524
8 1556 1558 1499 1497 1557 1526 1498 1525
8 1558 1560 1501 1499 1559 1527 1500 1526
8 1560 1562 1503 1501 1561 1528 1502 1527
8 1562 1564 1505 1503 1563 1529 1504 1528
8 1564 1566 1507 1505 1565 1530 1506 1529
8 1566 1568 1509 1507 1567 1531 1508 1530
8 1568 1570 1511 1509 1569 1532 1510 1531
8 1570 1572 1513 1511 1571 1533 1512 1532
8 1593 1595 1536 1534 1594 1574 1535 1573
8 1595 1597 1538 1536 1596 1575 1537 1574
8 1597 1599 1540 1538 1598 1576 1539 1575
8 1599 1601 1542 1540 1600 1577 1541 1576
8 1601 1603 1544 1542 1602 1578 1543 1577
8 1603 1605 1546 1544 1604 1579 1545 1578
8 1605 1607 1548 1546 1606 1580 1547 1579
8 1607 1609 1550 1548 1608 1581 1549 1580
8 1609 1611 1552 1550 1610 1582 1551 1581
8 1611 1613 1554 1552 1612 1583 1553 1582
8 1613 1615 1556 1554 1614 1584 1555 1583
8 1615 1617 1558 1556 1616 1585 1557 1584
8 1617 1619 1560 1558 1618 1586 1559 1585
8 1619 1621 1562 1560 1620 1587 1561 1586
8 1621 1623 1564 1562 1622 1588 1563 1587
8 1623 1625 1566 1564 1624 1589 1565 1588
8 1625 1627 1568 1566 1626 1590 1567 1589
8 1627 1629 1570 1568 1628 1591 1569 1590
8 1629 1631 1572 1570 1630 1592 1571 1591
8 1652 1654 1595 1593 1653 1633 1594 1632
8 1654 1656 1597 1595 1655 1634 1596 1633
8 1656 1658 1599 1597 1657 1635 1598 1634
8 1658 1660 1601 1599 1659 1636 1600 1635
8 1660 1662 1603 1601 1661 1637 1602 1636
8 1662 1664 1605 1603 1663 1638 1604 1637
8 1664 1666 1607 1605 1665 1639 1606 1638
8 1666 1668 1609 1607 1667 1640 1608 1639
8 1668 1670 1611 1609 1669 1641 1610 1640
8 1670 1672 1613 1611 1671 1642 1612 1641
8 1672 1674 1615 1613 1673 1643 1614 1642
8 1674 1676 1617 1615 1675 1644 1616 1643
8 1676 1678 1619 1617 1677 1645 1618 1644
8 1678 1680 1621 1619 1679 1646 1620 1645
8 1680 1682 1623 1621 1681 1647 1622 1646
8 1682 1684 1625 1623 1683 1648 1624 1647
8 1684 1686 1627 1625 1685 1649 1626 1648
8 1686 1688 1629 1627 1687 1650 1628 1649
8 1688 1690 1631 1629 1689 1651 1630 1650
8 1711 1713 1654 1652 1712 1692 1653 1691
8 1713 1715 1656 1654 1714 1693 1655 1692
8 1715 1717 1658 1656 1716 1694 1657 1693
8 1717 1719 1660 1658 1718 1695 1659 1694
8 1719 1721 1662 1660 1720 1696 1661 1695
8 1721 1723 1664 1662 1722 1697 1663 1696
8 1723 1725 1666 1664 1724 1698 1665 1697
8 1725 1727 1668 1666 1726 1699 1667 1698
8 1727 1729 1670 1668 1728 1700 1669 1699
8 1729 1731 1672 1670 1730 1701 1671 1700
8 1731 1733 1674 1672 1732 1702 1673 1701
8 1733 1735 1676 1674 1734 1703 1675 1702
8 1735 1737 1678 1676 1736 1704 1677 1703
8 1737 1739 1680 1678 1738 1705 1679 1704
8 1739 1741 1682 1680 1740 1706 1681 1705
8 1741 1743 1684 1682 1742 1707 1683 1706
8 1743 1745 1686 1684 1744 1708 1685 1707
8 1745 1747 1688 1686 1746 1709 1687 1708
8 1747 1749 1690 1688 1748 1710 1689 1709
8 1770 1772 1713 1711 1771 1751 1712 1750
8 1772 1774 1715 1713 1773 1752 1714 1751
8 1774 1776 1717 1715 1775 1753 1716 1752
8 1776 1778 1719 1717 1777 1754 1718 1753
8 1778 1780 1721 1719 1779 1755 1720 1754
8 1780 1782 1723 1721 1781 1756 1722 1755
8 1782 1784 1725 1723 1783 1757 1724 1756
8 1784 1786 1727 1725 1785 1758 1726 1757
8 1786 1788 1729 1727 1787 1759 1728 1758
8 1788 1790 1731 1729 1789 1760 1730 1759
8 1790 1792 1733 1731 1791 1761 1732 1760
8 1792 1794 1735 1733 1793 1762 1734 1761
8 1794 1796 1737 1735 1795 1763 1736 1762
8 1796 1798 1739 1737 1797 1764 1738 1763
8 1798 1800 1741 1739 1799 1765 1740 1764
8 1800 1802 1743 1741 1801 1766 1742 1765
8 1802 1804 1745 1743 1803 1767 1744 1766
8 1804 1806 1747 1745 1805 1768 1746 1767
8 1806 1808 1749 1747 1807 1769 1748 1768

CELL_TYPES 570
23
23
23
23
23
23
23
23
23
23
23
23
23
23
23
23
23
23
23
23
23
23
23
23
23
23
23
23
23
23
23
23
23
23
23
23
23
23
23
23
23
23
23
23
23
23
23
23
23
23
23
23
23
23
23
23
23
23
23
23
23
23
23
23
23
23
23
23
23
23
23
23
23
23
23
23
23
23
23
23
23
23
23
23
23
23
23
23
23
23
23
23
23
23
23
23
23
23
23
23
23
23
23
23
23
23
23
23
23
23
23
23
23
23
23
23
23
23
23
23
23
23
23
23
23
23
23
23
23
23
23
23
23
23
23
23
23
23
23
23
23
23
23
23
23
23
23
23
23
23
23
23
23
23
23
23
23
23
23
23
23
23
23
23
23
23
23
23
23
23
23
23
23
23
23
23
23
23
23
23
23
23
23
23
23
23
23
23
23
23
23
23
23
23
23
23
23
23
23
23
23
23
23
23
23
23
23
23
23
23
23
23
23
23
23
23
23
23
23
23
23
23
23
23
23
23
23
23
23
23
23
23
23
23
23
23
23
23
23
23
23
23
23
23
23
23
23
23
23
23
23
23
23
23
23
23
23
23
23
23
23
23
23
23
23
23
23
23
23
23
23
23
23
23
23
23
23
23
23
23
23
23
23
23
23
23
23
23
23
23
23
23
23
23
23
23
23
23
23
23
23
23
23
23
23
23
23
23
23
23
23
23
23
23
23
23
23
23
23
23
23
23
23
23
23
23
23
23
23
23
23
23
23
23
23
23
23
23
23
23
23
23
23
23
23
23
23
23
23
23
23
23
23
23
23
23
23
23
23
23
23
23
23
23
23
23
23
23
23
23
23
23
23
23
23
23
23
23
23
23
23
23
23
23
23
23
23
23
23
23
23
23
23
23
23
23
23
23
23
23
23
23
23
23
23
23
23
23
23
23
23
23
23
23
23
23
23
23
23
23
23
23
23
23
23
23
23
23
23
23
23
23
23
23
23
23
23
23
23
23
23
23
23
23
23
23
23
23
23
23
23
23
23
23
23
23
23
23
23
23
23
23
23
23
23
23
23
23
23
23
23
23
23
23
23
23
23
23
23
23
23
23
23
23
23
23
23
23
23
23
23
23
23
23
23
23
23
23
23
23
23
23
23
23
23
23
23
23
23
23
23
23
23
23
23
23
23
23
23
23
23
23
23
23
23
23
23
23
23
23
23
23
23
23
23
23
23
23
23
23
23
23
23
23
23
23
23
23
23
23
23
23
23
23
23
23
23
23
23
23
23
23
23
23
23
23
23
23
23
23

POINT_DATA 1809
SCALARS Displacement_R double 1
LOOKUP_TABLE default
0
-1.29092e-05
-2.57788e-05
-3.85762e-05
-5.12612e-05
-6.37993e-05
-7.61542e-05
-8.82916e-05
-0.000100178
-0.000111782
-0.000123072
-0.000134023
-0.000144608
-0.000154802
-0.000164576
-0.000173945
-0.000182857
-0.000191507
-0.000199557
-0.000206699
-0.000212291
-0.000218746
-0.000219857
-0.000219783
-0.000216579
-0.00020953
-0.000200493
-0.000188214
-0.000175797
-0.000161232
-0.000147594
-0.000132112
-0.000117493
-0.000100305
-8.35803e-05
-6.34833e-05
-4.40264e-05
-2.12268e-05
0
0
-2.25826e-05
-4.48864e-05
-6.66334e-05
-8.75511e-05
-0.000107372
-0.000125829
-0.000142633
-0.000157421
-0.000169244
-0.000177544
-0.000194507
-0.000194731
-0.000182536
-0.000161648
-0.000136852
-0.000109666
-7.8402e-05
-4.14452e-05
0
0
-9.7864e-06
-1.95377e-05
-2.92254e-05
-3.88131e-05
-4.82703e-05
-5.75619e-05
-6.66565e-05
-7.55186e-05
-8.41159e-05
-9.24099e-05
-0.000100367
-0.000107941
-0.000115095
-0.000121757
-0.000127878
-0.000133333
-0.00013808
-0.000141877
-0.00014474
-0.000148523
-0.000161465
-0.000169566
-0.000173379
-0.000173555
-0.000170244
-0.000164817
-0.000156418
-0.000147606
-0.000136586
-0.000126159
-0.000113714
-0.00010187
-8.73978e-05
-7.32424e-05
-5.57876e-05
-3.88709e-05
-1.873e-05
0
0
-1.66345e-05
-3.30234e-05
-4.89169e-05
-6.4059e-05
-7.81777e-05
-9.09703e-05
-0.000102066
-0.00011099
-0.000117381
-0.00012348
-0.000145778
-0.000152839
-0.000147342
-0.000133633
-0.00011548
-9.4076e-05
-6.80795e-05
-3.62901e-05
0
0
-6.9468e-06
-1.38632e-05
-2.07248e-05
-2.7499e-05
-3.41597e-05
-4.06741e-05
-4.70147e-05
-5.31461e-05
-5.90398e-05
-6.4655e-05
-6.99603e-05
-7.49063e-05
-7.94684e-05
-8.35843e-05
-8.72159e-05
-9.03228e-05
-9.29817e-05
-9.54075e-05
-9.79533e-05
-0.000101082
-0.000112818
-0.000123037
-0.000129918
-0.000132587
-0.000132498
-0.000130096
-0.000125325
-0.000119756
-0.000112273
-0.000104849
-9.55092e-05
-8.63124e-05
-7.46154e-05
-6.29344e-05
-4.81609e-05
-3.37161e-05
-1.62563e-05
0
0
-1.1214e-05
-2.22211e-05
-3.28082e-05
-4.27526e-05
-5.18153e-05
-5.97409e-05
-6.62723e-05
-7.12922e-05
-7.53538e-05
-8.04013e-05
-0.000101354
-0.000112872
-0.000113085
-0.000105981
-9.42599e-05
-7.85697e-05
-5.77974e-05
-3.11416e-05
0
0
-4.35006e-06
-8.67557e-06
-1.2957e-05
-1.71678e-05
-2.12871e-05
-2.52876e-05
-2.91475e-05
-3.28377e-05
-3.6336e-05
-3.96114e-05
-4.26426e-05
-4.54021e-05
-4.78765e-05
-5.00541e-05
-5.19441e-05
-5.36276e-05
-5.51796e-05
-5.68388e-05
-5.88205e-05
-6.12743e-05
-7.08884e-05
-8.06428e-05
-8.9001e-05
-9.35321e-05
-9.60204e-05
-9.62704e-05
-9.48156e-05
-9.22925e-05
-8.82373e-05
-8.37175e-05
-7.74664e-05
-7.08559e-05
-6.1936e-05
-5.26772e-05
-4.05905e-05
-2.85736e-05
-1.38016e-05
0
0
-6.23635e-06
-1.23164e-05
-1.8079e-05
-2.33585e-05
-2.79874e-05
-3.18189e-05
-3.47906e-05
-3.71052e-05
-3.951e-05
-4.32216e-05
-6.08155e-05
-7.4617e-05
-7.96452e-05
-7.86979e-05
-7.32219e-05
-6.31683e-05
-4.75696e-05
-2.60084e-05
0
0
-1.94978e-06
-3.88265e-06
-5.78533e-06
-7.63941e-06
-9.43093e-06
-1.11414e-05
-1.27567e-05
-1.42586e-05
-1.56344e-05
-1.6869e-05
-1.79543e-05
-1.88871e-05
-1.9672e-05
-2.0338e-05
-2.09207e-05
-2.15097e-05
-2.21935e-05
-2.31146e-05
-2.43969e-05
-2.61008e-05
-3.3381e-05
-4.17155e-05
-5.0255e-05
-5.6002e-05
-6.05692e-05
-6.31748e-05
-6.4801e-05
-6.51811e-05
-6.44514e-05
-6.27703e-05
-5.9571e-05
-5.55081e-05
-4.93481e-05
-4.24776e-05
-3.30688e-05
-2.34494e-05
-1.13626e-05
0
0
-1.6004e-06
-3.10864e-06
-4.43144e-06
-5.47848e-06
-6.17494e-06
-6.49528e-06
-6.53482e-06
-6.62796e-06
-7.41742e-06
-9.62796e-06
-2.3206e-05
-3.76856e-05
-4.68507e-05
-5.17444e-05
-5.23641e-05
-4.78748e-05
-3.73998e-05
-2.08949e-05
0
0
3.0954e-07
6.2661e-07
9.5694e-07
1.30868e-06
1.68748e-06
2.10094e-06
2.55382e-06
3.0516e-06
3.59632e-06
4.18725e-06
4.81974e-06
5.47842e-06
6.14474e-06
6.77604e-06
7.33039e-06
7.73111e-06
7.90788e-06
7.77667e-06
7.2692e-06
6.3562e-06
1.44116e-06
-5.1481e-06
-1.31294e-05
-1.95779e-05
-2.58773e-05
-3.06391e-05
-3.51896e-05
-3.83754e-05
-4.08918e-05
-4.19996e-05
-4.18136e-05
-4.02675e-05
-3.68441e-05
-3.23363e-05
-2.55903e-05
-1.83463e-05
-8.93716e-06
0
0
2.81502e-06
5.64636e-06
8.50793e-06
1.14044e-05
1.43151e-05
1.71616e-05
1.97565e-05
2.17509e-05
2.26592e-05
2.20467e-05
1.26068e-05
-1.64369e-06
-1.45273e-05
-2.50713e-05
-3.16773e-05
-3.26865e-05
-2.72875e-05
-1.58036e-05
0
0
2.49319e-06
4.9832e-06
7.46718e-06
9.94164e-06
1.24029e-05
1.48467e-05
1.72678e-05
1.96588e-05
2.20113e-05
2.43115e-05
2.65441e-05
2.86834e-05
3.07026e-05
3.25592e-05
3.42118e-05
3.56037e-05
3.66816e-05
3.73974e-05
3.77114e-05
3.76111e-05
3.50025e-05
3.01843e-05
2.30578e-05
1.61886e-05
8.33965e-06
1.51346e-06
-5.88585e-06
-1.18243e-05
-1.75351e-05
-2.13944e-05
-2.41864e-05
-2.51301e-05
-2.44174e-05
-2.2252e-05
-1.81505e-05
-1.32664e-05
-6.52299e-06
0
0
7.1499e-06
1.42326e-05
2.11761e-05
2.78962e-05
3.42825e-05
4.01754e-05
4.53397e-05
4.94545e-05
5.21641e-05
5.3204e-05
4.77294e-05
3.39778e-05
1.75042e-05
1.37298e-06
-1.11504e-05
-1.75991e-05
-1.72313e-05
-1.07361e-05
0
0
4.67479e-06
9.33495e-06
1.39685e-05
1.85596e-05
2.30949e-05
2.75578e-05
3.19329e-05
3.62011e-05
4.03437e-05
4.43365e-05
4.81557e-05
5.17696e-05
5.51469e-05
5.82486e-05
6.10361e-05
6.34685e-05
6.55049e-05
6.71181e-05
6.82852e-05
6.90027e-05
6.85737e-05
6.53657e-05
5.90486e-05
5.17814e-05
4.23746e-05
3.3464e-05
2.32062e-05
1.45239e-05
5.64227e-06
-9.43268e-07
-6.68108e-06
-1.00911e-05
-1.20617e-05
-1.22228e-05
-1.07449e-05
-8.21099e-06
-4.11808e-06
0
0
1.15584e-05
2.29633e-05
3.40545e-05
4.46596e-05
5.45838e-05
6.35992e-05
7.14381e-05
7.78053e-05
8.24294e-05
8.51457e-05
8.32322e-05
6.96765e-05
4.94242e-05
2.76395e-05
9.22735e-06
-2.60872e-06
-7.22994e-06
-5.6942e-06
0
0
6.93342e-06
1.38407e-05
2.07007e-05
2.74852e-05
3.41712e-05
4.07299e-05
4.71361e-05
5.3359e-05
5.93701e-05
6.5136e-05
7.06245e-05
7.57991e-05
8.06237e-05
8.50617e-05
8.90753e-05
9.26329e-05
9.56997e-05
9.82615e-05
0.000100302
0.000101827
0.000103377
0.000101458
9.56072e-05
8.77049e-05
7.65221e-05
6.53916e-05
5.21808e-05
4.07192e-05
2.86643e-05
1.93635e-05
1.07112e-05
4.85229e-06
2.30094e-07
-2.24814e-06
-3.36844e-06
-3.1822e-06
-1.72024e-06
0
0
1.62022e-05
3.2167e-05
4.76483e-05
6.23872e-05
7.61055e-05
8.85046e-05
9.92741e-05
0.000108116
0.000114792
0.000119183
0.00012018
0.00010596
8.14066e-05
5.3774e-05
2.94621e-05
1.2285e-05
2.71539e-06
-6.80803e-07
0
0
9.3498e-06
1.86628e-05
2.7909e-05
3.70491e-05
4.60502e-05
5.48725e-05
6.34804e-05
7.18318e-05
7.98882e-05
8.76057e-05
9.49427e-05
0.000101855
0.0001083
0.000114237
0.000119626
0.000124436
0.000128633
0.000132204
0.000135137
0.000137439
0.000140672
0.000139536
0.000133502
0.000124464
0.000111068
9.74645e-05
8.11295e-05
6.68027e-05
5.15573e-05
3.95285e-05
2.80024e-05
1.96978e-05
1.24676e-05
7.66898e-06
3.98514e-06
1.81614e-06
6.73134e-07
0
0
2.12418e-05
4.21715e-05
6.24648e-05
8.17794e-05
9.97498e-05
0.000115991
0.000130115
0.000141772
0.000150698
0.000156761
0.000159682
0.000143316
0.000113594
7.97966e-05
4.95418e-05
2.70707e-05
1.25969e-05
4.29831e-06
0
0
1.20018e-05
2.39574e-05
3.5831e-05
4.75715e-05
5.91402e-05
7.04839e-05
8.15609e-05
9.2314e-05
0.000102697
0.000112651
0.000122123
0.000131056
0.000139393
0.000147084
0.000154073
0.000160326
0.000165798
0.000170481
0.00017435
0.000177408
0.000181796
0.000180751
0.000173492
0.000162519
0.000146297
0.000129798
0.000110157
9.27729e-05
7.43632e-05
5.95249e-05
4.52164e-05
3.44253e-05
2.46673e-05
1.7516e-05
1.13256e-05
6.77632e-06
3.06548e-06
0
0
2.35143e-05
4.66697e-05
6.91003e-05
9.04309e-05
0.000110277
0.000128255
0.000143997
0.000157191
0.000167613
0.000175166
0.000182189
0.000169128
0.000139897
0.000103971
7.0342e-05
4.41224e-05
2.52472e-05
1.12406e-05
0
0
1.14072e-05
2.27664e-05
3.40411e-05
4.51783e-05
5.61413e-05
6.68771e-05
7.73497e-05
8.75059e-05
9.73107e-05
0.000106713
0.000115679
0.000124162
0.000132131
0.00013955
0.000146391
0.000152632
0.000158249
0.000163236
0.000167593
0.00017133
0.000178715
0.000181462
0.000179537
0.000173209
0.000161536
0.000148022
0.000130441
0.000114089
9.5777e-05
8.07464e-05
6.5435e-05
5.36948e-05
4.20142e-05
3.29207e-05
2.34424e-05
1.56684e-05
7.30386e-06
0
0
2.183e-05
4.33231e-05
6.41426e-05
8.39597e-05
0.000102459
0.000119347
0.000134368
0.000147322
0.000158078
0.000166591
0.000179302
0.000175453
0.000154506
0.000123168
9.06621e-05
6.30733e-05
4.04863e-05
2.00233e-05
0
0
1.043e-05
2.0818e-05
3.11302e-05
4.13232e-05
5.13617e-05
6.12057e-05
7.08198e-05
8.0167e-05
8.92132e-05
9.79257e-05
0.000106273
0.000114227
0.000121761
0.000128854
0.000135483
0.000141638
0.000147302
0.000152473
0.000157144
0.000161318
0.000170664
0.000176187
0.000178395
0.000176314
0.000169428
0.000159699
0.000145625
0.00013146
0.000114743
0.000100282
8.48956e-05
7.23941e-05
5.91891e-05
4.80386e-05
3.55025e-05
2.43638e-05
1.15274e-05
0
0
1.97927e-05
3.93015e-05
5.82462e-05
7.63591e-05
9.33911e-05
0.000109119
0.000123354
0.00013595
0.000146814
0.000155899
0.000172568
0.00017629
0.000163957
0.000139123
0.000109644
8.16747e-05
5.55993e-05
2.86991e-05
0
0
9.41839e-06
1.88026e-05
2.81248e-05
3.73502e-05
4.64496e-05
5.53918e-05
6.41477e-05
7.26892e-05
8.09887e-05
8.90219e-05
9.67637e-05
0.000104194
0.000111292
0.000118041
0.000124426
0.000130436
0.000136058
0.00014129
0.000146126
0.000150566
0.000161248
0.000168766
0.000174213
0.000175713
0.000173296
0.00016754
0.000157541
0.000146331
0.000132053
0.000118864
0.000103925
9.09771e-05
7.63542e-05
6.31906e-05
4.75646e-05
3.30395e-05
1.57472e-05
0
0
1.78827e-05
3.55385e-05
5.27445e-05
6.92895e-05
8.49787e-05
9.96393e-05
0.000113126
0.000125324
0.000136155
0.000145575
0.000165076
0.00017494
0.00017076
0.000153263
0.000128004
0.000100322
7.08337e-05
3.73982e-05
0
0
8.53866e-06
1.70504e-05
2.55131e-05
3.38998e-05
4.21871e-05
5.03509e-05
5.83679e-05
6.62169e-05
7.38757e-05
8.1326e-05
8.85475e-05
9.55253e-05
0.000102242
0.000108686
0.000114842
0.000120705
0.000126261
0.000131509
0.000136441
0.000141057
0.000152689
0.000161715
0.000169735
0.000174227
0.000175801
0.000173846
0.000168035
0.000160092
0.000148718
0.000137187
0.00012303
0.000109779
9.37749e-05
7.85522e-05
5.97536e-05
4.17807e-05
1.99952e-05
0
0
1.63275e-05
3.24773e-05
4.82753e-05
6.35563e-05
7.81682e-05
9.19753e-05
0.000104862
0.000116735
0.000127527
0.000137194
0.000158898
0.000173844
0.000177074
0.000167012
0.000146503
0.000119386
8.63727e-05
4.62032e-05
0
0
7.87071e-06
1.57205e-05
2.35319e-05
3.12841e-05
3.89585e-05
4.65367e-05
5.40001e-05
6.13324e-05
6.85158e-05
7.55362e-05
8.23772e-05
8.90273e-05
9.54718e-05
0.000101702
0.000107705
0.000113475
0.000119003
0.000124284
0.000129312
0.000134086
0.000146518
0.000156793
0.000166963
0.000174006
0.000179111
0.000180654
0.000178859
0.000174192
0.000165826
0.00015607
0.000142772
0.000129204
0.000111722
9.43135e-05
7.21921e-05
5.06672e-05
2.4304e-05
0
0
1.52465e-05
3.0354e-05
4.5186e-05
5.96128e-05
7.3514e-05
8.67814e-05
9.93211e-05
0.000111055
0.000121924
0.000131884
0.000155583
0.000174944
0.000184833
0.000181827
0.000165997
0.000139286
0.000102407
5.51914e-05
0
0
7.46373e-06
1.49109e-05
2.23279e-05
2.96981e-05
3.70069e-05
4.42398e-05
5.13819e-05
5.84203e-05
6.53406e-05
7.21317e-05
7.878e-05
8.52762e-05
9.16081e-05
9.77684e-05
0.000103746
0.000109536
0.00011513
0.000120523
0.000125709
0.000130687
0.000143967
0.000155427
0.000167544
0.000176861
0.000185121
0.000189822
0.000191712
0.000190092
0.000184534
0.000176397
0.000163768
0.000149685
0.000130476
0.000110665
8.50007e-05
5.97741e-05
2.8706e-05
0
0
1.47313e-05
2.93514e-05
4.37509e-05
5.78251e-05
7.14764e-05
8.46155e-05
9.71637e-05
0.000109054
0.00012023
0.000130651
0.000156507
0.000179975
0.000195854
0.000199185
0.000187398
0.000160468
0.000119127
6.44359e-05
0
0
7.3651e-06
1.47168e-05
2.20437e-05
2.93324e-05
3.65708e-05
4.37469e-05
5.08485e-05
5.78649e-05
6.47839e-05
7.15963e-05
7.82906e-05
8.48589e-05
9.12905e-05
9.7579e-05
0.000103715
0.000109693
0.000115505
0.000121147
0.000126613
0.0001319
0.00014625
0.000159002
0.000173055
0.000184511
0.000195647
0.000203162
0.000208289
0.000209291
0.000206053
0.000199107
0.00018667
0.000171675
0.000150324
0.000127796
9.82953e-05
6.91724e-05
3.32325e-05
0
0
1.48898e-05
2.96857e-05
4.42947e-05
5.86278e-05
7.26007e-05
8.61357e-05
9.91624e-05
0.000111619
0.000123454
0.000134623
0.000163124
0.000190704
0.000211983
0.000220615
0.000211666
0.000183388
0.000136718
7.40057e-05
0
0
7.63932e-06
1.52667e-05
2.28718e-05
3.04435e-05
3.79704e-05
4.54425e-05
5.2848e-05
6.01783e-05
6.74215e-05
7.457e-05
8.16123e-05
8.85423e-05
9.53486e-05
0.000102027
0.000108566
0.000114963
0.000121207
0.000127298
0.000133226
0.00013899
0.000154795
0.0001691
0.000185238
0.000198819
0.000212613
0.000222583
0.000230368
0.000233357
0.00023165
0.000225174
0.000212152
0.00019563
0.000171545
0.000145887
0.000112186
7.89286e-05
3.79142e-05
0
0
1.58779e-05
3.16681e-05
4.72833e-05
6.26392e-05
7.76554e-05
9.22568e-05
0.000106375
0.000119947
0.000132919
0.000145248
0.000177196
0.00020913
0.000235217
0.000247736
0.000239796
0.000208506
0.000155359
8.39646e-05
0
0
8.3812e-06
1.67508e-05
2.50992e-05
3.34133e-05
4.16831e-05
4.98969e-05
5.80445e-05
6.61153e-05
7.40991e-05
8.19863e-05
8.9767e-05
9.74325e-05
0.000104974
0.000112383
0.000119651
0.000126772
0.000133737
0.000140541
0.00014718
0.000153648
0.000171481
0.000187721
0.000206239
0.00022198
0.000238249
0.000250208
0.000259896
0.000263969
0.000262648
0.000255612
0.000240876
0.00022201
0.000194404
0.000165116
0.000126774
8.91041e-05
4.27807e-05
0
0
1.79337e-05
3.5773e-05
5.34212e-05
7.0787e-05
8.77828e-05
0.000104326
0.000120341
0.000135758
0.000150517
0.000164558
0.000201062
0.000237756
0.000267896
0.000282315
0.000272779
0.00023621
0.000175173
9.43477e-05
0
0
9.74134e-06
1.94689e-05
2.91685e-05
3.88295e-05
4.84353e-05
5.79785e-05
6.74398e-05
7.68149e-05
8.60826e-05
9.52418e-05
0.00010427
0.000113168
0.000121913
0.00013051
0.000138934
0.000147192
0.00015526
0.000163148
0.000170831
0.000178316
0.000198866
0.000217619
0.000238831
0.000256872
0.000275227
0.000288637
0.00029904
0.000302999
0.000300437
0.000291381
0.000273538
0.000251126
0.000219199
0.000185547
0.000142188
9.97067e-05
4.78709e-05
0
0
1.32199e-05
2.63889e-05
3.94541e-05
5.2365e-05
6.50724e-05
7.75296e-05
8.96923e-05
0.000101519
0.000112973
0.000124019
0.000153645
0.000185563
0.000215562
0.000236554
0.000239763
0.00021797
0.000168495
9.33965e-05
0
0
4.54302e-06
9.08372e-06
1.36169e-05
1.81431e-05
2.2654e-05
2.71532e-05
3.16295e-05
3.60896e-05
4.05195e-05
4.49286e-05
4.93005e-05
5.3647e-05
5.79496e-05
6.22223e-05
6.64448e-05
7.06329e-05
7.47651e-05
7.88585e-05
8.28895e-05
8.68784e-05
9.81191e-05
0.000108926
0.000121893
0.00013398
0.000147748
0.000159806
0.000172258
0.000181676
0.000189208
0.000192118
0.000190164
0.00018258
0.000167228
0.000146814
0.000116597
8.37207e-05
4.08678e-05
0
0
6.70112e-06
1.3386e-05
2.00396e-05
2.66467e-05
3.31924e-05
3.96618e-05
4.60406e-05
5.2315e-05
5.84715e-05
6.44975e-05
8.12079e-05
0.000100598
0.000121394
0.000140529
0.000152466
0.000149515
0.000124111
7.25753e-05
0
0
2.46612e-06
4.93082e-06
7.39359e-06
9.85251e-06
1.23071e-05
1.47553e-05
1.71969e-05
1.96297e-05
2.20538e-05
2.44666e-05
2.68685e-05
2.92569e-05
3.16322e-05
3.39917e-05
3.63361e-05
3.86625e-05
4.09718e-05
4.32611e-05
4.55314e-05
4.77795e-05
5.421e-05
6.04243e-05
6.81087e-05
7.5364e-05
8.40375e-05
9.18926e-05
0.000100683
0.000107997
0.000115027
0.000119599
0.000121742
0.000120269
0.000113545
0.000102491
8.35965e-05
6.12387e-05
3.03727e-05
0
0
3.7234e-06
7.44055e-06
1.1145e-05
1.48305e-05
1.84908e-05
2.21198e-05
2.57113e-05
2.92596e-05
3.27588e-05
3.62033e-05
4.58839e-05
5.74325e-05
7.04212e-05
8.3477e-05
9.36263e-05
9.57829e-05
8.32676e-05
5.06543e-05
0
0
1.40311e-06
2.80573e-06
4.20719e-06
5.60722e-06
7.00484e-06
8.4001e-06
9.79177e-06
1.11801e-05
1.25637e-05
1.39431e-05
1.53165e-05
1.66848e-05
1.8046e-05
1.94011e-05
2.0748e-05
2.20879e-05
2.34186e-05
2.47413e-05
2.60537e-05
2.73573e-05
3.10924e-05
3.47369e-05
3.92687e-05
4.36113e-05
4.88669e-05
5.37347e-05
5.93361e-05
6.41749e-05
6.91604e-05
7.27555e-05
7.52477e-05
7.54851e-05
7.26089e-05
6.66864e-05
5.53697e-05
4.11597e-05
2.06351e-05
0
0
2.13901e-06
4.27492e-06
6.40471e-06
8.52536e-06
1.06339e-05
1.27272e-05
1.48025e-05
1.68568e-05
1.88873e-05
2.08913e-05
2.65561e-05
3.3402e-05
4.12771e-05
4.95235e-05
5.65285e-05
5.92079e-05
5.29256e-05
3.30509e-05
0
0
8.12887e-07
1.62547e-06
2.43756e-06
3.24881e-06
4.059e-06
4.86781e-06
5.67502e-06
6.48032e-06
7.28349e-06
8.08421e-06
8.88226e-06
9.67735e-06
1.04692e-05
1.12576e-05
1.20423e-05
1.2823e-05
1.35995e-05
1.43714e-05
1.51386e-05
1.59009e-05
1.80924e-05
2.02336e-05
2.29144e-05
2.54913e-05
2.8642e-05
3.15819e-05
3.50185e-05
3.80398e-05
4.12443e-05
4.36725e-05
4.55562e-05
4.61093e-05
4.48364e-05
4.16175e-05
3.49399e-05
2.62269e-05
1.32379e-05
0
0
1.24374e-06
2.4859e-06
3.72489e-06
4.95911e-06
6.18701e-06
7.40701e-06
8.61757e-06
9.81716e-06
1.10043e-05
1.21774e-05
1.55044e-05
1.95518e-05
2.42606e-05
2.92929e-05
3.37564e-05
3.58303e-05
3.25617e-05
2.06707e-05
0
0
4.74499e-07
9.48854e-07
1.42291e-06
1.89655e-06
2.36957e-06
2.8419e-06
3.31331e-06
3.78376e-06
4.25298e-06
4.72095e-06
5.18741e-06
5.65235e-06
6.11547e-06
6.5768e-06
7.03602e-06
7.49318e-06
7.94794e-06
8.40037e-06
8.8501e-06
9.29724e-06
1.05836e-05
1.18434e-05
1.34233e-05
1.49476e-05
1.68179e-05
1.85731e-05
2.06401e-05
2.24748e-05
2.44526e-05
2.59846e-05
2.72401e-05
2.77088e-05
2.71169e-05
2.53276e-05
2.14093e-05
1.61687e-05
8.19548e-06
0
0
7.2752e-07
1.45416e-06
2.17906e-06
2.90133e-06
3.62012e-06
4.33457e-06
5.04382e-06
5.74702e-06
6.44335e-06
7.13198e-06
9.08807e-06
1.14763e-05
1.42722e-05
1.72939e-05
2.00363e-05
2.14303e-05
1.9666e-05
1.26103e-05
0
0
2.78476e-07
5.56866e-07
8.35097e-07
1.11308e-06
1.39074e-06
1.66799e-06
1.94475e-06
2.22095e-06
2.49648e-06
2.7713e-06
3.04529e-06
3.3184e-06
3.59052e-06
3.86161e-06
4.13156e-06
4.40031e-06
4.66776e-06
4.93386e-06
5.19849e-06
5.46163e-06
6.21933e-06
6.96181e-06
7.89464e-06
8.79566e-06
9.90429e-06
1.09472e-05
1.21808e-05
1.32814e-05
1.44779e-05
1.54168e-05
1.62071e-05
1.65346e-05
1.62419e-05
1.52267e-05
1.29238e-05
9.79708e-06
4.9785e-06
0
0
4.2863e-07
8.56765e-07
1.28391e-06
1.70957e-06
2.13325e-06
2.55447e-06
2.97273e-06
3.38756e-06
3.79848e-06
4.20503e-06
5.36095e-06
6.77507e-06
8.43627e-06
1.02428e-05
1.19036e-05
1.27883e-05
1.18033e-05
7.61448e-06
0
0
1.64917e-07
3.29786e-07
4.94562e-07
6.59199e-07
8.23643e-07
9.87858e-07
1.15178e-06
1.31539e-06
1.47861e-06
1.64142e-06
1.80375e-06
1.96558e-06
2.12683e-06
2.2875e-06
2.44749e-06
2.60681e-06
2.76536e-06
2.92315e-06
3.08008e-06
3.23616e-06
3.68568e-06
4.12647e-06
4.6806e-06
5.2164e-06
5.87649e-06
6.49842e-06
7.23597e-06
7.89583e-06
8.6169e-06
9.18636e-06
9.67345e-06
9.88536e-06
9.73211e-06
9.14342e-06
7.78001e-06
5.91079e-06
3.00831e-06
0
0
2.5473e-07
5.09171e-07
7.63035e-07
1.01603e-06
1.26788e-06
1.5183e-06
1.767e-06
2.01369e-06
2.25812e-06
2.49999e-06
3.18807e-06
4.03079e-06
5.02273e-06
6.10532e-06
7.10771e-06
7.6556e-06
7.08985e-06
4.59014e-06
0
0
9.76511e-08
1.95274e-07
2.92842e-07
3.90329e-07
4.87705e-07
5.84946e-07
6.8202e-07
7.78906e-07
8.75569e-07
9.71991e-07
1.06814e-06
1.16399e-06
1.2595e-06
1.35467e-06
1.44946e-06
1.54384e-06
1.63779e-06
1.73128e-06
1.82428e-06
1.91677e-06
2.18325e-06
2.44459e-06
2.77333e-06
3.09129e-06
3.48338e-06
3.85305e-06
4.29213e-06
4.6855e-06
5.11666e-06
5.45835e-06
5.75323e-06
5.88477e-06
5.8011e-06
5.45664e-06
4.65008e-06
3.53704e-06
1.80194e-06
0
0
1.46658e-07
2.93152e-07
4.39318e-07
5.84993e-07
7.30013e-07
8.74216e-07
1.01744e-06
1.15953e-06
1.30032e-06
1.43966e-06
1.83617e-06
2.32208e-06
2.89463e-06
3.52068e-06
4.10263e-06
4.42513e-06
4.10589e-06
2.66361e-06
0
0
5.11841e-08
1.02352e-07
1.53494e-07
2.04591e-07
2.55632e-07
3.06601e-07
3.57485e-07
4.08268e-07
4.58939e-07
5.09479e-07
5.5988e-07
6.10122e-07
6.60197e-07
7.10084e-07
7.59777e-07
8.09254e-07
8.58511e-07
9.07523e-07
9.56288e-07
1.00478e-06
1.14456e-06
1.28155e-06
1.45408e-06
1.62076e-06
1.82674e-06
2.02054e-06
2.25163e-06
2.45783e-06
2.68562e-06
2.86462e-06
3.02228e-06
3.09065e-06
3.0513e-06
2.86905e-06
2.45028e-06
1.86253e-06
9.50191e-07
0
0
5.61577e-08
1.12252e-07
1.68221e-07
2.24003e-07
2.79536e-07
3.34757e-07
3.89607e-07
4.44023e-07
4.97947e-07
5.51319e-07
7.03198e-07
8.89373e-07
1.10883e-06
1.34899e-06
1.57258e-06
1.69721e-06
1.57624e-06
1.024e-06
0
0
0
0
0
0
0
0
0
0
0
0
0
0
0
0
0
0
0
0
0
0
0
0
0
0
0
0
0
0
0
0
0
0
0
0
0
0
0
0
SCALARS Displacement_Z double 1
LOOKUP_TABLE default
0.00283979
0.00283877
0.00283569
0.00283058
0.00282343
0.00281426
0.00280307
0.00278988
0.0027747
0.00275756
0.00273844
0.00271738
0.00269434
0.00266934
0.00264232
0.00261318
0.00258179
0.00254796
0.0025107
0.00246934
0.00241762
0.00229201
0.00219122
0.0020727
0.00196458
0.00183631
0.00172046
0.00158628
0.00146751
0.00133278
0.00121545
0.00108458
0.000972862
0.0008518
0.000753255
0.000654471
0.000584189
0.000530167
0.000512965
0.002844
0.00283986
0.00282747
0.0028069
0.00277826
0.00274164
0.00269711
0.00264457
0.0025835
0.00251175
0.00242126
0.00219472
0.00196679
0.00172159
0.00146805
0.00121567
0.000972847
0.000753052
0.000583862
0.000512585
0.0028469
0.00284585
0.00284272
0.0028375
0.00283021
0.00282086
0.00280945
0.002796
0.00278053
0.00276305
0.00274356
0.00272208
0.0026986
0.0026731
0.00264554
0.00261581
0.00258376
0.00254912
0.00251149
0.0024695
0.00242436
0.00230179
0.00219821
0.00207844
0.00196886
0.00183949
0.0017227
0.00158784
0.00146859
0.00133347
0.00121589
0.00108474
0.000972846
0.000851563
0.000752868
0.000653932
0.000583556
0.000529475
0.000512228
0.00284858
0.00284437
0.00283175
0.0028108
0.00278162
0.00274431
0.00269892
0.00264532
0.002583
0.00251017
0.00242641
0.00220158
0.00197086
0.00172376
0.00146912
0.00121612
0.000972856
0.0007527
0.000583272
0.000511896
0.00284914
0.00284807
0.00284489
0.00283958
0.00283217
0.00282265
0.00281104
0.00279736
0.00278161
0.00276382
0.00274398
0.00272211
0.00269819
0.00267222
0.00264414
0.00261387
0.0025813
0.00254632
0.00250879
0.00246887
0.00242759
0.0023097
0.00220471
0.00208354
0.00197271
0.00184235
0.00172477
0.00158933
0.00146964
0.00133418
0.00121636
0.00108496
0.000972878
0.00085139
0.00075255
0.000653472
0.000583008
0.000528867
0.000511586
0.00284865
0.00284437
0.00283156
0.00281027
0.00278062
0.00274269
0.00269655
0.00264212
0.00257907
0.00250711
0.00242822
0.00220762
0.00197441
0.00172572
0.00147015
0.0012166
0.000972911
0.000752415
0.000582764
0.0005113
0.0028472
0.00284612
0.00284289
0.00283751
0.00282999
0.00282034
0.00280857
0.00279469
0.00277871
0.00276066
0.00274053
0.00271835
0.0026941
0.0026678
0.00263942
0.00260894
0.00257638
0.00254176
0.00250525
0.00246715
0.00242814
0.00231486
0.00221011
0.0020878
0.00197596
0.00184481
0.00172661
0.00159071
0.00147066
0.0013349
0.00121684
0.00108521
0.000972957
0.000851278
0.000752298
0.000653091
0.000582541
0.000528344
0.000511035
0.00284486
0.00284052
0.00282755
0.002806
0.00277598
0.0027376
0.00269097
0.00263617
0.00257332
0.00250307
0.00242771
0.0022122
0.0019773
0.00172742
0.00147114
0.0012171
0.000973013
0.000752196
0.000582338
0.000510793
0.00284167
0.00284058
0.00283732
0.00283189
0.00282429
0.00281454
0.00280264
0.00278862
0.00277249
0.00275427
0.00273397
0.00271161
0.00268722
0.00266082
0.00263243
0.0026021
0.00256992
0.00253603
0.00250064
0.00246404
0.0024267
0.00231741
0.0022138
0.00209099
0.00197847
0.0018468
0.00172816
0.00159194
0.00147161
0.00133562
0.00121735
0.00108551
0.000973081
0.000851227
0.000752112
0.000652786
0.000582155
0.000527906
0.000510573
0.0028377
0.00283334
0.00282026
0.00279855
0.00276832
0.00272971
0.00268294
0.00262827
0.00256622
0.00249787
0.00242534
0.00221494
0.00197942
0.00172882
0.00147207
0.00121761
0.00097316
0.000752042
0.000581991
0.000510375
0.00283299
0.00283189
0.00282861
0.00282315
0.00281552
0.00280572
0.00279377
0.00277969
0.0027635
0.00274522
0.00272488
0.00270252
0.00267817
0.00265188
0.00262373
0.00259379
0.00256221
0.00252914
0.00249482
0.00245948
0.00242349
0.00231765
0.00221559
0.00209295
0.00198017
0.00184826
0.00172941
0.00159302
0.00147251
0.00133632
0.00121788
0.00108584
0.00097325
0.000851236
0.00075199
0.000652558
0.000581847
0.000527553
0.000510198
0.00282756
0.00282318
0.00281008
0.00278833
0.00275808
0.00271951
0.00267294
0.00261881
0.00255789
0.00249141
0.00242127
0.00221577
0.00198068
0.00172991
0.00147293
0.00121815
0.000973351
0.000751953
0.000581722
0.000510043
0.00282143
0.00282034
0.00281706
0.0028116
0.00280398
0.00279419
0.00278226
0.00276821
0.00275207
0.00273386
0.00271362
0.00269141
0.00266727
0.00264128
0.00261354
0.00258414
0.00255325
0.00252102
0.00248768
0.00245345
0.0024186
0.00231578
0.00221547
0.00209358
0.00198098
0.00184916
0.00173033
0.00159392
0.00147333
0.00133702
0.00121842
0.00108622
0.000973464
0.000851302
0.000751932
0.000652405
0.000581617
0.000527284
0.00050991
0.00281461
0.00281025
0.00279721
0.00277557
0.00274549
0.00270723
0.00266116
0.00260788
0.00254826
0.00248358
0.00241554
0.00221473
0.00198105
0.00173066
0.00147371
0.00121869
0.000973586
0.000751926
0.000581531
0.000509798
0.00280709
0.00280601
0.00280275
0.00279734
0.00278977
0.00278006
0.00276824
0.00275432
0.00273833
0.00272031
0.00270031
0.00267838
0.0026546
0.00262905
0.00260183
0.00257307
0.00254291
0.00251153
0.00247911
0.00244587
0.00241203
0.00231198
0.00221354
0.00209288
0.0019809
0.00184951
0.00173092
0.00159465
0.00147408
0.00133769
0.00121897
0.00108662
0.000973719
0.000851425
0.000751936
0.000652327
0.000581465
0.000527099
0.000509707
0.00279886
0.00279455
0.00278165
0.00276026
0.00273056
0.00269285
0.00264757
0.00259536
0.00253716
0.00247424
0.00240812
0.00221193
0.00198053
0.00173109
0.00147442
0.00121925
0.000973861
0.000751961
0.000581418
0.000509637
0.00278987
0.0027888
0.00278559
0.00278025
0.0027728
0.00276323
0.00275159
0.00273788
0.00272216
0.00270445
0.00268481
0.0026633
0.00264
0.002615
0.00258842
0.00256036
0.00253098
0.00250045
0.00246894
0.00243664
0.00240375
0.00230634
0.00220991
0.0020909
0.00197995
0.00184932
0.0017312
0.00159522
0.00147475
0.00133836
0.00121954
0.00108706
0.000974014
0.000851604
0.000752001
0.000652322
0.00058139
0.000526996
0.000509589
0.00278008
0.00277584
0.00276317
0.00274218
0.00271306
0.00267613
0.00263187
0.00258095
0.00252432
0.00246318
0.00239894
0.00220751
0.00197918
0.00173124
0.00147507
0.00121983
0.000974175
0.000752056
0.000581381
0.000509563
0.00276943
0.00276838
0.00276524
0.00276001
0.00275272
0.00274336
0.00273197
0.00271858
0.00270321
0.00268592
0.00266676
0.00264579
0.00262309
0.00259876
0.0025729
0.00254564
0.00251712
0.00248749
0.00245692
0.00242559
0.00239365
0.00229894
0.00220474
0.00208777
0.00197824
0.00184867
0.00173122
0.00159566
0.00147537
0.00133902
0.00122012
0.00108754
0.000974346
0.000851838
0.000752126
0.000652391
0.000581391
0.000526976
0.000509558
0.00275784
0.00275371
0.00274135
0.00272088
0.00269252
0.00265659
0.00261358
0.00256419
0.00250932
0.00245012
0.00238789
0.00220165
0.00197714
0.00173114
0.00147565
0.0012204
0.000974524
0.000752211
0.000581421
0.000509576
0.00274523
0.00274421
0.00274116
0.00273608
0.00272898
0.00271988
0.00270881
0.0026958
0.00268089
0.00266411
0.00264553
0.00262522
0.00260325
0.00257971
0.00255471
0.00252838
0.00250083
0.00247222
0.00244271
0.00241244
0.0023816
0.00228982
0.00219825
0.00208367
0.00197591
0.00184764
0.00173102
0.001596
0.00147593
0.00133968
0.0012207
0.00108804
0.000974713
0.000852126
0.00075231
0.000652532
0.00058147
0.000527036
0.000509614
0.00268151
0.00267774
0.00266648
0.00264785
0.00262211
0.00258961
0.00255086
0.0025065
0.00245734
0.00240431
0.00234851
0.00217894
0.00196764
0.00172898
0.00147651
0.00122174
0.000975441
0.000752739
0.000581745
0.000509875
0.00262065
0.00261978
0.00261718
0.00261285
0.00260681
0.00259908
0.0025897
0.00257868
0.00256608
0.00255193
0.00253631
0.00251925
0.00250085
0.00248118
0.00246032
0.00243835
0.0024154
0.00239154
0.00236691
0.00234158
0.0023157
0.00223779
0.0021585
0.00205654
0.00195805
0.00183777
0.00172612
0.00159491
0.00147664
0.00134146
0.00122255
0.00108978
0.000976064
0.000853268
0.000753188
0.000653352
0.000582143
0.000527708
0.000510294
0.00256303
0.00255985
0.00255034
0.00253465
0.00251301
0.00248576
0.00245332
0.00241623
0.00237511
0.00233062
0.0022835
0.00213749
0.00194741
0.00172243
0.00147627
0.00122308
0.00097657
0.000753653
0.00058265
0.000510849
0.00250878
0.00250805
0.00250586
0.00250222
0.00249715
0.00249065
0.00248277
0.00247352
0.00246295
0.00245108
0.00243798
0.00242369
0.00240826
0.00239176
0.00237425
0.0023558
0.00233648
0.00231637
0.00229554
0.00227406
0.00225202
0.00218517
0.00211601
0.00202532
0.00193576
0.00182377
0.00171785
0.00159109
0.00147535
0.00134171
0.00122332
0.00109077
0.000976956
0.000854227
0.000754138
0.000654457
0.000583279
0.000528957
0.000511561
0.00245787
0.0024552
0.0024472
0.00243401
0.00241583
0.00239291
0.00236561
0.00233433
0.00229954
0.00226172
0.00222142
0.00209442
0.00192333
0.00171244
0.00147382
0.00122321
0.000977204
0.000754637
0.000584022
0.00051242
0.00241018
0.00240956
0.00240772
0.00240465
0.00240037
0.00239489
0.00238824
0.00238044
0.00237151
0.00236149
0.00235041
0.00233832
0.00232525
0.00231126
0.00229639
0.00228069
0.00226422
0.00224702
0.00222917
0.00221071
0.00219169
0.00213361
0.00207274
0.00199168
0.00191016
0.00180622
0.00170618
0.00158433
0.00147166
0.00134012
0.00122275
0.00109086
0.000977317
0.00085498
0.000755157
0.000655847
0.000584887
0.00053077
0.000513434
0.00236549
0.00236322
0.00235645
0.00234526
0.00232981
0.00231032
0.00228705
0.00226031
0.00223045
0.00219785
0.00216289
0.00205116
0.00189644
0.00169914
0.00146886
0.0012219
0.000977278
0.00075569
0.000585866
0.000514596
0.00232357
0.00232305
0.00232147
0.00231885
0.0023152
0.00231052
0.00230484
0.00229817
0.00229053
0.00228194
0.00227245
0.00226207
0.00225084
0.00223879
0.00222597
0.0022124
0.00219814
0.00218322
0.00216769
0.00215158
0.00213494
0.00208381
0.00202967
0.00195667
0.00188216
0.00178565
0.00169131
0.00157461
0.00146539
0.00133649
0.00122067
0.00108994
0.000977098
0.000855515
0.000756248
0.000657533
0.00058697
0.00053315
0.000515915
0.00228414
0.00228219
0.00227636
0.00226673
0.00225341
0.00223657
0.00221642
0.00219319
0.00216715
0.00213859
0.00210782
0.00200833
0.00186746
0.00168277
0.00146127
0.00121902
0.000976759
0.000756823
0.00058819
0.000517383
0.00224692
0.00224646
0.00224509
0.00224282
0.00223965
0.00223559
0.00223065
0.00222485
0.0022182
0.00221073
0.00220245
0.00219339
0.00218357
0.00217303
0.00216179
0.00214987
0.00213733
0.00212417
0.00211045
0.00209618
0.00208142
0.0020358
0.0019871
0.00192078
0.0018523
0.00176246
0.00167349
0.00156198
0.00145648
0.00133072
0.00121696
0.00108795
0.000976278
0.000855836
0.000757431
0.000659535
0.000589538
0.000536103
0.00051901
0.00221158
0.00220987
0.00220477
0.00219632
0.00218464
0.00216984
0.00215209
0.00213157
0.0021085
0.0020831
0.00205562
0.00196595
0.00183673
0.00166353
0.00145103
0.00121449
0.000975643
0.000758065
0.000591008
0.000520791
0.00217781
0.00217741
0.0021762
0.0021742
0.0021714
0.00216781
0.00216344
0.00215831
0.00215243
0.00214581
0.00213847
0.00213042
0.0021217
0.00211232
0.0021023
0.00209167
0.00208046
0.00206869
0.00205638
0.00204357
0.00203028
0.00198907
0.00194478
0.00188402
0.0018207
0.00173681
0.00165284
0.00154649
0.00144492
0.00132278
0.00121161
0.00108487
0.000974874
0.000855969
0.000758741
0.00066188
0.000592611
0.000539647
0.000522734
0.00214528
0.00214376
0.00213921
0.00213169
0.00212126
0.00210804
0.00209215
0.00207375
0.002053
0.0020301
0.00200524
0.00192352
0.0018042
0.00164148
0.00143816
0.00120832
0.000973966
0.000759456
0.000594342
0.000524835
0.00211361
0.00211325
0.00211217
0.00211037
0.00210786
0.00210464
0.00210072
0.00209611
0.00209082
0.00208486
0.00207826
0.00207101
0.00206315
0.00205468
0.00204563
0.00203602
0.00202587
0.00201519
0.00200402
0.00199238
0.00198028
0.00194265
0.00190202
0.00184597
0.00178714
0.00170863
0.00162938
0.00152817
0.00143074
0.00131269
0.00120464
0.00108076
0.000972944
0.00085597
0.000760227
0.000664604
0.000596213
0.000543801
0.000527104
0.00208243
0.00208106
0.00207695
0.00207016
0.00206073
0.00204877
0.00203437
0.00201766
0.00199879
0.00197791
0.0019552
0.00188014
0.00176946
0.00161655
0.0014227
0.00120059
0.00097181
0.000761053
0.000598221
0.000529537
0.00205131
0.00205098
0.00205
0.00204836
0.00204609
0.00204316
0.00203961
0.00203542
0.00203062
0.00202521
0.0020192
0.00201261
0.00200545
0.00199774
0.00198949
0.00198072
0.00197145
0.00196169
0.00195147
0.00194081
0.00192972
0.00189515
0.00185769
0.0018058
0.00175105
0.00167759
0.00160294
0.001507
0.00141401
0.00130056
0.00119619
0.00107573
0.000970595
0.000855918
0.000761954
0.000667756
0.000600378
0.000548591
0.000532143
0.00201978
0.00201853
0.0020148
0.00200862
0.00200004
0.00198914
0.00197601
0.00196076
0.00194351
0.00192439
0.00190356
0.00183445
0.00173179
0.00158854
0.00140474
0.00119148
0.000969309
0.000762929
0.00060268
0.000534921
0.00198731
0.00198702
0.00198613
0.00198465
0.00198257
0.00197992
0.00197668
0.00197288
0.00196851
0.00196358
0.00195811
0.00195211
0.00194559
0.00193856
0.00193103
0.00192303
0.00191456
0.00190565
0.00189629
0.00188653
0.00187636
0.00184465
0.00181017
0.00176228
0.00171153
0.00164315
0.00157327
0.00148292
0.00139486
0.00128655
0.00118648
0.00106995
0.000967985
0.000855928
0.000764
0.000671393
0.00060514
0.00055405
0.000537881
0.00195335
0.00195221
0.00194883
0.00194324
0.00193547
0.0019256
0.00191369
0.00189985
0.00188417
0.00186678
0.00184778
0.0017846
0.00169013
0.00155713
0.00138443
0.00118124
0.00096664
0.000765171
0.000607762
0.000541025
0.00191715
0.00191687
0.00191607
0.00191473
0.00191289
0.0019105
0.00190761
0.00190419
0.00190028
0.00189586
0.00189096
0.00188556
0.00187971
0.00187338
0.00186662
0.00185941
0.0018518
0.00184376
0.00183533
0.00182652
0.00181736
0.00178865
0.00175738
0.00171378
0.0016674
0.00160457
0.00154003
0.00145588
0.00137346
0.00127092
0.00117581
0.00106368
0.000965314
0.000856142
0.000766462
0.000675576
0.000610552
0.000560206
0.00054436
0.00156041
0.00155984
0.00155807
0.00155514
0.00155106
0.00154584
0.00153952
0.00153212
0.00152369
0.00151426
0.00150388
0.00146871
0.00141418
0.00133317
0.00122008
0.00107515
0.000908594
0.000741535
0.000605589
0.000546944
0.00130707
0.00130696
0.00130669
0.00130622
0.00130559
0.00130476
0.00130377
0.00130258
0.00130123
0.00129969
0.00129799
0.00129609
0.00129405
0.00129182
0.00128943
0.00128686
0.00128415
0.00128126
0.00127822
0.00127502
0.00127167
0.00126103
0.00124928
0.0012324
0.00121388
0.00118795
0.00115983
0.00112171
0.00108141
0.0010289
0.000975754
0.000909835
0.0008472
0.000774436
0.000711058
0.000644893
0.000595753
0.000557403
0.000544987
0.00111578
0.00111554
0.00111482
0.00111362
0.00111195
0.00110982
0.00110722
0.00110417
0.00110068
0.00109675
0.00109241
0.00107743
0.00105354
0.00101644
0.000961205
0.000884038
0.000785817
0.000676862
0.000581078
0.000537984
0.000965722
0.000965681
0.000965559
0.000965356
0.000965071
0.000964705
0.000964258
0.00096373
0.000963121
0.000962433
0.000961665
0.000960818
0.000959893
0.000958889
0.000957809
0.000956651
0.000955418
0.000954109
0.000952727
0.00095127
0.000949743
0.000944868
0.000939428
0.000931535
0.000922818
0.000910305
0.000896684
0.000877496
0.000857027
0.000829089
0.000800179
0.000762521
0.000725474
0.000680371
0.000639629
0.000595403
0.00056169
0.000534728
0.000525903
0.000844315
0.000844203
0.00084386
0.000843289
0.000842491
0.000841468
0.000840222
0.000838756
0.000837071
0.000835173
0.000833063
0.000825761
0.000813951
0.00079522
0.000766446
0.000724432
0.000667834
0.00060089
0.000538411
0.000509192
0.00074357
0.000743547
0.000743486
0.000743382
0.00074324
0.000743055
0.000742831
0.000742564
0.000742259
0.000741911
0.000741526
0.000741098
0.000740632
0.000740125
0.00073958
0.000738994
0.000738372
0.000737708
0.000737009
0.00073627
0.000735494
0.000733015
0.000730239
0.000726202
0.000721703
0.000715231
0.000708086
0.00069796
0.000686973
0.000671762
0.000655721
0.000634353
0.00061284
0.000585955
0.000561012
0.000533241
0.000511584
0.000493928
0.000488116
0.000657856
0.000657796
0.000657618
0.000657322
0.000656907
0.000656375
0.000655727
0.000654963
0.000654086
0.000653095
0.000651994
0.000648165
0.000641931
0.000631942
0.000616354
0.00059306
0.000560665
0.000520822
0.000482135
0.000463522
0.000583402
0.000583391
0.000583358
0.000583304
0.000583228
0.00058313
0.00058301
0.000582869
0.000582707
0.000582522
0.000582317
0.00058209
0.000581842
0.000581572
0.000581282
0.000580971
0.000580639
0.000580285
0.000579912
0.000579518
0.000579104
0.00057778
0.000576293
0.000574125
0.000571705
0.000568202
0.000564328
0.000558793
0.000552758
0.000544319
0.00053534
0.000523216
0.00051086
0.00049515
0.000480353
0.000463583
0.00045031
0.000439335
0.00043571
0.00051732
0.000517288
0.000517192
0.000517032
0.000516808
0.000516521
0.000516171
0.000515758
0.000515283
0.000514747
0.00051415
0.000512073
0.00050868
0.000503214
0.000494611
0.000481589
0.00046315
0.00043994
0.000416832
0.000405502
0.000457593
0.000457587
0.000457569
0.000457539
0.000457498
0.000457445
0.00045738
0.000457303
0.000457214
0.000457114
0.000457002
0.000456878
0.000456743
0.000456596
0.000456437
0.000456267
0.000456086
0.000455893
0.00045569
0.000455475
0.000455248
0.000454525
0.000453712
0.000452525
0.000451198
0.000449275
0.000447141
0.000444084
0.000440737
0.000436034
0.000431003
0.00042416
0.000417134
0.000408114
0.000399538
0.000389712
0.000381859
0.000375306
0.000373135
0.000402628
0.00040261
0.000402558
0.00040247
0.000402348
0.000402191
0.000402
0.000401774
0.000401515
0.000401221
0.000400895
0.000399757
0.000397896
0.000394888
0.000390131
0.00038288
0.000372505
0.000359267
0.000345885
0.000339243
0.000351292
0.000351289
0.000351279
0.000351263
0.00035124
0.000351211
0.000351176
0.000351134
0.000351086
0.000351031
0.00035097
0.000350903
0.000350829
0.000350749
0.000350663
0.00035057
0.000350471
0.000350366
0.000350255
0.000350138
0.000350015
0.00034962
0.000349177
0.000348529
0.000347803
0.000346751
0.000345582
0.000343905
0.000342065
0.000339471
0.000336689
0.000332889
0.00032897
0.00032391
0.000319072
0.000313491
0.000309006
0.00030524
0.000303991
0.000302673
0.000302663
0.000302635
0.000302588
0.000302522
0.000302437
0.000302334
0.000302213
0.000302073
0.000301915
0.000301739
0.000301126
0.000300121
0.000298495
0.000295917
0.000291971
0.000286292
0.000278988
0.000271536
0.000267811
0.000256121
0.000256119
0.000256114
0.000256105
0.000256093
0.000256078
0.000256059
0.000256037
0.000256012
0.000255983
0.000255951
0.000255916
0.000255877
0.000255835
0.000255789
0.00025574
0.000255689
0.000255633
0.000255575
0.000255513
0.000255448
0.00025524
0.000255006
0.000254664
0.000254282
0.000253726
0.000253109
0.000252222
0.000251248
0.000249872
0.000248395
0.000246371
0.00024428
0.00024157
0.000238972
0.000235962
0.000233534
0.000231488
0.000230809
0.000211113
0.000211108
0.000211094
0.00021107
0.000211037
0.000210994
0.000210942
0.000210881
0.00021081
0.00021073
0.000210641
0.00021033
0.000209821
0.000208996
0.000207687
0.000205679
0.000202779
0.000199032
0.00019519
0.000193261
0.000167291
0.00016729
0.000167288
0.000167284
0.000167278
0.000167271
0.000167262
0.000167252
0.00016724
0.000167226
0.000167211
0.000167194
0.000167176
0.000167156
0.000167134
0.000167111
0.000167087
0.000167061
0.000167033
0.000167004
0.000166973
0.000166875
0.000166764
0.000166603
0.000166422
0.000166159
0.000165867
0.000165446
0.000164985
0.000164333
0.000163631
0.000162669
0.000161674
0.000160382
0.000159141
0.0001577
0.000156536
0.000155551
0.000155225
0.000124377
0.000124375
0.000124369
0.000124359
0.000124345
0.000124327
0.000124305
0.000124279
0.00012425
0.000124216
0.000124179
0.000124049
0.000123835
0.00012349
0.000122941
0.000122098
0.000120878
0.000119301
0.000117679
0.000116862
8.22183e-05
8.2218e-05
8.22172e-05
8.22158e-05
8.2214e-05
8.22115e-05
8.22086e-05
8.22051e-05
8.22011e-05
8.21966e-05
8.21916e-05
8.21859e-05
8.21798e-05
8.21732e-05
8.21661e-05
8.21583e-05
8.21502e-05
8.21414e-05
8.21322e-05
8.21225e-05
8.21123e-05
8.20794e-05
8.20427e-05
8.19886e-05
8.19285e-05
8.18405e-05
8.17433e-05
8.16027e-05
8.1449e-05
8.12308e-05
8.09968e-05
8.06751e-05
8.03422e-05
7.99102e-05
7.94945e-05
7.90111e-05
7.8622e-05
7.82871e-05
7.81805e-05
4.07363e-05
4.07359e-05
4.07347e-05
4.07327e-05
4.073e-05
4.07264e-05
4.07221e-05
4.0717e-05
4.07111e-05
4.07044e-05
4.0697e-05
4.06711e-05
4.06287e-05
4.05599e-05
4.04508e-05
4.02831e-05
4.00411e-05
3.97285e-05
3.94108e-05
3.92489e-05
-0
-0
-0
-0
-0
-0
-0
-0
-0
-0
-0
-0
-0
-0
-0
-0
-0
-0
-0
-0
-0
-0
-0
-0
-0
-0
-0
-0
-0
-0
-0
-0
-0
-0
-0
-0
-0
-0
-0
SCALARS Stress_R double 1
LOOKUP_TABLE default
31.9997
31.9232
31.8686
31.6959
31.5283
31.245
30.9683
30.5801
30.1989
29.7145
29.2416
28.672
28.1141
27.4811
26.8922
26.1524
25.6888
25.2284
24.3767
22.2431
13.5961
5.70621
4.13326
3.04055
1.36203
0.337135
-0.515446
-0.86097
-1.12291
-1.16813
-1.16964
-1.19635
-1.20339
-1.26164
-1.30123
-1.32575
-1.32832
-1.27724
-1.23592
28.9575
28.8347
28.5154
27.9862
27.2511
26.3119
25.1705
23.7889
21.949
18.485
13.0137
5.29144
1.63946
-0.231574
-0.892537
-1.00833
-1.08638
-1.20609
-1.24537
-1.16218
26.1386
26.0679
26.0224
25.8678
25.7225
25.4671
25.2222
24.8648
24.5191
24.0553
23.606
23.0234
22.4622
21.7264
21.0216
20.0266
19.0882
17.7505
15.1156
14.7506
13.4164
8.34775
5.60199
3.50934
1.89459
0.926117
0.0140691
-0.351562
-0.669421
-0.780165
-0.847713
-0.923663
-0.969151
-1.05221
-1.1107
-1.1492
-1.16344
-1.12754
-1.09021
23.2893
23.1794
22.8987
22.4272
21.7562
20.8685
19.7206
18.2297
16.1588
13.2278
12.7045
6.17539
2.04815
0.263649
-0.453302
-0.691906
-0.856004
-1.01764
-1.08324
-1.01961
20.6322
20.5686
20.531
20.3961
20.2722
20.0476
19.8351
19.5151
19.2088
18.7835
18.3714
17.8214
17.2868
16.5864
15.858
14.9932
13.9672
13.0728
11.8407
11.5919
11.5465
8.12095
6.39216
3.90244
2.17067
1.36883
0.478864
0.110632
-0.247656
-0.407731
-0.539337
-0.652986
-0.743438
-0.843865
-0.924872
-0.973673
-1.00271
-0.976908
-0.948382
17.9481
17.8561
17.6191
17.2166
16.6349
15.8517
14.8267
13.5201
11.8902
10.4544
10.4374
6.30613
2.32255
0.700459
-0.0410987
-0.386689
-0.631747
-0.832834
-0.922996
-0.877942
15.4275
15.3764
15.346
15.2368
15.1361
14.953
14.7785
14.5157
14.2604
13.9103
13.5608
13.1163
12.6567
12.1238
11.5094
10.9564
10.2157
9.81486
9.19811
9.0609
9.28789
7.12407
6.12231
3.97081
2.4064
1.69316
0.898067
0.5311
0.156174
-0.048387
-0.237157
-0.385876
-0.521207
-0.63733
-0.741451
-0.799384
-0.843338
-0.826935
-0.807283
12.885
12.8146
12.632
12.3202
11.8673
11.2587
10.483
9.55282
8.59866
7.94714
8.10139
5.76426
2.52115
1.09418
0.354274
-0.0874369
-0.410863
-0.650317
-0.764076
-0.737073
10.4681
10.4327
10.4106
10.3337
10.2614
10.132
10.0059
9.82082
9.63489
9.39251
9.1383
8.84479
8.51462
8.19697
7.79749
7.5242
7.11703
6.9836
6.71713
6.70223
6.98354
5.78466
5.36255
3.73439
2.56958
1.93554
1.27618
0.919372
0.545691
0.300632
0.0600361
-0.122184
-0.301585
-0.43255
-0.559827
-0.626252
-0.685016
-0.67758
-0.666861
8.0362
7.99224
7.87686
7.67932
7.39332
7.01602
6.55808
6.06981
5.66895
5.50997
5.8353
4.8732
2.62384
1.45624
0.7374
0.207403
-0.192417
-0.469446
-0.606133
-0.59687
5.68508
5.66859
5.65627
5.61826
5.57979
5.51549
5.44833
5.35752
5.25805
5.14423
5.00957
4.8854
4.71869
4.61375
4.43566
4.39569
4.26222
4.31891
4.29457
4.40498
4.7434
4.28156
4.3681
3.31215
2.63659
2.1206
1.62929
1.28576
0.925105
0.641524
0.353178
0.138251
-0.0841476
-0.22953
-0.379617
-0.454214
-0.527507
-0.528824
-0.527007
3.32738
3.31435
3.27756
3.21405
3.12308
3.01006
2.89555
2.82782
2.87932
3.10392
3.63628
3.82289
2.64447
1.8017
1.11234
0.498521
0.0239522
-0.289861
-0.448925
-0.457188
0.998905
1.00401
1.00272
1.00872
1.00886
1.01785
1.01812
1.03203
1.03144
1.05597
1.05565
1.10329
1.11096
1.20265
1.23721
1.39505
1.49069
1.71551
1.89011
2.13815
2.56361
2.7206
3.28491
2.80255
2.63766
2.27564
1.97377
1.64116
1.29829
0.97673
0.642863
0.395641
0.131326
-0.0282639
-0.200548
-0.283203
-0.370624
-0.380652
-0.387598
-1.32646
-1.30534
-1.25543
-1.17163
-1.05082
-0.884346
-0.653494
-0.327174
0.125086
0.704752
1.49082
2.73688
2.62601
2.1453
1.4829
0.786442
0.23846
-0.111286
-0.292247
-0.317886
-3.67928
-3.65115
-3.64048
-3.58747
-3.54562
-3.45874
-3.38573
-3.26183
-3.15645
-2.98996
-2.84912
-2.63124
-2.44785
-2.16835
-1.93117
-1.5859
-1.28088
-0.884304
-0.519085
-0.115174
0.435224
1.16799
2.21627
2.28845
2.62492
2.43305
2.32403
1.99664
1.66902
1.30875
0.929658
0.650198
0.345046
0.171258
-0.0223683
-0.113156
-0.214185
-0.233049
-0.248508
-6.01873
-5.96198
-5.82148
-5.58411
-5.24406
-4.79248
-4.21727
-3.50656
-2.66053
-1.70817
-0.608058
1.70893
2.62391
2.50108
1.85287
1.07182
0.4514
0.0665902
-0.135884
-0.17882
-8.44532
-8.39368
-8.37084
-8.27011
-8.18572
-8.01984
-7.8725
-7.6373
-7.42369
-7.11414
-6.82999
-6.44126
-6.08152
-5.61227
-5.17401
-4.63257
-4.11571
-3.52681
-2.95413
-2.36727
-1.64679
-0.323863
1.24902
1.84692
2.65781
2.62834
2.69378
2.36296
2.04118
1.63996
1.21434
0.902098
0.557361
0.369036
0.155251
0.0559921
-0.0579867
-0.0859953
-0.109624
-10.8479
-10.7559
-10.5258
-10.136
-9.57712
-8.8394
-7.91567
-6.80823
-5.54095
-4.15935
-2.65528
0.825
2.6973
2.88263
2.22642
1.35584
0.663436
0.244271
0.0204466
-0.0398551
-13.395
-13.3231
-13.2878
-13.1423
-13.0165
-12.7753
-12.5556
-12.2123
-11.8926
-11.4411
-11.0147
-10.4512
-9.91308
-9.24156
-8.59312
-7.83077
-7.08493
-6.26312
-5.45399
-4.62453
-3.67434
-1.69874
0.474185
1.55554
2.79998
2.89733
3.09702
2.75022
2.41917
1.97263
1.49815
1.1515
0.768958
0.56508
0.332814
0.224308
0.0982304
0.0605422
0.0291371
-15.9093
-15.7866
-15.474
-14.9418
-14.1742
-13.1551
-11.8745
-10.3399
-8.58951
-6.69795
-4.64411
0.168096
2.90482
3.30666
2.61125
1.64205
0.876408
0.422748
0.177172
0.0991197
-8.50349
-8.44626
-8.43091
-8.33345
-8.26133
-8.10251
-7.97022
-7.74413
-7.5452
-7.24553
-6.97237
-6.59431
-6.24027
-5.7847
-5.34801
-4.82548
-4.31541
-3.75236
-3.19924
-2.63374
-1.93491
-0.608999
0.876341
1.51469
2.2965
2.21149
2.28284
1.95847
1.70261
1.37356
1.04962
0.823147
0.57461
0.450372
0.303706
0.234913
0.155449
0.124433
0.103108
1.16326
1.17623
1.1804
1.18782
1.20009
1.21844
1.24379
1.27586
1.31336
1.35194
1.42899
1.51
1.34815
0.979418
0.599311
0.324384
0.178007
0.112911
0.075907
0.0577979
0.884462
0.911422
0.898029
0.914915
0.903253
0.922367
0.912749
0.934607
0.928043
0.95279
0.95044
0.977925
0.980981
1.0104
1.01989
1.04951
1.06559
1.09314
1.11352
1.13424
1.18991
1.17093
1.30705
1.12533
1.21549
0.93787
0.911744
0.668863
0.571639
0.423261
0.317765
0.259056
0.183891
0.168955
0.128893
0.119296
0.0980809
0.0918065
0.0808368
0.597113
0.611646
0.622212
0.639696
0.664358
0.695889
0.733551
0.775964
0.82053
0.866438
0.929543
1.04932
1.0326
0.829271
0.549557
0.319588
0.194698
0.147057
0.122368
0.105728
0.367433
0.391409
0.381434
0.398872
0.392693
0.413523
0.411332
0.435427
0.437687
0.464524
0.471525
0.500391
0.512245
0.542096
0.558539
0.587979
0.608977
0.636145
0.658589
0.682009
0.727684
0.745693
0.864515
0.780464
0.89058
0.712182
0.744847
0.555734
0.511381
0.383946
0.310255
0.260213
0.202292
0.194098
0.165166
0.159785
0.145843
0.137738
0.129123
0.185698
0.199164
0.211232
0.230859
0.257808
0.291282
0.330191
0.373159
0.418354
0.463827
0.520758
0.65321
0.719873
0.646776
0.473198
0.304855
0.21199
0.183245
0.169191
0.152703
-0.0126783
0.00733197
-4.36409e-05
0.015604
0.012474
0.0317296
0.0328818
0.0553941
0.0609916
0.0860983
0.0960856
0.123021
0.137176
0.165036
0.18282
0.210584
0.231476
0.258186
0.280636
0.304991
0.340362
0.38198
0.485003
0.462247
0.580009
0.476644
0.55225
0.4175
0.424955
0.325593
0.290985
0.253616
0.21915
0.217933
0.201795
0.200582
0.19293
0.184135
0.176264
-0.142106
-0.130694
-0.119125
-0.100353
-0.074722
-0.0430332
-0.00628958
0.0343419
0.077386
0.121889
0.172729
0.308382
0.422638
0.446258
0.374805
0.279535
0.228069
0.220473
0.21641
0.199704
-0.324248
-0.308318
-0.313597
-0.300399
-0.301646
-0.284989
-0.282216
-0.262464
-0.25564
-0.233379
-0.222671
-0.198539
-0.18424
-0.158943
-0.14153
-0.11583
-0.0957092
-0.0703804
-0.0487674
-0.0245528
0.00500494
0.0590452
0.149857
0.168728
0.285674
0.244184
0.346794
0.267828
0.32044
0.255766
0.263283
0.242173
0.235832
0.241363
0.239956
0.241787
0.240519
0.230742
0.223453
-0.431555
-0.422079
-0.411451
-0.394176
-0.370568
-0.341303
-0.307189
-0.269146
-0.228226
-0.185426
-0.138582
-0.00221408
0.142815
0.24055
0.263797
0.247771
0.244227
0.259131
0.264147
0.246848
-0.610781
-0.598186
-0.601889
-0.590843
-0.590822
-0.576512
-0.572811
-0.555535
-0.548167
-0.528393
-0.51753
-0.495761
-0.481673
-0.458448
-0.441533
-0.417419
-0.398088
-0.373637
-0.352593
-0.328451
-0.302549
-0.240065
-0.156902
-0.10802
0.00757573
0.01712
0.139154
0.114228
0.206529
0.180665
0.230923
0.229152
0.253262
0.265811
0.279782
0.284043
0.288716
0.277843
0.270837
-0.713222
-0.705257
-0.695339
-0.679156
-0.656969
-0.629315
-0.596832
-0.560239
-0.520349
-0.477904
-0.432962
-0.293378
-0.123277
0.0362584
0.147717
0.213642
0.261845
0.299622
0.312592
0.294284
-0.902337
-0.892268
-0.894717
-0.885248
-0.884184
-0.871512
-0.866967
-0.851336
-0.843342
-0.825116
-0.81383
-0.793402
-0.779056
-0.756846
-0.739756
-0.716211
-0.696707
-0.672292
-0.650954
-0.626141
-0.601725
-0.531143
-0.450416
-0.376557
-0.259067
-0.204908
-0.065286
-0.038081
0.0907373
0.106021
0.198396
0.218035
0.27302
0.292741
0.321685
0.327909
0.337718
0.325708
0.318574
-1.01105
-1.00411
-0.994323
-0.978313
-0.956279
-0.928658
-0.895969
-0.858799
-0.817796
-0.77354
-0.727616
-0.578556
-0.380933
-0.162882
0.0333773
0.181666
0.282567
0.342355
0.361927
0.342155
-1.22378
-1.2153
-1.21683
-1.20814
-1.20607
-1.19406
-1.18846
-1.1733
-1.16422
-1.1462
-1.13378
-1.11322
-1.09767
-1.07493
-1.05653
-1.03198
-1.01108
-0.985073
-0.962085
-0.93508
-0.91008
-0.828682
-0.744291
-0.645617
-0.519796
-0.423578
-0.26315
-0.18513
-0.0200878
0.0374013
0.170437
0.212635
0.29681
0.323793
0.366048
0.373952
0.387692
0.374603
0.366807
-1.34754
-1.3408
-1.33039
-1.31325
-1.28958
-1.25978
-1.22431
-1.18368
-1.13846
-1.08934
-1.03884
-0.870232
-0.63577
-0.354481
-0.0729534
0.156562
0.308169
0.387733
0.412326
0.390608
-1.59931
-1.59196
-1.5925
-1.58397
-1.5806
-1.56822
-1.56092
-1.54493
-1.53378
-1.51443
-1.49958
-1.47716
-1.45883
-1.43367
-1.41214
-1.38461
-1.36013
-1.33068
-1.30369
-1.27284
-1.24401
-1.14716
-1.05062
-0.923673
-0.780042
-0.640172
-0.452397
-0.322302
-0.120085
-0.0189201
0.151651
0.217146
0.326446
0.360643
0.413343
0.422676
0.43885
0.424768
0.415696
-1.7457
-1.73904
-1.72681
-1.70678
-1.67907
-1.64408
-1.60228
-1.5542
-1.50051
-1.44164
-1.38146
-1.17867
-0.891802
-0.535811
-0.165364
0.14268
0.340201
0.436096
0.463977
0.439819
-2.05964
-2.05052
-2.05124
-2.04065
-2.03653
-2.0213
-2.01247
-1.99274
-1.97921
-1.95531
-1.93726
-1.90953
-1.8872
-1.856
-1.82966
-1.79539
-1.76532
-1.72835
-1.69557
-1.65639
-1.62229
-1.49933
-1.38225
-1.21728
-1.04405
-0.854225
-0.628043
-0.44459
-0.19979
-0.0573043
0.148822
0.235363
0.363872
0.40514
0.463289
0.474934
0.490682
0.476742
0.464807
-2.23908
-2.2296
-2.21431
-2.18881
-2.15359
-2.10914
-2.05605
-1.995
-1.92673
-1.85165
-1.77482
-1.51827
-1.15525
-0.705053
-0.237046
0.146617
0.382285
0.488707
0.517037
0.489448
-1.32132
-1.31552
-1.31548
-1.30804
-1.30482
-1.29422
-1.28762
-1.27381
-1.26389
-1.2471
-1.23398
-1.21445
-1.19835
-1.17636
-1.15749
-1.13335
-1.11207
-1.08601
-1.06267
-1.03587
-1.00914
-0.924331
-0.841446
-0.725759
-0.608203
-0.473692
-0.326991
-0.197077
-0.0462434
0.0509038
0.170633
0.222052
0.291294
0.307976
0.335428
0.334808
0.339116
0.325986
0.317057
0.0599368
0.0602605
0.0606766
0.0613994
0.0624159
0.0637113
0.0652724
0.0670833
0.0691308
0.0713345
0.0727694
0.0809522
0.093151
0.10969
0.12809
0.142648
0.148028
0.143862
0.134249
0.123643
0.0343931
0.0346021
0.0346361
0.0349659
0.0351581
0.0356545
0.03601
0.0366662
0.037182
0.0379924
0.0386626
0.0396185
0.0404347
0.041526
0.0424788
0.0436936
0.0447681
0.0460924
0.0473314
0.0487374
0.0505312
0.0547322
0.0589877
0.0656231
0.0717641
0.0802568
0.0885932
0.0976322
0.107864
0.11486
0.125531
0.127838
0.136465
0.133528
0.138276
0.13187
0.133179
0.125163
0.12443
0.0710843
0.0711526
0.0713234
0.0715851
0.071946
0.0724051
0.0729608
0.0736106
0.0743523
0.0751913
0.0760772
0.0789285
0.0833972
0.090078
0.0995047
0.111115
0.12213
0.128767
0.12932
0.123803
0.0649074
0.0649964
0.0649901
0.0650823
0.0651256
0.0652742
0.0653671
0.0655645
0.0657064
0.0659505
0.0661405
0.0664295
0.0666665
0.0669986
0.0672805
0.0676538
0.0679779
0.0683889
0.0687482
0.0692061
0.0695066
0.071065
0.0723359
0.0747942
0.0768741
0.0804038
0.0836282
0.088283
0.0928771
0.0981755
0.104014
0.108696
0.115119
0.117464
0.123308
0.122081
0.126191
0.12105
0.122486
0.0804538
0.0805015
0.0805673
0.0806793
0.0808369
0.081039
0.0812848
0.0815733
0.0819041
0.0822726
0.0825695
0.0839439
0.0861611
0.0896113
0.0946557
0.101465
0.109552
0.117105
0.12132
0.11917
0.0787499
0.07878
0.0787785
0.0788223
0.0788425
0.0789073
0.0789481
0.0790336
0.079095
0.0792008
0.0792826
0.0794086
0.0795106
0.0796563
0.0797781
0.0799431
0.0800839
0.0802675
0.0804299
0.0806298
0.080827
0.0814832
0.0820459
0.0831789
0.0840734
0.0858011
0.0872136
0.0896957
0.0918843
0.0950953
0.0983092
0.10179
0.106023
0.108741
0.113483
0.114028
0.118243
0.115205
0.117184
0.087261
0.087278
0.0873141
0.087372
0.0874527
0.0875561
0.0876819
0.0878297
0.087999
0.0881902
0.0883778
0.0890634
0.0901915
0.0919921
0.0947808
0.0988378
0.104132
0.109888
0.114179
0.113604
0.0869437
0.0869619
0.086961
0.0869819
0.0869911
0.0870232
0.0870428
0.0870852
0.087115
0.0871675
0.0872076
0.0872701
0.0873204
0.0873927
0.0874532
0.0875351
0.0876056
0.087697
0.087777
0.0878785
0.0879498
0.0883019
0.0885771
0.0891633
0.0896194
0.0905287
0.0912718
0.092625
0.0937981
0.095674
0.0974502
0.0997416
0.102267
0.104441
0.107635
0.108599
0.111837
0.11013
0.111841
0.0919295
0.0919407
0.0919594
0.0919906
0.0920345
0.0920907
0.0921593
0.0922401
0.0923328
0.092437
0.0925314
0.0929158
0.09355
0.0945691
0.0961599
0.0985365
0.101814
0.105691
0.108969
0.108962
0.0920048
0.0920135
0.092013
0.0920246
0.0920298
0.092047
0.0920577
0.0920804
0.0920966
0.0921248
0.0921464
0.09218
0.092207
0.092246
0.0922785
0.0923228
0.0923606
0.0924102
0.0924537
0.0925084
0.0925531
0.0927402
0.0928897
0.0932104
0.0934553
0.0939628
0.0943626
0.0951376
0.0957839
0.0968935
0.0979098
0.0993313
0.100842
0.102314
0.104344
0.105171
0.107384
0.10643
0.10767
0.0950065
0.0950121
0.095023
0.0950407
0.0950656
0.0950975
0.0951364
0.0951822
0.0952349
0.0952942
0.0953509
0.0955677
0.0959279
0.0965111
0.0974349
0.0988407
0.100831
0.103289
0.105512
0.105647
0.0951685
0.0951737
0.0951735
0.0951799
0.0951827
0.0951924
0.0951983
0.095211
0.0952201
0.0952359
0.095248
0.0952668
0.095282
0.0953039
0.0953221
0.0953469
0.0953682
0.095396
0.0954204
0.0954512
0.095474
0.0955812
0.0956649
0.0958466
0.0959853
0.0962743
0.0965026
0.0969482
0.0973188
0.0979702
0.0985579
0.0994208
0.100315
0.101252
0.102496
0.103083
0.1045
0.103963
0.104782
0.0969941
0.0969976
0.0970037
0.0970139
0.0970282
0.0970465
0.0970689
0.0970952
0.0971255
0.0971597
0.0971917
0.0973173
0.097526
0.0978646
0.0984027
0.0992286
0.100417
0.101922
0.103333
0.10346
0.0971826
0.0971855
0.0971853
0.097189
0.0971906
0.097196
0.0971994
0.0972066
0.0972117
0.0972207
0.0972275
0.0972382
0.0972468
0.0972592
0.0972695
0.0972835
0.0972956
0.0973113
0.0973251
0.0973426
0.0973559
0.0974166
0.0974637
0.0975674
0.0976454
0.0978112
0.0979397
0.0981972
0.0984073
0.0987871
0.0991243
0.0996342
0.100155
0.100722
0.101463
0.101831
0.102701
0.102381
0.102896
0.0983197
0.0983216
0.0983251
0.0983308
0.0983389
0.0983492
0.0983618
0.0983766
0.0983937
0.0984129
0.0984311
0.0985015
0.098619
0.09881
0.0991147
0.099585
0.100267
0.101143
0.101978
0.102052
0.0985971
0.0985988
0.0985987
0.0986007
0.0986014
0.0986044
0.098606
0.0986099
0.0986125
0.0986173
0.0986208
0.0986265
0.0986309
0.0986375
0.0986428
0.0986503
0.0986565
0.0986648
0.098672
0.0986812
0.0986877
0.0987203
0.0987441
0.0987996
0.0988393
0.098928
0.0989938
0.0991316
0.0992399
0.0994435
0.0996191
0.0998927
0.100169
0.100471
0.100873
0.101058
0.101547
0.101332
0.101633
0.0993755
0.0993765
0.0993781
0.0993807
0.0993844
0.0993892
0.099395
0.0994018
0.0994096
0.0994185
0.0994264
0.0994582
0.0995116
0.0995986
0.0997379
0.0999538
0.100269
0.100675
0.10106
0.101055
0.0999377
0.0999385
0.0999382
0.099939
0.0999389
0.0999399
0.0999401
0.0999413
0.0999417
0.0999432
0.0999438
0.0999455
0.0999464
0.0999483
0.0999494
0.0999515
0.0999529
0.0999552
0.0999568
0.0999593
0.0999596
0.0999696
0.099973
0.0999898
0.0999957
0.100022
0.100033
0.100073
0.100092
0.10015
0.100185
0.100255
0.10032
0.10038
0.100495
0.10048
0.100652
0.10046
0.10059
0.100627
0.100627
0.100627
0.100626
0.100625
0.100624
0.100623
0.100621
0.10062
0.100618
0.100616
0.100607
0.100594
0.100572
0.100538
0.100485
0.100408
0.100306
0.100186
0.100059
0.101757
0.101757
0.101756
0.101755
0.101754
0.101753
0.101751
0.101749
0.101746
0.101744
0.101741
0.101737
0.101733
0.101729
0.101725
0.10172
0.101715
0.10171
0.101704
0.101698
0.101692
0.101673
0.101649
0.101618
0.101579
0.101529
0.101466
0.101385
0.101286
0.101159
0.101011
0.100821
0.100616
0.100353
0.100108
0.0997985
0.0996058
0.0993331
0.0993463
SCALARS Stress_Theta double 1
LOOKUP_TABLE default
31.9997
31.9407
31.9027
31.8003
31.6936
31.5236
31.3499
31.1143
30.8759
30.5799
30.2844
29.9307
29.5789
29.1908
28.8252
28.3356
28.0101
27.8192
27.2693
26.2531
19.4976
13.0398
11.7578
10.0283
8.24792
6.67962
5.40045
4.27526
3.39173
2.62461
2.05248
1.50642
1.09571
0.690398
0.379287
0.0908328
-0.124604
-0.304073
-0.43013
28.9575
28.8666
28.6708
28.3469
27.8963
27.3203
26.6195
25.7777
24.6856
22.5751
17.1326
11.0545
7.58286
4.99759
3.16865
1.9294
1.03555
0.360616
-0.115199
-0.404082
26.1386
26.0835
26.0523
25.9604
25.8686
25.7157
25.5633
25.3483
25.1346
24.8558
24.5796
24.2311
23.8881
23.4559
23.0323
22.4594
21.8982
21.1728
19.5775
18.5683
15.7908
11.4041
9.90357
8.24582
6.91748
5.68354
4.5856
3.68257
2.94618
2.29886
1.80815
1.33401
0.976468
0.618383
0.342712
0.0858041
-0.106559
-0.268392
-0.379662
23.2893
23.2073
23.0357
22.7485
22.3404
21.8016
21.1071
20.2052
18.9231
16.8454
14.3206
9.09648
6.2147
4.19822
2.72397
1.68537
0.915366
0.323726
-0.0988015
-0.355842
20.6322
20.5821
20.5567
20.4764
20.3989
20.2648
20.1336
19.9421
19.7541
19.4995
19.2471
18.9186
18.5903
18.1632
17.7043
17.1666
16.4873
15.6747
14.5238
13.6524
12.6146
9.15063
8.1228
6.67735
5.53782
4.67761
3.79649
3.09875
2.49882
1.97411
1.5616
1.16417
0.854549
0.547491
0.304928
0.0809392
-0.0904618
-0.23164
-0.331258
17.9481
17.8795
17.7346
17.4892
17.1341
16.6535
16.0143
15.1635
13.9672
12.4138
10.9534
7.14837
4.90578
3.41628
2.27883
1.43934
0.793752
0.286035
-0.082459
-0.306973
15.4275
15.3873
15.3666
15.3016
15.2382
15.1285
15.02
14.8613
14.7024
14.4884
14.268
13.9885
13.6881
13.3298
12.8997
12.4464
11.8266
11.2729
10.4678
9.84141
9.36092
6.92134
6.18797
5.1227
4.25859
3.67582
3.02805
2.51971
2.05586
1.65146
1.31599
0.99583
0.73264
0.477305
0.266937
0.0761845
-0.0742833
-0.195213
-0.282344
12.885
12.8323
12.7194
12.5263
12.2428
11.8529
11.33
10.6349
9.73225
8.66108
7.74926
5.22099
3.66288
2.65055
1.83771
1.1941
0.672024
0.248036
-0.0661887
-0.257844
10.4681
10.4402
10.4247
10.3782
10.3315
10.2522
10.1712
10.0553
9.93406
9.77646
9.60416
9.39871
9.15768
8.89718
8.56163
8.24321
7.7976
7.43078
6.92019
6.51638
6.26317
4.69917
4.27552
3.55764
3.04031
2.68855
2.27136
1.94414
1.61771
1.33119
1.07177
0.828852
0.611142
0.407807
0.228919
0.0715872
-0.0580831
-0.158967
-0.233221
8.0362
8.00275
7.92838
7.79972
7.60812
7.34083
6.98028
6.5094
5.92665
5.27223
4.76132
3.32035
2.44952
1.89806
1.40134
0.950606
0.550825
0.210078
-0.0499274
-0.208616
5.68508
5.67194
5.66254
5.63786
5.61073
5.5676
5.51985
5.45573
5.38203
5.29377
5.18554
5.06977
4.91534
4.77031
4.55871
4.38578
4.12363
3.92569
3.64834
3.43359
3.34338
2.47188
2.38182
2.00341
1.84127
1.71153
1.52596
1.37194
1.18431
1.01303
0.829396
0.66304
0.490372
0.338857
0.191089
0.067119
-0.0418299
-0.122834
-0.184026
3.32738
3.31633
3.28672
3.23365
3.15107
3.03053
2.86251
2.64141
2.37283
2.08398
1.91462
1.42807
1.24715
1.15658
0.96933
0.709037
0.430447
0.172389
-0.0336024
-0.159371
0.998905
1.0026
0.999996
0.99997
0.995061
0.992911
0.983511
0.978005
0.960321
0.94985
0.918295
0.901388
0.849889
0.825922
0.751371
0.720811
0.632917
0.59469
0.512654
0.468857
0.526077
0.230649
0.488127
0.458163
0.64682
0.740618
0.790217
0.803379
0.754949
0.69689
0.588954
0.498235
0.37052
0.270316
0.153624
0.0627344
-0.0254725
-0.0867744
-0.134838
-1.32646
-1.31281
-1.29289
-1.26205
-1.22341
-1.18155
-1.14122
-1.10441
-1.06821
-1.0205
-0.871824
-0.472659
0.0464167
0.422846
0.540932
0.469409
0.311075
0.135151
-0.017142
-0.110163
-3.67928
-3.65766
-3.65286
-3.62643
-3.60716
-3.56529
-3.53267
-3.47532
-3.43118
-3.35879
-3.30585
-3.21901
-3.15974
-3.05954
-2.9944
-2.88291
-2.80569
-2.68733
-2.59195
-2.47222
-2.26619
-2.04647
-1.42226
-1.08837
-0.550345
-0.226285
0.0607255
0.238651
0.328873
0.382733
0.350501
0.334273
0.251765
0.202049
0.116686
0.0583861
-0.00895732
-0.0507537
-0.0857224
-6.01873
-5.97925
-5.90716
-5.78768
-5.62089
-5.40802
-5.15107
-4.85232
-4.5146
-4.13962
-3.67256
-2.39913
-1.1595
-0.306869
0.115538
0.231849
0.192944
0.0985606
-0.000475289
-0.0610509
-8.44532
-8.40531
-8.39287
-8.3394
-8.29515
-8.20816
-8.13192
-8.00994
-7.90137
-7.74361
-7.60272
-7.40915
-7.23598
-7.00827
-6.80303
-6.54612
-6.30699
-6.02911
-5.75921
-5.47487
-5.10774
-4.39026
-3.36756
-2.64786
-1.75617
-1.19026
-0.666177
-0.322317
-0.0942557
0.07041
0.114295
0.170945
0.134377
0.133918
0.0804653
0.054036
0.007757
-0.0147234
-0.0367774
-10.8479
-10.7828
-10.6584
-10.4497
-10.1531
-9.76625
-9.28836
-8.72223
-8.07737
-7.36582
-6.55748
-4.37171
-2.37731
-1.03587
-0.306755
-0.00303049
0.0765299
0.0628988
0.0164631
-0.0121444
-13.395
-13.3394
-13.3189
-13.24
-13.1708
-13.0405
-12.921
-12.7359
-12.5633
-12.3206
-12.092
-11.7902
-11.5029
-11.1436
-10.7971
-10.3868
-9.98396
-9.5368
-9.09124
-8.61981
-8.07342
-6.83599
-5.36689
-4.23306
-2.97363
-2.15283
-1.39259
-0.880061
-0.51392
-0.240307
-0.119064
0.00806921
0.0187395
0.0658314
0.0451569
0.0496919
0.0246573
0.0214126
0.0117992
-15.9093
-15.8218
-15.6483
-15.3549
-14.9333
-14.3757
-13.6764
-12.8365
-11.8692
-10.8033
-9.61472
-6.41921
-3.61075
-1.76296
-0.722921
-0.233219
-0.0371753
0.0285737
0.0336942
0.0363166
-8.50349
-8.45795
-8.45272
-8.40264
-8.37045
-8.29082
-8.22971
-8.11717
-8.02365
-7.87487
-7.74457
-7.5565
-7.38482
-7.15655
-6.94022
-6.67458
-6.41476
-6.12042
-5.828
-5.52736
-5.13896
-4.33699
-3.35684
-2.6807
-1.8705
-1.43102
-0.946346
-0.66452
-0.427741
-0.255076
-0.165862
-0.0616394
-0.038736
0.0164546
0.0185552
0.0375369
0.0339268
0.0396578
0.0414595
1.16326
1.17049
1.15241
1.12212
1.08074
1.02923
0.968922
0.901416
0.829233
0.754182
0.713699
0.561439
0.371487
0.181747
0.0522651
0.00177863
0.00710106
0.0245564
0.0301505
0.0315424
0.884462
0.908438
0.892474
0.897406
0.875671
0.875345
0.848229
0.843304
0.811829
0.802732
0.768275
0.755508
0.719863
0.703813
0.669162
0.649945
0.618289
0.5958
0.567394
0.541621
0.545784
0.418496
0.4488
0.23626
0.293338
0.0918438
0.121367
0.00558003
0.00897689
-0.0182908
-0.0254593
0.000172111
-0.00643489
0.0246382
0.0223191
0.036845
0.0364671
0.0436143
0.0435347
0.597113
0.606275
0.59598
0.578761
0.555411
0.526507
0.492835
0.45535
0.414786
0.374091
0.350401
0.272919
0.172776
0.0602744
-0.0198844
-0.04102
-0.0147218
0.022118
0.0446915
0.0571233
0.367433
0.388802
0.376429
0.383463
0.36834
0.372425
0.35499
0.356419
0.33745
0.336264
0.316584
0.312885
0.293402
0.287258
0.268818
0.260257
0.244126
0.233004
0.218116
0.20432
0.209686
0.137732
0.166579
0.0342902
0.0952757
-0.0500807
0.00395703
-0.0894766
-0.0587808
-0.0779756
-0.0646698
-0.0329582
-0.0253449
0.0133094
0.0219753
0.0436282
0.0521338
0.062681
0.0692539
0.185698
0.194616
0.189134
0.179847
0.167313
0.151843
0.133874
0.113978
0.0926777
0.0706968
0.0591425
0.0256015
-0.0124237
-0.059858
-0.0917775
-0.0817701
-0.0335162
0.0217193
0.0594702
0.081551
-0.0126783
0.00521157
-0.00413642
0.00304634
-0.00738301
-0.00168019
-0.0128789
-0.00857059
-0.020026
-0.0172302
-0.0284791
-0.0272546
-0.0378332
-0.0382243
-0.0478063
-0.0498327
-0.0579775
-0.0616236
-0.0687752
-0.0739699
-0.0697637
-0.104069
-0.077271
-0.153975
-0.0910342
-0.190447
-0.117894
-0.188199
-0.131568
-0.141639
-0.105433
-0.0682401
-0.0437563
0.00137347
0.0218782
0.0505254
0.0671423
0.0822705
0.0938151
-0.142106
-0.134326
-0.136776
-0.141018
-0.146667
-0.153567
-0.16149
-0.170137
-0.179308
-0.188273
-0.19159
-0.195804
-0.191375
-0.186022
-0.170158
-0.125154
-0.0522801
0.0218457
0.0744812
0.105932
-0.324248
-0.309986
-0.316836
-0.310294
-0.317302
-0.311294
-0.318242
-0.312771
-0.319334
-0.314551
-0.32048
-0.316484
-0.321547
-0.318413
-0.32246
-0.320248
-0.323019
-0.321757
-0.323637
-0.323332
-0.318456
-0.328311
-0.301544
-0.33698
-0.274942
-0.331595
-0.248302
-0.2906
-0.212037
-0.209011
-0.148999
-0.105644
-0.0619892
-0.0113073
0.0223662
0.0572052
0.0823053
0.10187
0.118293
-0.431555
-0.424922
-0.425264
-0.425988
-0.426834
-0.427742
-0.428607
-0.42929
-0.429672
-0.42952
-0.426131
-0.407455
-0.36978
-0.319131
-0.255651
-0.171806
-0.0715312
0.022101
0.0894991
0.130255
-0.610781
-0.599485
-0.604416
-0.598564
-0.603042
-0.597045
-0.600935
-0.59482
-0.597914
-0.591825
-0.593986
-0.588034
-0.589149
-0.58342
-0.583436
-0.577999
-0.576844
-0.57175
-0.569595
-0.564923
-0.55878
-0.550356
-0.521175
-0.524601
-0.461594
-0.479719
-0.387794
-0.39937
-0.300954
-0.280825
-0.196528
-0.145214
-0.0810336
-0.0246093
0.0228439
0.0638063
0.0974061
0.121522
0.142697
-0.713222
-0.70748
-0.706147
-0.704066
-0.701071
-0.697165
-0.692326
-0.686517
-0.679725
-0.671841
-0.662265
-0.622689
-0.554918
-0.46183
-0.349565
-0.22277
-0.091984
0.0221367
0.104399
0.154524
-0.902337
-0.893292
-0.896717
-0.891337
-0.893824
-0.887717
-0.88917
-0.882376
-0.882668
-0.875318
-0.874382
-0.866588
-0.864382
-0.856242
-0.852765
-0.844374
-0.839615
-0.831064
-0.825205
-0.816603
-0.808372
-0.784328
-0.749868
-0.726018
-0.65846
-0.640695
-0.538784
-0.517468
-0.399212
-0.358021
-0.248838
-0.18707
-0.101566
-0.0385086
0.0229545
0.07037
0.112331
0.141267
0.167035
-1.01105
-1.00588
-1.00297
-0.998265
-0.991664
-0.983218
-0.972973
-0.960978
-0.947291
-0.931891
-0.915624
-0.853891
-0.7545
-0.617405
-0.453182
-0.278967
-0.114366
0.0215808
0.119066
0.178732
-1.22378
-1.21613
-1.21846
-1.21312
-1.21396
-1.20733
-1.20666
-1.19876
-1.1965
-1.18747
-1.18361
-1.17356
-1.1681
-1.15715
-1.15016
-1.13843
-1.12997
-1.11757
-1.10782
-1.09487
-1.08368
-1.04396
-1.00082
-0.951018
-0.873645
-0.82093
-0.704536
-0.648311
-0.507927
-0.441676
-0.306795
-0.231259
-0.124355
-0.0529102
0.0222955
0.0769402
0.126962
0.161153
0.191297
-1.34754
-1.34231
-1.3377
-1.33014
-1.3196
-1.30618
-1.29001
-1.27119
-1.24987
-1.22624
-1.20214
-1.11395
-0.977225
-0.790173
-0.568249
-0.341427
-0.139443
0.0200525
0.133393
0.202874
-1.59931
-1.5927
-1.59398
-1.58837
-1.58758
-1.57997
-1.57703
-1.5675
-1.56242
-1.5511
-1.54391
-1.53093
-1.52168
-1.5072
-1.496
-1.48016
-1.46707
-1.45009
-1.4353
-1.4176
-1.40164
-1.34469
-1.28758
-1.21078
-1.11653
-1.02738
-0.890136
-0.795096
-0.629503
-0.532524
-0.371726
-0.277671
-0.150186
-0.0677257
0.0205646
0.0835109
0.141243
0.181216
0.215492
-1.7457
-1.74041
-1.73363
-1.7226
-1.70726
-1.68779
-1.66436
-1.63718
-1.60655
-1.57249
-1.53783
-1.41592
-1.23233
-0.985599
-0.697774
-0.411967
-0.168254
0.0171686
0.147328
0.226968
-2.05964
-2.05124
-2.05259
-2.04501
-2.04347
-2.03307
-2.02863
-2.01544
-2.00803
-1.99228
-1.98196
-1.96385
-1.95073
-1.93047
-1.91468
-1.8925
-1.87416
-1.85027
-1.83012
-1.80445
-1.78322
-1.70287
-1.62745
-1.51764
-1.39823
-1.26771
-1.10021
-0.962127
-0.764239
-0.632598
-0.443297
-0.326793
-0.179679
-0.0827037
0.0168196
0.090435
0.154451
0.201807
0.239028
-2.23908
-2.23108
-2.22175
-2.20606
-2.18431
-2.15677
-2.12374
-2.08557
-2.04267
-1.99513
-1.94727
-1.78059
-1.53511
-1.21274
-0.844839
-0.490159
-0.19976
0.0133085
0.160625
0.250395
-1.32132
-1.31602
-1.31656
-1.31114
-1.30976
-1.30241
-1.29889
-1.28954
-1.28389
-1.27267
-1.26495
-1.25201
-1.24231
-1.22781
-1.21627
-1.2004
-1.18722
-1.17007
-1.15544
-1.13828
-1.12152
-1.06538
-1.01139
-0.933766
-0.853655
-0.760078
-0.653691
-0.554756
-0.435081
-0.344171
-0.233565
-0.159528
-0.0748568
-0.0183765
0.038805
0.0807447
0.11796
0.145609
0.168928
0.0599368
0.0601405
0.0599992
0.0597972
0.0595348
0.0592143
0.0588427
0.0584285
0.0579844
0.0574803
0.0563055
0.0549861
0.0539603
0.0541597
0.0562638
0.0600122
0.0644625
0.0690111
0.0741927
0.0820962
0.0343931
0.0345773
0.0345569
0.0347654
0.0348155
0.0351007
0.035228
0.0355872
0.0357905
0.0362194
0.0364954
0.0369881
0.0373317
0.0378812
0.0382864
0.0388849
0.0393423
0.0399806
0.0405194
0.0411794
0.0420692
0.0439963
0.0457163
0.0486398
0.0510899
0.0543095
0.0576548
0.0601493
0.0644138
0.0650487
0.0699535
0.0685926
0.0735557
0.0715168
0.0761737
0.0750062
0.0798205
0.0804916
0.0865361
0.0710843
0.0711029
0.0711067
0.0710925
0.0710693
0.0710388
0.0710021
0.0709606
0.0709157
0.0708746
0.0708041
0.0705208
0.070194
0.0699873
0.0704146
0.0720808
0.0750434
0.0788957
0.0838007
0.0905011
0.0649074
0.0649812
0.0649667
0.0650032
0.0650019
0.0650591
0.0650742
0.065147
0.0651779
0.0652653
0.0653115
0.0654126
0.0654736
0.0655877
0.0656629
0.0657892
0.0658771
0.0660143
0.0661112
0.0662658
0.0663102
0.0668416
0.067131
0.0679872
0.0685162
0.0697024
0.0705922
0.0720468
0.0734262
0.0748363
0.0768239
0.0776969
0.0804059
0.0805089
0.084014
0.0837502
0.0881931
0.0883154
0.0938629
0.0804538
0.0804858
0.0804842
0.0804829
0.0804825
0.0804825
0.0804832
0.0804845
0.0804871
0.0804888
0.080416
0.0804146
0.0804571
0.0806097
0.0809778
0.0818132
0.0835082
0.0863031
0.0902598
0.0952879
0.0787499
0.0787749
0.0787659
0.0787867
0.0787838
0.0788102
0.0788128
0.0788448
0.078853
0.0788902
0.078904
0.0789465
0.0789658
0.0790134
0.0790381
0.0790905
0.0791202
0.0791772
0.0792139
0.0792741
0.0793266
0.0795284
0.0796225
0.079997
0.0801564
0.0807076
0.0809939
0.0817481
0.082283
0.0831828
0.0841543
0.0849985
0.0866234
0.0871439
0.0896268
0.0897403
0.0932427
0.0931754
0.0975292
0.087261
0.0872692
0.0872726
0.0872761
0.0872809
0.087287
0.0872945
0.0873033
0.0873135
0.0873254
0.0873221
0.0873406
0.0873934
0.0875154
0.0877952
0.0883812
0.08949
0.0913856
0.094248
0.0977319
0.0869437
0.0869587
0.0869552
0.0869636
0.0869623
0.0869739
0.0869752
0.0869895
0.0869935
0.0870104
0.0870169
0.0870363
0.0870455
0.0870674
0.0870793
0.0871037
0.0871182
0.0871449
0.087162
0.0871915
0.0871987
0.0873065
0.0873453
0.0875319
0.0876049
0.0878896
0.0880266
0.0884405
0.0886965
0.0892512
0.0897331
0.0903782
0.0912748
0.0918501
0.0934133
0.093712
0.0961437
0.0960812
0.0991482
0.0919295
0.0919365
0.0919382
0.0919411
0.0919453
0.0919508
0.0919576
0.0919656
0.0919748
0.0919851
0.091982
0.0920114
0.0920688
0.0921751
0.0923739
0.0927551
0.093471
0.0947176
0.0966438
0.0989187
0.0920048
0.0920119
0.0920097
0.0920148
0.092014
0.0920205
0.0920211
0.0920289
0.0920308
0.09204
0.0920433
0.0920539
0.0920585
0.0920704
0.0920765
0.0920896
0.0920971
0.0921116
0.0921207
0.0921364
0.0921441
0.0922006
0.092221
0.0923238
0.0923602
0.0925217
0.0925901
0.0928338
0.0929684
0.0933106
0.093579
0.0940057
0.0945305
0.0949643
0.0959324
0.0962153
0.0978011
0.0977654
0.0997801
0.0950065
0.0950097
0.0950112
0.0950134
0.0950165
0.0950205
0.0950253
0.0950311
0.0950377
0.0950452
0.0950472
0.0950684
0.0951089
0.0951821
0.0953164
0.0955649
0.0960191
0.0968107
0.098046
0.0994745
0.0951685
0.0951728
0.0951717
0.0951744
0.095174
0.0951775
0.0951779
0.0951822
0.0951834
0.0951885
0.0951904
0.0951962
0.095199
0.0952056
0.0952091
0.0952164
0.0952207
0.0952289
0.095234
0.0952429
0.0952458
0.0952787
0.0952901
0.0953485
0.0953694
0.0954618
0.0955012
0.0956427
0.0957193
0.0959246
0.096077
0.0963463
0.0966514
0.0969441
0.0975278
0.0977384
0.098729
0.0987107
0.099978
0.0969941
0.0969962
0.0969971
0.0969984
0.0970003
0.0970028
0.0970059
0.0970095
0.0970136
0.0970183
0.0970194
0.0970333
0.0970591
0.0971047
0.0971864
0.0973356
0.0976083
0.0980875
0.0988445
0.0997168
0.0971826
0.0971849
0.0971843
0.0971858
0.0971855
0.0971875
0.0971876
0.09719
0.0971905
0.0971934
0.0971943
0.0971975
0.0971989
0.0972025
0.0972043
0.0972083
0.0972105
0.097215
0.0972177
0.0972225
0.0972241
0.097242
0.0972474
0.0972797
0.0972897
0.0973412
0.0973604
0.0974401
0.097479
0.0975956
0.0976766
0.0978317
0.0980009
0.0981731
0.0985104
0.0986357
0.0992312
0.0992114
0.0999882
0.0983197
0.0983208
0.0983212
0.0983218
0.0983227
0.0983237
0.0983251
0.0983267
0.0983285
0.0983306
0.0983307
0.0983361
0.0983469
0.0983664
0.0984029
0.0984728
0.0986074
0.0988587
0.0992797
0.0997896
0.0985971
0.0985985
0.0985981
0.0985988
0.0985985
0.0985994
0.0985992
0.0986002
0.0986002
0.0986014
0.0986014
0.0986028
0.098603
0.0986044
0.0986048
0.0986064
0.0986069
0.0986086
0.0986093
0.0986112
0.098611
0.0986184
0.098618
0.0986317
0.0986316
0.0986534
0.0986552
0.0986886
0.0986963
0.0987446
0.0987692
0.0988316
0.0988986
0.0989629
0.0991221
0.0991562
0.099475
0.0994355
0.0998895
0.0993755
0.0993761
0.0993759
0.0993756
0.0993752
0.0993747
0.0993741
0.0993734
0.0993725
0.0993716
0.0993692
0.099364
0.0993566
0.0993457
0.0993315
0.0993176
0.0993167
0.0993592
0.0994967
0.0997403
0.0999377
0.0999383
0.0999379
0.099938
0.0999374
0.0999373
0.0999365
0.0999363
0.0999353
0.0999349
0.0999337
0.0999331
0.0999318
0.0999311
0.0999296
0.0999287
0.099927
0.0999259
0.0999242
0.0999229
0.0999199
0.0999164
0.0999075
0.0999022
0.0998879
0.0998789
0.0998568
0.0998418
0.0998093
0.0997842
0.0997416
0.0997
0.0996563
0.0995901
0.099576
0.0994808
0.099558
0.099461
0.0996693
0.100627
0.100627
0.100626
0.100624
0.100622
0.100619
0.100615
0.100611
0.100606
0.1006
0.100594
0.100571
0.100534
0.100475
0.100382
0.100241
0.100043
0.0998026
0.0995895
0.0995544
0.101757
0.101757
0.101756
0.101755
0.101754
0.101753
0.101751
0.101749
0.101746
0.101744
0.101741
0.101737
0.101733
0.101729
0.101725
0.10172
0.101715
0.10171
0.101704
0.101698
0.101692
0.101673
0.101649
0.101618
0.101579
0.101529
0.101466
0.101385
0.101286
0.101159
0.101011
0.100821
0.100616
0.100353
0.100108
0.0997987
0.0996055
0.0993333
0.099346
SCALARS Stress_Z double 1
LOOKUP_TABLE default
15.1004
15.076
15.0876
15.0752
15.0868
15.0743
15.0863
15.0731
15.0844
15.073
15.0893
15.0708
15.0806
15.0944
15.1611
15.0478
15.1555
15.6327
15.5221
15.468
5.72544
-1.18493
0.289924
0.151358
-0.0506584
-0.0464884
-0.00525324
0.00509192
-0.016356
-0.0024716
-0.00693199
0.000271069
-0.00584533
0.000960797
-0.00526602
0.00086412
-0.00243281
-0.00172719
0.00351216
14.9374
14.9262
14.9271
14.9286
14.9307
14.9327
14.9341
14.9311
14.8488
13.7801
5.49491
0.479022
0.0170533
-0.0118531
-0.0124535
-0.00744082
-0.00559341
-0.00563064
-0.00135232
0.00439695
14.9296
14.903
14.9177
14.9042
14.9196
14.9067
14.9233
14.9109
14.929
14.9171
14.938
14.925
14.9491
14.9358
14.9666
14.9141
14.906
14.8958
13.7967
12.1839
6.23588
0.0728364
0.197214
-0.0351172
0.0380397
0.0424266
-0.0241686
0.0103976
-0.0058659
0.00408497
-0.00423201
0.000970578
-0.0035994
0.00181229
-0.00458739
0.00201381
-0.00157925
-0.00122601
0.00240006
14.623
14.6092
14.6118
14.616
14.6196
14.6181
14.594
14.5038
14.1242
12.5452
7.03772
0.466491
0.00496123
0.0095268
0.00387065
-0.00136659
-0.00338512
-0.00421025
-0.00244969
6.19151e-05
14.4472
14.4198
14.4351
14.4225
14.4398
14.428
14.447
14.4348
14.4545
14.4381
14.4526
14.426
14.4262
14.3499
14.2558
14.1193
13.7845
12.9596
11.4836
9.73901
7.16592
1.14247
0.485729
0.124799
0.0311478
0.111283
0.0190258
0.0394385
0.0100741
0.0110962
-0.000293249
0.00293884
-0.00286776
0.00295165
-0.00349823
0.00293666
-0.0021353
0.000942567
-0.000718552
14.014
14.0028
14.0046
14.0051
13.9973
13.9646
13.8599
13.5745
12.7395
10.6608
7.07289
0.66137
0.0982692
0.0642058
0.0234944
0.00287304
-0.00222785
-0.00258115
-0.00196011
-0.0015648
13.6945
13.6729
13.6847
13.674
13.6864
13.6746
13.6857
13.6691
13.6729
13.643
13.6238
13.5598
13.48
13.3346
13.0888
12.7318
12.0832
11.2647
9.88386
8.44311
6.95349
2.04428
0.850401
0.354636
0.153482
0.196559
0.0954852
0.0833927
0.0325796
0.022286
0.00393095
0.00600718
-0.00237082
0.00459586
-0.00205409
0.00400329
-0.00136974
0.00248117
-0.00163976
13.1674
13.1572
13.1522
13.1383
13.1015
13.0112
12.7975
12.3126
11.2569
9.27318
6.62929
1.07534
0.279057
0.143162
0.0485654
0.00665238
-0.00190563
-0.00109132
-0.000685451
-0.00163446
12.7269
12.7115
12.7174
12.7065
12.7092
12.693
12.6881
12.6604
12.6373
12.5843
12.5185
12.4126
12.2539
12.0354
11.6837
11.2459
10.5529
9.77114
8.65223
7.5135
6.43706
2.64683
1.31144
0.608146
0.364887
0.313233
0.188286
0.135066
0.0613744
0.0371902
0.00832074
0.0102591
-0.00211588
0.00701104
-0.000535279
0.00546069
0.00010444
0.00381586
-0.00127801
12.1389
12.1286
12.1112
12.0734
11.9963
11.8408
11.5299
10.9282
9.84415
8.14069
6.11787
1.52778
0.503628
0.240047
0.0791223
0.0111848
-0.00162761
0.000500916
0.00110389
-0.000755487
11.6064
11.5982
11.5962
11.5836
11.5725
11.5491
11.5232
11.4812
11.427
11.3509
11.2419
11.1019
10.8905
10.6363
10.2488
9.81059
9.17641
8.49217
7.61059
6.71699
5.89893
2.9965
1.74868
0.890713
0.613489
0.448393
0.293616
0.190259
0.0949597
0.0540716
0.0135876
0.0153508
-0.00156201
0.0100489
0.00126469
0.00730173
0.00207225
0.00516743
-0.000143601
10.9977
10.9865
10.9529
10.8867
10.7676
10.5567
10.1865
9.55745
8.56114
7.16633
5.61358
1.92544
0.750128
0.347428
0.113011
0.0167783
-0.000817845
0.00249541
0.00331783
0.000692918
10.4087
10.4086
10.3972
10.3823
10.3556
10.3239
10.2758
10.22
10.1376
10.0432
9.90346
9.74558
9.51263
9.25451
8.88335
8.48423
7.94709
7.38157
6.69792
6.00651
5.38711
3.17547
2.11112
1.17759
0.873597
0.588424
0.404623
0.24545
0.130607
0.0715111
0.0199359
0.0209514
-0.000232568
0.0135161
0.00361574
0.0094458
0.00445138
0.0066747
0.00141469
9.82409
9.81192
9.76091
9.66645
9.51092
9.26252
8.87159
8.27537
7.42028
6.31552
5.13912
2.24314
0.997279
0.455482
0.147497
0.0234868
0.000998502
0.00518354
0.00592068
0.00241346
9.21999
9.22856
9.20731
9.19021
9.1477
9.10866
9.03973
8.97295
8.86788
8.76245
8.60498
8.44363
8.21139
7.97105
7.64073
7.30013
6.86502
6.41729
5.89788
5.37385
4.91882
3.24501
2.39118
1.44252
1.122
0.721236
0.511588
0.296826
0.165637
0.0881533
0.0275063
0.0267127
0.00234372
0.0172215
0.00678616
0.0118031
0.00718055
0.00845995
0.00308051
8.70672
8.69392
8.62673
8.5076
8.32422
8.05547
7.67115
7.13788
6.43424
5.5815
4.71169
2.47946
1.22127
0.553983
0.180244
0.0315486
0.00435053
0.00885479
0.00885899
0.0040899
8.13243
8.15022
8.11949
8.10115
8.04407
7.99962
7.91275
7.83883
7.71652
7.60671
7.44032
7.28507
7.06419
6.85202
6.56821
6.28944
5.94559
5.60157
5.21564
4.82435
4.50906
3.24775
2.59063
1.66365
1.33412
0.834626
0.604694
0.339944
0.198275
0.10249
0.0367482
0.0322391
0.00670668
0.0209998
0.0110048
0.014326
0.0101265
0.0106859
0.00445715
7.73714
7.72497
7.64502
7.50738
7.30561
7.02915
6.66454
6.19961
5.6305
4.97929
4.35143
2.63133
1.39599
0.633868
0.210215
0.0418212
0.00993959
0.0137691
0.0119691
0.00527089
7.24323
7.2669
7.2292
7.20984
7.14219
7.09407
6.99441
6.91655
6.78276
6.67282
6.5025
6.35739
6.14918
5.96538
5.72063
5.49728
5.22418
4.95796
4.66059
4.3821
4.16796
3.21495
2.70611
1.81598
1.4896
0.914097
0.677454
0.369522
0.228197
0.113021
0.0482625
0.0373492
0.0131784
0.0248915
0.0162384
0.0171277
0.0129053
0.0136435
0.00489447
7.01094
6.99834
6.9116
6.76484
6.55587
6.28148
5.93914
5.52913
5.05723
4.53571
4.04713
2.68054
1.50226
0.693227
0.23961
0.0559391
0.0183442
0.0198739
0.0147524
0.00515442
6.71474
6.73619
6.69916
6.67621
6.60825
6.55547
6.45573
6.37312
6.24154
6.12872
5.966
5.82309
5.63175
5.45951
5.24473
5.04559
4.81457
4.59463
4.3541
4.10267
3.92707
3.16265
2.68707
1.89462
1.52773
0.947649
0.703891
0.381879
0.241824
0.118246
0.0566927
0.0420433
0.0197397
0.0295001
0.0209932
0.0208248
0.0175127
0.0148337
0.00890429
6.14347
6.12798
6.04745
5.91242
5.72308
5.47981
5.18451
4.84147
4.45914
4.04874
3.66033
2.55823
1.50444
0.722755
0.264057
0.0711303
0.0280271
0.025975
0.020181
0.0124217
5.65352
5.67023
5.63886
5.61811
5.56055
5.51412
5.43071
5.35936
5.25134
5.15596
5.02537
4.90746
4.75746
4.6192
4.4543
4.29858
4.12418
3.95437
3.77483
3.59764
3.44955
2.87862
2.49976
1.82616
1.51251
0.956527
0.731787
0.400314
0.268333
0.136883
0.0751638
0.0591376
0.0333247
0.0437951
0.0306194
0.0308395
0.0234762
0.02158
0.0160768
5.11382
5.1019
5.03448
4.9226
4.76786
4.57246
4.33985
4.07501
3.78426
3.47772
3.18101
2.33332
1.45439
0.738533
0.291384
0.0938619
0.0444853
0.037238
0.0287042
0.0214195
4.6295
4.6446
4.61895
4.60395
4.55817
4.52302
4.45792
4.40346
4.32055
4.24776
4.14902
4.05937
3.94733
3.84274
3.72037
3.60326
3.47447
3.34756
3.21439
3.08033
2.96466
2.53941
2.23362
1.7068
1.43459
0.949454
0.746088
0.425261
0.302765
0.162554
0.104191
0.0788827
0.0534469
0.0580671
0.0439993
0.0405408
0.0329694
0.0275414
0.0250208
4.20075
4.1921
4.13921
4.05188
3.93195
3.78179
3.6046
3.40452
3.18636
2.95581
2.72872
2.07573
1.36575
0.741827
0.32261
0.123626
0.0655505
0.0505644
0.0371149
0.0288052
3.75869
3.7716
3.75158
3.74114
3.70613
3.68051
3.63128
3.59115
3.52896
3.47511
3.4015
3.3351
3.25188
3.17438
3.08354
2.9967
2.90057
2.80625
2.7063
2.60697
2.51597
2.20144
1.95643
1.55013
1.32402
0.913566
0.740677
0.440676
0.334257
0.188032
0.136221
0.0995091
0.075705
0.0722622
0.0576807
0.050194
0.0416261
0.0341904
0.0325348
3.41506
3.40892
3.36903
3.30328
3.21327
3.10092
2.96873
2.81974
2.65725
2.48539
2.3131
1.81263
1.24925
0.725185
0.348434
0.154666
0.0880835
0.0644186
0.0457059
0.0360607
3.02454
3.03492
3.01976
3.01261
2.9865
2.96819
2.93173
2.90273
2.85684
2.81774
2.76352
2.71515
2.65386
2.59726
2.53025
2.46663
2.39549
2.32622
2.25198
2.17848
2.1085
1.87665
1.68408
1.37645
1.19194
0.858591
0.714909
0.447828
0.358817
0.212696
0.169012
0.12063
0.0994669
0.0861674
0.0718237
0.0593248
0.0502935
0.0407158
0.0398181
2.7476
2.74345
2.71415
2.66589
2.59987
2.5175
2.42058
2.31123
2.19179
2.06488
1.9356
1.55728
1.11957
0.693782
0.368283
0.185666
0.111242
0.0781423
0.0540704
0.0430459
2.40596
2.41428
2.40296
2.39829
2.37913
2.36643
2.33983
2.31944
2.28608
2.25838
2.219
2.18456
2.14002
2.09956
2.05077
2.00512
1.95309
1.90315
1.84868
1.79543
1.74258
1.57461
1.42661
1.19881
1.0527
0.791143
0.675808
0.447434
0.376454
0.235544
0.200775
0.141612
0.123358
0.0996532
0.0856104
0.0679569
0.0585911
0.047
0.0467436
2.18507
2.1825
2.16153
2.12697
2.07967
2.02062
1.95105
1.87239
1.78624
1.69435
1.59903
1.31887
0.98751
0.653056
0.382162
0.214987
0.133874
0.0911956
0.0619401
0.0496221
1.88594
1.89266
1.8843
1.88155
1.86771
1.85937
1.84035
1.82662
1.80287
1.784
1.75602
1.73238
1.70074
1.6728
1.6381
1.60639
1.5693
1.53442
1.49545
1.45799
1.41913
1.30121
1.19081
1.02761
0.916137
0.71834
0.629858
0.441445
0.388167
0.256012
0.230123
0.161699
0.146161
0.112367
0.0984715
0.0759725
0.0662653
0.0529362
0.0531723
1.71651
1.71517
1.70065
1.67668
1.64384
1.60279
1.55433
1.4994
1.43905
1.37446
1.30602
1.1046
0.862041
0.608854
0.391022
0.241146
0.154636
0.102979
0.0690633
0.0556319
1.45299
1.45883
1.45259
1.45149
1.44162
1.43678
1.42346
1.41502
1.39856
1.38666
1.36738
1.35225
1.33051
1.31242
1.28859
1.26788
1.24234
1.21935
1.1924
1.16758
1.13995
1.06164
0.982382
0.871156
0.790436
0.646643
0.583251
0.432059
0.395385
0.273735
0.255617
0.180148
0.166423
0.123954
0.109764
0.0832408
0.0730678
0.0584368
0.058942
1.33605
1.33594
1.32629
1.31037
1.28854
1.26118
1.22881
1.19202
1.15147
1.10779
1.05999
0.920859
0.750611
0.566299
0.395689
0.262469
0.17202
0.112867
0.0752132
0.0609157
1.10341
1.10835
1.10373
1.10382
1.09699
1.09482
1.0859
1.08148
1.07064
1.06405
1.05147
1.04281
1.02871
1.01814
1.00273
0.990445
0.974037
0.960201
0.942996
0.927376
0.909108
0.861001
0.807843
0.736622
0.682505
0.582022
0.540349
0.421938
0.398166
0.288759
0.275119
0.196271
0.18255
0.13399
0.118954
0.0895654
0.0788403
0.0634125
0.0639101
1.04667
1.04712
1.04111
1.03101
1.01712
0.999666
0.978945
0.955299
0.929068
0.900968
0.869132
0.776179
0.66071
0.529069
0.395199
0.2761
0.184152
0.120271
0.0802512
0.065344
0.837464
0.844689
0.840154
0.842744
0.836796
0.838014
0.830859
0.830817
0.822681
0.821328
0.812349
0.809686
0.799986
0.796035
0.78573
0.780535
0.769797
0.763389
0.751752
0.74503
0.732585
0.708483
0.672576
0.632152
0.598197
0.530274
0.505597
0.412309
0.398431
0.299227
0.288219
0.208417
0.193203
0.142174
0.124823
0.0951702
0.08264
0.0681664
0.0671996
0.85516
0.858466
0.85439
0.847876
0.838925
0.827644
0.814185
0.798717
0.781441
0.762857
0.738843
0.675
0.594541
0.496911
0.388599
0.281918
0.191398
0.125177
0.0835599
0.067873
0.698206
0.702604
0.699763
0.701638
0.697832
0.698837
0.694399
0.694654
0.689659
0.689135
0.683645
0.682327
0.676392
0.674284
0.667959
0.665053
0.65832
0.65477
0.647675
0.641983
0.634888
0.619068
0.59644
0.56991
0.543114
0.499098
0.470391
0.409003
0.379272
0.310738
0.281078
0.220448
0.193401
0.149182
0.127264
0.099368
0.0852991
0.0712453
0.0692793
0.586254
0.585854
0.584123
0.58128
0.577352
0.572377
0.566403
0.559491
0.55171
0.543093
0.533119
0.502705
0.459007
0.401011
0.331435
0.257586
0.189215
0.134035
0.0964351
0.0817424
0.392403
0.392568
0.392393
0.392376
0.392056
0.391912
0.391467
0.391195
0.390626
0.390224
0.389533
0.388997
0.38818
0.387507
0.386563
0.385747
0.384672
0.38371
0.382537
0.381411
0.380408
0.376426
0.371508
0.364916
0.357072
0.345472
0.333601
0.314496
0.297906
0.270372
0.249726
0.216863
0.194862
0.163193
0.143953
0.1193
0.106897
0.0933352
0.0920547
0.358059
0.357899
0.357431
0.356642
0.355541
0.354136
0.352432
0.350438
0.348165
0.345628
0.342807
0.333176
0.31826
0.296215
0.265949
0.228197
0.186274
0.146091
0.115304
0.10256
0.282374
0.282416
0.282334
0.282266
0.282113
0.28198
0.281758
0.281556
0.281266
0.280995
0.280637
0.280297
0.279872
0.279465
0.278974
0.2785
0.277945
0.277405
0.276784
0.276188
0.275441
0.273467
0.270925
0.267777
0.263825
0.258753
0.252776
0.244806
0.2362
0.224236
0.212802
0.196439
0.18302
0.163887
0.150799
0.132942
0.123915
0.112579
0.112258
0.260379
0.260342
0.260154
0.259841
0.259406
0.258849
0.258172
0.257378
0.256468
0.255445
0.254237
0.250322
0.244102
0.234498
0.220301
0.200774
0.176607
0.150732
0.128843
0.119125
0.223376
0.22339
0.223352
0.223324
0.223252
0.223191
0.223085
0.22299
0.222851
0.222723
0.22255
0.222389
0.222183
0.221989
0.221751
0.221524
0.221253
0.220993
0.220693
0.220399
0.220079
0.219102
0.217866
0.216327
0.214354
0.211852
0.208794
0.204822
0.200299
0.194219
0.187978
0.179246
0.171499
0.160327
0.152271
0.14056
0.134767
0.126461
0.126688
0.211133
0.211108
0.211022
0.210877
0.210675
0.210416
0.2101
0.209728
0.209301
0.208821
0.208271
0.206396
0.203385
0.198648
0.191455
0.181107
0.167431
0.151679
0.137436
0.130775
0.191393
0.191401
0.191382
0.191366
0.19133
0.191297
0.191243
0.191193
0.191122
0.191054
0.190966
0.190882
0.190777
0.190675
0.190554
0.190436
0.190298
0.190163
0.190009
0.189858
0.189675
0.189179
0.188534
0.187735
0.186697
0.185395
0.183763
0.181677
0.179204
0.17597
0.172446
0.167697
0.163161
0.156806
0.151914
0.144763
0.141201
0.135674
0.136057
0.184551
0.184541
0.184497
0.184423
0.184321
0.184189
0.184028
0.183839
0.183622
0.183377
0.18309
0.182131
0.180577
0.178099
0.174256
0.168578
0.160813
0.15147
0.142643
0.138365
0.1736
0.173604
0.173593
0.173585
0.173565
0.173548
0.173519
0.173492
0.173453
0.173417
0.173369
0.173323
0.173266
0.173212
0.173145
0.173082
0.173006
0.172933
0.172849
0.172767
0.172672
0.1724
0.17205
0.171616
0.171048
0.17034
0.16944
0.168304
0.166924
0.165147
0.163148
0.160494
0.157864
0.154221
0.151321
0.14706
0.144935
0.141451
0.141796
0.1698
0.169794
0.169771
0.169731
0.169676
0.169605
0.169518
0.169416
0.169299
0.169166
0.169012
0.168491
0.167645
0.166287
0.164165
0.160981
0.156532
0.151039
0.145706
0.143058
0.163642
0.163644
0.163638
0.163633
0.163622
0.163613
0.163596
0.163581
0.16356
0.163539
0.163513
0.163487
0.163455
0.163425
0.163388
0.163352
0.16331
0.163269
0.163222
0.163177
0.163122
0.162971
0.162774
0.162531
0.162211
0.161813
0.161304
0.160664
0.159878
0.158871
0.15772
0.156206
0.154669
0.152563
0.150842
0.148321
0.147058
0.144921
0.145171
0.16157
0.161567
0.161553
0.161531
0.1615
0.16146
0.161411
0.161354
0.161288
0.161213
0.161126
0.160832
0.160353
0.159582
0.158368
0.156532
0.153937
0.15068
0.147463
0.145843
0.158145
0.158146
0.158142
0.15814
0.158133
0.158127
0.158118
0.158109
0.158096
0.158084
0.158069
0.158054
0.158035
0.158017
0.157996
0.157975
0.15795
0.157926
0.157899
0.157872
0.15784
0.157751
0.157636
0.157493
0.157305
0.157072
0.156772
0.156396
0.155931
0.155338
0.154652
0.153756
0.152832
0.151575
0.150529
0.149007
0.148234
0.146921
0.14708
0.157035
0.157033
0.157025
0.157012
0.156993
0.156969
0.15694
0.156906
0.156867
0.156822
0.156771
0.156595
0.15631
0.155849
0.155121
0.154014
0.152437
0.150439
0.148443
0.147428
0.155221
0.155221
0.155219
0.155217
0.155213
0.15521
0.155204
0.155198
0.15519
0.155183
0.155173
0.155163
0.155151
0.15514
0.155126
0.155113
0.155098
0.155082
0.155065
0.155048
0.155028
0.154971
0.154899
0.154808
0.154689
0.15454
0.154351
0.15411
0.153815
0.153437
0.152999
0.152426
0.151831
0.151028
0.150344
0.149371
0.14885
0.148019
0.148094
0.154565
0.154563
0.154558
0.15455
0.154538
0.154523
0.154504
0.154482
0.154457
0.154428
0.154395
0.154283
0.1541
0.153804
0.153336
0.152621
0.151598
0.150291
0.14897
0.148299
0.153746
0.153746
0.153745
0.153743
0.153741
0.153738
0.153734
0.15373
0.153724
0.153718
0.153712
0.153705
0.153697
0.153688
0.153679
0.153669
0.153658
0.153647
0.153635
0.153623
0.153608
0.153567
0.153517
0.15345
0.153368
0.153259
0.153126
0.152952
0.152744
0.15247
0.152159
0.151747
0.151318
0.150746
0.15024
0.14956
0.149145
0.148594
0.148586
0.153047
0.153046
0.153043
0.153037
0.153029
0.153019
0.153007
0.152992
0.152976
0.152957
0.152936
0.152862
0.152741
0.152545
0.152235
0.151758
0.151071
0.150186
0.149282
0.148828
0.152635
0.152635
0.152634
0.152633
0.152631
0.152629
0.152626
0.152623
0.15262
0.152616
0.152611
0.152606
0.1526
0.152594
0.152587
0.152581
0.152573
0.152565
0.152556
0.152548
0.152538
0.152509
0.152474
0.152427
0.152369
0.152293
0.152199
0.152077
0.15193
0.151739
0.151517
0.151232
0.150924
0.150529
0.150163
0.149698
0.149409
0.148999
0.14902
SCALARS Stress_Shear double 1
LOOKUP_TABLE default
0.00504084
-1.28151e-05
-0.003018
-0.00211503
-0.00488517
-0.0031781
-0.00622106
-0.00353388
-0.00545377
-0.00261091
-0.00208033
0.000819401
0.011904
0.0123148
0.0300949
0.0179737
0.146699
0.234966
0.955358
-1.06406
-2.2675
0.357966
0.157457
-0.18401
0.105662
0.0112074
0.0127471
-0.0210067
0.0323034
-0.0149169
0.0266623
-0.0119464
0.0185618
-0.00684584
0.0115212
-0.00471118
0.0105115
-0.0056531
0.0237814
0.0015622
-0.105315
-0.209069
-0.310205
-0.407279
-0.498967
-0.586828
-0.675322
-0.794404
-1.2181
-4.14403
-0.32864
-0.340838
-0.154175
-0.040722
-0.00637919
-0.00286139
-0.00105982
0.00587411
0.0234031
-0.00142169
-0.102916
-0.206598
-0.307402
-0.411387
-0.509299
-0.612073
-0.707182
-0.807436
-0.900528
-0.997675
-1.09577
-1.19178
-1.30607
-1.41232
-1.6182
-1.8029
-2.38936
-3.32835
-4.74369
-5.85769
-2.86577
-0.916449
-0.993228
-0.757838
-0.578865
-0.320556
-0.258357
-0.10415
-0.123817
-0.0295912
-0.0713795
-0.0159465
-0.0447478
-0.00755383
-0.0247584
0.00499273
-0.0118642
0.023043
-0.00148591
-0.29635
-0.591663
-0.885243
-1.17859
-1.4784
-1.80735
-2.22576
-2.9671
-4.60708
-6.41249
-1.84282
-1.04788
-0.479635
-0.160567
-0.0525183
-0.0280903
-0.0134374
0.00421071
0.0228242
-0.000912985
-0.192029
-0.385202
-0.575788
-0.77028
-0.960098
-1.15617
-1.34759
-1.54714
-1.74631
-1.95588
-2.17972
-2.41621
-2.70357
-3.01902
-3.47699
-3.99685
-4.77758
-5.80824
-6.39977
-6.98464
-4.57071
-2.63783
-1.99452
-1.39517
-1.03744
-0.639347
-0.47625
-0.228036
-0.224502
-0.0835836
-0.130148
-0.0459832
-0.0820677
-0.0227936
-0.0450968
0.00168134
-0.0186333
0.0226233
-0.00136617
-0.461029
-0.923854
-1.39188
-1.87295
-2.38499
-2.96981
-3.71681
-4.80134
-6.29126
-7.18273
-3.31019
-1.68888
-0.776897
-0.28996
-0.113568
-0.0630363
-0.031512
-0.000719029
0.0224801
-0.00100093
-0.266952
-0.535405
-0.802351
-1.07452
-1.3443
-1.62296
-1.90074
-2.19143
-2.48745
-2.80227
-3.13658
-3.49887
-3.91009
-4.37235
-4.90262
-5.5146
-6.11926
-6.81662
-7.08934
-7.48856
-5.70699
-3.95995
-2.79837
-1.96442
-1.41961
-0.909896
-0.656116
-0.350961
-0.312172
-0.145054
-0.181777
-0.0818343
-0.114498
-0.0416959
-0.0624315
-0.00406433
-0.0242908
0.0223545
-0.0015945
-0.594023
-1.19376
-1.80692
-2.44616
-3.13386
-3.90922
-4.83131
-5.92817
-7.00297
-7.54089
-4.40331
-2.1966
-1.0164
-0.406105
-0.175165
-0.0997869
-0.051221
-0.00725056
0.0222431
-0.00104769
-0.324265
-0.650491
-0.976176
-1.30858
-1.64034
-1.9837
-2.32811
-2.68971
-3.05683
-3.44863
-3.85307
-4.29231
-4.75012
-5.25749
-5.75758
-6.31339
-6.75053
-7.22457
-7.37242
-7.65614
-6.28221
-4.82476
-3.40095
-2.40548
-1.71361
-1.11917
-0.8023
-0.458719
-0.390766
-0.205219
-0.229575
-0.118264
-0.143962
-0.0614191
-0.077752
-0.0110089
-0.0291044
0.022149
-0.00181885
-0.687801
-1.38457
-2.1008
-2.85001
-3.65029
-4.52257
-5.47583
-6.4499
-7.22067
-7.57706
-5.04599
-2.55908
-1.19488
-0.504912
-0.233813
-0.135877
-0.0709476
-0.0145866
0.0220461
-0.00114194
-0.359975
-0.72231
-1.0846
-1.45489
-1.82502
-2.20889
-2.59303
-2.99721
-3.40199
-3.83413
-4.26446
-4.73009
-5.18049
-5.67268
-6.10635
-6.57716
-6.89851
-7.2405
-7.32412
-7.53478
-6.43786
-5.25479
-3.76364
-2.69384
-1.90769
-1.26541
-0.913482
-0.548366
-0.460523
-0.261888
-0.274377
-0.15363
-0.171134
-0.0808407
-0.091487
-0.0185718
-0.0332056
0.0219605
-0.00203286
-0.734534
-1.47983
-2.24703
-3.04725
-3.88964
-4.7744
-5.67413
-6.49964
-7.07281
-7.32405
-5.28103
-2.761
-1.3095
-0.58503
-0.288485
-0.170503
-0.0900587
-0.0223644
0.0218558
-0.00124896
-0.370444
-0.743514
-1.11649
-1.49832
-1.87929
-2.27529
-2.6689
-3.0839
-3.49241
-3.92874
-4.34844
-4.80126
-5.21448
-5.66279
-6.02709
-6.41955
-6.66213
-6.92198
-6.9701
-7.13593
-6.24242
-5.30039
-3.86676
-2.81191
-1.99544
-1.34691
-0.988875
-0.619069
-0.521292
-0.314482
-0.316341
-0.187471
-0.196202
-0.0995874
-0.103781
-0.0265287
-0.0366453
0.0217687
-0.00220305
-0.727918
-1.4668
-2.2268
-3.01529
-3.83282
-4.66486
-5.46774
-6.15399
-6.59485
-6.78438
-5.15016
-2.78786
-1.35882
-0.646245
-0.339017
-0.203546
-0.108439
-0.0304982
0.0216618
-0.00137284
-0.35308
-0.70888
-1.06411
-1.42854
-1.79067
-2.16829
-2.5402
-2.93381
-3.31435
-3.72231
-4.10271
-4.51449
-4.87307
-5.26364
-5.56184
-5.88669
-6.07225
-6.27807
-6.30641
-6.44649
-5.7171
-4.99471
-3.70619
-2.74887
-1.97442
-1.3634
-1.02874
-0.671109
-0.573009
-0.363176
-0.355339
-0.219943
-0.21906
-0.117766
-0.114578
-0.0349185
-0.0394118
0.021573
-0.00225836
-0.664147
-1.33798
-2.02972
-2.74334
-3.47401
-4.20099
-4.87905
-5.43491
-5.77907
-5.93496
-4.67507
-2.63277
-1.34374
-0.689342
-0.38593
-0.235441
-0.126418
-0.0391513
0.0214744
-0.00138605
-0.306667
-0.615974
-0.923903
-1.24077
-1.55356
-1.88143
-2.20046
-2.54067
-2.86307
-3.21232
-3.52813
-3.87493
-4.16401
-4.48565
-4.71723
-4.97919
-5.11738
-5.28404
-5.30201
-5.43064
-4.85025
-4.34904
-3.28375
-2.50223
-1.84628
-1.31723
-1.03429
-0.706294
-0.61546
-0.40928
-0.390805
-0.252039
-0.239241
-0.136061
-0.123596
-0.044071
-0.0414255
0.0213943
-0.0023983
-0.542365
-1.09168
-1.6533
-2.22869
-2.81155
-3.38263
-3.90507
-4.32474
-4.58428
-4.72898
-3.85682
-2.29715
-1.26822
-0.717154
-0.43135
-0.267744
-0.145034
-0.0488191
0.0213297
-0.00181515
-0.231754
-0.465702
-0.697118
-0.936575
-1.1695
-1.41626
-1.65086
-1.90534
-2.13856
-2.39787
-2.62168
-2.87733
-3.07724
-3.31346
-3.4685
-3.66149
-3.75071
-3.87818
-3.89196
-4.02228
-3.60695
-3.35056
-2.60376
-2.08007
-1.61501
-1.21862
-1.00507
-0.732366
-0.646386
-0.458069
-0.420706
-0.287012
-0.255446
-0.156321
-0.130161
-0.0547858
-0.0425065
0.0212842
-0.000980445
-0.365782
-0.733332
-1.10396
-1.47654
-1.84579
-2.1999
-2.51863
-2.77371
-2.93527
-3.0673
-2.66791
-1.79647
-1.14909
-0.742467
-0.483726
-0.305394
-0.16694
-0.0606018
0.021307
0.000573544
-0.130425
-0.262417
-0.390807
-0.523111
-0.648458
-0.780358
-0.900947
-1.03105
-1.14441
-1.27049
-1.37311
-1.49168
-1.57904
-1.68533
-1.75245
-1.84063
-1.88238
-1.94677
-1.95456
-2.03269
-1.93489
-1.92526
-1.66998
-1.50639
-1.28497
-1.08938
-0.938299
-0.763811
-0.661477
-0.517882
-0.442395
-0.32841
-0.266799
-0.179741
-0.133903
-0.0689853
-0.0412313
0.0121657
-9.27766e-05
-0.250828
-0.499014
-0.741556
-0.97471
-1.19369
-1.39254
-1.56435
-1.70223
-1.79951
-1.86531
-1.81199
-1.50381
-1.13224
-0.805593
-0.545349
-0.343634
-0.188624
-0.0757592
0.00297421
-0.000392427
-0.120438
-0.24078
-0.359548
-0.478256
-0.593636
-0.70887
-0.818907
-0.928626
-1.0311
-1.13297
-1.2254
-1.31683
-1.39665
-1.47499
-1.53981
-1.60258
-1.65023
-1.69596
-1.72568
-1.76238
-1.76784
-1.7553
-1.63407
-1.51148
-1.32973
-1.16382
-0.989351
-0.831904
-0.690115
-0.559373
-0.451507
-0.349429
-0.268419
-0.191501
-0.133654
-0.0775736
-0.0392509
0.00301443
-1.97869e-05
-0.225126
-0.446808
-0.661427
-0.865156
-1.05391
-1.22346
-1.36968
-1.48905
-1.57909
-1.64744
-1.67349
-1.48532
-1.17345
-0.84844
-0.569431
-0.352968
-0.192886
-0.0786222
0.00295071
-0.000317272
-0.105414
-0.210702
-0.314424
-0.417884
-0.518218
-0.618066
-0.713205
-0.80763
-0.895777
-0.982957
-1.06236
-1.14052
-1.20957
-1.27715
-1.33455
-1.39017
-1.43503
-1.4783
-1.51071
-1.54751
-1.5808
-1.60115
-1.53443
-1.46149
-1.31775
-1.18104
-1.01373
-0.862331
-0.71171
-0.577383
-0.459885
-0.354948
-0.269652
-0.193003
-0.133691
-0.078898
-0.0391833
0.0029344
0.000108084
-0.194609
-0.385953
-0.570745
-0.745744
-0.907788
-1.05392
-1.18154
-1.28867
-1.37401
-1.44322
-1.51566
-1.41541
-1.1698
-0.865469
-0.580167
-0.35426
-0.191645
-0.0785003
0.00289252
-0.000324455
-0.0901135
-0.180082
-0.268742
-0.357111
-0.442874
-0.528126
-0.609519
-0.690201
-0.765847
-0.840586
-0.909227
-0.976778
-1.03733
-1.09667
-1.14831
-1.1986
-1.24078
-1.28172
-1.3143
-1.35034
-1.3994
-1.43836
-1.40895
-1.37282
-1.26483
-1.15842
-1.00697
-0.867411
-0.716347
-0.582003
-0.459933
-0.353102
-0.266494
-0.190036
-0.131733
-0.0779272
-0.0386392
0.00289738
9.75369e-05
-0.165561
-0.328404
-0.485837
-0.635289
-0.774357
-0.900891
-1.01309
-1.10959
-1.18953
-1.25705
-1.35454
-1.31556
-1.13114
-0.858145
-0.577702
-0.348886
-0.186924
-0.0767248
0.00287977
-0.000254821
-0.0763093
-0.152498
-0.227644
-0.302535
-0.375373
-0.447766
-0.517137
-0.585904
-0.650754
-0.714853
-0.774245
-0.832758
-0.885905
-0.938082
-0.984387
-1.02963
-1.06869
-1.10675
-1.13844
-1.17283
-1.22924
-1.27776
-1.27297
-1.26203
-1.1837
-1.10443
-0.971849
-0.847888
-0.701981
-0.57225
-0.449609
-0.343933
-0.258036
-0.183456
-0.127312
-0.0753619
-0.0374591
0.00290751
8.83161e-05
-0.139893
-0.277635
-0.411111
-0.538326
-0.657443
-0.766842
-0.865176
-0.951422
-1.0249
-1.08879
-1.19683
-1.19782
-1.06401
-0.826321
-0.559972
-0.335633
-0.178478
-0.0733995
0.00291374
-0.000201814
-0.0642878
-0.128479
-0.191859
-0.255038
-0.316619
-0.377852
-0.436736
-0.495151
-0.550529
-0.60533
-0.656484
-0.706969
-0.753298
-0.798893
-0.83993
-0.88018
-0.915602
-0.950257
-0.979918
-1.0118
-1.06975
-1.1217
-1.13186
-1.13705
-1.08158
-1.02451
-0.911052
-0.804075
-0.667813
-0.546618
-0.427886
-0.326557
-0.244069
-0.173126
-0.120472
-0.0712918
-0.0356425
0.00296332
5.79508e-05
-0.11742
-0.23317
-0.345612
-0.453204
-0.55453
-0.648344
-0.733602
-0.809489
-0.875439
-0.93395
-1.04235
-1.06696
-0.972369
-0.77039
-0.52594
-0.313943
-0.166284
-0.0686145
0.0029913
-0.000158415
-0.0536692
-0.107267
-0.160233
-0.213052
-0.264623
-0.315944
-0.365428
-0.414577
-0.461349
-0.50771
-0.551215
-0.594245
-0.634011
-0.673257
-0.708912
-0.744014
-0.775283
-0.806014
-0.832753
-0.861421
-0.916591
-0.967527
-0.985304
-0.999742
-0.96087
-0.921106
-0.825731
-0.736126
-0.613137
-0.504196
-0.393983
-0.300514
-0.224445
-0.159054
-0.111288
-0.0658008
-0.0332051
0.00306011
4.55488e-05
-0.0970877
-0.19289
-0.286148
-0.375676
-0.460381
-0.539297
-0.611602
-0.676647
-0.733951
-0.785569
-0.886573
-0.922449
-0.857006
-0.690065
-0.474781
-0.283466
-0.150384
-0.0624504
0.00310756
-9.67301e-05
-0.0437967
-0.0875494
-0.130798
-0.173958
-0.216137
-0.258158
-0.298734
-0.339102
-0.377596
-0.415835
-0.451817
-0.487508
-0.52061
-0.553395
-0.583323
-0.612909
-0.639443
-0.665637
-0.688655
-0.713433
-0.762334
-0.808825
-0.82866
-0.847192
-0.81988
-0.793445
-0.715194
-0.643351
-0.53717
-0.444286
-0.347474
-0.265597
-0.199183
-0.141332
-0.0998733
-0.0589789
-0.0301698
0.00319297
-4.40712e-05
-0.077396
-0.153826
-0.22834
-0.300043
-0.368113
-0.431815
-0.490519
-0.543705
-0.590989
-0.634066
-0.721305
-0.759231
-0.715581
-0.58414
-0.405903
-0.244158
-0.13092
-0.0550082
0.00325821
-0.000168085
-0.0338355
-0.0676205
-0.101047
-0.134434
-0.167041
-0.199598
-0.231013
-0.262362
-0.292235
-0.322028
-0.350044
-0.377972
-0.403859
-0.429658
-0.45319
-0.476648
-0.497619
-0.518565
-0.53682
-0.556884
-0.596433
-0.63565
-0.653247
-0.672375
-0.653019
-0.637757
-0.576622
-0.524045
-0.438892
-0.366305
-0.288329
-0.22182
-0.168538
-0.120107
-0.0863927
-0.0509278
-0.026561
0.00335835
0.00014979
-0.0564631
-0.11224
-0.166663
-0.219123
-0.269047
-0.315919
-0.359306
-0.398865
-0.434256
-0.467049
-0.534709
-0.568376
-0.542938
-0.450368
-0.318698
-0.196088
-0.108044
-0.0463957
0.00343997
0.000338258
-0.0226687
-0.0454305
-0.0678005
-0.0902125
-0.112058
-0.133966
-0.155033
-0.176188
-0.196244
-0.216413
-0.235251
-0.254228
-0.271674
-0.289278
-0.305193
-0.321288
-0.335616
-0.350073
-0.362931
-0.377282
-0.404299
-0.433494
-0.446166
-0.463489
-0.451178
-0.4467
-0.405487
-0.375195
-0.317068
-0.270203
-0.21653
-0.170287
-0.132533
-0.0963046
-0.0707736
-0.0421019
-0.022327
0.00355349
-0.000906747
-0.03183
-0.0630731
-0.0937184
-0.123356
-0.151666
-0.178366
-0.203214
-0.225992
-0.246669
-0.266468
-0.30884
-0.334537
-0.329024
-0.284786
-0.213837
-0.141561
-0.083496
-0.0374205
0.0036915
-0.0011216
-0.00865398
-0.0169868
-0.0252893
-0.0336783
-0.0419085
-0.0501519
-0.0581621
-0.0661839
-0.0739032
-0.081636
-0.0890009
-0.0963839
-0.103338
-0.110314
-0.116805
-0.123336
-0.129319
-0.135283
-0.140484
-0.146774
-0.159992
-0.173985
-0.183238
-0.195157
-0.196543
-0.202501
-0.192942
-0.18909
-0.170126
-0.155993
-0.133407
-0.113383
-0.0923081
-0.0716373
-0.0533153
-0.0337648
-0.017211
0.0022623
0.000480643
-0.00952598
-0.0191142
-0.0285455
-0.0377973
-0.0468202
-0.0555648
-0.0639847
-0.0720365
-0.0796927
-0.086876
-0.105572
-0.123152
-0.135385
-0.136746
-0.123825
-0.098602
-0.066964
-0.0334289
0.000424041
-0.000430313
-0.00296334
-0.00578762
-0.00860778
-0.0114479
-0.0142816
-0.0170991
-0.0199065
-0.0226874
-0.0254544
-0.0281875
-0.0309025
-0.0335775
-0.0362302
-0.038838
-0.0414191
-0.0439526
-0.0464552
-0.0488941
-0.0513079
-0.0537746
-0.0601912
-0.0663345
-0.0734851
-0.079838
-0.0865168
-0.0921039
-0.096351
-0.0995575
-0.0989593
-0.0978019
-0.0910434
-0.0843728
-0.0723956
-0.0610087
-0.0459742
-0.0316923
-0.0153049
0.000261015
-4.85633e-05
-0.00388784
-0.00774659
-0.0115831
-0.0153822
-0.0191312
-0.0228178
-0.0264303
-0.0299567
-0.0333857
-0.036744
-0.0458164
-0.055847
-0.0657233
-0.0731945
-0.0749683
-0.0680358
-0.0517121
-0.0278865
0.000231424
7.81569e-06
-0.00131334
-0.0026316
-0.0039465
-0.00526184
-0.00656995
-0.00787791
-0.00917517
-0.0104723
-0.0117555
-0.0130384
-0.0143042
-0.0155696
-0.0168148
-0.0180596
-0.0192812
-0.0205026
-0.0216982
-0.022893
-0.0240571
-0.0252655
-0.0284943
-0.0317308
-0.0354549
-0.0391284
-0.0430816
-0.0468445
-0.0504293
-0.0535761
-0.055654
-0.0570972
-0.0560959
-0.0544937
-0.0491961
-0.0435489
-0.0339838
-0.0243827
-0.0118825
0.000115378
3.86107e-05
-0.00189089
-0.003787
-0.0056714
-0.00754293
-0.0093979
-0.0112325
-0.0130431
-0.0148261
-0.0165789
-0.0182887
-0.0230819
-0.028658
-0.0346778
-0.0402707
-0.0438161
-0.0429597
-0.0354099
-0.0203791
0.000180818
-3.85663e-05
-0.000686469
-0.00136093
-0.00203457
-0.00271035
-0.00338489
-0.00405815
-0.00472952
-0.00539877
-0.00606548
-0.00672943
-0.00739016
-0.00804754
-0.008701
-0.00935048
-0.00999535
-0.0106356
-0.0112706
-0.0118993
-0.0125226
-0.0131602
-0.0149085
-0.0166386
-0.018737
-0.0207751
-0.0231238
-0.0253743
-0.0277114
-0.0298846
-0.0316669
-0.0331726
-0.0334969
-0.0334298
-0.0311542
-0.0284713
-0.0228172
-0.0168745
-0.00830004
5.23991e-05
2.52778e-07
-0.0010089
-0.00201568
-0.00301895
-0.00401709
-0.00500838
-0.00599113
-0.00696375
-0.00792471
-0.00887277
-0.00980666
-0.0124377
-0.0155786
-0.0191243
-0.0227024
-0.0254931
-0.0260859
-0.0226235
-0.0136479
0.000138045
-5.23583e-06
-0.000369843
-0.000738265
-0.00110622
-0.00147458
-0.00184191
-0.00220912
-0.00257479
-0.00294027
-0.00330372
-0.00366691
-0.00402758
-0.00438792
-0.00474527
-0.00510216
-0.0054556
-0.00580838
-0.00615728
-0.00650499
-0.00684825
-0.00720118
-0.00817321
-0.00914514
-0.0103234
-0.0114877
-0.0128454
-0.014164
-0.015592
-0.0169353
-0.0181581
-0.0192292
-0.0197264
-0.0199823
-0.0189845
-0.0176712
-0.0144234
-0.010874
-0.00538869
2.3481e-05
4.78202e-06
-0.000556165
-0.00111267
-0.00166716
-0.00221923
-0.00276813
-0.00331311
-0.00385343
-0.0043884
-0.00491757
-0.0054387
-0.00691806
-0.00870475
-0.0107629
-0.0129236
-0.0147669
-0.0154809
-0.0138391
-0.00860915
9.56042e-05
-5.99255e-06
-0.000206775
-0.000411704
-0.000616423
-0.000821494
-0.00102619
-0.00123072
-0.00143468
-0.00163835
-0.00184128
-0.00204381
-0.00224541
-0.00244654
-0.00264654
-0.00284597
-0.00304408
-0.00324146
-0.00343734
-0.0036321
-0.00382522
-0.00402253
-0.00457093
-0.00511747
-0.00578809
-0.00644947
-0.00723174
-0.00799463
-0.00883619
-0.00963681
-0.0103969
-0.0110766
-0.011465
-0.0117134
-0.0112547
-0.0105912
-0.00874445
-0.00667096
-0.003323
9.96898e-06
1.22149e-06
-0.000311043
-0.000621918
-0.00093188
-0.00124063
-0.00154777
-0.00185292
-0.00215569
-0.00245573
-0.00275278
-0.00304597
-0.00388002
-0.00489429
-0.00607609
-0.00734188
-0.00846954
-0.00900262
-0.00819303
-0.00519523
6.14245e-05
-2.23224e-06
-0.000114989
-0.000229305
-0.000343511
-0.000457859
-0.000571977
-0.000686043
-0.000799764
-0.000913393
-0.00102656
-0.00113961
-0.00125209
-0.00136441
-0.00147605
-0.0015875
-0.00169816
-0.00180856
-0.00191806
-0.00202711
-0.00213516
-0.0022457
-0.00255325
-0.00286041
-0.0032379
-0.00361117
-0.0040552
-0.00448889
-0.00497354
-0.00543561
-0.00588577
-0.00629123
-0.0065459
-0.00671937
-0.0065002
-0.00615501
-0.00511852
-0.0039317
-0.00196545
4.59187e-06
9.86594e-07
-0.000172454
-0.000344922
-0.000516884
-0.000688212
-0.000858707
-0.00102817
-0.00119639
-0.00136321
-0.00152848
-0.00169162
-0.00215659
-0.00272397
-0.00338905
-0.00410948
-0.00476639
-0.00510641
-0.004696
-0.00301257
3.78303e-05
-1.46557e-06
-6.30192e-05
-0.000125588
-0.0001881
-0.000250701
-0.000313194
-0.000375648
-0.00043794
-0.000500165
-0.000562173
-0.000624092
-0.00068574
-0.000747279
-0.000808493
-0.000869572
-0.000930273
-0.000990797
-0.00105089
-0.0011107
-0.00117003
-0.00123063
-0.00139966
-0.00156833
-0.00177635
-0.00198192
-0.00222758
-0.00246755
-0.00273775
-0.00299537
-0.00325054
-0.00348023
-0.00363281
-0.00373807
-0.00363175
-0.00344997
-0.00288285
-0.00222245
-0.00111388
2.53179e-06
4.7708e-07
-9.34484e-05
-0.00018689
-0.000280071
-0.000372921
-0.000465335
-0.000557207
-0.000648433
-0.000738918
-0.000828595
-0.000917128
-0.00116975
-0.00147863
-0.00184191
-0.00223776
-0.00260326
-0.00280137
-0.00259183
-0.00167467
2.31414e-05
-7.02452e-07
-3.34791e-05
-6.67446e-05
-9.9982e-05
-0.000133262
-0.000166486
-0.00019969
-0.000232809
-0.000265893
-0.000298865
-0.000331792
-0.000364577
-0.000397306
-0.000429867
-0.000462358
-0.000494654
-0.000526857
-0.000558838
-0.000590667
-0.000622248
-0.000654503
-0.000744555
-0.000834376
-0.000945412
-0.00105496
-0.0011865
-0.00131456
-0.00146006
-0.0015979
-0.00173692
-0.00186037
-0.00194695
-0.00200413
-0.00195447
-0.00185735
-0.00155928
-0.00120286
-0.000604584
1.93792e-06
2.22647e-07
-5.06569e-05
-0.000101301
-0.000151808
-0.00020214
-0.000252242
-0.000302057
-0.00035153
-0.000400611
-0.000449267
-0.000497325
-0.000634439
-0.000802282
-0.00100006
-0.0012163
-0.00141737
-0.00152911
-0.00141979
-0.000921662
1.66958e-05
-7.83955e-07
-1.90418e-05
-3.78356e-05
-5.66172e-05
-7.54455e-05
-9.42503e-05
-0.000113039
-0.000131792
-0.000150514
-0.000169189
-0.000187822
-0.000206396
-0.000224917
-0.000243367
-0.000261753
-0.000280057
-0.000298278
-0.000316405
-0.000334413
-0.000352316
-0.000370744
-0.000421685
-0.000472488
-0.000535722
-0.000597545
-0.000672857
-0.000744861
-0.000829032
-0.000905962
-0.000988158
-0.00105586
-0.00111086
-0.00113939
-0.00111944
-0.00105852
-0.000896882
-0.000687453
-0.000348063
3.61195e-06
5.67667e-07
-3.64213e-05
-7.29415e-05
-0.000109334
-0.000145598
-0.0001817
-0.000217602
-0.000253268
-0.000288664
-0.000323766
-0.000358072
-0.000457009
-0.000577994
-0.000720638
-0.000876776
-0.00102226
-0.00110379
-0.00102591
-0.00066748
1.57828e-05
-2.10822e-15
-1.9269e-05
-3.8533e-05
-5.77845e-05
-7.70221e-05
-9.62353e-05
-0.000115425
-0.000134579
-0.000153701
-0.000172774
-0.000191806
-0.000210777
-0.000229698
-0.000248546
-0.000267335
-0.00028604
-0.000304676
-0.000323217
-0.00034168
-0.000360037
-0.000378307
-0.00043086
-0.000482534
-0.000547345
-0.000610314
-0.000687559
-0.000760966
-0.00084734
-0.000925875
-0.00101039
-0.00107953
-0.00113653
-0.00116539
-0.00114659
-0.00108275
-0.000919911
-0.000703825
-0.000357876
8.69243e-17
SCALARS Radial_Distance double 1
LOOKUP_TABLE default
0
0.25
0.5
0.75
1
1.25
1.5
1.75
2
2.25
2.5
2.75
3
3.25
3.5
3.75
4
4.25
4.5
4.75
5
5.7289
6.4577
7.3991
8.3405
9.5563
10.7722
12.3425
13.9128
15.9409
17.9691
20.5885
23.2079
26.5911
29.9742
34.3437
38.7132
44.3566
50
0
0.5
1
1.5
2
2.5
3
3.5
4
4.5
5
6.4577
8.3405
10.7722
13.9128
17.9691
23.2079
29.9742
38.7132
50
0
0.25
0.5
0.75
1
1.25
1.5
1.75
2
2.25
2.5
2.75
3
3.25
3.5
3.75
4
4.25
4.5
4.75
5
5.7289
6.4577
7.3991
8.3405
9.5563
10.7722
12.3425
13.9128
15.9409
17.9691
20.5885
23.2079
26.5911
29.9742
34.3437
38.7132
44.3566
50
0
0.5
1
1.5
2
2.5
3
3.5
4
4.5
5
6.4577
8.3405
10.7722
13.9128
17.9691
23.2079
29.9742
38.7132
50
0
0.25
0.5
0.75
1
1.25
1.5
1.75
2
2.25
2.5
2.75
3
3.25
3.5
3.75
4
4.25
4.5
4.75
5
5.7289
6.4577
7.3991
8.3405
9.5563
10.7722
12.3425
13.9128
15.9409
17.9691
20.5885
23.2079
26.5911
29.9742
34.3437
38.7132
44.3566
50
0
0.5
1
1.5
2
2.5
3
3.5
4
4.5
5
6.4577
8.3405
10.7722
13.9128
17.9691
23.2079
29.9742
38.7132
50
0
0.25
0.5
0.75
1
1.25
1.5
1.75
2
2.25
2.5
2.75
3
3.25
3.5
3.75
4
4.25
4.5
4.75
5
5.7289
6.4577
7.3991
8.3405
9.5563
10.7722
12.3425
13.9128
15.9409
17.9691
20.5885
23.2079
26.5911
29.9742
34.3437
38.7132
44.3566
50
0
0.5
1
1.5
2
2.5
3
3.5
4
4.5
5
6.4577
8.3405
10.7722
13.9128
17.9691
23.2079
29.9742
38.7132
50
0
0.25
0.5
0.75
1
1.25
1.5
1.75
2
2.25
2.5
2.75
3
3.25
3.5
3.75
4
4.25
4.5
4.75
5
5.7289
6.4577
7.3991
8.3405
9.5563
10.7722
12.3425
13.9128
15.9409
17.9691
20.5885
23.2079
26.5911
29.9742
34.3437
38.7132
44.3566
50
0
0.5
1
1.5
2
2.5
3
3.5
4
4.5
5
6.4577
8.3405
10.7722
13.9128
17.9691
23.2079
29.9742
38.7132
50
0
0.25
0.5
0.75
1
1.25
1.5
1.75
2
2.25
2.5
2.75
3
3.25
3.5
3.75
4
4.25
4.5
4.75
5
5.7289
6.4577
7.3991
8.3405
9.5563
10.7722
12.3425
13.9128
15.9409
17.9691
20.5885
23.2079
26.5911
29.9742
34.3437
38.7132
44.3566
50
0
0.5
1
1.5
2
2.5
3
3.5
4
4.5
5
6.4577
8.3405
10.7722
13.9128
17.9691
23.2079
29.9742
38.7132
50
0
0.25
0.5
0.75
1
1.25
1.5
1.75
2
2.25
2.5
2.75
3
3.25
3.5
3.75
4
4.25
4.5
4.75
5
5.7289
6.4577
7.3991
8.3405
9.5563
10.7722
12.3425
13.9128
15.9409
17.9691
20.5885
23.2079
26.5911
29.9742
34.3437
38.7132
44.3566
50
0
0.5
1
1.5
2
2.5
3
3.5
4
4.5
5
6.4577
8.3405
10.7722
13.9128
17.9691
23.2079
29.9742
38.7132
50
0
0.25
0.5
0.75
1
1.25
1.5
1.75
2
2.25
2.5
2.75
3
3.25
3.5
3.75
4
4.25
4.5
4.75
5
5.7289
6.4577
7.3991
8.3405
9.5563
10.7722
12.3425
13.9128
15.9409
17.9691
20.5885
23.2079
26.5911
29.9742
34.3437
38.7132
44.3566
50
0
0.5
1
1.5
2
2.5
3
3.5
4
4.5
5
6.4577
8.3405
10.7722
13.9128
17.9691
23.2079
29.9742
38.7132
50
0
0.25
0.5
0.75
1
1.25
1.5
1.75
2
2.25
2.5
2.75
3
3.25
3.5
3.75
4
4.25
4.5
4.75
5
5.7289
6.4577
7.3991
8.3405
9.5563
10.7722
12.3425
13.9128
15.9409
17.9691
20.5885
23.2079
26.5911
29.9742
34.3437
38.7132
44.3566
50
0
0.5
1
1.5
2
2.5
3
3.5
4
4.5
5
6.4577
8.3405
10.7722
13.9128
17.9691
23.2079
29.9742
38.7132
50
0
0.25
0.5
0.75
1
1.25
1.5
1.75
2
2.25
2.5
2.75
3
3.25
3.5
3.75
4
4.25
4.5
4.75
5
5.7289
6.4577
7.3991
8.3405
9.5563
10.7722
12.3425
13.9128
15.9409
17.9691
20.5885
23.2079
26.5911
29.9742
34.3437
38.7132
44.3566
50
0
0.5
1
1.5
2
2.5
3
3.5
4
4.5
5
6.4577
8.3405
10.7722
13.9128
17.9691
23.2079
29.9742
38.7132
50
0
0.25
0.5
0.75
1
1.25
1.5
1.75
2
2.25
2.5
2.75
3
3.25
3.5
3.75
4
4.25
4.5
4.75
5
5.7289
6.4577
7.3991
8.3405
9.5563
10.7722
12.3425
13.9128
15.9409
17.9691
20.5885
23.2079
26.5911
29.9742
34.3437
38.7132
44.3566
50
0
0.5
1
1.5
2
2.5
3
3.5
4
4.5
5
6.4577
8.3405
10.7722
13.9128
17.9691
23.2079
29.9742
38.7132
50
0
0.25
0.5
0.75
1
1.25
1.5
1.75
2
2.25
2.5
2.75
3
3.25
3.5
3.75
4
4.25
4.5
4.75
5
5.7289
6.4577
7.3991
8.3405
9.5563
10.7722
12.3425
13.9128
15.9409
17.9691
20.5885
23.2079
26.5911
29.9742
34.3437
38.7132
44.3566
50
0
0.5
1
1.5
2
2.5
3
3.5
4
4.5
5
6.4577
8.3405
10.7722
13.9128
17.9691
23.2079
29.9742
38.7132
50
0
0.25
0.5
0.75
1
1.25
1.5
1.75
2
2.25
2.5
2.75
3
3.25
3.5
3.75
4
4.25
4.5
4.75
5
5.7289
6.4577
7.3991
8.3405
9.5563
10.7722
12.3425
13.9128
15.9409
17.9691
20.5885
23.2079
26.5911
29.9742
34.3437
38.7132
44.3566
50
0
0.5
1
1.5
2
2.5
3
3.5
4
4.5
5
6.4577
8.3405
10.7722
13.9128
17.9691
23.2079
29.9742
38.7132
50
0
0.25
0.5
0.75
1
1.25
1.5
1.75
2
2.25
2.5
2.75
3
3.25
3.5
3.75
4
4.25
4.5
4.75
5
5.7289
6.4577
7.3991
8.3405
9.5563
10.7722
12.3425
13.9128
15.9409
17.9691
20.5885
23.2079
26.5911
29.9742
34.3437
38.7132
44.3566
50
0
0.5
1
1.5
2
2.5
3
3.5
4
4.5
5
6.4577
8.3405
10.7722
13.9128
17.9691
23.2079
29.9742
38.7132
50
0
0.25
0.5
0.75
1
1.25
1.5
1.75
2
2.25
2.5
2.75
3
3.25
3.5
3.75
4
4.25
4.5
4.75
5
5.7289
6.4577
7.3991
8.3405
9.5563
10.7722
12.3425
13.9128
15.9409
17.9691
20.5885
23.2079
26.5911
29.9742
34.3437
38.7132
44.3566
50
0
0.5
1
1.5
2
2.5
3
3.5
4
4.5
5
6.4577
8.3405
10.7722
13.9128
17.9691
23.2079
29.9742
38.7132
50
0
0.25
0.5
0.75
1
1.25
1.5
1.75
2
2.25
2.5
2.75
3
3.25
3.5
3.75
4
4.25
4.5
4.75
5
5.7289
6.4577
7.3991
8.3405
9.5563
10.7722
12.3425
13.9128
15.9409
17.9691
20.5885
23.2079
26.5911
29.9742
34.3437
38.7132
44.3566
50
0
0.5
1
1.5
2
2.5
3
3.5
4
4.5
5
6.4577
8.3405
10.7722
13.9128
17.9691
23.2079
29.9742
38.7132
50
0
0.25
0.5
0.75
1
1.25
1.5
1.75
2
2.25
2.5
2.75
3
3.25
3.5
3.75
4
4.25
4.5
4.75
5
5.7289
6.4577
7.3991
8.3405
9.5563
10.7722
12.3425
13.9128
15.9409
17.9691
20.5885
23.2079
26.5911
29.9742
34.3437
38.7132
44.3566
50
0
0.5
1
1.5
2
2.5
3
3.5
4
4.5
5
6.4577
8.3405
10.7722
13.9128
17.9691
23.2079
29.9742
38.7132
50
0
0.25
0.5
0.75
1
1.25
1.5
1.75
2
2.25
2.5
2.75
3
3.25
3.5
3.75
4
4.25
4.5
4.75
5
5.7289
6.4577
7.3991
8.3405
9.5563
10.7722
12.3425
13.9128
15.9409
17.9691
20.5885
23.2079
26.5911
29.9742
34.3437
38.7132
44.3566
50
0
0.5
1
1.5
2
2.5
3
3.5
4
4.5
5
6.4577
8.3405
10.7722
13.9128
17.9691
23.2079
29.9742
38.7132
50
0
0.25
0.5
0.75
1
1.25
1.5
1.75
2
2.25
2.5
2.75
3
3.25
3.5
3.75
4
4.25
4.5
4.75
5
5.7289
6.4577
7.3991
8.3405
9.5563
10.7722
12.3425
13.9128
15.9409
17.9691
20.5885
23.2079
26.5911
29.9742
34.3437
38.7132
44.3566
50
0
0.5
1
1.5
2
2.5
3
3.5
4
4.5
5
6.4577
8.3405
10.7722
13.9128
17.9691
23.2079
29.9742
38.7132
50
0
0.25
0.5
0.75
1
1.25
1.5
1.75
2
2.25
2.5
2.75
3
3.25
3.5
3.75
4
4.25
4.5
4.75
5
5.7289
6.4577
7.3991
8.3405
9.5563
10.7722
12.3425
13.9128
15.9409
17.9691
20.5885
23.2079
26.5911
29.9742
34.3437
38.7132
44.3566
50
0
0.5
1
1.5
2
2.5
3
3.5
4
4.5
5
6.4577
8.3405
10.7722
13.9128
17.9691
23.2079
29.9742
38.7132
50
0
0.25
0.5
0.75
1
1.25
1.5
1.75
2
2.25
2.5
2.75
3
3.25
3.5
3.75
4
4.25
4.5
4.75
5
5.7289
6.4577
7.3991
8.3405
9.5563
10.7722
12.3425
13.9128
15.9409
17.9691
20.5885
23.2079
26.5911
29.9742
34.3437
38.7132
44.3566
50
0
0.5
1
1.5
2
2.5
3
3.5
4
4.5
5
6.4577
8.3405
10.7722
13.9128
17.9691
23.2079
29.9742
38.7132
50
0
0.25
0.5
0.75
1
1.25
1.5
1.75
2
2.25
2.5
2.75
3
3.25
3.5
3.75
4
4.25
4.5
4.75
5
5.7289
6.4577
7.3991
8.3405
9.5563
10.7722
12.3425
13.9128
15.9409
17.9691
20.5885
23.2079
26.5911
29.9742
34.3437
38.7132
44.3566
50
0
0.5
1
1.5
2
2.5
3
3.5
4
4.5
5
6.4577
8.3405
10.7722
13.9128
17.9691
23.2079
29.9742
38.7132
50
0
0.25
0.5
0.75
1
1.25
1.5
1.75
2
2.25
2.5
2.75
3
3.25
3.5
3.75
4
4.25
4.5
4.75
5
5.7289
6.4577
7.3991
8.3405
9.5563
10.7722
12.3425
13.9128
15.9409
17.9691
20.5885
23.2079
26.5911
29.9742
34.3437
38.7132
44.3566
50
0
0.5
1
1.5
2
2.5
3
3.5
4
4.5
5
6.4577
8.3405
10.7722
13.9128
17.9691
23.2079
29.9742
38.7132
50
0
0.25
0.5
0.75
1
1.25
1.5
1.75
2
2.25
2.5
2.75
3
3.25
3.5
3.75
4
4.25
4.5
4.75
5
5.7289
6.4577
7.3991
8.3405
9.5563
10.7722
12.3425
13.9128
15.9409
17.9691
20.5885
23.2079
26.5911
29.9742
34.3437
38.7132
44.3566
50
0
0.5
1
1.5
2
2.5
3
3.5
4
4.5
5
6.4577
8.3405
10.7722
13.9128
17.9691
23.2079
29.9742
38.7132
50
0
0.25
0.5
0.75
1
1.25
1.5
1.75
2
2.25
2.5
2.75
3
3.25
3.5
3.75
4
4.25
4.5
4.75
5
5.7289
6.4577
7.3991
8.3405
9.5563
10.7722
12.3425
13.9128
15.9409
17.9691
20.5885
23.2079
26.5911
29.9742
34.3437
38.7132
44.3566
50
0
0.5
1
1.5
2
2.5
3
3.5
4
4.5
5
6.4577
8.3405
10.7722
13.9128
17.9691
23.2079
29.9742
38.7132
50
0
0.25
0.5
0.75
1
1.25
1.5
1.75
2
2.25
2.5
2.75
3
3.25
3.5
3.75
4
4.25
4.5
4.75
5
5.7289
6.4577
7.3991
8.3405
9.5563
10.7722
12.3425
13.9128
15.9409
17.9691
20.5885
23.2079
26.5911
29.9742
34.3437
38.7132
44.3566
50
0
0.5
1
1.5
2
2.5
3
3.5
4
4.5
5
6.4577
8.3405
10.7722
13.9128
17.9691
23.2079
29.9742
38.7132
50
0
0.25
0.5
0.75
1
1.25
1.5
1.75
2
2.25
2.5
2.75
3
3.25
3.5
3.75
4
4.25
4.5
4.75
5
5.7289
6.4577
7.3991
8.3405
9.5563
10.7722
12.3425
13.9128
15.9409
17.9691
20.5885
23.2079
26.5911
29.9742
34.3437
38.7132
44.3566
50
0
0.5
1
1.5
2
2.5
3
3.5
4
4.5
5
6.4577
8.3405
10.7722
13.9128
17.9691
23.2079
29.9742
38.7132
50
0
0.25
0.5
0.75
1
1.25
1.5
1.75
2
2.25
2.5
2.75
3
3.25
3.5
3.75
4
4.25
4.5
4.75
5
5.7289
6.4577
7.3991
8.3405
9.5563
10.7722
12.3425
13.9128
15.9409
17.9691
20.5885
23.2079
26.5911
29.9742
34.3437
38.7132
44.3566
50
0
0.5
1
1.5
2
2.5
3
3.5
4
4.5
5
6.4577
8.3405
10.7722
13.9128
17.9691
23.2079
29.9742
38.7132
50
0
0.25
0.5
0.75
1
1.25
1.5
1.75
2
2.25
2.5
2.75
3
3.25
3.5
3.75
4
4.25
4.5
4.75
5
5.7289
6.4577
7.3991
8.3405
9.5563
10.7722
12.3425
13.9128
15.9409
17.9691
20.5885
23.2079
26.5911
29.9742
34.3437
38.7132
44.3566
50
0
0.5
1
1.5
2
2.5
3
3.5
4
4.5
5
6.4577
8.3405
10.7722
13.9128
17.9691
23.2079
29.9742
38.7132
50
0
0.25
0.5
0.75
1
1.25
1.5
1.75
2
2.25
2.5
2.75
3
3.25
3.5
3.75
4
4.25
4.5
4.75
5
5.7289
6.4577
7.3991
8.3405
9.5563
10.7722
12.3425
13.9128
15.9409
17.9691
20.5885
23.2079
26.5911
29.9742
34.3437
38.7132
44.3566
50
0
0.5
1
1.5
2
2.5
3
3.5
4
4.5
5
6.4577
8.3405
10.7722
13.9128
17.9691
23.2079
29.9742
38.7132
50
0
0.25
0.5
0.75
1
1.25
1.5
1.75
2
2.25
2.5
2.75
3
3.25
3.5
3.75
4
4.25
4.5
4.75
5
5.7289
6.4577
7.3991
8.3405
9.5563
10.7722
12.3425
13.9128
15.9409
17.9691
20.5885
23.2079
26.5911
29.9742
34.3437
38.7132
44.3566
50
SCALARS Depth double 1
LOOKUP_TABLE default
0
0
0
0
0
0
0
0
0
0
0
0
0
0
0
0
0
0
0
0
0
0
0
0
0
0
0
0
0
0
0
0
0
0
0
0
0
0
0
-0.2
-0.2
-0.2
-0.2
-0.2
-0.2
-0.2
-0.2
-0.2
-0.2
-0.2
-0.2
-0.2
-0.2
-0.2
-0.2
-0.2
-0.2
-0.2
-0.2
-0.4
-0.4
-0.4
-0.4
-0.4
-0.4
-0.4
-0.4
-0.4
-0.4
-0.4
-0.4
-0.4
-0.4
-0.4
-0.4
-0.4
-0.4
-0.4
-0.4
-0.4
-0.4
-0.4
-0.4
-0.4
-0.4
-0.4
-0.4
-0.4
-0.4
-0.4
-0.4
-0.4
-0.4
-0.4
-0.4
-0.4
-0.4
-0.4
-0.6
-0.6
-0.6
-0.6
-0.6
-0.6
-0.6
-0.6
-0.6
-0.6
-0.6
-0.6
-0.6
-0.6
-0.6
-0.6
-0.6
-0.6
-0.6
-0.6
-0.8
-0.8
-0.8
-0.8
-0.8
-0.8
-0.8
-0.8
-0.8
-0.8
-0.8
-0.8
-0.8
-0.8
-0.8
-0.8
-0.8
-0.8
-0.8
-0.8
-0.8
-0.8
-0.8
-0.8
-0.8
-0.8
-0.8
-0.8
-0.8
-0.8
-0.8
-0.8
-0.8
-0.8
-0.8
-0.8
-0.8
-0.8
-0.8
-1
-1
-1
-1
-1
-1
-1
-1
-1
-1
-1
-1
-1
-1
-1
-1
-1
-1
-1
-1
-1.2
-1.2
-1.2
-1.2
-1.2
-1.2
-1.2
-1.2
-1.2
-1.2
-1.2
-1.2
-1.2
-1.2
-1.2
-1.2
-1.2
-1.2
-1.2
-1.2
-1.2
-1.2
-1.2
-1.2
-1.2
-1.2
-1.2
-1.2
-1.2
-1.2
-1.2
-1.2
-1.2
-1.2
-1.2
-1.2
-1.2
-1.2
-1.2
-1.4
-1.4
-1.4
-1.4
-1.4
-1.4
-1.4
-1.4
-1.4
-1.4
-1.4
-1.4
-1.4
-1.4
-1.4
-1.4
-1.4
-1.4
-1.4
-1.4
-1.6
-1.6
-1.6
-1.6
-1.6
-1.6
-1.6
-1.6
-1.6
-1.6
-1.6
-1.6
-1.6
-1.6
-1.6
-1.6
-1.6
-1.6
-1.6
-1.6
-1.6
-1.6
-1.6
-1.6
-1.6
-1.6
-1.6
-1.6
-1.6
-1.6
-1.6
-1.6
-1.6
-1.6
-1.6
-1.6
-1.6
-1.6
-1.6
-1.8
-1.8
-1.8
-1.8
-1.8
-1.8
-1.8
-1.8
-1.8
-1.8
-1.8
-1.8
-1.8
-1.8
-1.8
-1.8
-1.8
-1.8
-1.8
-1.8
-2
-2
-2
-2
-2
-2
-2
-2
-2
-2
-2
-2
-2
-2
-2
-2
-2
-2
-2
-2
-2
-2
-2
-2
-2
-2
-2
-2
-2
-2
-2
-2
-2
-2
-2
-2
-2
-2
-2
-2.2
-2.2
-2.2
-2.2
-2.2
-2.2
-2.2
-2.2
-2.2
-2.2
-2.2
-2.2
-2.2
-2.2
-2.2
-2.2
-2.2
-2.2
-2.2
-2.2
-2.4
-2.4
-2.4
-2.4
-2.4
-2.4
-2.4
-2.4
-2.4
-2.4
-2.4
-2.4
-2.4
-2.4
-2.4
-2.4
-2.4
-2.4
-2.4
-2.4
-2.4
-2.4
-2.4
-2.4
-2.4
-2.4
-2.4
-2.4
-2.4
-2.4
-2.4
-2.4
-2.4
-2.4
-2.4
-2.4
-2.4
-2.4
-2.4
-2.6
-2.6
-2.6
-2.6
-2.6
-2.6
-2.6
-2.6
-2.6
-2.6
-2.6
-2.6
-2.6
-2.6
-2.6
-2.6
-2.6
-2.6
-2.6
-2.6
-2.8
-2.8
-2.8
-2.8
-2.8
-2.8
-2.8
-2.8
-2.8
-2.8
-2.8
-2.8
-2.8
-2.8
-2.8
-2.8
-2.8
-2.8
-2.8
-2.8
-2.8
-2.8
-2.8
-2.8
-2.8
-2.8
-2.8
-2.8
-2.8
-2.8
-2.8
-2.8
-2.8
-2.8
-2.8
-2.8
-2.8
-2.8
-2.8
-3
-3
-3
-3
-3
-3
-3
-3
-3
-3
-3
-3
-3
-3
-3
-3
-3
-3
-3
-3
-3.2
-3.2
-3.2
-3.2
-3.2
-3.2
-3.2
-3.2
-3.2
-3.2
-3.2
-3.2
-3.2
-3.2
-3.2
-3.2
-3.2
-3.2
-3.2
-3.2
-3.2
-3.2
-3.2
-3.2
-3.2
-3.2
-3.2
-3.2
-3.2
-3.2
-3.2
-3.2
-3.2
-3.2
-3.2
-3.2
-3.2
-3.2
-3.2
-3.4
-3.4
-3.4
-3.4
-3.4
-3.4
-3.4
-3.4
-3.4
-3.4
-3.4
-3.4
-3.4
-3.4
-3.4
-3.4
-3.4
-3.4
-3.4
-3.4
-3.6
-3.6
-3.6
-3.6
-3.6
-3.6
-3.6
-3.6
-3.6
-3.6
-3.6
-3.6
-3.6
-3.6
-3.6
-3.6
-3.6
-3.6
-3.6
-3.6
-3.6
-3.6
-3.6
-3.6
-3.6
-3.6
-3.6
-3.6
-3.6
-3.6
-3.6
-3.6
-3.6
-3.6
-3.6
-3.6
-3.6
-3.6
-3.6
-3.8
-3.8
-3.8
-3.8
-3.8
-3.8
-3.8
-3.8
-3.8
-3.8
-3.8
-3.8
-3.8
-3.8
-3.8
-3.8
-3.8
-3.8
-3.8
-3.8
-4
-4
-4
-4
-4
-4
-4
-4
-4
-4
-4
-4
-4
-4
-4
-4
-4
-4
-4
-4
-4
-4
-4
-4
-4
-4
-4
-4
-4
-4
-4
-4
-4
-4
-4
-4
-4
-4
-4
-4.55
-4.55
-4.55
-4.55
-4.55
-4.55
-4.55
-4.55
-4.55
-4.55
-4.55
-4.55
-4.55
-4.55
-4.55
-4.55
-4.55
-4.55
-4.55
-4.55
-5.1
-5.1
-5.1
-5.1
-5.1
-5.1
-5.1
-5.1
-5.1
-5.1
-5.1
-5.1
-5.1
-5.1
-5.1
-5.1
-5.1
-5.1
-5.1
-5.1
-5.1
-5.1
-5.1
-5.1
-5.1
-5.1
-5.1
-5.1
-5.1
-5.1
-5.1
-5.1
-5.1
-5.1
-5.1
-5.1
-5.1
-5.1
-5.1
-5.65
-5.65
-5.65
-5.65
-5.65
-5.65
-5.65
-5.65
-5.65
-5.65
-5.65
-5.65
-5.65
-5.65
-5.65
-5.65
-5.65
-5.65
-5.65
-5.65
-6.2
-6.2
-6.2
-6.2
-6.2
-6.2
-6.2
-6.2
-6.2
-6.2
-6.2
-6.2
-6.2
-6.2
-6.2
-6.2
-6.2
-6.2
-6.2
-6.2
-6.2
-6.2
-6.2
-6.2
-6.2
-6.2
-6.2
-6.2
-6.2
-6.2
-6.2
-6.2
-6.2
-6.2
-6.2
-6.2
-6.2
-6.2
-6.2
-6.75
-6.75
-6.75
-6.75
-6.75
-6.75
-6.75
-6.75
-6.75
-6.75
-6.75
-6.75
-6.75
-6.75
-6.75
-6.75
-6.75
-6.75
-6.75
-6.75
-7.3
-7.3
-7.3
-7.3
-7.3
-7.3
-7.3
-7.3
-7.3
-7.3
-7.3
-7.3
-7.3
-7.3
-7.3
-7.3
-7.3
-7.3
-7.3
-7.3
-7.3
-7.3
-7.3
-7.3
-7.3
-7.3
-7.3
-7.3
-7.3
-7.3
-7.3
-7.3
-7.3
-7.3
-7.3
-7.3
-7.3
-7.3
-7.3
-7.85
-7.85
-7.85
-7.85
-7.85
-7.85
-7.85
-7.85
-7.85
-7.85
-7.85
-7.85
-7.85
-7.85
-7.85
-7.85
-7.85
-7.85
-7.85
-7.85
-8.4
-8.4
-8.4
-8.4
-8.4
-8.4
-8.4
-8.4
-8.4
-8.4
-8.4
-8.4
-8.4
-8.4
-8.4
-8.4
-8.4
-8.4
-8.4
-8.4
-8.4
-8.4
-8.4
-8.4
-8.4
-8.4
-8.4
-8.4
-8.4
-8.4
-8.4
-8.4
-8.4
-8.4
-8.4
-8.4
-8.4
-8.4
-8.4
-8.95
-8.95
-8.95
-8.95
-8.95
-8.95
-8.95
-8.95
-8.95
-8.95
-8.95
-8.95
-8.95
-8.95
-8.95
-8.95
-8.95
-8.95
-8.95
-8.95
-9.5
-9.5
-9.5
-9.5
-9.5
-9.5
-9.5
-9.5
-9.5
-9.5
-9.5
-9.5
-9.5
-9.5
-9.5
-9.5
-9.5
-9.5
-9.5
-9.5
-9.5
-9.5
-9.5
-9.5
-9.5
-9.5
-9.5
-9.5
-9.5
-9.5
-9.5
-9.5
-9.5
-9.5
-9.5
-9.5
-9.5
-9.5
-9.5
-10.05
-10.05
-10.05
-10.05
-10.05
-10.05
-10.05
-10.05
-10.05
-10.05
-10.05
-10.05
-10.05
-10.05
-10.05
-10.05
-10.05
-10.05
-10.05
-10.05
-10.6
-10.6
-10.6
-10.6
-10.6
-10.6
-10.6
-10.6
-10.6
-10.6
-10.6
-10.6
-10.6
-10.6
-10.6
-10.6
-10.6
-10.6
-10.6
-10.6
-10.6
-10.6
-10.6
-10.6
-10.6
-10.6
-10.6
-10.6
-10.6
-10.6
-10.6
-10.6
-10.6
-10.6
-10.6
-10.6
-10.6
-10.6
-10.6
-11.15
-11.15
-11.15
-11.15
-11.15
-11.15
-11.15
-11.15
-11.15
-11.15
-11.15
-11.15
-11.15
-11.15
-11.15
-11.15
-11.15
-11.15
-11.15
-11.15
-11.7
-11.7
-11.7
-11.7
-11.7
-11.7
-11.7
-11.7
-11.7
-11.7
-11.7
-11.7
-11.7
-11.7
-11.7
-11.7
-11.7
-11.7
-11.7
-11.7
-11.7
-11.7
-11.7
-11.7
-11.7
-11.7
-11.7
-11.7
-11.7
-11.7
-11.7
-11.7
-11.7
-11.7
-11.7
-11.7
-11.7
-11.7
-11.7
-12.25
-12.25
-12.25
-12.25
-12.25
-12.25
-12.25
-12.25
-12.25
-12.25
-12.25
-12.25
-12.25
-12.25
-12.25
-12.25
-12.25
-12.25
-12.25
-12.25
-12.8
-12.8
-12.8
-12.8
-12.8
-12.8
-12.8
-12.8
-12.8
-12.8
-12.8
-12.8
-12.8
-12.8
-12.8
-12.8
-12.8
-12.8
-12.8
-12.8
-12.8
-12.8
-12.8
-12.8
-12.8
-12.8
-12.8
-12.8
-12.8
-12.8
-12.8
-12.8
-12.8
-12.8
-12.8
-12.8
-12.8
-12.8
-12.8
-13.35
-13.35
-13.35
-13.35
-13.35
-13.35
-13.35
-13.35
-13.35
-13.35
-13.35
-13.35
-13.35
-13.35
-13.35
-13.35
-13.35
-13.35
-13.35
-13.35
-13.9
-13.9
-13.9
-13.9
-13.9
-13.9
-13.9
-13.9
-13.9
-13.9
-13.9
-13.9
-13.9
-13.9
-13.9
-13.9
-13.9
-13.9
-13.9
-13.9
-13.9
-13.9
-13.9
-13.9
-13.9
-13.9
-13.9
-13.9
-13.9
-13.9
-13.9
-13.9
-13.9
-13.9
-13.9
-13.9
-13.9
-13.9
-13.9
-14.45
-14.45
-14.45
-14.45
-14.45
-14.45
-14.45
-14.45
-14.45
-14.45
-14.45
-14.45
-14.45
-14.45
-14.45
-14.45
-14.45
-14.45
-14.45
-14.45
-15
-15
-15
-15
-15
-15
-15
-15
-15
-15
-15
-15
-15
-15
-15
-15
-15
-15
-15
-15
-15
-15
-15
-15
-15
-15
-15
-15
-15
-15
-15
-15
-15
-15
-15
-15
-15
-15
-15
-19.25
-19.25
-19.25
-19.25
-19.25
-19.25
-19.25
-19.25
-19.25
-19.25
-19.25
-19.25
-19.25
-19.25
-19.25
-19.25
-19.25
-19.25
-19.25
-19.25
-23.5
-23.5
-23.5
-23.5
-23.5
-23.5
-23.5
-23.5
-23.5
-23.5
-23.5
-23.5
-23.5
-23.5
-23.5
-23.5
-23.5
-23.5
-23.5
-23.5
-23.5
-23.5
-23.5
-23.5
-23.5
-23.5
-23.5
-23.5
-23.5
-23.5
-23.5
-23.5
-23.5
-23.5
-23.5
-23.5
-23.5
-23.5
-23.5
-27.75
-27.75
-27.75
-27.75
-27.75
-27.75
-27.75
-27.75
-27.75
-27.75
-27.75
-27.75
-27.75
-27.75
-27.75
-27.75
-27.75
-27.75
-27.75
-27.75
-32
-32
-32
-32
-32
-32
-32
-32
-32
-32
-32
-32
-32
-32
-32
-32
-32
-32
-32
-32
-32
-32
-32
-32
-32
-32
-32
-32
-32
-32
-32
-32
-32
-32
-32
-32
-32
-32
-32
-36.25
-36.25
-36.25
-36.25
-36.25
-36.25
-36.25
-36.25
-36.25
-36.25
-36.25
-36.25
-36.25
-36.25
-36.25
-36.25
-36.25
-36.25
-36.25
-36.25
-40.5
-40.5
-40.5
-40.5
-40.5
-40.5
-40.5
-40.5
-40.5
-40.5
-40.5
-40.5
-40.5
-40.5
-40.5
-40.5
-40.5
-40.5
-40.5
-40.5
-40.5
-40.5
-40.5
-40.5
-40.5
-40.5
-40.5
-40.5
-40.5
-40.5
-40.5
-40.5
-40.5
-40.5
-40.5
-40.5
-40.5
-40.5
-40.5
-44.75
-44.75
-44.75
-44.75
-44.75
-44.75
-44.75
-44.75
-44.75
-44.75
-44.75
-44.75
-44.75
-44.75
-44.75
-44.75
-44.75
-44.75
-44.75
-44.75
-49
-49
-49
-49
-49
-49
-49
-49
-49
-49
-49
-49
-49
-49
-49
-49
-49
-49
-49
-49
-49
-49
-49
-49
-49
-49
-49
-49
-49
-49
-49
-49
-49
-49
-49
-49
-49
-49
-49
-53.25
-53.25
-53.25
-53.25
-53.25
-53.25
-53.25
-53.25
-53.25
-53.25
-53.25
-53.25
-53.25
-53.25
-53.25
-53.25
-53.25
-53.25
-53.25
-53.25
-57.5
-57.5
-57.5
-57.5
-57.5
-57.5
-57.5
-57.5
-57.5
-57.5
-57.5
-57.5
-57.5
-57.5
-57.5
-57.5
-57.5
-57.5
-57.5
-57.5
-57.5
-57.5
-57.5
-57.5
-57.5
-57.5
-57.5
-57.5
-57.5
-57.5
-57.5
-57.5
-57.5
-57.5
-57.5
-57.5
-57.5
-57.5
-57.5
-61.75
-61.75
-61.75
-61.75
-61.75
-61.75
-61.75
-61.75
-61.75
-61.75
-61.75
-61.75
-61.75
-61.75
-61.75
-61.75
-61.75
-61.75
-61.75
-61.75
-66
-66
-66
-66
-66
-66
-66
-66
-66
-66
-66
-66
-66
-66
-66
-66
-66
-66
-66
-66
-66
-66
-66
-66
-66
-66
-66
-66
-66
-66
-66
-66
-66
-66
-66
-66
-66
-66
-66
-70.25
-70.25
-70.25
-70.25
-70.25
-70.25
-70.25
-70.25
-70.25
-70.25
-70.25
-70.25
-70.25
-70.25
-70.25
-70.25
-70.25
-70.25
-70.25
-70.25
-74.5
-74.5
-74.5
-74.5
-74.5
-74.5
-74.5
-74.5
-74.5
-74.5
-74.5
-74.5
-74.5
-74.5
-74.5
-74.5
-74.5
-74.5
-74.5
-74.5
-74.5
-74.5
-74.5
-74.5
-74.5
-74.5
-74.5
-74.5
-74.5
-74.5
-74.5
-74.5
-74.5
-74.5
-74.5
-74.5
-74.5
-74.5
-74.5
-78.75
-78.75
-78.75
-78.75
-78.75
-78.75
-78.75
-78.75
-78.75
-78.75
-78.75
-78.75
-78.75
-78.75
-78.75
-78.75
-78.75
-78.75
-78.75
-78.75
-83
-83
-83
-83
-83
-83
-83
-83
-83
-83
-83
-83
-83
-83
-83
-83
-83
-83
-83
-83
-83
-83
-83
-83
-83
-83
-83
-83
-83
-83
-83
-83
-83
-83
-83
-83
-83
-83
-83
-87.25
-87.25
-87.25
-87.25
-87.25
-87.25
-87.25
-87.25
-87.25
-87.25
-87.25
-87.25
-87.25
-87.25
-87.25
-87.25
-87.25
-87.25
-87.25
-87.25
-91.5
-91.5
-91.5
-91.5
-91.5
-91.5
-91.5
-91.5
-91.5
-91.5
-91.5
-91.5
-91.5
-91.5
-91.5
-91.5
-91.5
-91.5
-91.5
-91.5
-91.5
-91.5
-91.5
-91.5
-91.5
-91.5
-91.5
-91.5
-91.5
-91.5
-91.5
-91.5
-91.5
-91.5
-91.5
-91.5
-91.5
-91.5
-91.5
-95.75
-95.75
-95.75
-95.75
-95.75
-95.75
-95.75
-95.75
-95.75
-95.75
-95.75
-95.75
-95.75
-95.75
-95.75
-95.75
-95.75
-95.75
-95.75
-95.75
-100
-100
-100
-100
-100
-100
-100
-100
-100
-100
-100
-100
-100
-100
-100
-100
-100
-100
-100
-100
-100
-100
-100
-100
-100
-100
-100
-100
-100
-100
-100
-100
-100
-100
-100
-100
-100
-100
-100
