# vtk DataFile Version 2.0
./vtk
ASCII

DATASET UNSTRUCTURED_GRID
POINTS 889 double
0 0 0.0
0.5 0 0.0
1 0 0.0
1.5 0 0.0
2 0 0.0
2.5 0 0.0
3 0 0.0
3.5 0 0.0
4 0 0.0
4.5 0 0.0
5 0 0.0
6.9457 0 0.0
8.8914 0 0.0
12.3514 0 0.0
15.8114 0 0.0
21.9642 0 0.0
28.1171 0 0.0
39.0585 0 0.0
50 0 0.0
0 -0.5 0.0
1 -0.5 0.0
2 -0.5 0.0
3 -0.5 0.0
4 -0.5 0.0
5 -0.5 0.0
8.8914 -0.5 0.0
15.8114 -0.5 0.0
28.1171 -0.5 0.0
50 -0.5 0.0
0 -1 0.0
0.5 -1 0.0
1 -1 0.0
1.5 -1 0.0
2 -1 0.0
2.5 -1 0.0
3 -1 0.0
3.5 -1 0.0
4 -1 0.0
4.5 -1 0.0
5 -1 0.0
6.9457 -1 0.0
8.8914 -1 0.0
12.3514 -1 0.0
15.8114 -1 0.0
21.9642 -1 0.0
28.1171 -1 0.0
39.0585 -1 0.0
50 -1 0.0
0 -1.5 0.0
1 -1.5 0.0
2 -1.5 0.0
3 -1.5 0.0
4 -1.5 0.0
5 -1.5 0.0
8.8914 -1.5 0.0
15.8114 -1.5 0.0
28.1171 -1.5 0.0
50 -1.5 0.0
0 -2 0.0
0.5 -2 0.0
1 -2 0.0
1.5 -2 0.0
2 -2 0.0
2.5 -2 0.0
3 -2 0.0
3.5 -2 0.0
4 -2 0.0
4.5 -2 0.0
5 -2 0.0
6.9457 -2 0.0
8.8914 -2 0.0
12.3514 -2 0.0
15.8114 -2 0.0
21.9642 -2 0.0
28.1171 -2 0.0
39.0585 -2 0.0
50 -2 0.0
0 -2.5 0.0
1 -2.5 0.0
2 -2.5 0.0
3 -2.5 0.0
4 -2.5 0.0
5 -2.5 0.0
8.8914 -2.5 0.0
15.8114 -2.5 0.0
28.1171 -2.5 0.0
50 -2.5 0.0
0 -3 0.0
0.5 -3 0.0
1 -3 0.0
1.5 -3 0.0
2 -3 0.0
2.5 -3 0.0
3 -3 0.0
3.5 -3 0.0
4 -3 0.0
4.5 -3 0.0
5 -3 0.0
6.9457 -3 0.0
8.8914 -3 0.0
12.3514 -3 0.0
15.8114 -3 0.0
21.9642 -3 0.0
28.1171 -3 0.0
39.0585 -3 0.0
50 -3 0.0
0 -3.5 0.0
1 -3.5 0.0
2 -3.5 0.0
3 -3.5 0.0
4 -3.5 0.0
5 -3.5 0.0
8.8914 -3.5 0.0
15.8114 -3.5 0.0
28.1171 -3.5 0.0
50 -3.5 0.0
0 -4 0.0
0.5 -4 0.0
1 -4 0.0
1.5 -4 0.0
2 -4 0.0
2.5 -4 0.0
3 -4 0.0
3.5 -4 0.0
4 -4 0.0
4.5 -4 0.0
5 -4 0.0
6.9457 -4 0.0
8.8914 -4 0.0
12.3514 -4 0.0
15.8114 -4 0.0
21.9642 -4 0.0
28.1171 -4 0.0
39.0585 -4 0.0
50 -4 0.0
0 -4.5 0.0
1 -4.5 0.0
2 -4.5 0.0
3 -4.5 0.0
4 -4.5 0.0
5 -4.5 0.0
8.8914 -4.5 0.0
15.8114 -4.5 0.0
28.1171 -4.5 0.0
50 -4.5 0.0
0 -5 0.0
0.5 -5 0.0
1 -5 0.0
1.5 -5 0.0
2 -5 0.0
2.5 -5 0.0
3 -5 0.0
3.5 -5 0.0
4 -5 0.0
4.5 -5 0.0
5 -5 0.0
6.9457 -5 0.0
8.8914 -5 0.0
12.3514 -5 0.0
15.8114 -5 0.0
21.9642 -5 0.0
28.1171 -5 0.0
39.0585 -5 0.0
50 -5 0.0
0 -5.5 0.0
1 -5.5 0.0
2 -5.5 0.0
3 -5.5 0.0
4 -5.5 0.0
5 -5.5 0.0
8.8914 -5.5 0.0
15.8114 -5.5 0.0
28.1171 -5.5 0.0
50 -5.5 0.0
0 -6 0.0
0.5 -6 0.0
1 -6 0.0
1.5 -6 0.0
2 -6 0.0
2.5 -6 0.0
3 -6 0.0
3.5 -6 0.0
4 -6 0.0
4.5 -6 0.0
5 -6 0.0
6.9457 -6 0.0
8.8914 -6 0.0
12.3514 -6 0.0
15.8114 -6 0.0
21.9642 -6 0.0
28.1171 -6 0.0
39.0585 -6 0.0
50 -6 0.0
0 -6.5 0.0
1 -6.5 0.0
2 -6.5 0.0
3 -6.5 0.0
4 -6.5 0.0
5 -6.5 0.0
8.8914 -6.5 0.0
15.8114 -6.5 0.0
28.1171 -6.5 0.0
50 -6.5 0.0
0 -7 0.0
0.5 -7 0.0
1 -7 0.0
1.5 -7 0.0
2 -7 0.0
2.5 -7 0.0
3 -7 0.0
3.5 -7 0.0
4 -7 0.0
4.5 -7 0.0
5 -7 0.0
6.9457 -7 0.0
8.8914 -7 0.0
12.3514 -7 0.0
15.8114 -7 0.0
21.9642 -7 0.0
28.1171 -7 0.0
39.0585 -7 0.0
50 -7 0.0
0 -7.5 0.0
1 -7.5 0.0
2 -7.5 0.0
3 -7.5 0.0
4 -7.5 0.0
5 -7.5 0.0
8.8914 -7.5 0.0
15.8114 -7.5 0.0
28.1171 -7.5 0.0
50 -7.5 0.0
0 -8 0.0
0.5 -8 0.0
1 -8 0.0
1.5 -8 0.0
2 -8 0.0
2.5 -8 0.0
3 -8 0.0
3.5 -8 0.0
4 -8 0.0
4.5 -8 0.0
5 -8 0.0
6.9457 -8 0.0
8.8914 -8 0.0
12.3514 -8 0.0
15.8114 -8 0.0
21.9642 -8 0.0
28.1171 -8 0.0
39.0585 -8 0.0
50 -8 0.0
0 -8.5 0.0
1 -8.5 0.0
2 -8.5 0.0
3 -8.5 0.0
4 -8.5 0.0
5 -8.5 0.0
8.8914 -8.5 0.0
15.8114 -8.5 0.0
28.1171 -8.5 0.0
50 -8.5 0.0
0 -9 0.0
0.5 -9 0.0
1 -9 0.0
1.5 -9 0.0
2 -9 0.0
2.5 -9 0.0
3 -9 0.0
3.5 -9 0.0
4 -9 0.0
4.5 -9 0.0
5 -9 0.0
6.9457 -9 0.0
8.8914 -9 0.0
12.3514 -9 0.0
15.8114 -9 0.0
21.9642 -9 0.0
28.1171 -9 0.0
39.0585 -9 0.0
50 -9 0.0
0 -9.5 0.0
1 -9.5 0.0
2 -9.5 0.0
3 -9.5 0.0
4 -9.5 0.0
5 -9.5 0.0
8.8914 -9.5 0.0
15.8114 -9.5 0.0
28.1171 -9.5 0.0
50 -9.5 0.0
0 -10 0.0
0.5 -10 0.0
1 -10 0.0
1.5 -10 0.0
2 -10 0.0
2.5 -10 0.0
3 -10 0.0
3.5 -10 0.0
4 -10 0.0
4.5 -10 0.0
5 -10 0.0
6.9457 -10 0.0
8.8914 -10 0.0
12.3514 -10 0.0
15.8114 -10 0.0
21.9642 -10 0.0
28.1171 -10 0.0
39.0585 -10 0.0
50 -10 0.0
0 -10.5 0.0
1 -10.5 0.0
2 -10.5 0.0
3 -10.5 0.0
4 -10.5 0.0
5 -10.5 0.0
8.8914 -10.5 0.0
15.8114 -10.5 0.0
28.1171 -10.5 0.0
50 -10.5 0.0
0 -11 0.0
0.5 -11 0.0
1 -11 0.0
1.5 -11 0.0
2 -11 0.0
2.5 -11 0.0
3 -11 0.0
3.5 -11 0.0
4 -11 0.0
4.5 -11 0.0
5 -11 0.0
6.9457 -11 0.0
8.8914 -11 0.0
12.3514 -11 0.0
15.8114 -11 0.0
21.9642 -11 0.0
28.1171 -11 0.0
39.0585 -11 0.0
50 -11 0.0
0 -11.5 0.0
1 -11.5 0.0
2 -11.5 0.0
3 -11.5 0.0
4 -11.5 0.0
5 -11.5 0.0
8.8914 -11.5 0.0
15.8114 -11.5 0.0
28.1171 -11.5 0.0
50 -11.5 0.0
0 -12 0.0
0.5 -12 0.0
1 -12 0.0
1.5 -12 0.0
2 -12 0.0
2.5 -12 0.0
3 -12 0.0
3.5 -12 0.0
4 -12 0.0
4.5 -12 0.0
5 -12 0.0
6.9457 -12 0.0
8.8914 -12 0.0
12.3514 -12 0.0
15.8114 -12 0.0
21.9642 -12 0.0
28.1171 -12 0.0
39.0585 -12 0.0
50 -12 0.0
0 -12.5 0.0
1 -12.5 0.0
2 -12.5 0.0
3 -12.5 0.0
4 -12.5 0.0
5 -12.5 0.0
8.8914 -12.5 0.0
15.8114 -12.5 0.0
28.1171 -12.5 0.0
50 -12.5 0.0
0 -13 0.0
0.5 -13 0.0
1 -13 0.0
1.5 -13 0.0
2 -13 0.0
2.5 -13 0.0
3 -13 0.0
3.5 -13 0.0
4 -13 0.0
4.5 -13 0.0
5 -13 0.0
6.9457 -13 0.0
8.8914 -13 0.0
12.3514 -13 0.0
15.8114 -13 0.0
21.9642 -13 0.0
28.1171 -13 0.0
39.0585 -13 0.0
50 -13 0.0
0 -13.5 0.0
1 -13.5 0.0
2 -13.5 0.0
3 -13.5 0.0
4 -13.5 0.0
5 -13.5 0.0
8.8914 -13.5 0.0
15.8114 -13.5 0.0
28.1171 -13.5 0.0
50 -13.5 0.0
0 -14 0.0
0.5 -14 0.0
1 -14 0.0
1.5 -14 0.0
2 -14 0.0
2.5 -14 0.0
3 -14 0.0
3.5 -14 0.0
4 -14 0.0
4.5 -14 0.0
5 -14 0.0
6.9457 -14 0.0
8.8914 -14 0.0
12.3514 -14 0.0
15.8114 -14 0.0
21.9642 -14 0.0
28.1171 -14 0.0
39.0585 -14 0.0
50 -14 0.0
0 -14.5 0.0
1 -14.5 0.0
2 -14.5 0.0
3 -14.5 0.0
4 -14.5 0.0
5 -14.5 0.0
8.8914 -14.5 0.0
15.8114 -14.5 0.0
28.1171 -14.5 0.0
50 -14.5 0.0
0 -15 0.0
0.5 -15 0.0
1 -15 0.0
1.5 -15 0.0
2 -15 0.0
2.5 -15 0.0
3 -15 0.0
3.5 -15 0.0
4 -15 0.0
4.5 -15 0.0
5 -15 0.0
6.9457 -15 0.0
8.8914 -15 0.0
12.3514 -15 0.0
15.8114 -15 0.0
21.9642 -15 0.0
28.1171 -15 0.0
39.0585 -15 0.0
50 -15 0.0
0 -16.5 0.0
1 -16.5 0.0
2 -16.5 0.0
3 -16.5 0.0
4 -16.5 0.0
5 -16.5 0.0
8.8914 -16.5 0.0
15.8114 -16.5 0.0
28.1171 -16.5 0.0
50 -16.5 0.0
0 -18 0.0
0.5 -18 0.0
1 -18 0.0
1.5 -18 0.0
2 -18 0.0
2.5 -18 0.0
3 -18 0.0
3.5 -18 0.0
4 -18 0.0
4.5 -18 0.0
5 -18 0.0
6.9457 -18 0.0
8.8914 -18 0.0
12.3514 -18 0.0
15.8114 -18 0.0
21.9642 -18 0.0
28.1171 -18 0.0
39.0585 -18 0.0
50 -18 0.0
0 -19.5 0.0
1 -19.5 0.0
2 -19.5 0.0
3 -19.5 0.0
4 -19.5 0.0
5 -19.5 0.0
8.8914 -19.5 0.0
15.8114 -19.5 0.0
28.1171 -19.5 0.0
50 -19.5 0.0
0 -21 0.0
0.5 -21 0.0
1 -21 0.0
1.5 -21 0.0
2 -21 0.0
2.5 -21 0.0
3 -21 0.0
3.5 -21 0.0
4 -21 0.0
4.5 -21 0.0
5 -21 0.0
6.9457 -21 0.0
8.8914 -21 0.0
12.3514 -21 0.0
15.8114 -21 0.0
21.9642 -21 0.0
28.1171 -21 0.0
39.0585 -21 0.0
50 -21 0.0
0 -22.5 0.0
1 -22.5 0.0
2 -22.5 0.0
3 -22.5 0.0
4 -22.5 0.0
5 -22.5 0.0
8.8914 -22.5 0.0
15.8114 -22.5 0.0
28.1171 -22.5 0.0
50 -22.5 0.0
0 -24 0.0
0.5 -24 0.0
1 -24 0.0
1.5 -24 0.0
2 -24 0.0
2.5 -24 0.0
3 -24 0.0
3.5 -24 0.0
4 -24 0.0
4.5 -24 0.0
5 -24 0.0
6.9457 -24 0.0
8.8914 -24 0.0
12.3514 -24 0.0
15.8114 -24 0.0
21.9642 -24 0.0
28.1171 -24 0.0
39.0585 -24 0.0
50 -24 0.0
0 -25.5 0.0
1 -25.5 0.0
2 -25.5 0.0
3 -25.5 0.0
4 -25.5 0.0
5 -25.5 0.0
8.8914 -25.5 0.0
15.8114 -25.5 0.0
28.1171 -25.5 0.0
50 -25.5 0.0
0 -27 0.0
0.5 -27 0.0
1 -27 0.0
1.5 -27 0.0
2 -27 0.0
2.5 -27 0.0
3 -27 0.0
3.5 -27 0.0
4 -27 0.0
4.5 -27 0.0
5 -27 0.0
6.9457 -27 0.0
8.8914 -27 0.0
12.3514 -27 0.0
15.8114 -27 0.0
21.9642 -27 0.0
28.1171 -27 0.0
39.0585 -27 0.0
50 -27 0.0
0 -28.5 0.0
1 -28.5 0.0
2 -28.5 0.0
3 -28.5 0.0
4 -28.5 0.0
5 -28.5 0.0
8.8914 -28.5 0.0
15.8114 -28.5 0.0
28.1171 -28.5 0.0
50 -28.5 0.0
0 -30 0.0
0.5 -30 0.0
1 -30 0.0
1.5 -30 0.0
2 -30 0.0
2.5 -30 0.0
3 -30 0.0
3.5 -30 0.0
4 -30 0.0
4.5 -30 0.0
5 -30 0.0
6.9457 -30 0.0
8.8914 -30 0.0
12.3514 -30 0.0
15.8114 -30 0.0
21.9642 -30 0.0
28.1171 -30 0.0
39.0585 -30 0.0
50 -30 0.0
0 -31.5 0.0
1 -31.5 0.0
2 -31.5 0.0
3 -31.5 0.0
4 -31.5 0.0
5 -31.5 0.0
8.8914 -31.5 0.0
15.8114 -31.5 0.0
28.1171 -31.5 0.0
50 -31.5 0.0
0 -33 0.0
0.5 -33 0.0
1 -33 0.0
1.5 -33 0.0
2 -33 0.0
2.5 -33 0.0
3 -33 0.0
3.5 -33 0.0
4 -33 0.0
4.5 -33 0.0
5 -33 0.0
6.9457 -33 0.0
8.8914 -33 0.0
12.3514 -33 0.0
15.8114 -33 0.0
21.9642 -33 0.0
28.1171 -33 0.0
39.0585 -33 0.0
50 -33 0.0
0 -34.5 0.0
1 -34.5 0.0
2 -34.5 0.0
3 -34.5 0.0
4 -34.5 0.0
5 -34.5 0.0
8.8914 -34.5 0.0
15.8114 -34.5 0.0
28.1171 -34.5 0.0
50 -34.5 0.0
0 -36 0.0
0.5 -36 0.0
1 -36 0.0
1.5 -36 0.0
2 -36 0.0
2.5 -36 0.0
3 -36 0.0
3.5 -36 0.0
4 -36 0.0
4.5 -36 0.0
5 -36 0.0
6.9457 -36 0.0
8.8914 -36 0.0
12.3514 -36 0.0
15.8114 -36 0.0
21.9642 -36 0.0
28.1171 -36 0.0
39.0585 -36 0.0
50 -36 0.0
0 -37.5 0.0
1 -37.5 0.0
2 -37.5 0.0
3 -37.5 0.0
4 -37.5 0.0
5 -37.5 0.0
8.8914 -37.5 0.0
15.8114 -37.5 0.0
28.1171 -37.5 0.0
50 -37.5 0.0
0 -39 0.0
0.5 -39 0.0
1 -39 0.0
1.5 -39 0.0
2 -39 0.0
2.5 -39 0.0
3 -39 0.0
3.5 -39 0.0
4 -39 0.0
4.5 -39 0.0
5 -39 0.0
6.9457 -39 0.0
8.8914 -39 0.0
12.3514 -39 0.0
15.8114 -39 0.0
21.9642 -39 0.0
28.1171 -39 0.0
39.0585 -39 0.0
50 -39 0.0
0 -40.5 0.0
1 -40.5 0.0
2 -40.5 0.0
3 -40.5 0.0
4 -40.5 0.0
5 -40.5 0.0
8.8914 -40.5 0.0
15.8114 -40.5 0.0
28.1171 -40.5 0.0
50 -40.5 0.0
0 -42 0.0
0.5 -42 0.0
1 -42 0.0
1.5 -42 0.0
2 -42 0.0
2.5 -42 0.0
3 -42 0.0
3.5 -42 0.0
4 -42 0.0
4.5 -42 0.0
5 -42 0.0
6.9457 -42 0.0
8.8914 -42 0.0
12.3514 -42 0.0
15.8114 -42 0.0
21.9642 -42 0.0
28.1171 -42 0.0
39.0585 -42 0.0
50 -42 0.0
0 -43.5 0.0
1 -43.5 0.0
2 -43.5 0.0
3 -43.5 0.0
4 -43.5 0.0
5 -43.5 0.0
8.8914 -43.5 0.0
15.8114 -43.5 0.0
28.1171 -43.5 0.0
50 -43.5 0.0
0 -45 0.0
0.5 -45 0.0
1 -45 0.0
1.5 -45 0.0
2 -45 0.0
2.5 -45 0.0
3 -45 0.0
3.5 -45 0.0
4 -45 0.0
4.5 -45 0.0
5 -45 0.0
6.9457 -45 0.0
8.8914 -45 0.0
12.3514 -45 0.0
15.8114 -45 0.0
21.9642 -45 0.0
28.1171 -45 0.0
39.0585 -45 0.0
50 -45 0.0
0 -50.5 0.0
1 -50.5 0.0
2 -50.5 0.0
3 -50.5 0.0
4 -50.5 0.0
5 -50.5 0.0
8.8914 -50.5 0.0
15.8114 -50.5 0.0
28.1171 -50.5 0.0
50 -50.5 0.0
0 -56 0.0
0.5 -56 0.0
1 -56 0.0
1.5 -56 0.0
2 -56 0.0
2.5 -56 0.0
3 -56 0.0
3.5 -56 0.0
4 -56 0.0
4.5 -56 0.0
5 -56 0.0
6.9457 -56 0.0
8.8914 -56 0.0
12.3514 -56 0.0
15.8114 -56 0.0
21.9642 -56 0.0
28.1171 -56 0.0
39.0585 -56 0.0
50 -56 0.0
0 -61.5 0.0
1 -61.5 0.0
2 -61.5 0.0
3 -61.5 0.0
4 -61.5 0.0
5 -61.5 0.0
8.8914 -61.5 0.0
15.8114 -61.5 0.0
28.1171 -61.5 0.0
50 -61.5 0.0
0 -67 0.0
0.5 -67 0.0
1 -67 0.0
1.5 -67 0.0
2 -67 0.0
2.5 -67 0.0
3 -67 0.0
3.5 -67 0.0
4 -67 0.0
4.5 -67 0.0
5 -67 0.0
6.9457 -67 0.0
8.8914 -67 0.0
12.3514 -67 0.0
15.8114 -67 0.0
21.9642 -67 0.0
28.1171 -67 0.0
39.0585 -67 0.0
50 -67 0.0
0 -72.5 0.0
1 -72.5 0.0
2 -72.5 0.0
3 -72.5 0.0
4 -72.5 0.0
5 -72.5 0.0
8.8914 -72.5 0.0
15.8114 -72.5 0.0
28.1171 -72.5 0.0
50 -72.5 0.0
0 -78 0.0
0.5 -78 0.0
1 -78 0.0
1.5 -78 0.0
2 -78 0.0
2.5 -78 0.0
3 -78 0.0
3.5 -78 0.0
4 -78 0.0
4.5 -78 0.0
5 -78 0.0
6.9457 -78 0.0
8.8914 -78 0.0
12.3514 -78 0.0
15.8114 -78 0.0
21.9642 -78 0.0
28.1171 -78 0.0
39.0585 -78 0.0
50 -78 0.0
0 -83.5 0.0
1 -83.5 0.0
2 -83.5 0.0
3 -83.5 0.0
4 -83.5 0.0
5 -83.5 0.0
8.8914 -83.5 0.0
15.8114 -83.5 0.0
28.1171 -83.5 0.0
50 -83.5 0.0
0 -89 0.0
0.5 -89 0.0
1 -89 0.0
1.5 -89 0.0
2 -89 0.0
2.5 -89 0.0
3 -89 0.0
3.5 -89 0.0
4 -89 0.0
4.5 -89 0.0
5 -89 0.0
6.9457 -89 0.0
8.8914 -89 0.0
12.3514 -89 0.0
15.8114 -89 0.0
21.9642 -89 0.0
28.1171 -89 0.0
39.0585 -89 0.0
50 -89 0.0
0 -94.5 0.0
1 -94.5 0.0
2 -94.5 0.0
3 -94.5 0.0
4 -94.5 0.0
5 -94.5 0.0
8.8914 -94.5 0.0
15.8114 -94.5 0.0
28.1171 -94.5 0.0
50 -94.5 0.0
0 -100 0.0
0.5 -100 0.0
1 -100 0.0
1.5 -100 0.0
2 -100 0.0
2.5 -100 0.0
3 -100 0.0
3.5 -100 0.0
4 -100 0.0
4.5 -100 0.0
5 -100 0.0
6.9457 -100 0.0
8.8914 -100 0.0
12.3514 -100 0.0
15.8114 -100 0.0
21.9642 -100 0.0
28.1171 -100 0.0
39.0585 -100 0.0
50 -100 0.0

CELLS 270 2430
8 29 31  2  0 30 20  1 19
8 31 33  4  2 32 21  3 20
8 33 35  6  4 34 22  5 21
8 35 37  8  6 36 23  7 22
8 37 39 10  8 38 24  9 23
8 39 41 12 10 40 25 11 24
8 41 43 14 12 42 26 13 25
8 43 45 16 14 44 27 15 26
8 45 47 18 16 46 28 17 27
8 58 60 31 29 59 49 30 48
8 60 62 33 31 61 50 32 49
8 62 64 35 33 63 51 34 50
8 64 66 37 35 65 52 36 51
8 66 68 39 37 67 53 38 52
8 68 70 41 39 69 54 40 53
8 70 72 43 41 71 55 42 54
8 72 74 45 43 73 56 44 55
8 74 76 47 45 75 57 46 56
8 87 89 60 58 88 78 59 77
8 89 91 62 60 90 79 61 78
8 91 93 64 62 92 80 63 79
8 93 95 66 64 94 81 65 80
8 95 97 68 66 96 82 67 81
8 97 99 70 68 98 83 69 82
8  99 101  72  70 100  84  71  83
8 101 103  74  72 102  85  73  84
8 103 105  76  74 104  86  75  85
8 116 118  89  87 117 107  88 106
8 118 120  91  89 119 108  90 107
8 120 122  93  91 121 109  92 108
8 122 124  95  93 123 110  94 109
8 124 126  97  95 125 111  96 110
8 126 128  99  97 127 112  98 111
8 128 130 101  99 129 113 100 112
8 130 132 103 101 131 114 102 113
8 132 134 105 103 133 115 104 114
8 145 147 118 116 146 136 117 135
8 147 149 120 118 148 137 119 136
8 149 151 122 120 150 138 121 137
8 151 153 124 122 152 139 123 138
8 153 155 126 124 154 140 125 139
8 155 157 128 126 156 141 127 140
8 157 159 130 128 158 142 129 141
8 159 161 132 130 160 143 131 142
8 161 163 134 132 162 144 133 143
8 174 176 147 145 175 165 146 164
8 176 178 149 147 177 166 148 165
8 178 180 151 149 179 167 150 166
8 180 182 153 151 181 168 152 167
8 182 184 155 153 183 169 154 168
8 184 186 157 155 185 170 156 169
8 186 188 159 157 187 171 158 170
8 188 190 161 159 189 172 160 171
8 190 192 163 161 191 173 162 172
8 203 205 176 174 204 194 175 193
8 205 207 178 176 206 195 177 194
8 207 209 180 178 208 196 179 195
8 209 211 182 180 210 197 181 196
8 211 213 184 182 212 198 183 197
8 213 215 186 184 214 199 185 198
8 215 217 188 186 216 200 187 199
8 217 219 190 188 218 201 189 200
8 219 221 192 190 220 202 191 201
8 232 234 205 203 233 223 204 222
8 234 236 207 205 235 224 206 223
8 236 238 209 207 237 225 208 224
8 238 240 211 209 239 226 210 225
8 240 242 213 211 241 227 212 226
8 242 244 215 213 243 228 214 227
8 244 246 217 215 245 229 216 228
8 246 248 219 217 247 230 218 229
8 248 250 221 219 249 231 220 230
8 261 263 234 232 262 252 233 251
8 263 265 236 234 264 253 235 252
8 265 267 238 236 266 254 237 253
8 267 269 240 238 268 255 239 254
8 269 271 242 240 270 256 241 255
8 271 273 244 242 272 257 243 256
8 273 275 246 244 274 258 245 257
8 275 277 248 246 276 259 247 258
8 277 279 250 248 278 260 249 259
8 290 292 263 261 291 281 262 280
8 292 294 265 263 293 282 264 281
8 294 296 267 265 295 283 266 282
8 296 298 269 267 297 284 268 283
8 298 300 271 269 299 285 270 284
8 300 302 273 271 301 286 272 285
8 302 304 275 273 303 287 274 286
8 304 306 277 275 305 288 276 287
8 306 308 279 277 307 289 278 288
8 319 321 292 290 320 310 291 309
8 321 323 294 292 322 311 293 310
8 323 325 296 294 324 312 295 311
8 325 327 298 296 326 313 297 312
8 327 329 300 298 328 314 299 313
8 329 331 302 300 330 315 301 314
8 331 333 304 302 332 316 303 315
8 333 335 306 304 334 317 305 316
8 335 337 308 306 336 318 307 317
8 348 350 321 319 349 339 320 338
8 350 352 323 321 351 340 322 339
8 352 354 325 323 353 341 324 340
8 354 356 327 325 355 342 326 341
8 356 358 329 327 357 343 328 342
8 358 360 331 329 359 344 330 343
8 360 362 333 331 361 345 332 344
8 362 364 335 333 363 346 334 345
8 364 366 337 335 365 347 336 346
8 377 379 350 348 378 368 349 367
8 379 381 352 350 380 369 351 368
8 381 383 354 352 382 370 353 369
8 383 385 356 354 384 371 355 370
8 385 387 358 356 386 372 357 371
8 387 389 360 358 388 373 359 372
8 389 391 362 360 390 374 361 373
8 391 393 364 362 392 375 363 374
8 393 395 366 364 394 376 365 375
8 406 408 379 377 407 397 378 396
8 408 410 381 379 409 398 380 397
8 410 412 383 381 411 399 382 398
8 412 414 385 383 413 400 384 399
8 414 416 387 385 415 401 386 400
8 416 418 389 387 417 402 388 401
8 418 420 391 389 419 403 390 402
8 420 422 393 391 421 404 392 403
8 422 424 395 393 423 405 394 404
8 435 437 408 406 436 426 407 425
8 437 439 410 408 438 427 409 426
8 439 441 412 410 440 428 411 427
8 441 443 414 412 442 429 413 428
8 443 445 416 414 444 430 415 429
8 445 447 418 416 446 431 417 430
8 447 449 420 418 448 432 419 431
8 449 451 422 420 450 433 421 432
8 451 453 424 422 452 434 423 433
8 464 466 437 435 465 455 436 454
8 466 468 439 437 467 456 438 455
8 468 470 441 439 469 457 440 456
8 470 472 443 441 471 458 442 457
8 472 474 445 443 473 459 444 458
8 474 476 447 445 475 460 446 459
8 476 478 449 447 477 461 448 460
8 478 480 451 449 479 462 450 461
8 480 482 453 451 481 463 452 462
8 493 495 466 464 494 484 465 483
8 495 497 468 466 496 485 467 484
8 497 499 470 468 498 486 469 485
8 499 501 472 470 500 487 471 486
8 501 503 474 472 502 488 473 487
8 503 505 476 474 504 489 475 488
8 505 507 478 476 506 490 477 489
8 507 509 480 478 508 491 479 490
8 509 511 482 480 510 492 481 491
8 522 524 495 493 523 513 494 512
8 524 526 497 495 525 514 496 513
8 526 528 499 497 527 515 498 514
8 528 530 501 499 529 516 500 515
8 530 532 503 501 531 517 502 516
8 532 534 505 503 533 518 504 517
8 534 536 507 505 535 519 506 518
8 536 538 509 507 537 520 508 519
8 538 540 511 509 539 521 510 520
8 551 553 524 522 552 542 523 541
8 553 555 526 524 554 543 525 542
8 555 557 528 526 556 544 527 543
8 557 559 530 528 558 545 529 544
8 559 561 532 530 560 546 531 545
8 561 563 534 532 562 547 533 546
8 563 565 536 534 564 548 535 547
8 565 567 538 536 566 549 537 548
8 567 569 540 538 568 550 539 549
8 580 582 553 551 581 571 552 570
8 582 584 555 553 583 572 554 571
8 584 586 557 555 585 573 556 572
8 586 588 559 557 587 574 558 573
8 588 590 561 559 589 575 560 574
8 590 592 563 561 591 576 562 575
8 592 594 565 563 593 577 564 576
8 594 596 567 565 595 578 566 577
8 596 598 569 567 597 579 568 578
8 609 611 582 580 610 600 581 599
8 611 613 584 582 612 601 583 600
8 613 615 586 584 614 602 585 601
8 615 617 588 586 616 603 587 602
8 617 619 590 588 618 604 589 603
8 619 621 592 590 620 605 591 604
8 621 623 594 592 622 606 593 605
8 623 625 596 594 624 607 595 606
8 625 627 598 596 626 608 597 607
8 638 640 611 609 639 629 610 628
8 640 642 613 611 641 630 612 629
8 642 644 615 613 643 631 614 630
8 644 646 617 615 645 632 616 631
8 646 648 619 617 647 633 618 632
8 648 650 621 619 649 634 620 633
8 650 652 623 621 651 635 622 634
8 652 654 625 623 653 636 624 635
8 654 656 627 625 655 637 626 636
8 667 669 640 638 668 658 639 657
8 669 671 642 640 670 659 641 658
8 671 673 644 642 672 660 643 659
8 673 675 646 644 674 661 645 660
8 675 677 648 646 676 662 647 661
8 677 679 650 648 678 663 649 662
8 679 681 652 650 680 664 651 663
8 681 683 654 652 682 665 653 664
8 683 685 656 654 684 666 655 665
8 696 698 669 667 697 687 668 686
8 698 700 671 669 699 688 670 687
8 700 702 673 671 701 689 672 688
8 702 704 675 673 703 690 674 689
8 704 706 677 675 705 691 676 690
8 706 708 679 677 707 692 678 691
8 708 710 681 679 709 693 680 692
8 710 712 683 681 711 694 682 693
8 712 714 685 683 713 695 684 694
8 725 727 698 696 726 716 697 715
8 727 729 700 698 728 717 699 716
8 729 731 702 700 730 718 701 717
8 731 733 704 702 732 719 703 718
8 733 735 706 704 734 720 705 719
8 735 737 708 706 736 721 707 720
8 737 739 710 708 738 722 709 721
8 739 741 712 710 740 723 711 722
8 741 743 714 712 742 724 713 723
8 754 756 727 725 755 745 726 744
8 756 758 729 727 757 746 728 745
8 758 760 731 729 759 747 730 746
8 760 762 733 731 761 748 732 747
8 762 764 735 733 763 749 734 748
8 764 766 737 735 765 750 736 749
8 766 768 739 737 767 751 738 750
8 768 770 741 739 769 752 740 751
8 770 772 743 741 771 753 742 752
8 783 785 756 754 784 774 755 773
8 785 787 758 756 786 775 757 774
8 787 789 760 758 788 776 759 775
8 789 791 762 760 790 777 761 776
8 791 793 764 762 792 778 763 777
8 793 795 766 764 794 779 765 778
8 795 797 768 766 796 780 767 779
8 797 799 770 768 798 781 769 780
8 799 801 772 770 800 782 771 781
8 812 814 785 783 813 803 784 802
8 814 816 787 785 815 804 786 803
8 816 818 789 787 817 805 788 804
8 818 820 791 789 819 806 790 805
8 820 822 793 791 821 807 792 806
8 822 824 795 793 823 808 794 807
8 824 826 797 795 825 809 796 808
8 826 828 799 797 827 810 798 809
8 828 830 801 799 829 811 800 810
8 841 843 814 812 842 832 813 831
8 843 845 816 814 844 833 815 832
8 845 847 818 816 846 834 817 833
8 847 849 820 818 848 835 819 834
8 849 851 822 820 850 836 821 835
8 851 853 824 822 852 837 823 836
8 853 855 826 824 854 838 825 837
8 855 857 828 826 856 839 827 838
8 857 859 830 828 858 840 829 839
8 870 872 843 841 871 861 842 860
8 872 874 845 843 873 862 844 861
8 874 876 847 845 875 863 846 862
8 876 878 849 847 877 864 848 863
8 878 880 851 849 879 865 850 864
8 880 882 853 851 881 866 852 865
8 882 884 855 853 883 867 854 866
8 884 886 857 855 885 868 856 867
8 886 888 859 857 887 869 858 868

CELL_TYPES 270
23
23
23
23
23
23
23
23
23
23
23
23
23
23
23
23
23
23
23
23
23
23
23
23
23
23
23
23
23
23
23
23
23
23
23
23
23
23
23
23
23
23
23
23
23
23
23
23
23
23
23
23
23
23
23
23
23
23
23
23
23
23
23
23
23
23
23
23
23
23
23
23
23
23
23
23
23
23
23
23
23
23
23
23
23
23
23
23
23
23
23
23
23
23
23
23
23
23
23
23
23
23
23
23
23
23
23
23
23
23
23
23
23
23
23
23
23
23
23
23
23
23
23
23
23
23
23
23
23
23
23
23
23
23
23
23
23
23
23
23
23
23
23
23
23
23
23
23
23
23
23
23
23
23
23
23
23
23
23
23
23
23
23
23
23
23
23
23
23
23
23
23
23
23
23
23
23
23
23
23
23
23
23
23
23
23
23
23
23
23
23
23
23
23
23
23
23
23
23
23
23
23
23
23
23
23
23
23
23
23
23
23
23
23
23
23
23
23
23
23
23
23
23
23
23
23
23
23
23
23
23
23
23
23
23
23
23
23
23
23
23
23
23
23
23
23
23
23
23
23
23
23
23
23
23
23
23
23
23
23
23
23
23
23
23
23
23
23
23
23

POINT_DATA 889
SCALARS Displacement_R double 1
LOOKUP_TABLE default
0
-0.000929129
-0.00184738
-0.00274432
-0.00360865
-0.00443752
-0.00521816
-0.00595952
-0.00661834
-0.00714289
-0.00753978
-0.00796032
-0.00763389
-0.00676781
-0.00577648
-0.00450046
-0.00326668
-0.00158393
0
0
-0.00129229
-0.00251169
-0.00357947
-0.00438506
-0.00495045
-0.00584114
-0.00468533
-0.0027618
0
0
-0.000403725
-0.000799139
-0.00118047
-0.0015376
-0.00186281
-0.00214325
-0.00238164
-0.00256783
-0.00270104
-0.0029151
-0.00378095
-0.00409928
-0.00394673
-0.00360919
-0.00296895
-0.00226034
-0.00111003
0
0
-0.000357171
-0.000671598
-0.000904305
-0.00104811
-0.0012623
-0.00243804
-0.00253329
-0.00175657
0
0
2.3374e-05
4.91824e-05
7.79061e-05
0.000112999
0.00015629
0.000204159
0.000249807
0.000275791
0.000262873
0.000203881
-0.000321537
-0.000824615
-0.00126534
-0.0014678
-0.00148039
-0.00125626
-0.000646166
0
0
0.00043633
0.00085888
0.00124133
0.00152449
0.00161432
0.000758305
-0.000415016
-0.000759357
0
0
0.000416671
0.000827288
0.00122708
0.00160861
0.00196624
0.00228942
0.00256812
0.00279126
0.00295058
0.00304709
0.00288835
0.00233269
0.00134974
0.000627898
-1.87022e-05
-0.000265359
-0.000188366
0
0
0.00124479
0.00241283
0.0034195
0.00417495
0.00460156
0.00393019
0.00165415
0.000220402
0
0
0.000862931
0.00171219
0.00253707
0.00332149
0.00405125
0.00471059
0.00528396
0.00576324
0.00613342
0.00638882
0.00636468
0.00555921
0.00396026
0.0026705
0.00142969
0.000703897
0.000267021
0
0
0.0016837
0.0032617
0.00462357
0.00566398
0.00630186
0.00581881
0.00304994
0.000986874
0
0
0.00082502
0.00163602
0.00242206
0.00316771
0.00386266
0.00449307
0.00504636
0.00551128
0.00588819
0.00617411
0.00649314
0.00600079
0.00462207
0.00341311
0.00205995
0.00126831
0.000540905
0
0
0.0015765
0.00305382
0.00433606
0.00534226
0.00602635
0.00612063
0.00373644
0.00153997
0
0
0.000761992
0.0015114
0.00223822
0.00293014
0.00357733
0.00416931
0.00469722
0.00515719
0.00554415
0.00585976
0.00640895
0.00619205
0.00514015
0.0040465
0.00268598
0.00181158
0.00081445
0
0
0.00144448
0.00280403
0.00399991
0.00497147
0.00568566
0.00623782
0.00433715
0.00208054
0
0
0.000694654
0.00137887
0.00204414
0.00268044
0.00327988
0.00383485
0.00433889
0.00478795
0.00517917
0.00551175
0.00622855
0.00625759
0.00555037
0.00461924
0.00330562
0.0023507
0.00108801
0
0
0.00131653
0.00256374
0.00367887
0.00461435
0.0053421
0.00626987
0.00489126
0.00262129
0
0
0.000633677
0.00125892
0.0018689
0.00245574
0.00301294
0.00353468
0.00401563
0.00445256
0.00484289
0.00518522
0.00603206
0.00627424
0.00590345
0.00516072
0.00392719
0.00289419
0.00136335
0
0
0.00120713
0.00235888
0.0034053
0.00430791
0.00504212
0.0062849
0.0054289
0.00316986
0
0
0.000584211
0.00116174
0.00172711
0.00227406
0.00279741
0.00329244
0.00375478
0.00418163
0.0045707
0.00492038
0.0058754
0.00630279
0.00624807
0.00570137
0.00456202
0.00344893
0.00164249
0
0
0.00112356
0.00220304
0.00319837
0.00407794
0.00482011
0.0063382
0.00598144
0.00373289
0
0
0.000549164
0.001093
0.00162711
0.00214649
0.00264693
0.00312456
0.00357575
0.00399805
0.00438935
0.00474805
0.00580263
0.00639435
0.00663075
0.00627318
0.00522305
0.00402132
0.00192749
0
0
0.00107077
0.00210603
0.00307319
0.00394577
0.00470454
0.00647827
0.0065816
0.00431663
0
0
0.000530856
0.00105737
0.00157598
0.00208256
0.00257362
0.00304595
0.00349639
0.00392282
0.00432324
0.00469609
0.00585352
0.00659596
0.00709703
0.00690946
0.00592429
0.00461745
0.00222043
0
0
0.0010537
0.00207793
0.00304538
0.00393319
0.00472377
0.00675198
0.00726337
0.00492701
0
0
0.000532069
0.00106046
0.00158212
0.00209355
0.00259168
0.00307376
0.00353709
0.00397952
0.00439933
0.00479469
0.00606958
0.00695546
0.00769301
0.00764479
0.00668046
0.00524302
0.00252336
0
0
0.00107886
0.00213182
0.00313464
0.00406651
0.00491083
0.00720949
0.00806199
0.0055693
0
0
0.000556691
0.00111002
0.00165717
0.00219493
0.00272039
0.00323098
0.0037243
0.00419843
0.00465093
0.0050809
0.00649953
0.00752644
0.00846683
0.00851502
0.00750683
0.00590288
0.0028384
0
0
0.00115563
0.00228622
0.00336805
0.00438029
0.00530679
0.00790893
0.00901345
0.00624735
0
0
0.00061042
0.0012174
0.00181801
0.00240901
0.0029874
0.00355057
0.00409549
0.00462015
0.00512219
0.00560048
0.00720583
0.008373
0.00947053
0.00955621
0.00841977
0.00659978
0.00316794
0
0
0.00129773
0.00256803
0.00378504
0.00492611
0.0059725
0.00893029
0.0101546
0.00696178
0
0
0.000701569
0.00139915
0.00208918
0.00276804
0.00343205
0.00407834
0.00470322
0.00530479
0.00588081
0.00642908
0.00825645
0.00959433
0.0107573
0.0108055
0.00943798
0.00733212
0.00351507
0
0
0.00120815
0.00239353
0.00353421
0.00461085
0.00560639
0.00853353
0.0100168
0.00710965
0
0
0.000526254
0.00105024
0.00156988
0.0020831
0.0025876
0.00308181
0.00356325
0.00403091
0.00448256
0.00491726
0.00641767
0.00761249
0.00886379
0.00924582
0.00851057
0.00684411
0.00336578
0
0
0.000920134
0.00182653
0.00270593
0.00354612
0.00433609
0.00679997
0.00852792
0.0065556
0
0
0.000405621
0.000809792
0.00121125
0.00160865
0.00200059
0.00238598
0.0027634
0.00313197
0.00349039
0.00383809
0.00507276
0.00609423
0.00730397
0.00784489
0.00752798
0.00624231
0.00315026
0
0
0.000716822
0.00142489
0.00211569
0.00278131
0.00341486
0.00546977
0.0072114
0.00592269
0
0
0.000318922
0.000636912
0.000953154
0.00126675
0.00157682
0.00188261
0.00218324
0.00247809
0.00276603
0.00304677
0.00405823
0.00492262
0.00602799
0.00661921
0.00656849
0.00559224
0.00289233
0
0
0.000568277
0.00113072
0.00168162
0.00221552
0.00272758
0.00443572
0.00607154
0.00526689
0
0
0.000254504
0.000508366
0.000761038
0.0010119
0.00126034
0.00150583
0.0017478
0.00198573
0.00221897
0.0024472
0.00327869
0.00400516
0.00498367
0.0055651
0.00567361
0.00494069
0.00261256
0
0
0.000456127
0.000908199
0.00135223
0.00178437
0.00220112
0.00362009
0.00509725
0.00462605
0
0
0.000205253
0.000410052
0.000614014
0.000816689
0.00101766
0.00121653
0.00141289
0.00160639
0.00179657
0.00198314
0.00266835
0.00327683
0.00412659
0.00466745
0.00486324
0.00431726
0.00232752
0
0
0.000369428
0.000735945
0.00109668
0.00144884
0.00178985
0.0029685
0.0042706
0.00402322
0
0
0.00016681
0.000333289
0.000499159
0.000664092
0.000827784
0.000989944
0.00115027
0.0013085
0.00146431
0.00161747
0.00218333
0.00269187
0.00342083
0.00390748
0.00414386
0.00373916
0.00204954
0
0
0.000301152
0.00060016
0.0008949
0.00118331
0.00146343
0.00244253
0.00357235
0.00347096
0
0
0.000136313
0.00027238
0.000407994
0.000542907
0.000676896
0.000809739
0.000941213
0.00107111
0.00119921
0.00132532
0.00179334
0.00221774
0.00283788
0.00326643
0.00351412
0.003215
0.00178706
0
0
0.000246627
0.000491642
0.00073344
0.000970462
0.0012012
0.00201454
0.00298431
0.00297473
0
0
0.000111819
0.000223451
0.000334738
0.000445494
0.000555549
0.000664735
0.000772879
0.000879826
0.0009854
0.00108946
0.00147687
0.00183069
0.00235523
0.00272714
0.00296838
0.00274761
0.00154528
0
0
0.000202605
0.000403968
0.000602858
0.000798078
0.000988486
0.00166405
0.0024902
0.00253521
0
0
9.19676e-05
0.000183791
0.000275351
0.000366495
0.000457097
0.000547016
0.000636124
0.000724284
0.000811398
0.000897313
0.00121834
0.00151275
0.001955
0.00227449
0.00249902
0.00233595
0.00132697
0
0
0.000166808
0.000332667
0.000496617
0.000657714
0.00081498
0.00137604
0.00207612
0.00214957
0
0
7.57516e-05
0.000151393
0.000226817
0.000301932
0.000376616
0.000450792
0.000524331
0.000597169
0.000669182
0.000740302
0.00100592
0.00125151
0.00162138
0.00189603
0.00209835
0.00197562
0.00113335
0
0
0.000106942
0.000213323
0.00031858
0.000422159
0.000523523
0.000887752
0.00135574
0.00144751
0
0
3.75764e-05
7.51067e-05
0.000112543
0.000149847
0.000186957
0.00022385
0.000260454
0.000296756
0.000332672
0.000368204
0.000501564
0.000626167
0.000817319
0.000965216
0.00108671
0.00104948
0.000610197
0
0
5.33744e-05
0.000106492
0.0001591
0.000210948
0.000261795
0.000445722
0.000688489
0.000756229
0
0
1.88618e-05
3.77008e-05
5.64968e-05
7.52286e-05
9.38709e-05
0.000112408
0.00013081
0.000149066
0.000167139
0.000185026
0.000252333
0.000315362
0.000413074
0.00048932
0.000558253
0.000544331
0.000319199
0
0
2.69639e-05
5.38044e-05
8.03987e-05
0.000106626
0.000132369
0.000225836
0.000351273
0.000391452
0
0
9.63162e-06
1.92524e-05
2.88521e-05
3.84206e-05
4.79456e-05
5.74193e-05
6.68277e-05
7.61647e-05
8.54124e-05
9.45691e-05
0.000129091
0.000161536
0.00021177
0.000251403
0.000288115
0.000282506
0.000166494
0
0
1.3722e-05
2.73831e-05
4.09226e-05
5.42804e-05
6.73997e-05
0.000115084
0.000179654
0.000201717
0
0
4.64167e-06
9.27776e-06
1.39042e-05
1.85148e-05
2.31056e-05
2.76704e-05
3.22053e-05
3.67042e-05
4.1161e-05
4.5572e-05
6.22675e-05
7.79085e-05
0.000102419
0.000121664
0.000140313
0.000137362
8.16461e-05
0
0
5.10956e-06
1.01967e-05
1.52397e-05
2.02172e-05
2.51113e-05
4.28807e-05
6.71301e-05
7.62937e-05
0
0
0
0
0
0
0
0
0
0
0
0
0
0
0
0
0
0
0
0
SCALARS Displacement_Z double 1
LOOKUP_TABLE default
0.10214
0.101994
0.10155
0.100817
0.0997956
0.0984857
0.0968893
0.0950118
0.0927843
0.0901814
0.0868094
0.0765339
0.0685543
0.0570782
0.0482846
0.0368438
0.0290135
0.0208978
0.0183922
0.102433
0.101829
0.100029
0.097061
0.0928544
0.0870999
0.0686936
0.0483172
0.0289996
0.0183571
0.102461
0.102306
0.101844
0.101077
0.100009
0.0986389
0.0969685
0.0950013
0.092732
0.0901021
0.0872727
0.0771082
0.0688215
0.0572167
0.048351
0.0368505
0.0289894
0.0208488
0.0183274
0.102271
0.101645
0.0997811
0.0967098
0.0924583
0.0872887
0.0689154
0.048381
0.028982
0.0183035
0.101895
0.101737
0.101265
0.100481
0.0993899
0.0979961
0.0963106
0.0943497
0.0921342
0.0897102
0.0871692
0.0773854
0.0689815
0.0573272
0.0484128
0.0368703
0.0289779
0.0208172
0.018285
0.10136
0.100731
0.0988632
0.0958148
0.0917329
0.0869571
0.0690128
0.0484389
0.028976
0.0182715
0.100666
0.100509
0.100045
0.0992736
0.098204
0.0968454
0.0952173
0.0933416
0.0912557
0.0889986
0.0866272
0.0773014
0.0690112
0.0573985
0.048467
0.0369029
0.0289772
0.0208034
0.0182634
0.0998033
0.099197
0.0974024
0.0945008
0.0906747
0.0862137
0.0689716
0.0484887
0.0289806
0.0182603
0.0987357
0.0985891
0.09815
0.0974242
0.0964183
0.0951471
0.093628
0.091887
0.0899567
0.0878759
0.0856933
0.0769023
0.0689097
0.0574385
0.0485119
0.0369473
0.0289871
0.0208066
0.0182626
0.096649
0.0961036
0.0944951
0.0919178
0.0885316
0.0846328
0.0687133
0.048532
0.0289962
0.0182713
0.0946467
0.0945192
0.094141
0.0935159
0.0926541
0.0915675
0.0902751
0.088798
0.0871657
0.0854045
0.0835584
0.0758288
0.0684808
0.0574094
0.0485444
0.0370132
0.0290057
0.0208296
0.0182854
0.0927397
0.0922725
0.0908999
0.088707
0.085842
0.0825086
0.068223
0.0485488
0.0290142
0.0183028
0.0909334
0.090825
0.0905022
0.0899697
0.0892361
0.088312
0.0872132
0.085959
0.0845687
0.0830623
0.081468
0.0746504
0.0679313
0.0572909
0.0485424
0.0370602
0.0290231
0.0208668
0.0183254
0.0892274
0.0888297
0.0876603
0.0857923
0.0833421
0.0804579
0.0676154
0.0485251
0.0290319
0.0183521
0.0876202
0.0875277
0.0872522
0.0867975
0.0861708
0.0853809
0.0844406
0.0833633
0.0821648
0.0808598
0.0794675
0.0734214
0.06727
0.0570817
0.0484945
0.0370841
0.0290413
0.0209173
0.0183839
0.0861054
0.0857646
0.0847617
0.0831546
0.081033
0.0785092
0.0669055
0.0484511
0.0290506
0.01842
0.0846782
0.0845986
0.0843613
0.0839693
0.0834283
0.0827454
0.0819303
0.0809934
0.0799469
0.0788021
0.0775738
0.0721695
0.0665157
0.0567837
0.0483927
0.0370821
0.0290609
0.0209808
0.0184613
0.0833303
0.0830348
0.0821639
0.0807629
0.0789016
0.0766675
0.0661107
0.0483203
0.029071
0.0185069
0.0820551
0.0819857
0.0817785
0.0814359
0.0809625
0.0803638
0.0796473
0.0788213
0.0778954
0.0768787
0.0757828
0.070908
0.0656835
0.0563997
0.0482321
0.0370526
0.0290823
0.0210578
0.0185578
0.0808436
0.0805838
0.0798165
0.0785777
0.0769227
0.0749214
0.0652433
0.0481294
0.0290936
0.0186131
0.0796884
0.0796269
0.0794433
0.0791395
0.0787191
0.0781866
0.0775479
0.0768097
0.0759798
0.0750656
0.0740767
0.0696379
0.0647822
0.0559323
0.0480107
0.036995
0.0291062
0.0211487
0.0186737
0.0785799
0.078348
0.0776621
0.0765513
0.0750606
0.0732472
0.0643082
0.0478775
0.0291192
0.0187387
0.0775098
0.0774545
0.0772894
0.0770162
0.0766377
0.0761575
0.0755807
0.0749127
0.0741598
0.0733285
0.0724266
0.0683498
0.0638131
0.0553828
0.0477287
0.03691
0.0291337
0.0212541
0.0188092
0.0764677
0.0762579
0.0756368
0.0746284
0.0732704
0.0716109
0.0633034
0.0475659
0.0291489
0.0188844
0.0754441
0.0753938
0.0752437
0.074995
0.0746503
0.0742125
0.0736858
0.073075
0.0723854
0.0716226
0.0707934
0.0670241
0.0627707
0.0547503
0.0473885
0.0367998
0.029166
0.021375
0.0189651
0.0744275
0.0742358
0.0736679
0.072744
0.0714968
0.0699676
0.0622203
0.0471979
0.0291841
0.0190506
0.0734063
0.0733601
0.0732226
0.0729946
0.0726785
0.0722766
0.0717927
0.0712306
0.0705955
0.0698914
0.0691256
0.0656315
0.0616435
0.0540326
0.0469943
0.0366679
0.0292046
0.0215123
0.0191418
0.0723671
0.0721912
0.0716699
0.0708209
0.0696714
0.0682588
0.0610446
0.0467787
0.0292266
0.0192382
0.0712951
0.0712528
0.0711269
0.070918
0.0706282
0.0702596
0.0698154
0.0692991
0.0687146
0.0680661
0.0673567
0.0641306
0.060415
0.0532264
0.0465521
0.0365201
0.0292517
0.0216673
0.0193404
0.0701735
0.0700135
0.069538
0.0687624
0.067711
0.0664141
0.0597577
0.0463141
0.0292788
0.0194486
0.0689835
0.0689466
0.0688322
0.068644
0.0683814
0.0680483
0.0676454
0.0671777
0.0666468
0.0660571
0.0654128
0.0624642
0.0590645
0.0523304
0.046068
0.036364
0.0293096
0.0218407
0.0195628
0.0639369
0.0638151
0.0634508
0.0628545
0.0620414
0.06103
0.055749
0.0444407
0.0289229
0.0196097
0.0595169
0.0594907
0.059416
0.0592905
0.0591174
0.0588952
0.0586276
0.0583137
0.0579573
0.0575597
0.0571232
0.055097
0.052668
0.0477334
0.0428034
0.0347231
0.0285063
0.0217537
0.0196405
0.0556044
0.0555212
0.0552736
0.0548669
0.0543096
0.0536126
0.0498459
0.0412244
0.0280747
0.0196535
0.0521201
0.0521025
0.0520505
0.0519638
0.0518433
0.0516891
0.0515025
0.0512835
0.0510341
0.0507556
0.0504492
0.0490008
0.0472315
0.0435446
0.0396672
0.0329941
0.0276159
0.0215731
0.0196465
0.0489939
0.0489353
0.0487604
0.0484721
0.0480755
0.0475757
0.0448206
0.0381759
0.027144
0.0196194
0.0461737
0.046161
0.0461237
0.0460613
0.0459747
0.0458635
0.0457288
0.0455704
0.0453895
0.0451869
0.044963
0.0439009
0.0425852
0.0397826
0.0367238
0.0312427
0.0266497
0.0212984
0.0195693
0.0436135
0.0435707
0.0434429
0.0432317
0.0429403
0.042572
0.0405119
0.0353381
0.0261462
0.0194985
0.0412793
0.04127
0.0412423
0.0411962
0.041132
0.0410496
0.0409496
0.040832
0.0406974
0.0405463
0.0403791
0.0395822
0.0385846
0.0364239
0.033999
0.0295122
0.0256254
0.0209328
0.0194029
0.0391405
0.0391084
0.0390127
0.0388543
0.0386352
0.0383577
0.0367883
0.0327228
0.0250994
0.0192868
0.0371733
0.0371662
0.0371453
0.0371104
0.0370618
0.0369994
0.0369236
0.0368344
0.0367322
0.0366173
0.0364899
0.035881
0.0351125
0.033427
0.0314947
0.0278284
0.0245608
0.0204825
0.0191454
0.0353561
0.0353317
0.0352586
0.0351375
0.0349698
0.0347569
0.0335434
0.0303236
0.0240204
0.0189845
0.0336721
0.0336667
0.0336506
0.0336238
0.0335863
0.0335383
0.0334799
0.0334111
0.0333323
0.0332435
0.033145
0.0326729
0.0320733
0.0307457
0.0291987
0.0262052
0.0234713
0.0199551
0.0187988
0.0321055
0.0320866
0.0320299
0.0319361
0.0318058
0.0316402
0.0306906
0.0281242
0.0229229
0.0185948
0.0306438
0.0306396
0.0306271
0.0306061
0.030577
0.0305395
0.0304939
0.0304402
0.0303786
0.0303091
0.030232
0.0298617
0.0293893
0.0283356
0.0270921
0.0246481
0.0223688
0.0193588
0.0183674
0.0292753
0.0292605
0.029216
0.0291424
0.0290401
0.0289099
0.0281598
0.0261036
0.0218171
0.0181233
0.0279905
0.0279871
0.0279772
0.0279608
0.0279378
0.0279082
0.0278723
0.0278299
0.0277813
0.0277265
0.0276656
0.0273725
0.0269973
0.0261559
0.0251531
0.0231572
0.021262
0.0187015
0.0178575
0.0267803
0.0267686
0.0267334
0.0266751
0.0265941
0.0264908
0.025894
0.02424
0.0207102
0.0175768
0.0256376
0.025635
0.0256271
0.025614
0.0255958
0.0255723
0.0255438
0.0255101
0.0254714
0.0254278
0.0253792
0.0251458
0.0248458
0.0241706
0.0233604
0.0217296
0.0201566
0.0179912
0.0172765
0.0245553
0.0245459
0.0245179
0.0244714
0.0244069
0.0243245
0.0238471
0.0225121
0.0196067
0.0169631
0.0235276
0.0235254
0.0235192
0.0235087
0.0234941
0.0234753
0.0234525
0.0234256
0.0233948
0.02336
0.0233214
0.0231336
0.0228938
0.0223486
0.0216929
0.0203608
0.0190559
0.0172349
0.0166322
0.0201403
0.0201347
0.020118
0.0200901
0.0200514
0.0200018
0.0197139
0.0188978
0.0170736
0.0153292
0.0172182
0.0172172
0.0172144
0.0172096
0.0172031
0.0171945
0.0171843
0.0171721
0.0171582
0.0171424
0.017125
0.0170394
0.0169301
0.0166791
0.0163734
0.0157409
0.0150963
0.0141633
0.0138531
0.0146135
0.014611
0.0146033
0.0145906
0.0145729
0.0145502
0.0144182
0.0140386
0.0131656
0.0122947
0.0122328
0.0122323
0.0122311
0.0122289
0.0122259
0.0122221
0.0122174
0.0122119
0.0122055
0.0121984
0.0121905
0.0121515
0.0121015
0.0119868
0.011847
0.0115504
0.011244
0.0107908
0.0106401
0.0100058
0.0100046
0.0100012
0.0099956
0.00998773
0.00997763
0.00991892
0.00974834
0.00935009
0.00894324
0.00788667
0.00788647
0.00788593
0.00788501
0.00788375
0.00788211
0.00788013
0.00787778
0.0078751
0.00787209
0.00786874
0.00785207
0.00783072
0.00778219
0.00772252
0.00759476
0.00746214
0.007262
0.00719671
0.00584157
0.00584114
0.00583983
0.00583766
0.00583463
0.00583073
0.00580823
0.00574262
0.00558896
0.00542908
0.00385123
0.00385116
0.00385099
0.0038507
0.00385032
0.0038498
0.00384919
0.00384846
0.00384763
0.00384671
0.00384569
0.0038404
0.00383375
0.00381872
0.00380033
0.00376036
0.0037193
0.00365428
0.00363549
0.00190344
0.00190336
0.00190312
0.00190271
0.00190214
0.00190139
0.00189725
0.00188459
0.00185807
0.00182859
-0
-0
-0
-0
-0
-0
-0
-0
-0
-0
-0
-0
-0
-0
-0
-0
-0
-0
-0
SCALARS Stress_R double 1
LOOKUP_TABLE default
1164.23
1153.2
1144.91
1120.69
1100.19
1061.18
1034.55
999.861
923.465
795.316
467.328
126.844
3.68663
-25.7282
-45.9989
-45.5614
-47.2228
-46.2922
-47.5198
888.202
872.598
829.694
749.787
606.579
396.842
45.9944
-28.5417
-38.314
-40.5832
656.524
648.378
643.559
625.535
608.651
575.906
543.944
501.08
409.229
400.005
363.71
173.141
60.2898
14.4441
-11.0252
-21.1259
-29.4675
-31.9697
-33.813
419.255
409.331
383.673
335.289
270.68
282.967
84.8102
4.77416
-21.4305
-27.3679
206.634
204.124
202.627
197.362
189.226
181.468
168.523
163.838
154.192
161.514
183.952
115.89
97.827
47.1158
19.8903
2.42325
-13.4252
-17.5021
-20.8034
-7.09661
-5.60594
-2.0096
5.01464
31.0498
91.5781
104.778
35.2394
-5.38774
-14.2704
-224.113
-218.255
-215.928
-204.519
-196.093
-175.942
-159.117
-127.6
-100.359
-61.8902
0.374824
45.9046
115.512
77.1506
50.8231
25.1091
2.42992
-3.22397
-7.85779
-436.33
-421.888
-384.451
-318.481
-225.104
-87.3962
125.955
66.3592
10.8609
-1.20922
-313.517
-305.241
-302.967
-288.377
-276.767
-251.701
-228.93
-193.244
-160.663
-122.96
-53.6365
26.5974
102.921
68.6514
49.7989
27.669
11.6668
6.4234
3.22625
39.9316
41.78
42.4069
43.9436
46.8021
61.2137
54.7149
18.4586
4.44874
1.64462
30.6701
34.603
32.6308
35.1594
33.5109
36.3352
35.656
38.664
38.6904
41.264
53.2205
36.0598
50.4861
21.8304
17.6298
8.57162
4.57769
3.75827
2.46945
21.0633
23.1685
24.7988
27.3421
31.4025
42.5857
44.7116
17.6134
5.21746
3.43164
13.5005
17.0379
15.5893
18.0832
17.2417
19.9931
20.351
22.9969
24.1356
26.0062
34.903
25.7012
40.2127
17.8352
17.1707
8.81948
5.68422
5.10561
4.25739
7.26687
9.30249
11.1408
14.0352
17.6753
26.8167
34.8417
16.6829
6.33662
5.12134
0.824598
3.86272
2.77591
5.02994
4.6582
7.17918
7.67124
10.1433
11.3153
13.1643
20.2054
15.7962
30.125
13.2556
15.9663
8.81605
6.92635
6.4933
5.95503
-3.57135
-1.80009
-0.00629757
2.69371
6.04021
13.5928
24.945
15.1268
7.6196
6.78987
-9.39631
-6.91915
-7.71851
-5.78877
-5.90679
-3.72421
-3.10116
-0.90465
0.194585
2.07725
7.56912
6.55387
20.241
8.4893
14.1803
8.61303
8.28497
7.89991
7.63088
-12.9844
-11.4828
-9.84753
-7.37439
-4.26894
2.01862
15.3141
13.1004
8.9988
8.45245
-18.5773
-16.5813
-17.167
-15.5327
-15.5078
-13.5973
-12.9358
-10.9331
-9.86368
-8.01391
-3.68055
-2.24134
10.6641
3.71732
12.0128
8.31553
9.72223
9.33106
9.2998
-21.903
-20.6407
-19.1408
-16.8453
-13.9061
-8.58114
6.0172
10.8064
10.4445
10.1148
-27.6305
-26.0164
-26.4317
-25.0287
-24.8924
-23.183
-22.4829
-20.6086
-19.5288
-17.6877
-14.2119
-10.8159
1.41293
-0.971445
9.67218
8.02711
11.2201
10.7969
10.967
-31.0464
-29.9563
-28.5326
-26.3198
-23.4363
-18.7664
-2.96341
8.43815
11.9464
11.7785
-37.254
-35.9159
-36.1971
-34.9444
-34.6978
-33.1041
-32.3311
-30.5095
-29.3642
-27.4697
-24.5817
-19.4062
-7.55203
-5.51444
7.35069
7.84893
12.7745
12.3096
12.6333
-41.0147
-40.0252
-38.5928
-36.3378
-33.3634
-29.0271
-11.6848
6.17242
13.5067
13.4431
-48.0791
-46.9169
-47.0869
-45.8968
-45.5224
-43.9353
-43.0652
-41.1689
-39.903
-37.8493
-35.2934
-28.2452
-16.2909
-9.8455
5.22904
7.8805
14.3928
13.8827
14.2957
-52.4107
-51.4441
-49.9018
-47.4322
-44.1863
-39.8871
-20.2123
4.17372
15.1408
15.1057
-60.7852
-59.6894
-59.7674
-58.5345
-58.0147
-56.3034
-55.2406
-53.1636
-51.5183
-49.3678
-46.9278
-37.5515
-24.8681
-13.8686
3.48067
8.221
16.0928
15.5324
15.9451
-65.9206
-64.8816
-63.077
-60.1707
-56.2976
-51.6382
-28.5471
2.61872
16.8878
16.7585
-76.0989
-75.0365
-74.9939
-73.6299
-72.8828
-70.9223
-69.4915
-67.0323
-65.0042
-62.1418
-60.1544
-47.3531
-33.158
-17.5753
2.43373
8.94447
17.9362
17.2795
17.5614
-82.2307
-81.0969
-78.8636
-75.309
-70.5839
-65.5455
-37.3971
1.68007
18.8603
18.3864
-47.0827
-46.4802
-46.3779
-45.5117
-44.9316
-43.6489
-42.5986
-40.9658
-39.6532
-37.6645
-35.8816
-27.943
-18.9049
-7.60098
3.9906
8.10614
12.9758
11.8094
11.8932
1.28052
1.35875
1.48764
1.69356
1.97095
2.25931
4.13731
6.28501
5.92617
4.60518
1.15151
1.22247
1.21608
1.29888
1.32994
1.44495
1.51316
1.65517
1.75053
1.90999
2.04397
2.73179
3.64922
4.2138
5.77519
5.06402
5.823
4.57908
4.66533
1.67125
1.71436
1.79257
1.91786
2.08727
2.25566
3.41411
5.26424
5.65461
4.72358
1.6219
1.6627
1.65982
1.70961
1.72997
1.80115
1.84437
1.93416
1.99858
2.10305
2.13766
2.63751
3.18446
3.76832
4.91903
4.67476
5.53231
4.53662
4.75874
1.97259
2.0018
2.05202
2.13388
2.24303
2.33863
3.10674
4.59172
5.37179
4.78418
1.96278
1.98991
1.98731
2.01993
2.03258
2.07869
2.10526
2.16317
2.20676
2.27554
2.29286
2.64652
2.97384
3.50598
4.35873
4.37685
5.25012
4.46325
4.79528
2.21615
2.23514
2.26904
2.32466
2.39866
2.45992
2.9772
4.15394
5.10458
4.79161
2.22689
2.24523
2.2435
2.2655
2.27391
2.30543
2.32288
2.36278
2.39185
2.43961
2.44778
2.70389
2.90895
3.35958
3.9976
4.15543
4.99109
4.37626
4.7823
2.41747
2.43089
2.45454
2.4936
2.54665
2.58655
2.94657
3.87223
4.86429
4.75655
2.43876
2.45172
2.45041
2.46596
2.47188
2.49413
2.50656
2.53485
2.55474
2.58878
2.59291
2.78255
2.91467
3.28822
3.7684
3.99339
4.76285
4.28592
4.73187
2.58771
2.59733
2.61449
2.64278
2.68144
2.70883
2.96658
3.69489
4.65516
4.69107
2.6138
2.62323
2.62228
2.63357
2.63781
2.65404
2.66311
2.68386
2.69809
2.723
2.72486
2.86824
2.9562
3.26288
3.62689
3.87599
4.56701
4.19826
4.65609
2.73327
2.74039
2.75313
2.77416
2.80319
2.82261
3.01201
3.58686
4.47695
4.60636
2.76099
2.76803
2.7673
2.77574
2.77888
2.79102
2.7978
2.81341
2.82378
2.84255
2.84328
2.95349
3.01393
3.26503
3.54316
3.79161
4.40176
4.11658
4.56554
2.85862
2.86402
2.8737
2.8897
2.91188
2.92609
3.06829
3.52444
4.32713
4.5118
2.88619
2.8915
2.89099
2.89736
2.89976
2.90896
2.91419
2.92601
2.93404
2.9482
2.94876
3.03439
3.07669
3.28293
3.49706
3.73136
4.26378
4.0424
4.46867
2.96734
2.97143
2.97898
2.99138
3.00853
3.0193
3.12796
3.49173
4.20236
4.41472
2.99324
2.99755
2.99703
3.00213
3.00392
3.01124
3.01525
3.02477
3.03065
3.0421
3.04071
3.11042
3.13933
3.30856
3.47641
3.68806
4.14975
3.97624
4.37168
3.06064
3.06401
3.06973
3.07933
3.09308
3.10076
3.18417
3.47531
4.10049
4.32078
3.03752
3.0406
3.04052
3.04454
3.04624
3.05199
3.05544
3.06291
3.0679
3.07625
3.0789
3.13351
3.16264
3.30305
3.44053
3.6503
4.03898
3.93709
4.27163
3.27682
3.27868
3.28189
3.28727
3.29477
3.29742
3.34136
3.50333
3.92601
4.1046
3.25147
3.25294
3.25292
3.25485
3.25574
3.25858
3.26037
3.2641
3.26683
3.27138
3.27313
3.30049
3.31504
3.38972
3.46179
3.5899
3.82415
3.78043
4.01309
3.42442
3.42523
3.42676
3.42927
3.43275
3.43449
3.4558
3.53311
3.75937
3.87717
3.42044
3.42114
3.42113
3.42201
3.42243
3.42376
3.42462
3.42638
3.42773
3.42993
3.43049
3.44356
3.44981
3.48708
3.51687
3.58708
3.71238
3.69401
3.82425
3.5101
3.51052
3.51128
3.51252
3.51423
3.51497
3.52479
3.56271
3.68141
3.74642
3.51386
3.51419
3.51417
3.51459
3.51476
3.51539
3.51576
3.51658
3.51719
3.51822
3.51839
3.52445
3.52796
3.54574
3.55888
3.59419
3.65708
3.64753
3.71562
3.56263
3.56282
3.56316
3.56371
3.56447
3.56484
3.56899
3.58576
3.6425
3.67242
3.58198
3.58213
3.5821
3.58226
3.58229
3.58252
3.58261
3.5829
3.5831
3.58347
3.58306
3.5853
3.58575
3.59214
3.59515
3.60649
3.63117
3.61708
3.64771
3.61418
3.6142
3.6142
3.61418
3.61414
3.61416
3.61371
3.61402
3.62049
3.61603
3.66479
3.66481
3.66472
3.66463
3.66443
3.66424
3.66395
3.66364
3.66324
3.66276
3.66219
3.66062
3.65769
3.65097
3.64089
3.62931
3.61643
3.57751
3.58318
SCALARS Stress_Theta double 1
LOOKUP_TABLE default
1164.23
1155.61
1149.72
1135.87
1123.16
1097.95
1079.13
1067.02
1023.23
943.278
682.145
376.533
259.233
155.7
92.4444
45.2979
18.1253
-4.10667
-16.0246
888.202
876.59
850.612
802.097
707.56
497.045
216.548
77.9475
15.8619
-13.6739
656.524
650.224
646.839
636.309
625.605
606.887
586.611
557.905
495.637
456.224
371.88
226.733
161.298
101.208
64.3557
33.2731
13.6778
-2.6999
-11.4568
419.255
411.898
395.404
362.284
306.811
251.82
119.84
49.8116
11.1112
-9.40715
206.634
204.665
203.408
199.987
194.288
187.832
176.861
163.891
144.702
132.561
126.333
67.4919
72.2948
49.2357
35.3571
21.2232
8.61478
-1.06802
-7.20505
-7.09661
-6.23879
-6.00853
-7.94843
-8.45977
4.30163
24.0656
21.2755
6.24467
-5.00805
-224.113
-219.6
-218.37
-212.681
-208.783
-199.422
-192.611
-179.138
-169.623
-150.75
-117.901
-87.39
-21.0309
-1.8864
7.60046
9.16941
3.75017
0.542802
-2.90356
-436.33
-426.149
-405.781
-371.011
-322.603
-249.424
-70.1196
-5.6438
1.7118
-0.645758
-313.517
-306.972
-306.153
-298.764
-293.436
-281
-270.165
-251.122
-234.23
-216.339
-178.032
-116.512
-46.6589
-24.8155
-7.8815
-0.809014
0.540736
1.48468
1.05772
39.9316
40.9514
38.2538
34.1284
29.2631
33.2952
18.9841
3.36309
1.13495
0.731539
30.6701
34.1678
31.8157
32.5838
29.4391
29.5177
26.281
25.5175
22.0975
21.227
28.1878
5.66458
15.9531
-1.38516
1.75816
0.252355
0.697312
1.52978
1.17684
21.0633
22.3727
20.9234
18.5648
16.2771
19.9803
11.9347
1.13158
0.689871
1.74487
13.5005
16.6475
14.8324
15.805
13.6476
14.0423
12.1742
12.0046
10.4607
9.57481
14.6828
-0.286166
9.31625
-4.70052
0.193734
-0.61175
0.525287
1.88927
2.17653
7.26687
8.6079
7.83928
6.65083
5.37184
8.61099
5.92315
-0.581437
0.511457
2.64426
0.824598
3.53867
2.1423
3.13105
1.65696
2.28974
1.02977
1.24913
0.302654
-0.09136
3.8823
-6.08734
3.20888
-8.03723
-1.52084
-1.57559
0.444551
2.29499
3.08013
-3.57135
-2.36896
-2.69928
-3.24772
-3.83302
-1.06387
-0.0536317
-2.43998
0.45528
3.51753
-9.39631
-7.18078
-8.23336
-7.3133
-8.3163
-7.64194
-8.41546
-8.02568
-8.61481
-8.58431
-5.56233
-11.715
-2.8807
-11.3377
-3.44421
-2.65198
0.439959
2.71202
3.95798
-12.9844
-11.9389
-11.9961
-12.1139
-12.1708
-9.76646
-6.08919
-4.50941
0.450606
4.37992
-18.5773
-16.7888
-17.5755
-16.7457
-17.4244
-16.7192
-17.1721
-16.6312
-16.9247
-16.6093
-14.2562
-17.4704
-9.10437
-14.6795
-5.59752
-3.81114
0.463932
3.13463
4.82305
-21.903
-21.0026
-20.8515
-20.6328
-20.2624
-18.0978
-12.3091
-6.80261
0.454606
5.23475
-27.6305
-26.1819
-26.7578
-25.9985
-26.4245
-25.6876
-25.8853
-25.2068
-25.2408
-24.6831
-22.8007
-23.6152
-15.5877
-18.1765
-7.98523
-5.03235
0.482226
3.56227
5.67771
-31.0464
-30.247
-29.9107
-29.3871
-28.6236
-26.5579
-18.8524
-9.33474
0.438686
6.08069
-37.254
-36.0505
-36.462
-35.7347
-35.9473
-35.1547
-35.1207
-34.2988
-34.0837
-33.2872
-31.7045
-30.4105
-22.477
-21.9422
-10.6211
-6.30285
0.470911
3.99675
6.51949
-41.0147
-40.2655
-39.7367
-38.8958
-37.7251
-35.6003
-25.8867
-12.1329
0.384135
6.91359
-48.0791
-47.031
-47.3115
-46.569
-46.5871
-45.6877
-45.4467
-44.4226
-43.9638
-42.8913
-41.4503
-38.1344
-29.954
-26.0858
-13.5287
-7.61676
0.414973
4.44188
7.34187
-52.4107
-51.6542
-50.9065
-49.6962
-48.0682
-45.7263
-33.6268
-15.2356
0.283083
7.72626
-60.7852
-59.7938
-59.973
-59.1513
-58.9916
-57.9205
-57.4414
-56.1628
-55.283
-54.0565
-52.6025
-47.0909
-38.2666
-30.7119
-16.7389
-8.97469
0.308509
4.90544
8.13022
-65.9206
-65.0844
-64.0501
-62.3733
-60.0931
-57.2469
-42.3197
-18.6711
0.148099
8.50327
-76.0989
-75.1433
-75.2056
-74.2632
-73.8848
-72.5797
-71.7537
-70.1534
-68.9327
-67.0433
-65.9037
-57.441
-47.603
-36.0686
-20.1317
-10.4097
0.183891
5.40237
8.85511
-82.2307
-81.3189
-79.9275
-77.7092
-74.7377
-71.7012
-52.935
-22.4293
0.0566536
9.21503
-47.0827
-46.5527
-46.5245
-45.9468
-45.6201
-44.7866
-44.1538
-43.1009
-42.3165
-40.9864
-39.8721
-34.7739
-28.8821
-20.2663
-11.2064
-4.84944
1.29514
4.07516
6.23658
1.28052
1.32752
1.33476
1.346
1.36644
1.35863
1.80792
2.43978
2.6619
2.94904
1.15151
1.2103
1.1915
1.22528
1.21271
1.25024
1.24621
1.28561
1.28536
1.32189
1.33366
1.49166
1.80573
1.63271
2.49553
1.94246
2.73393
2.44204
3.02867
1.67125
1.69535
1.70049
1.70737
1.71793
1.70284
1.92068
2.4405
2.76201
3.11713
1.6219
1.65493
1.64431
1.66327
1.65651
1.67839
1.6763
1.70083
1.70371
1.73056
1.70456
1.83058
1.96888
1.95497
2.50127
2.14073
2.83126
2.57642
3.18823
1.97259
1.98972
1.99337
1.99926
2.00681
1.98979
2.10941
2.50159
2.86445
3.26029
1.96278
1.98492
1.97741
1.98994
1.98494
1.99903
1.99625
2.0115
2.01382
2.02912
2.00582
2.0987
2.15171
2.20447
2.55894
2.32745
2.92898
2.69753
3.3205
2.21615
2.2271
2.2299
2.23443
2.23952
2.22458
2.29219
2.59
2.96255
3.37499
2.22689
2.24179
2.23673
2.24498
2.24138
2.25076
2.2482
2.25847
2.25916
2.27012
2.25122
2.31975
2.33467
2.4054
2.64197
2.49958
3.01975
2.8084
3.42403
2.41747
2.42531
2.42735
2.43076
2.43525
2.42246
2.46142
2.68776
3.05228
3.46308
2.43876
2.4493
2.44565
2.45146
2.44886
2.45544
2.45361
2.46079
2.46067
2.46832
2.45352
2.50539
2.50227
2.57479
2.73478
2.6546
3.10179
2.90975
3.50184
2.58771
2.59332
2.59495
2.59759
2.60114
2.59077
2.6138
2.78694
3.13243
3.52826
2.6138
2.62146
2.61882
2.62302
2.62108
2.62585
2.62451
2.62976
2.62941
2.63499
2.62328
2.66331
2.65266
2.72013
2.82959
2.79188
3.17476
3.00173
3.55819
2.73327
2.73744
2.73874
2.74083
2.7438
2.7355
2.74953
2.88304
3.20299
3.57482
2.76099
2.76671
2.76473
2.76787
2.76642
2.76999
2.76899
2.77296
2.77249
2.77676
2.76752
2.79884
2.78579
2.84595
2.92162
2.912
3.23896
3.08437
3.59753
2.85862
2.8618
2.86286
2.86457
2.86703
2.86038
2.86932
2.97331
3.26456
3.60696
2.88619
2.89049
2.88903
2.89139
2.8903
2.893
2.89231
2.89531
2.89506
2.89815
2.89106
2.91569
2.90243
2.95534
3.0079
3.01618
3.29509
3.15777
3.62397
2.96734
2.96973
2.97066
2.97208
2.97412
2.96914
2.97487
3.05611
3.31815
3.62843
2.99324
2.99677
2.99555
2.99751
2.9966
2.99883
2.99822
3.00076
3.00027
3.00309
2.9964
3.01795
3.00439
3.0503
3.08794
3.10523
3.34444
3.22234
3.64077
3.06064
3.06271
3.06332
3.0644
3.06615
3.06131
3.06418
3.12965
3.36603
3.64232
3.03752
3.04001
3.03928
3.04093
3.04052
3.04242
3.04231
3.04452
3.04461
3.04639
3.04366
3.06137
3.05591
3.09867
3.13302
3.17291
3.37072
3.29777
3.64303
3.27682
3.27793
3.27813
3.2785
3.27906
3.27494
3.27175
3.29643
3.44571
3.63481
3.25147
3.2527
3.25239
3.2533
3.25325
3.2544
3.2546
3.256
3.25649
3.25809
3.25753
3.26872
3.26799
3.29758
3.32025
3.36123
3.48858
3.43949
3.6716
3.42442
3.42488
3.42505
3.4253
3.42563
3.42416
3.42373
3.43589
3.51803
3.62598
3.42044
3.42102
3.42088
3.42128
3.42126
3.42178
3.4219
3.42254
3.42282
3.4236
3.42315
3.42835
3.42756
3.44254
3.44992
3.47475
3.54188
3.51678
3.64454
3.5101
3.51035
3.51045
3.5106
3.51079
3.51003
3.50956
3.51571
3.55847
3.61461
3.51386
3.51413
3.51405
3.51423
3.51419
3.51442
3.51444
3.51471
3.5148
3.51513
3.51482
3.51707
3.51685
3.52344
3.5255
3.53741
3.56983
3.55544
3.62154
3.56263
3.56274
3.56275
3.56276
3.56277
3.56236
3.56141
3.5624
3.57982
3.60405
3.58198
3.5821
3.58204
3.58208
3.58202
3.58205
3.58198
3.582
3.58195
3.58197
3.58144
3.58179
3.58061
3.58159
3.57959
3.5791
3.58871
3.57226
3.60123
3.61418
3.61417
3.61405
3.61384
3.61353
3.6132
3.6108
3.60533
3.59721
3.59096
3.66479
3.66481
3.66472
3.66463
3.66443
3.66424
3.66395
3.66364
3.66324
3.66276
3.66219
3.66063
3.65768
3.65098
3.64087
3.62933
3.61637
3.57755
3.58311
SCALARS Stress_Z double 1
LOOKUP_TABLE default
560.019
555.763
556.249
556.447
562.244
554.431
557.449
589.565
581.597
539.253
192.695
-34.8519
4.98985
0.858222
-2.97003
-0.655781
-0.734285
-0.202341
0.465376
525.39
523.984
524.226
519.385
475.646
173.875
11.706
-2.61771
-0.616444
0.450318
520.035
517.306
519.302
517.97
519.736
519.426
519.615
509.828
456.831
388.993
198.15
7.12006
8.5813
0.765775
-0.375946
0.32028
-0.285768
-0.105652
0.227623
463.26
461.291
458.279
441.525
381.466
218.22
23.6367
0.568363
-0.180813
-0.148247
421.732
420.704
420.58
418.604
414.312
408.785
395.182
365.616
318.365
267.271
210.742
37.0795
29.5143
5.71254
2.02928
0.435636
0.0736399
0.268884
-0.200608
363.92
361.862
352.966
326.976
271.448
196.165
36.1767
3.50265
0.52639
-0.245704
303.272
305.118
301.305
298.043
289.011
280.287
262.942
244.712
213.809
193.204
183.531
61.1878
47.0342
11.1536
5.40001
0.351901
0.775306
0.639844
-0.42863
273.545
271.537
259.143
235.451
198.018
162.271
50.0068
7.80007
1.42712
-0.426657
232.866
235.662
230.334
226.552
216.818
208.421
194.102
184.173
168.16
147.157
143.566
74.1786
53.6843
13.4304
7.55708
0.856579
1.76463
0.797085
-0.159487
219.946
217.636
205.683
186.013
159.821
138.599
52.4665
8.35343
1.67364
0.0418546
203.892
206.329
201.72
198.717
190.297
183.764
172.517
162.223
148.194
136.754
132.746
70.0144
52.0104
12.5029
7.8972
1.36635
1.57365
1.02604
0.219497
186.054
184.239
174.385
158.446
138.322
122.222
50.2154
8.52588
1.87446
0.530785
170.157
172.355
168.55
166.253
159.593
154.304
145.677
137.887
128.037
118.475
114.829
65.9388
49.7292
13.3294
8.82612
2.04885
2.00173
1.17802
0.675477
155.632
154.309
146.48
134.073
118.547
105.967
48.1038
9.40013
2.2633
0.861958
140.983
142.932
139.902
138.204
133.044
129.105
122.443
116.602
109.053
101.726
98.6028
60.3564
47.0429
13.8185
9.79541
2.732
2.4756
1.39238
1.0076
129.176
128.217
122.194
112.717
100.8
90.8528
45.1461
10.2931
2.75505
1.15607
116.094
117.697
115.338
114.131
110.211
107.26
102.22
97.8028
91.9732
86.4665
83.7462
54.2644
43.6444
14.1115
10.6964
3.37356
3.01315
1.61752
1.30457
106.354
105.687
101.133
93.964
84.9198
77.1103
41.5975
11.0936
3.28937
1.43252
94.8052
96.1152
94.3027
93.4612
90.4879
88.3404
84.5214
81.255
76.7924
72.6757
70.3973
48.0143
39.77
14.2492
11.4719
3.98609
3.5729
1.84021
1.58095
86.788
86.3426
82.9558
77.6068
70.8266
64.7705
37.7286
11.7655
3.82619
1.69356
76.5955
77.6672
76.2844
75.7286
73.494
71.9771
69.1104
66.7584
63.388
60.3777
58.5069
41.8859
35.694
14.2667
12.1022
4.57102
4.12138
2.05439
1.83728
70.0988
69.8327
67.3658
63.4547
58.4725
53.8546
33.7921
12.2854
4.33643
1.93501
61.0724
61.9749
60.92
60.5996
58.9417
57.9281
55.8153
54.1874
51.692
49.5704
48.0602
36.108
31.6581
14.2182
12.571
5.11929
4.6329
2.25727
2.06781
56.0422
55.9283
54.1853
51.4153
47.8594
44.4143
29.9985
12.6274
4.79894
2.14879
48.018
48.8174
48.0067
47.8854
46.6719
46.0747
44.5302
43.5122
41.6929
40.2984
39.0941
30.894
27.8545
14.1684
12.8603
5.61145
5.08902
2.44903
2.26128
44.5322
44.5536
43.3674
41.4843
39.0308
36.5224
26.498
12.7609
5.2018
2.32189
37.3814
38.1525
37.5052
37.5656
36.6673
36.4075
35.2912
34.7665
33.6269
32.5968
31.6781
26.4879
24.3964
14.1786
12.9512
6.01651
5.47789
2.6361
2.39483
35.6743
35.8236
35.0549
33.8319
32.2648
30.6047
23.3912
12.6724
5.54933
2.4281
29.4185
30.1355
29.6195
29.8019
29.1429
29.1309
28.3896
28.1508
27.3225
26.9838
25.7533
23.4593
21.4533
14.1107
13.0093
6.26142
5.82156
2.837
2.42282
30.0115
30.1726
29.6493
28.7907
27.6535
25.7131
20.1259
12.448
5.90541
2.41611
26.0853
26.4348
26.1611
26.2016
25.8236
25.737
25.2974
25.0841
24.4699
24.2976
23.7703
21.3958
18.9305
14.4723
11.8313
6.88845
5.6681
2.90814
2.5641
24.691
24.6149
24.2889
23.7605
23.0588
22.1712
18.3692
11.6516
5.44335
2.82737
21.5044
21.5378
21.4557
21.3881
21.2305
21.0879
20.8632
20.648
20.3574
20.0722
19.7337
18.3243
16.9063
13.3273
11.3891
7.05815
5.54644
3.1414
2.9633
19.8291
19.7777
19.5825
19.2628
18.8301
18.2685
15.7254
10.9222
5.59267
3.12137
17.6708
17.6854
17.6352
17.5893
17.4922
17.3994
17.2585
17.1219
16.9416
16.7668
16.521
15.634
14.5843
12.2093
10.611
7.10434
5.67813
3.41651
3.26031
16.4439
16.4136
16.2899
16.0874
15.8114
15.4467
13.7022
10.1959
5.7101
3.41071
14.9212
14.932
14.8988
14.8694
14.8055
14.7451
14.6516
14.5616
14.4437
14.3225
14.1504
13.556
12.7851
11.1575
9.87106
7.04989
5.7728
3.66898
3.54637
14.0089
13.9883
13.9063
13.7716
13.5854
13.3337
12.1093
9.50963
5.78762
3.68266
12.8963
12.9031
12.8805
12.86
12.816
12.7741
12.709
12.6466
12.5641
12.4814
12.3599
11.9467
11.3743
10.2203
9.19586
6.9376
5.82723
3.89891
3.81101
12.1991
12.1851
12.1282
12.0347
11.9057
11.7266
10.8433
8.88475
5.82803
3.93146
11.3636
11.3685
11.3524
11.3379
11.3067
11.2769
11.2308
11.1862
11.1268
11.0677
10.9797
10.6844
10.2524
9.4137
8.59664
6.79528
5.84818
4.10587
4.04987
10.823
10.813
10.7724
10.7054
10.6129
10.4821
9.83012
8.33261
5.83879
4.15441
10.1823
10.1858
10.1741
10.1635
10.1407
10.119
10.0853
10.0527
10.009
9.96576
9.90043
9.68411
9.35351
8.73079
8.07657
6.64164
5.84422
4.29008
4.26145
9.75733
9.74999
9.72023
9.67104
9.60308
9.50562
9.01464
7.85467
5.82819
4.35097
9.25785
9.26048
9.25179
9.24386
9.22689
9.21067
9.18553
9.16121
9.12825
9.09607
9.04668
8.88486
8.62873
8.15811
7.63187
6.48865
5.82345
4.45236
4.44621
8.92033
8.91488
8.8926
8.85574
8.80473
8.73059
8.35505
7.44653
5.80376
4.52214
8.52603
8.52796
8.52139
8.51533
8.50248
8.49016
8.47117
8.45268
8.42779
8.40301
8.36534
8.24174
8.04127
7.68094
7.25522
6.3434
5.79272
4.59398
4.60579
8.25609
8.25183
8.23486
8.20669
8.16778
8.11136
7.81987
7.10095
5.7718
4.66983
7.94136
7.94317
7.93801
7.93352
7.92346
7.91406
7.89914
7.88494
7.8651
7.84646
7.81601
7.72345
7.56292
7.28507
6.93983
6.20857
5.75787
4.71675
4.74203
7.72338
7.7205
7.70733
7.68553
7.65533
7.60944
7.37927
6.81066
5.73825
4.79596
7.39903
7.40011
7.39636
7.39301
7.38566
7.37869
7.36777
7.35733
7.34285
7.32799
7.30685
7.23558
7.11692
6.9053
6.63943
6.0741
5.69508
4.85217
4.84449
6.92331
6.92137
6.91336
6.90013
6.88177
6.85376
6.71139
6.34683
5.64844
4.99058
6.28719
6.28791
6.28633
6.2852
6.28217
6.27962
6.27518
6.27122
6.26543
6.26
6.25157
6.22546
6.17543
6.09538
5.98241
5.7419
5.59097
5.11237
5.16902
6.13869
6.13776
6.13423
6.12834
6.12015
6.1079
6.04404
5.87377
5.53749
5.19194
5.83841
5.83872
5.83798
5.83739
5.83597
5.83473
5.83266
5.83075
5.82806
5.82549
5.82132
5.80855
5.7842
5.74651
5.68791
5.57678
5.50214
5.25185
5.28849
5.77136
5.77095
5.76927
5.76647
5.76256
5.75662
5.72566
5.64353
5.47453
5.29219
5.63217
5.63232
5.63194
5.63164
5.63091
5.63027
5.62919
5.62821
5.62683
5.6255
5.62334
5.61673
5.60484
5.58442
5.55291
5.49546
5.45432
5.32132
5.33895
5.60154
5.60132
5.60043
5.59896
5.59689
5.59387
5.57737
5.53348
5.44087
5.3387
5.54714
5.54719
5.54697
5.54676
5.54633
5.54591
5.54527
5.54464
5.54382
5.54297
5.54147
5.53726
5.53013
5.51732
5.49817
5.46104
5.43163
5.35276
5.35591
5.51718
5.51703
5.51651
5.51566
5.51445
5.51301
5.50372
5.47887
5.42297
5.36154
5.49719
5.49721
5.49708
5.49694
5.49665
5.49636
5.49592
5.49546
5.49486
5.49414
5.49329
5.49093
5.48654
5.47645
5.46136
5.44394
5.42469
5.36621
5.37484
SCALARS Stress_Shear double 1
LOOKUP_TABLE default
0.508324
-0.3007
-0.933298
-0.633052
-1.78
-0.702162
4.19526
10.1633
29.0788
-62.5599
-106.609
10.3439
3.17346
-4.68518
4.88368
-1.78766
2.72536
-0.892793
3.04187
0.057122
-17.8071
-34.9905
-53.3168
-85.7568
-182.017
-17.5727
0.806077
1.80664
2.98018
-0.403319
-17.1124
-34.3434
-50.9224
-68.8555
-88.8774
-110.861
-141.998
-191.514
-227.806
-253.122
-123.039
-40.1759
-23.4193
-1.77273
-7.29256
1.54291
-2.03699
2.92744
-0.523366
-44.7007
-91.7263
-147.982
-220.777
-267.053
-60.7899
-3.42689
1.22909
2.8905
-0.247425
-26.6909
-53.9714
-81.4686
-111.649
-142.013
-176.66
-208.799
-249.181
-261.177
-279.881
-162.586
-76.412
-38.2263
-6.50687
-11.6401
0.26179
-3.1209
2.86396
-0.66626
-53.2072
-109.434
-169.775
-225.579
-252.934
-79.58
-9.56995
-0.631362
2.83194
-0.40025
-24.9298
-50.6218
-76.034
-104.337
-129.401
-158.916
-179.199
-203.761
-210.196
-230.681
-145.448
-79.7033
-41.7801
-12.8164
-14.3408
-2.1155
-3.70235
2.81136
-0.574461
-36.3118
-73.9777
-111.283
-140.373
-160.881
-67.8668
-16.3049
-3.50693
2.79271
-0.0550236
-9.6626
-19.7336
-28.7732
-39.0869
-46.9399
-56.8734
-62.3478
-70.0146
-69.9771
-80.4552
-63.3461
-52.7595
-34.5368
-20.417
-15.6389
-5.50772
-3.71895
1.58716
-0.0346715
-18.0993
-35.3513
-50.4904
-61.6564
-69.1218
-50.4889
-22.5887
-6.86258
0.385392
-0.0631696
-8.73546
-17.449
-25.686
-33.889
-41.044
-48.0906
-53.3533
-58.4852
-61.0079
-65.3322
-60.1767
-51.383
-35.8003
-23.5384
-14.9258
-7.09919
-3.36607
0.385462
-0.0315945
-16.4204
-31.7943
-44.9591
-54.5052
-61.5195
-51.211
-24.3454
-7.2779
0.379719
-0.0396662
-7.75544
-15.4756
-22.7275
-29.8981
-36.117
-42.138
-46.7742
-51.2181
-53.9043
-58.2367
-56.3532
-50.9335
-36.4854
-24.8622
-14.9948
-7.35831
-3.35066
0.377331
-0.00767867
-14.4036
-27.8112
-39.2204
-47.7541
-54.7287
-49.9219
-25.1861
-7.38851
0.372894
-0.0321916
-6.73227
-13.4282
-19.7208
-25.925
-31.3325
-36.5749
-40.735
-44.7252
-47.4678
-51.6109
-51.8004
-49.0232
-36.3663
-25.4207
-14.9554
-7.37927
-3.30725
0.371611
-0.0025859
-12.4406
-24.033
-33.9897
-41.7107
-48.4022
-47.5741
-25.4191
-7.32385
0.369152
-0.0233504
-5.78823
-11.5447
-16.9752
-22.3253
-27.0521
-31.6447
-35.396
-39.0096
-41.6617
-45.4821
-47.0193
-46.2534
-35.3959
-25.3591
-14.6907
-7.23781
-3.22266
0.369722
0.000881586
-10.6795
-20.6771
-29.3834
-36.3415
-42.5587
-44.5015
-25.0359
-7.10685
0.369309
-0.0180771
-4.9579
-9.8909
-14.5654
-19.1751
-23.2963
-27.3127
-30.6686
-33.9156
-36.3958
-39.8587
-42.2096
-42.8775
-33.652
-24.6675
-14.1591
-6.9475
-3.09422
0.37183
0.000279032
-9.13269
-17.7272
-25.3062
-31.509
-37.1635
-40.8842
-24.0197
-6.74371
0.3733
-0.0148553
-4.22719
-8.43518
-12.4388
-16.393
-19.96
-23.4483
-26.4107
-29.2885
-31.547
-34.6413
-37.3864
-39.0073
-31.1828
-23.3323
-13.337
-6.51258
-2.92169
0.377608
-0.00147102
-7.75174
-15.08
-21.6067
-27.044
-32.0788
-36.7751
-22.3543
-6.23811
0.380709
-0.0132422
-3.56395
-7.11372
-10.5005
-13.8525
-16.8925
-19.8773
-22.4383
-24.9381
-26.9311
-29.6479
-32.4456
-34.6402
-27.9944
-21.3368
-12.2104
-5.93805
-2.70544
0.386518
-0.00437182
-6.46337
-12.5954
-18.0967
-22.7377
-27.09
-32.1205
-20.0189
-5.59734
0.390989
-0.0130889
-2.92731
-5.84496
-8.63172
-11.3979
-13.9127
-16.3924
-18.5318
-20.6355
-22.3131
-24.6272
-27.1816
-29.6698
-24.0496
-18.6573
-10.7709
-5.23536
-2.44543
0.397993
-0.00825882
-5.17909
-10.1054
-14.5513
-18.3297
-21.9135
-26.7592
-16.9851
-4.83781
0.403692
-0.0134562
-2.2681
-4.53122
-6.69134
-8.84617
-10.8037
-12.7549
-14.4239
-16.1024
-17.4082
-19.273
-21.2722
-23.8863
-19.2687
-15.2694
-9.00877
-4.43104
-2.13964
0.411694
-0.013302
-3.78895
-7.39955
-10.6728
-13.4783
-16.2726
-20.4208
-13.234
-3.99711
0.418931
-0.0147154
-1.52458
-3.05001
-4.49819
-5.95883
-7.26793
-8.5954
-9.70522
-10.8312
-11.7724
-13.1706
-14.3743
-16.8347
-13.5749
-11.14
-6.89986
-3.58188
-1.78103
0.428186
0.0145506
-2.15476
-4.21323
-6.0944
-7.71744
-9.49676
-12.3737
-8.73485
-3.15335
0.438406
0.0305869
-0.599056
-1.21365
-1.79103
-2.38247
-2.91799
-3.47005
-3.95037
-4.46455
-4.85539
-5.52878
-6.14933
-7.5167
-6.78248
-6.27962
-4.4197
-2.78836
-1.34182
0.264014
0.010947
-0.967711
-1.90715
-2.7902
-3.59724
-4.3531
-6.16169
-5.66913
-2.80503
0.0633131
-0.0103206
-0.39639
-0.788775
-1.17446
-1.55662
-1.92392
-2.2852
-2.626
-2.95576
-3.25946
-3.58898
-4.45069
-5.2546
-5.353
-5.20616
-3.98055
-2.76375
-1.25626
0.0505738
-0.000668154
-0.659888
-1.3045
-1.91887
-2.49081
-3.03379
-4.53364
-4.7303
-2.67596
0.0409314
-0.00168537
-0.275844
-0.551062
-0.821475
-1.09025
-1.35004
-1.60765
-1.85203
-2.09023
-2.31013
-2.55461
-3.2425
-3.89308
-4.18364
-4.30953
-3.4993
-2.5926
-1.19309
0.0321696
0.00140797
-0.46853
-0.928364
-1.37061
-1.7895
-2.19234
-3.39159
-3.90504
-2.47761
0.0261563
-0.00200137
-0.199504
-0.398264
-0.594542
-0.78969
-0.979855
-1.16862
-1.35043
-1.52752
-1.69603
-1.87845
-2.42102
-2.94206
-3.29524
-3.54095
-3.02508
-2.36981
-1.11117
0.0200751
0.000362518
-0.34414
-0.683165
-1.01182
-1.32592
-1.63126
-2.58519
-3.20557
-2.24228
0.0167858
-0.0009547
-0.148651
-0.296964
-0.443654
-0.5897
-0.732555
-0.87469
-1.01205
-1.14722
-1.27652
-1.41408
-1.84444
-2.26277
-2.6159
-2.90021
-2.58553
-2.12385
-1.0168
0.0125775
0.000358181
-0.259449
-0.515663
-0.765329
-1.0057
-1.24028
-2.0024
-2.6256
-1.9947
0.0111689
-0.000681451
-0.113298
-0.226355
-0.338382
-0.449989
-0.559562
-0.668568
-0.774547
-0.879192
-0.980064
-1.08602
-1.42938
-1.76587
-2.09162
-2.37327
-2.19213
-1.87493
-0.916064
0.00819759
0.000203097
-0.199541
-0.396948
-0.590054
-0.776959
-0.96007
-1.57166
-2.14958
-1.75093
0.00796984
-0.000443792
-0.0878805
-0.175604
-0.262627
-0.349386
-0.434762
-0.519754
-0.602675
-0.684823
-0.76435
-0.847177
-1.12286
-1.39438
-1.68278
-1.94254
-1.84795
-1.63575
-0.814225
0.00576285
0.000153858
-0.15587
-0.310288
-0.461774
-0.608999
-0.753628
-1.24669
-1.76052
-1.52077
0.00617806
-0.00029716
-0.0690966
-0.138087
-0.206589
-0.274911
-0.342277
-0.409359
-0.47503
-0.540146
-0.603477
-0.669082
-0.891539
-1.1113
-1.3607
-1.59111
-1.55138
-1.41368
-0.715323
0.00439974
8.08064e-05
-0.123237
-0.245448
-0.36559
-0.482752
-0.597997
-0.997174
-1.44282
-1.30963
0.00506526
-0.000271366
-0.0549295
-0.109763
-0.164266
-0.218643
-0.272331
-0.325834
-0.37827
-0.430369
-0.480974
-0.533372
-0.713771
-0.892189
-1.10454
-1.30426
-1.29846
-1.21247
-0.622121
0.00348344
0.000162745
-0.0983246
-0.195944
-0.292102
-0.386113
-0.478728
-0.803241
-1.18303
-1.12009
0.00413163
4.90371e-05
-0.0439273
-0.0878556
-0.131497
-0.175035
-0.218077
-0.260977
-0.303208
-0.345088
-0.386339
-0.428402
-0.575035
-0.720408
-0.899873
-1.06943
-1.08414
-1.03395
-0.536118
0.00259585
-0.000282514
-0.0790843
-0.157511
-0.234809
-0.310527
-0.385606
-0.649258
-0.969258
-0.953836
0.0031197
-0.00098338
-0.0353333
-0.0703599
-0.105228
-0.140078
-0.174566
-0.208904
-0.242672
-0.276028
-0.308479
-0.343211
-0.461591
-0.579394
-0.728771
-0.870553
-0.896394
-0.872748
-0.457099
0.00159772
0.000698405
-0.0484874
-0.0968548
-0.144616
-0.191657
-0.237325
-0.403393
-0.61677
-0.641859
0.0118459
-0.000817706
-0.0164115
-0.0325719
-0.0486709
-0.0647871
-0.0807809
-0.0966818
-0.112402
-0.127829
-0.14303
-0.159597
-0.215637
-0.271182
-0.347488
-0.419001
-0.450776
-0.456339
-0.245361
0.000292862
0.000115485
-0.0227786
-0.0454556
-0.0678989
-0.0900781
-0.111815
-0.191048
-0.297441
-0.330317
0.00665846
-0.000227984
-0.00766921
-0.0152746
-0.0228506
-0.0304316
-0.0379544
-0.0454398
-0.0528376
-0.0600793
-0.0672013
-0.0750551
-0.101723
-0.128185
-0.164425
-0.199816
-0.219132
-0.225992
-0.123389
0.000135926
0.000106671
-0.0105584
-0.021088
-0.0315144
-0.0418492
-0.0518724
-0.0890369
-0.139722
-0.160351
0.00373432
-0.00013089
-0.00346657
-0.00689544
-0.0103127
-0.0137328
-0.0171304
-0.020505
-0.0238465
-0.027081
-0.0302735
-0.0339237
-0.0462116
-0.0579636
-0.0747924
-0.0913473
-0.101241
-0.105002
-0.0580636
0.000522125
2.35176e-05
-0.00476375
-0.00950923
-0.0142151
-0.0188989
-0.0233904
-0.0400825
-0.0631683
-0.0735821
0.00259398
-8.67147e-05
-0.0015488
-0.00307124
-0.00458942
-0.00610851
-0.00761922
-0.00911323
-0.0105943
-0.0120055
-0.013399
-0.0151051
-0.0206364
-0.0257156
-0.0334239
-0.0405401
-0.0456544
-0.0465308
-0.0266756
0.00105804
6.42976e-05
-0.00268717
-0.0053793
-0.00804965
-0.0107138
-0.013187
-0.0226658
-0.0354935
-0.0410866
0.00205038
-8.96124e-14
-0.0013595
-0.00271765
-0.00407242
-0.00542335
-0.00676779
-0.00810591
-0.00943453
-0.0107544
-0.0120638
-0.013362
-0.0182073
-0.0227957
-0.0299192
-0.0357603
-0.0409418
-0.0408636
-0.0235889
4.90253e-14
SCALARS Radial_Distance double 1
LOOKUP_TABLE default
0
0.5
1
1.5
2
2.5
3
3.5
4
4.5
5
6.9457
8.8914
12.3514
15.8114
21.9642
28.1171
39.0585
50
0
1
2
3
4
5
8.8914
15.8114
28.1171
50
0
0.5
1
1.5
2
2.5
3
3.5
4
4.5
5
6.9457
8.8914
12.3514
15.8114
21.9642
28.1171
39.0585
50
0
1
2
3
4
5
8.8914
15.8114
28.1171
50
0
0.5
1
1.5
2
2.5
3
3.5
4
4.5
5
6.9457
8.8914
12.3514
15.8114
21.9642
28.1171
39.0585
50
0
1
2
3
4
5
8.8914
15.8114
28.1171
50
0
0.5
1
1.5
2
2.5
3
3.5
4
4.5
5
6.9457
8.8914
12.3514
15.8114
21.9642
28.1171
39.0585
50
0
1
2
3
4
5
8.8914
15.8114
28.1171
50
0
0.5
1
1.5
2
2.5
3
3.5
4
4.5
5
6.9457
8.8914
12.3514
15.8114
21.9642
28.1171
39.0585
50
0
1
2
3
4
5
8.8914
15.8114
28.1171
50
0
0.5
1
1.5
2
2.5
3
3.5
4
4.5
5
6.9457
8.8914
12.3514
15.8114
21.9642
28.1171
39.0585
50
0
1
2
3
4
5
8.8914
15.8114
28.1171
50
0
0.5
1
1.5
2
2.5
3
3.5
4
4.5
5
6.9457
8.8914
12.3514
15.8114
21.9642
28.1171
39.0585
50
0
1
2
3
4
5
8.8914
15.8114
28.1171
50
0
0.5
1
1.5
2
2.5
3
3.5
4
4.5
5
6.9457
8.8914
12.3514
15.8114
21.9642
28.1171
39.0585
50
0
1
2
3
4
5
8.8914
15.8114
28.1171
50
0
0.5
1
1.5
2
2.5
3
3.5
4
4.5
5
6.9457
8.8914
12.3514
15.8114
21.9642
28.1171
39.0585
50
0
1
2
3
4
5
8.8914
15.8114
28.1171
50
0
0.5
1
1.5
2
2.5
3
3.5
4
4.5
5
6.9457
8.8914
12.3514
15.8114
21.9642
28.1171
39.0585
50
0
1
2
3
4
5
8.8914
15.8114
28.1171
50
0
0.5
1
1.5
2
2.5
3
3.5
4
4.5
5
6.9457
8.8914
12.3514
15.8114
21.9642
28.1171
39.0585
50
0
1
2
3
4
5
8.8914
15.8114
28.1171
50
0
0.5
1
1.5
2
2.5
3
3.5
4
4.5
5
6.9457
8.8914
12.3514
15.8114
21.9642
28.1171
39.0585
50
0
1
2
3
4
5
8.8914
15.8114
28.1171
50
0
0.5
1
1.5
2
2.5
3
3.5
4
4.5
5
6.9457
8.8914
12.3514
15.8114
21.9642
28.1171
39.0585
50
0
1
2
3
4
5
8.8914
15.8114
28.1171
50
0
0.5
1
1.5
2
2.5
3
3.5
4
4.5
5
6.9457
8.8914
12.3514
15.8114
21.9642
28.1171
39.0585
50
0
1
2
3
4
5
8.8914
15.8114
28.1171
50
0
0.5
1
1.5
2
2.5
3
3.5
4
4.5
5
6.9457
8.8914
12.3514
15.8114
21.9642
28.1171
39.0585
50
0
1
2
3
4
5
8.8914
15.8114
28.1171
50
0
0.5
1
1.5
2
2.5
3
3.5
4
4.5
5
6.9457
8.8914
12.3514
15.8114
21.9642
28.1171
39.0585
50
0
1
2
3
4
5
8.8914
15.8114
28.1171
50
0
0.5
1
1.5
2
2.5
3
3.5
4
4.5
5
6.9457
8.8914
12.3514
15.8114
21.9642
28.1171
39.0585
50
0
1
2
3
4
5
8.8914
15.8114
28.1171
50
0
0.5
1
1.5
2
2.5
3
3.5
4
4.5
5
6.9457
8.8914
12.3514
15.8114
21.9642
28.1171
39.0585
50
0
1
2
3
4
5
8.8914
15.8114
28.1171
50
0
0.5
1
1.5
2
2.5
3
3.5
4
4.5
5
6.9457
8.8914
12.3514
15.8114
21.9642
28.1171
39.0585
50
0
1
2
3
4
5
8.8914
15.8114
28.1171
50
0
0.5
1
1.5
2
2.5
3
3.5
4
4.5
5
6.9457
8.8914
12.3514
15.8114
21.9642
28.1171
39.0585
50
0
1
2
3
4
5
8.8914
15.8114
28.1171
50
0
0.5
1
1.5
2
2.5
3
3.5
4
4.5
5
6.9457
8.8914
12.3514
15.8114
21.9642
28.1171
39.0585
50
0
1
2
3
4
5
8.8914
15.8114
28.1171
50
0
0.5
1
1.5
2
2.5
3
3.5
4
4.5
5
6.9457
8.8914
12.3514
15.8114
21.9642
28.1171
39.0585
50
0
1
2
3
4
5
8.8914
15.8114
28.1171
50
0
0.5
1
1.5
2
2.5
3
3.5
4
4.5
5
6.9457
8.8914
12.3514
15.8114
21.9642
28.1171
39.0585
50
0
1
2
3
4
5
8.8914
15.8114
28.1171
50
0
0.5
1
1.5
2
2.5
3
3.5
4
4.5
5
6.9457
8.8914
12.3514
15.8114
21.9642
28.1171
39.0585
50
0
1
2
3
4
5
8.8914
15.8114
28.1171
50
0
0.5
1
1.5
2
2.5
3
3.5
4
4.5
5
6.9457
8.8914
12.3514
15.8114
21.9642
28.1171
39.0585
50
0
1
2
3
4
5
8.8914
15.8114
28.1171
50
0
0.5
1
1.5
2
2.5
3
3.5
4
4.5
5
6.9457
8.8914
12.3514
15.8114
21.9642
28.1171
39.0585
50
0
1
2
3
4
5
8.8914
15.8114
28.1171
50
0
0.5
1
1.5
2
2.5
3
3.5
4
4.5
5
6.9457
8.8914
12.3514
15.8114
21.9642
28.1171
39.0585
50
0
1
2
3
4
5
8.8914
15.8114
28.1171
50
0
0.5
1
1.5
2
2.5
3
3.5
4
4.5
5
6.9457
8.8914
12.3514
15.8114
21.9642
28.1171
39.0585
50
0
1
2
3
4
5
8.8914
15.8114
28.1171
50
0
0.5
1
1.5
2
2.5
3
3.5
4
4.5
5
6.9457
8.8914
12.3514
15.8114
21.9642
28.1171
39.0585
50
0
1
2
3
4
5
8.8914
15.8114
28.1171
50
0
0.5
1
1.5
2
2.5
3
3.5
4
4.5
5
6.9457
8.8914
12.3514
15.8114
21.9642
28.1171
39.0585
50
0
1
2
3
4
5
8.8914
15.8114
28.1171
50
0
0.5
1
1.5
2
2.5
3
3.5
4
4.5
5
6.9457
8.8914
12.3514
15.8114
21.9642
28.1171
39.0585
50
SCALARS Depth double 1
LOOKUP_TABLE default
0
0
0
0
0
0
0
0
0
0
0
0
0
0
0
0
0
0
0
-0.5
-0.5
-0.5
-0.5
-0.5
-0.5
-0.5
-0.5
-0.5
-0.5
-1
-1
-1
-1
-1
-1
-1
-1
-1
-1
-1
-1
-1
-1
-1
-1
-1
-1
-1
-1.5
-1.5
-1.5
-1.5
-1.5
-1.5
-1.5
-1.5
-1.5
-1.5
-2
-2
-2
-2
-2
-2
-2
-2
-2
-2
-2
-2
-2
-2
-2
-2
-2
-2
-2
-2.5
-2.5
-2.5
-2.5
-2.5
-2.5
-2.5
-2.5
-2.5
-2.5
-3
-3
-3
-3
-3
-3
-3
-3
-3
-3
-3
-3
-3
-3
-3
-3
-3
-3
-3
-3.5
-3.5
-3.5
-3.5
-3.5
-3.5
-3.5
-3.5
-3.5
-3.5
-4
-4
-4
-4
-4
-4
-4
-4
-4
-4
-4
-4
-4
-4
-4
-4
-4
-4
-4
-4.5
-4.5
-4.5
-4.5
-4.5
-4.5
-4.5
-4.5
-4.5
-4.5
-5
-5
-5
-5
-5
-5
-5
-5
-5
-5
-5
-5
-5
-5
-5
-5
-5
-5
-5
-5.5
-5.5
-5.5
-5.5
-5.5
-5.5
-5.5
-5.5
-5.5
-5.5
-6
-6
-6
-6
-6
-6
-6
-6
-6
-6
-6
-6
-6
-6
-6
-6
-6
-6
-6
-6.5
-6.5
-6.5
-6.5
-6.5
-6.5
-6.5
-6.5
-6.5
-6.5
-7
-7
-7
-7
-7
-7
-7
-7
-7
-7
-7
-7
-7
-7
-7
-7
-7
-7
-7
-7.5
-7.5
-7.5
-7.5
-7.5
-7.5
-7.5
-7.5
-7.5
-7.5
-8
-8
-8
-8
-8
-8
-8
-8
-8
-8
-8
-8
-8
-8
-8
-8
-8
-8
-8
-8.5
-8.5
-8.5
-8.5
-8.5
-8.5
-8.5
-8.5
-8.5
-8.5
-9
-9
-9
-9
-9
-9
-9
-9
-9
-9
-9
-9
-9
-9
-9
-9
-9
-9
-9
-9.5
-9.5
-9.5
-9.5
-9.5
-9.5
-9.5
-9.5
-9.5
-9.5
-10
-10
-10
-10
-10
-10
-10
-10
-10
-10
-10
-10
-10
-10
-10
-10
-10
-10
-10
-10.5
-10.5
-10.5
-10.5
-10.5
-10.5
-10.5
-10.5
-10.5
-10.5
-11
-11
-11
-11
-11
-11
-11
-11
-11
-11
-11
-11
-11
-11
-11
-11
-11
-11
-11
-11.5
-11.5
-11.5
-11.5
-11.5
-11.5
-11.5
-11.5
-11.5
-11.5
-12
-12
-12
-12
-12
-12
-12
-12
-12
-12
-12
-12
-12
-12
-12
-12
-12
-12
-12
-12.5
-12.5
-12.5
-12.5
-12.5
-12.5
-12.5
-12.5
-12.5
-12.5
-13
-13
-13
-13
-13
-13
-13
-13
-13
-13
-13
-13
-13
-13
-13
-13
-13
-13
-13
-13.5
-13.5
-13.5
-13.5
-13.5
-13.5
-13.5
-13.5
-13.5
-13.5
-14
-14
-14
-14
-14
-14
-14
-14
-14
-14
-14
-14
-14
-14
-14
-14
-14
-14
-14
-14.5
-14.5
-14.5
-14.5
-14.5
-14.5
-14.5
-14.5
-14.5
-14.5
-15
-15
-15
-15
-15
-15
-15
-15
-15
-15
-15
-15
-15
-15
-15
-15
-15
-15
-15
-16.5
-16.5
-16.5
-16.5
-16.5
-16.5
-16.5
-16.5
-16.5
-16.5
-18
-18
-18
-18
-18
-18
-18
-18
-18
-18
-18
-18
-18
-18
-18
-18
-18
-18
-18
-19.5
-19.5
-19.5
-19.5
-19.5
-19.5
-19.5
-19.5
-19.5
-19.5
-21
-21
-21
-21
-21
-21
-21
-21
-21
-21
-21
-21
-21
-21
-21
-21
-21
-21
-21
-22.5
-22.5
-22.5
-22.5
-22.5
-22.5
-22.5
-22.5
-22.5
-22.5
-24
-24
-24
-24
-24
-24
-24
-24
-24
-24
-24
-24
-24
-24
-24
-24
-24
-24
-24
-25.5
-25.5
-25.5
-25.5
-25.5
-25.5
-25.5
-25.5
-25.5
-25.5
-27
-27
-27
-27
-27
-27
-27
-27
-27
-27
-27
-27
-27
-27
-27
-27
-27
-27
-27
-28.5
-28.5
-28.5
-28.5
-28.5
-28.5
-28.5
-28.5
-28.5
-28.5
-30
-30
-30
-30
-30
-30
-30
-30
-30
-30
-30
-30
-30
-30
-30
-30
-30
-30
-30
-31.5
-31.5
-31.5
-31.5
-31.5
-31.5
-31.5
-31.5
-31.5
-31.5
-33
-33
-33
-33
-33
-33
-33
-33
-33
-33
-33
-33
-33
-33
-33
-33
-33
-33
-33
-34.5
-34.5
-34.5
-34.5
-34.5
-34.5
-34.5
-34.5
-34.5
-34.5
-36
-36
-36
-36
-36
-36
-36
-36
-36
-36
-36
-36
-36
-36
-36
-36
-36
-36
-36
-37.5
-37.5
-37.5
-37.5
-37.5
-37.5
-37.5
-37.5
-37.5
-37.5
-39
-39
-39
-39
-39
-39
-39
-39
-39
-39
-39
-39
-39
-39
-39
-39
-39
-39
-39
-40.5
-40.5
-40.5
-40.5
-40.5
-40.5
-40.5
-40.5
-40.5
-40.5
-42
-42
-42
-42
-42
-42
-42
-42
-42
-42
-42
-42
-42
-42
-42
-42
-42
-42
-42
-43.5
-43.5
-43.5
-43.5
-43.5
-43.5
-43.5
-43.5
-43.5
-43.5
-45
-45
-45
-45
-45
-45
-45
-45
-45
-45
-45
-45
-45
-45
-45
-45
-45
-45
-45
-50.5
-50.5
-50.5
-50.5
-50.5
-50.5
-50.5
-50.5
-50.5
-50.5
-56
-56
-56
-56
-56
-56
-56
-56
-56
-56
-56
-56
-56
-56
-56
-56
-56
-56
-56
-61.5
-61.5
-61.5
-61.5
-61.5
-61.5
-61.5
-61.5
-61.5
-61.5
-67
-67
-67
-67
-67
-67
-67
-67
-67
-67
-67
-67
-67
-67
-67
-67
-67
-67
-67
-72.5
-72.5
-72.5
-72.5
-72.5
-72.5
-72.5
-72.5
-72.5
-72.5
-78
-78
-78
-78
-78
-78
-78
-78
-78
-78
-78
-78
-78
-78
-78
-78
-78
-78
-78
-83.5
-83.5
-83.5
-83.5
-83.5
-83.5
-83.5
-83.5
-83.5
-83.5
-89
-89
-89
-89
-89
-89
-89
-89
-89
-89
-89
-89
-89
-89
-89
-89
-89
-89
-89
-94.5
-94.5
-94.5
-94.5
-94.5
-94.5
-94.5
-94.5
-94.5
-94.5
-100
-100
-100
-100
-100
-100
-100
-100
-100
-100
-100
-100
-100
-100
-100
-100
-100
-100
-100
