# vtk DataFile Version 2.0
./vtk
ASCII

DATASET UNSTRUCTURED_GRID
POINTS 2343 double
0 0 0.0
0.985 0 0.0
1.97 0 0.0
2.955 0 0.0
3.94 0 0.0
4.925 0 0.0
5.91 0 0.0
6.955 0 0.0
8 0 0.0
9 0 0.0
10 0 0.0
11 0 0.0
12 0 0.0
13 0 0.0
14 0 0.0
15 0 0.0
16 0 0.0
17 0 0.0
18 0 0.0
19 0 0.0
20 0 0.0
21 0 0.0
22 0 0.0
23 0 0.0
24 0 0.0
25.5 0 0.0
27 0 0.0
28.5 0 0.0
30 0 0.0
31.5 0 0.0
33 0 0.0
34.5 0 0.0
36 0 0.0
39 0 0.0
42 0 0.0
45 0 0.0
48 0 0.0
54 0 0.0
60 0 0.0
66 0 0.0
72 0 0.0
78 0 0.0
84 0 0.0
90 0 0.0
96 0 0.0
102 0 0.0
108 0 0.0
114 0 0.0
120 0 0.0
0 -0.4005 0.0
1.97 -0.4005 0.0
3.94 -0.4005 0.0
5.91 -0.4005 0.0
8 -0.4005 0.0
10 -0.4005 0.0
12 -0.4005 0.0
14 -0.4005 0.0
16 -0.4005 0.0
18 -0.4005 0.0
20 -0.4005 0.0
22 -0.4005 0.0
24 -0.4005 0.0
27 -0.4005 0.0
30 -0.4005 0.0
33 -0.4005 0.0
36 -0.4005 0.0
42 -0.4005 0.0
48 -0.4005 0.0
60 -0.4005 0.0
72 -0.4005 0.0
84 -0.4005 0.0
96 -0.4005 0.0
108 -0.4005 0.0
120 -0.4005 0.0
0 -0.801 0.0
0.985 -0.801 0.0
1.97 -0.801 0.0
2.955 -0.801 0.0
3.94 -0.801 0.0
4.925 -0.801 0.0
5.91 -0.801 0.0
6.955 -0.801 0.0
8 -0.801 0.0
9 -0.801 0.0
10 -0.801 0.0
11 -0.801 0.0
12 -0.801 0.0
13 -0.801 0.0
14 -0.801 0.0
15 -0.801 0.0
16 -0.801 0.0
17 -0.801 0.0
18 -0.801 0.0
19 -0.801 0.0
20 -0.801 0.0
21 -0.801 0.0
22 -0.801 0.0
23 -0.801 0.0
24 -0.801 0.0
25.5 -0.801 0.0
27 -0.801 0.0
28.5 -0.801 0.0
30 -0.801 0.0
31.5 -0.801 0.0
33 -0.801 0.0
34.5 -0.801 0.0
36 -0.801 0.0
39 -0.801 0.0
42 -0.801 0.0
45 -0.801 0.0
48 -0.801 0.0
54 -0.801 0.0
60 -0.801 0.0
66 -0.801 0.0
72 -0.801 0.0
78 -0.801 0.0
84 -0.801 0.0
90 -0.801 0.0
96 -0.801 0.0
102 -0.801 0.0
108 -0.801 0.0
114 -0.801 0.0
120 -0.801 0.0
0 -1.2015 0.0
1.97 -1.2015 0.0
3.94 -1.2015 0.0
5.91 -1.2015 0.0
8 -1.2015 0.0
10 -1.2015 0.0
12 -1.2015 0.0
14 -1.2015 0.0
16 -1.2015 0.0
18 -1.2015 0.0
20 -1.2015 0.0
22 -1.2015 0.0
24 -1.2015 0.0
27 -1.2015 0.0
30 -1.2015 0.0
33 -1.2015 0.0
36 -1.2015 0.0
42 -1.2015 0.0
48 -1.2015 0.0
60 -1.2015 0.0
72 -1.2015 0.0
84 -1.2015 0.0
96 -1.2015 0.0
108 -1.2015 0.0
120 -1.2015 0.0
0 -1.602 0.0
0.985 -1.602 0.0
1.97 -1.602 0.0
2.955 -1.602 0.0
3.94 -1.602 0.0
4.925 -1.602 0.0
5.91 -1.602 0.0
6.955 -1.602 0.0
8 -1.602 0.0
9 -1.602 0.0
10 -1.602 0.0
11 -1.602 0.0
12 -1.602 0.0
13 -1.602 0.0
14 -1.602 0.0
15 -1.602 0.0
16 -1.602 0.0
17 -1.602 0.0
18 -1.602 0.0
19 -1.602 0.0
20 -1.602 0.0
21 -1.602 0.0
22 -1.602 0.0
23 -1.602 0.0
24 -1.602 0.0
25.5 -1.602 0.0
27 -1.602 0.0
28.5 -1.602 0.0
30 -1.602 0.0
31.5 -1.602 0.0
33 -1.602 0.0
34.5 -1.602 0.0
36 -1.602 0.0
39 -1.602 0.0
42 -1.602 0.0
45 -1.602 0.0
48 -1.602 0.0
54 -1.602 0.0
60 -1.602 0.0
66 -1.602 0.0
72 -1.602 0.0
78 -1.602 0.0
84 -1.602 0.0
90 -1.602 0.0
96 -1.602 0.0
102 -1.602 0.0
108 -1.602 0.0
114 -1.602 0.0
120 -1.602 0.0
0 -2.0025 0.0
1.97 -2.0025 0.0
3.94 -2.0025 0.0
5.91 -2.0025 0.0
8 -2.0025 0.0
10 -2.0025 0.0
12 -2.0025 0.0
14 -2.0025 0.0
16 -2.0025 0.0
18 -2.0025 0.0
20 -2.0025 0.0
22 -2.0025 0.0
24 -2.0025 0.0
27 -2.0025 0.0
30 -2.0025 0.0
33 -2.0025 0.0
36 -2.0025 0.0
42 -2.0025 0.0
48 -2.0025 0.0
60 -2.0025 0.0
72 -2.0025 0.0
84 -2.0025 0.0
96 -2.0025 0.0
108 -2.0025 0.0
120 -2.0025 0.0
0 -2.403 0.0
0.985 -2.403 0.0
1.97 -2.403 0.0
2.955 -2.403 0.0
3.94 -2.403 0.0
4.925 -2.403 0.0
5.91 -2.403 0.0
6.955 -2.403 0.0
8 -2.403 0.0
9 -2.403 0.0
10 -2.403 0.0
11 -2.403 0.0
12 -2.403 0.0
13 -2.403 0.0
14 -2.403 0.0
15 -2.403 0.0
16 -2.403 0.0
17 -2.403 0.0
18 -2.403 0.0
19 -2.403 0.0
20 -2.403 0.0
21 -2.403 0.0
22 -2.403 0.0
23 -2.403 0.0
24 -2.403 0.0
25.5 -2.403 0.0
27 -2.403 0.0
28.5 -2.403 0.0
30 -2.403 0.0
31.5 -2.403 0.0
33 -2.403 0.0
34.5 -2.403 0.0
36 -2.403 0.0
39 -2.403 0.0
42 -2.403 0.0
45 -2.403 0.0
48 -2.403 0.0
54 -2.403 0.0
60 -2.403 0.0
66 -2.403 0.0
72 -2.403 0.0
78 -2.403 0.0
84 -2.403 0.0
90 -2.403 0.0
96 -2.403 0.0
102 -2.403 0.0
108 -2.403 0.0
114 -2.403 0.0
120 -2.403 0.0
0 -2.8035 0.0
1.97 -2.8035 0.0
3.94 -2.8035 0.0
5.91 -2.8035 0.0
8 -2.8035 0.0
10 -2.8035 0.0
12 -2.8035 0.0
14 -2.8035 0.0
16 -2.8035 0.0
18 -2.8035 0.0
20 -2.8035 0.0
22 -2.8035 0.0
24 -2.8035 0.0
27 -2.8035 0.0
30 -2.8035 0.0
33 -2.8035 0.0
36 -2.8035 0.0
42 -2.8035 0.0
48 -2.8035 0.0
60 -2.8035 0.0
72 -2.8035 0.0
84 -2.8035 0.0
96 -2.8035 0.0
108 -2.8035 0.0
120 -2.8035 0.0
0 -3.204 0.0
0.985 -3.204 0.0
1.97 -3.204 0.0
2.955 -3.204 0.0
3.94 -3.204 0.0
4.925 -3.204 0.0
5.91 -3.204 0.0
6.955 -3.204 0.0
8 -3.204 0.0
9 -3.204 0.0
10 -3.204 0.0
11 -3.204 0.0
12 -3.204 0.0
13 -3.204 0.0
14 -3.204 0.0
15 -3.204 0.0
16 -3.204 0.0
17 -3.204 0.0
18 -3.204 0.0
19 -3.204 0.0
20 -3.204 0.0
21 -3.204 0.0
22 -3.204 0.0
23 -3.204 0.0
24 -3.204 0.0
25.5 -3.204 0.0
27 -3.204 0.0
28.5 -3.204 0.0
30 -3.204 0.0
31.5 -3.204 0.0
33 -3.204 0.0
34.5 -3.204 0.0
36 -3.204 0.0
39 -3.204 0.0
42 -3.204 0.0
45 -3.204 0.0
48 -3.204 0.0
54 -3.204 0.0
60 -3.204 0.0
66 -3.204 0.0
72 -3.204 0.0
78 -3.204 0.0
84 -3.204 0.0
90 -3.204 0.0
96 -3.204 0.0
102 -3.204 0.0
108 -3.204 0.0
114 -3.204 0.0
120 -3.204 0.0
0 -3.8175 0.0
1.97 -3.8175 0.0
3.94 -3.8175 0.0
5.91 -3.8175 0.0
8 -3.8175 0.0
10 -3.8175 0.0
12 -3.8175 0.0
14 -3.8175 0.0
16 -3.8175 0.0
18 -3.8175 0.0
20 -3.8175 0.0
22 -3.8175 0.0
24 -3.8175 0.0
27 -3.8175 0.0
30 -3.8175 0.0
33 -3.8175 0.0
36 -3.8175 0.0
42 -3.8175 0.0
48 -3.8175 0.0
60 -3.8175 0.0
72 -3.8175 0.0
84 -3.8175 0.0
96 -3.8175 0.0
108 -3.8175 0.0
120 -3.8175 0.0
0 -4.431 0.0
0.985 -4.431 0.0
1.97 -4.431 0.0
2.955 -4.431 0.0
3.94 -4.431 0.0
4.925 -4.431 0.0
5.91 -4.431 0.0
6.955 -4.431 0.0
8 -4.431 0.0
9 -4.431 0.0
10 -4.431 0.0
11 -4.431 0.0
12 -4.431 0.0
13 -4.431 0.0
14 -4.431 0.0
15 -4.431 0.0
16 -4.431 0.0
17 -4.431 0.0
18 -4.431 0.0
19 -4.431 0.0
20 -4.431 0.0
21 -4.431 0.0
22 -4.431 0.0
23 -4.431 0.0
24 -4.431 0.0
25.5 -4.431 0.0
27 -4.431 0.0
28.5 -4.431 0.0
30 -4.431 0.0
31.5 -4.431 0.0
33 -4.431 0.0
34.5 -4.431 0.0
36 -4.431 0.0
39 -4.431 0.0
42 -4.431 0.0
45 -4.431 0.0
48 -4.431 0.0
54 -4.431 0.0
60 -4.431 0.0
66 -4.431 0.0
72 -4.431 0.0
78 -4.431 0.0
84 -4.431 0.0
90 -4.431 0.0
96 -4.431 0.0
102 -4.431 0.0
108 -4.431 0.0
114 -4.431 0.0
120 -4.431 0.0
0 -5.0445 0.0
1.97 -5.0445 0.0
3.94 -5.0445 0.0
5.91 -5.0445 0.0
8 -5.0445 0.0
10 -5.0445 0.0
12 -5.0445 0.0
14 -5.0445 0.0
16 -5.0445 0.0
18 -5.0445 0.0
20 -5.0445 0.0
22 -5.0445 0.0
24 -5.0445 0.0
27 -5.0445 0.0
30 -5.0445 0.0
33 -5.0445 0.0
36 -5.0445 0.0
42 -5.0445 0.0
48 -5.0445 0.0
60 -5.0445 0.0
72 -5.0445 0.0
84 -5.0445 0.0
96 -5.0445 0.0
108 -5.0445 0.0
120 -5.0445 0.0
0 -5.658 0.0
0.985 -5.658 0.0
1.97 -5.658 0.0
2.955 -5.658 0.0
3.94 -5.658 0.0
4.925 -5.658 0.0
5.91 -5.658 0.0
6.955 -5.658 0.0
8 -5.658 0.0
9 -5.658 0.0
10 -5.658 0.0
11 -5.658 0.0
12 -5.658 0.0
13 -5.658 0.0
14 -5.658 0.0
15 -5.658 0.0
16 -5.658 0.0
17 -5.658 0.0
18 -5.658 0.0
19 -5.658 0.0
20 -5.658 0.0
21 -5.658 0.0
22 -5.658 0.0
23 -5.658 0.0
24 -5.658 0.0
25.5 -5.658 0.0
27 -5.658 0.0
28.5 -5.658 0.0
30 -5.658 0.0
31.5 -5.658 0.0
33 -5.658 0.0
34.5 -5.658 0.0
36 -5.658 0.0
39 -5.658 0.0
42 -5.658 0.0
45 -5.658 0.0
48 -5.658 0.0
54 -5.658 0.0
60 -5.658 0.0
66 -5.658 0.0
72 -5.658 0.0
78 -5.658 0.0
84 -5.658 0.0
90 -5.658 0.0
96 -5.658 0.0
102 -5.658 0.0
108 -5.658 0.0
114 -5.658 0.0
120 -5.658 0.0
0 -6.2715 0.0
1.97 -6.2715 0.0
3.94 -6.2715 0.0
5.91 -6.2715 0.0
8 -6.2715 0.0
10 -6.2715 0.0
12 -6.2715 0.0
14 -6.2715 0.0
16 -6.2715 0.0
18 -6.2715 0.0
20 -6.2715 0.0
22 -6.2715 0.0
24 -6.2715 0.0
27 -6.2715 0.0
30 -6.2715 0.0
33 -6.2715 0.0
36 -6.2715 0.0
42 -6.2715 0.0
48 -6.2715 0.0
60 -6.2715 0.0
72 -6.2715 0.0
84 -6.2715 0.0
96 -6.2715 0.0
108 -6.2715 0.0
120 -6.2715 0.0
0 -6.885 0.0
0.985 -6.885 0.0
1.97 -6.885 0.0
2.955 -6.885 0.0
3.94 -6.885 0.0
4.925 -6.885 0.0
5.91 -6.885 0.0
6.955 -6.885 0.0
8 -6.885 0.0
9 -6.885 0.0
10 -6.885 0.0
11 -6.885 0.0
12 -6.885 0.0
13 -6.885 0.0
14 -6.885 0.0
15 -6.885 0.0
16 -6.885 0.0
17 -6.885 0.0
18 -6.885 0.0
19 -6.885 0.0
20 -6.885 0.0
21 -6.885 0.0
22 -6.885 0.0
23 -6.885 0.0
24 -6.885 0.0
25.5 -6.885 0.0
27 -6.885 0.0
28.5 -6.885 0.0
30 -6.885 0.0
31.5 -6.885 0.0
33 -6.885 0.0
34.5 -6.885 0.0
36 -6.885 0.0
39 -6.885 0.0
42 -6.885 0.0
45 -6.885 0.0
48 -6.885 0.0
54 -6.885 0.0
60 -6.885 0.0
66 -6.885 0.0
72 -6.885 0.0
78 -6.885 0.0
84 -6.885 0.0
90 -6.885 0.0
96 -6.885 0.0
102 -6.885 0.0
108 -6.885 0.0
114 -6.885 0.0
120 -6.885 0.0
0 -7.4985 0.0
1.97 -7.4985 0.0
3.94 -7.4985 0.0
5.91 -7.4985 0.0
8 -7.4985 0.0
10 -7.4985 0.0
12 -7.4985 0.0
14 -7.4985 0.0
16 -7.4985 0.0
18 -7.4985 0.0
20 -7.4985 0.0
22 -7.4985 0.0
24 -7.4985 0.0
27 -7.4985 0.0
30 -7.4985 0.0
33 -7.4985 0.0
36 -7.4985 0.0
42 -7.4985 0.0
48 -7.4985 0.0
60 -7.4985 0.0
72 -7.4985 0.0
84 -7.4985 0.0
96 -7.4985 0.0
108 -7.4985 0.0
120 -7.4985 0.0
0 -8.112 0.0
0.985 -8.112 0.0
1.97 -8.112 0.0
2.955 -8.112 0.0
3.94 -8.112 0.0
4.925 -8.112 0.0
5.91 -8.112 0.0
6.955 -8.112 0.0
8 -8.112 0.0
9 -8.112 0.0
10 -8.112 0.0
11 -8.112 0.0
12 -8.112 0.0
13 -8.112 0.0
14 -8.112 0.0
15 -8.112 0.0
16 -8.112 0.0
17 -8.112 0.0
18 -8.112 0.0
19 -8.112 0.0
20 -8.112 0.0
21 -8.112 0.0
22 -8.112 0.0
23 -8.112 0.0
24 -8.112 0.0
25.5 -8.112 0.0
27 -8.112 0.0
28.5 -8.112 0.0
30 -8.112 0.0
31.5 -8.112 0.0
33 -8.112 0.0
34.5 -8.112 0.0
36 -8.112 0.0
39 -8.112 0.0
42 -8.112 0.0
45 -8.112 0.0
48 -8.112 0.0
54 -8.112 0.0
60 -8.112 0.0
66 -8.112 0.0
72 -8.112 0.0
78 -8.112 0.0
84 -8.112 0.0
90 -8.112 0.0
96 -8.112 0.0
102 -8.112 0.0
108 -8.112 0.0
114 -8.112 0.0
120 -8.112 0.0
0 -8.7255 0.0
1.97 -8.7255 0.0
3.94 -8.7255 0.0
5.91 -8.7255 0.0
8 -8.7255 0.0
10 -8.7255 0.0
12 -8.7255 0.0
14 -8.7255 0.0
16 -8.7255 0.0
18 -8.7255 0.0
20 -8.7255 0.0
22 -8.7255 0.0
24 -8.7255 0.0
27 -8.7255 0.0
30 -8.7255 0.0
33 -8.7255 0.0
36 -8.7255 0.0
42 -8.7255 0.0
48 -8.7255 0.0
60 -8.7255 0.0
72 -8.7255 0.0
84 -8.7255 0.0
96 -8.7255 0.0
108 -8.7255 0.0
120 -8.7255 0.0
0 -9.339 0.0
0.985 -9.339 0.0
1.97 -9.339 0.0
2.955 -9.339 0.0
3.94 -9.339 0.0
4.925 -9.339 0.0
5.91 -9.339 0.0
6.955 -9.339 0.0
8 -9.339 0.0
9 -9.339 0.0
10 -9.339 0.0
11 -9.339 0.0
12 -9.339 0.0
13 -9.339 0.0
14 -9.339 0.0
15 -9.339 0.0
16 -9.339 0.0
17 -9.339 0.0
18 -9.339 0.0
19 -9.339 0.0
20 -9.339 0.0
21 -9.339 0.0
22 -9.339 0.0
23 -9.339 0.0
24 -9.339 0.0
25.5 -9.339 0.0
27 -9.339 0.0
28.5 -9.339 0.0
30 -9.339 0.0
31.5 -9.339 0.0
33 -9.339 0.0
34.5 -9.339 0.0
36 -9.339 0.0
39 -9.339 0.0
42 -9.339 0.0
45 -9.339 0.0
48 -9.339 0.0
54 -9.339 0.0
60 -9.339 0.0
66 -9.339 0.0
72 -9.339 0.0
78 -9.339 0.0
84 -9.339 0.0
90 -9.339 0.0
96 -9.339 0.0
102 -9.339 0.0
108 -9.339 0.0
114 -9.339 0.0
120 -9.339 0.0
0 -9.9525 0.0
1.97 -9.9525 0.0
3.94 -9.9525 0.0
5.91 -9.9525 0.0
8 -9.9525 0.0
10 -9.9525 0.0
12 -9.9525 0.0
14 -9.9525 0.0
16 -9.9525 0.0
18 -9.9525 0.0
20 -9.9525 0.0
22 -9.9525 0.0
24 -9.9525 0.0
27 -9.9525 0.0
30 -9.9525 0.0
33 -9.9525 0.0
36 -9.9525 0.0
42 -9.9525 0.0
48 -9.9525 0.0
60 -9.9525 0.0
72 -9.9525 0.0
84 -9.9525 0.0
96 -9.9525 0.0
108 -9.9525 0.0
120 -9.9525 0.0
0 -10.566 0.0
0.985 -10.566 0.0
1.97 -10.566 0.0
2.955 -10.566 0.0
3.94 -10.566 0.0
4.925 -10.566 0.0
5.91 -10.566 0.0
6.955 -10.566 0.0
8 -10.566 0.0
9 -10.566 0.0
10 -10.566 0.0
11 -10.566 0.0
12 -10.566 0.0
13 -10.566 0.0
14 -10.566 0.0
15 -10.566 0.0
16 -10.566 0.0
17 -10.566 0.0
18 -10.566 0.0
19 -10.566 0.0
20 -10.566 0.0
21 -10.566 0.0
22 -10.566 0.0
23 -10.566 0.0
24 -10.566 0.0
25.5 -10.566 0.0
27 -10.566 0.0
28.5 -10.566 0.0
30 -10.566 0.0
31.5 -10.566 0.0
33 -10.566 0.0
34.5 -10.566 0.0
36 -10.566 0.0
39 -10.566 0.0
42 -10.566 0.0
45 -10.566 0.0
48 -10.566 0.0
54 -10.566 0.0
60 -10.566 0.0
66 -10.566 0.0
72 -10.566 0.0
78 -10.566 0.0
84 -10.566 0.0
90 -10.566 0.0
96 -10.566 0.0
102 -10.566 0.0
108 -10.566 0.0
114 -10.566 0.0
120 -10.566 0.0
0 -11.566 0.0
1.97 -11.566 0.0
3.94 -11.566 0.0
5.91 -11.566 0.0
8 -11.566 0.0
10 -11.566 0.0
12 -11.566 0.0
14 -11.566 0.0
16 -11.566 0.0
18 -11.566 0.0
20 -11.566 0.0
22 -11.566 0.0
24 -11.566 0.0
27 -11.566 0.0
30 -11.566 0.0
33 -11.566 0.0
36 -11.566 0.0
42 -11.566 0.0
48 -11.566 0.0
60 -11.566 0.0
72 -11.566 0.0
84 -11.566 0.0
96 -11.566 0.0
108 -11.566 0.0
120 -11.566 0.0
0 -12.566 0.0
0.985 -12.566 0.0
1.97 -12.566 0.0
2.955 -12.566 0.0
3.94 -12.566 0.0
4.925 -12.566 0.0
5.91 -12.566 0.0
6.955 -12.566 0.0
8 -12.566 0.0
9 -12.566 0.0
10 -12.566 0.0
11 -12.566 0.0
12 -12.566 0.0
13 -12.566 0.0
14 -12.566 0.0
15 -12.566 0.0
16 -12.566 0.0
17 -12.566 0.0
18 -12.566 0.0
19 -12.566 0.0
20 -12.566 0.0
21 -12.566 0.0
22 -12.566 0.0
23 -12.566 0.0
24 -12.566 0.0
25.5 -12.566 0.0
27 -12.566 0.0
28.5 -12.566 0.0
30 -12.566 0.0
31.5 -12.566 0.0
33 -12.566 0.0
34.5 -12.566 0.0
36 -12.566 0.0
39 -12.566 0.0
42 -12.566 0.0
45 -12.566 0.0
48 -12.566 0.0
54 -12.566 0.0
60 -12.566 0.0
66 -12.566 0.0
72 -12.566 0.0
78 -12.566 0.0
84 -12.566 0.0
90 -12.566 0.0
96 -12.566 0.0
102 -12.566 0.0
108 -12.566 0.0
114 -12.566 0.0
120 -12.566 0.0
0 -13.566 0.0
1.97 -13.566 0.0
3.94 -13.566 0.0
5.91 -13.566 0.0
8 -13.566 0.0
10 -13.566 0.0
12 -13.566 0.0
14 -13.566 0.0
16 -13.566 0.0
18 -13.566 0.0
20 -13.566 0.0
22 -13.566 0.0
24 -13.566 0.0
27 -13.566 0.0
30 -13.566 0.0
33 -13.566 0.0
36 -13.566 0.0
42 -13.566 0.0
48 -13.566 0.0
60 -13.566 0.0
72 -13.566 0.0
84 -13.566 0.0
96 -13.566 0.0
108 -13.566 0.0
120 -13.566 0.0
0 -14.566 0.0
0.985 -14.566 0.0
1.97 -14.566 0.0
2.955 -14.566 0.0
3.94 -14.566 0.0
4.925 -14.566 0.0
5.91 -14.566 0.0
6.955 -14.566 0.0
8 -14.566 0.0
9 -14.566 0.0
10 -14.566 0.0
11 -14.566 0.0
12 -14.566 0.0
13 -14.566 0.0
14 -14.566 0.0
15 -14.566 0.0
16 -14.566 0.0
17 -14.566 0.0
18 -14.566 0.0
19 -14.566 0.0
20 -14.566 0.0
21 -14.566 0.0
22 -14.566 0.0
23 -14.566 0.0
24 -14.566 0.0
25.5 -14.566 0.0
27 -14.566 0.0
28.5 -14.566 0.0
30 -14.566 0.0
31.5 -14.566 0.0
33 -14.566 0.0
34.5 -14.566 0.0
36 -14.566 0.0
39 -14.566 0.0
42 -14.566 0.0
45 -14.566 0.0
48 -14.566 0.0
54 -14.566 0.0
60 -14.566 0.0
66 -14.566 0.0
72 -14.566 0.0
78 -14.566 0.0
84 -14.566 0.0
90 -14.566 0.0
96 -14.566 0.0
102 -14.566 0.0
108 -14.566 0.0
114 -14.566 0.0
120 -14.566 0.0
0 -15.566 0.0
1.97 -15.566 0.0
3.94 -15.566 0.0
5.91 -15.566 0.0
8 -15.566 0.0
10 -15.566 0.0
12 -15.566 0.0
14 -15.566 0.0
16 -15.566 0.0
18 -15.566 0.0
20 -15.566 0.0
22 -15.566 0.0
24 -15.566 0.0
27 -15.566 0.0
30 -15.566 0.0
33 -15.566 0.0
36 -15.566 0.0
42 -15.566 0.0
48 -15.566 0.0
60 -15.566 0.0
72 -15.566 0.0
84 -15.566 0.0
96 -15.566 0.0
108 -15.566 0.0
120 -15.566 0.0
0 -16.566 0.0
0.985 -16.566 0.0
1.97 -16.566 0.0
2.955 -16.566 0.0
3.94 -16.566 0.0
4.925 -16.566 0.0
5.91 -16.566 0.0
6.955 -16.566 0.0
8 -16.566 0.0
9 -16.566 0.0
10 -16.566 0.0
11 -16.566 0.0
12 -16.566 0.0
13 -16.566 0.0
14 -16.566 0.0
15 -16.566 0.0
16 -16.566 0.0
17 -16.566 0.0
18 -16.566 0.0
19 -16.566 0.0
20 -16.566 0.0
21 -16.566 0.0
22 -16.566 0.0
23 -16.566 0.0
24 -16.566 0.0
25.5 -16.566 0.0
27 -16.566 0.0
28.5 -16.566 0.0
30 -16.566 0.0
31.5 -16.566 0.0
33 -16.566 0.0
34.5 -16.566 0.0
36 -16.566 0.0
39 -16.566 0.0
42 -16.566 0.0
45 -16.566 0.0
48 -16.566 0.0
54 -16.566 0.0
60 -16.566 0.0
66 -16.566 0.0
72 -16.566 0.0
78 -16.566 0.0
84 -16.566 0.0
90 -16.566 0.0
96 -16.566 0.0
102 -16.566 0.0
108 -16.566 0.0
114 -16.566 0.0
120 -16.566 0.0
0 -17.566 0.0
1.97 -17.566 0.0
3.94 -17.566 0.0
5.91 -17.566 0.0
8 -17.566 0.0
10 -17.566 0.0
12 -17.566 0.0
14 -17.566 0.0
16 -17.566 0.0
18 -17.566 0.0
20 -17.566 0.0
22 -17.566 0.0
24 -17.566 0.0
27 -17.566 0.0
30 -17.566 0.0
33 -17.566 0.0
36 -17.566 0.0
42 -17.566 0.0
48 -17.566 0.0
60 -17.566 0.0
72 -17.566 0.0
84 -17.566 0.0
96 -17.566 0.0
108 -17.566 0.0
120 -17.566 0.0
0 -18.566 0.0
0.985 -18.566 0.0
1.97 -18.566 0.0
2.955 -18.566 0.0
3.94 -18.566 0.0
4.925 -18.566 0.0
5.91 -18.566 0.0
6.955 -18.566 0.0
8 -18.566 0.0
9 -18.566 0.0
10 -18.566 0.0
11 -18.566 0.0
12 -18.566 0.0
13 -18.566 0.0
14 -18.566 0.0
15 -18.566 0.0
16 -18.566 0.0
17 -18.566 0.0
18 -18.566 0.0
19 -18.566 0.0
20 -18.566 0.0
21 -18.566 0.0
22 -18.566 0.0
23 -18.566 0.0
24 -18.566 0.0
25.5 -18.566 0.0
27 -18.566 0.0
28.5 -18.566 0.0
30 -18.566 0.0
31.5 -18.566 0.0
33 -18.566 0.0
34.5 -18.566 0.0
36 -18.566 0.0
39 -18.566 0.0
42 -18.566 0.0
45 -18.566 0.0
48 -18.566 0.0
54 -18.566 0.0
60 -18.566 0.0
66 -18.566 0.0
72 -18.566 0.0
78 -18.566 0.0
84 -18.566 0.0
90 -18.566 0.0
96 -18.566 0.0
102 -18.566 0.0
108 -18.566 0.0
114 -18.566 0.0
120 -18.566 0.0
0 -19.566 0.0
1.97 -19.566 0.0
3.94 -19.566 0.0
5.91 -19.566 0.0
8 -19.566 0.0
10 -19.566 0.0
12 -19.566 0.0
14 -19.566 0.0
16 -19.566 0.0
18 -19.566 0.0
20 -19.566 0.0
22 -19.566 0.0
24 -19.566 0.0
27 -19.566 0.0
30 -19.566 0.0
33 -19.566 0.0
36 -19.566 0.0
42 -19.566 0.0
48 -19.566 0.0
60 -19.566 0.0
72 -19.566 0.0
84 -19.566 0.0
96 -19.566 0.0
108 -19.566 0.0
120 -19.566 0.0
0 -20.566 0.0
0.985 -20.566 0.0
1.97 -20.566 0.0
2.955 -20.566 0.0
3.94 -20.566 0.0
4.925 -20.566 0.0
5.91 -20.566 0.0
6.955 -20.566 0.0
8 -20.566 0.0
9 -20.566 0.0
10 -20.566 0.0
11 -20.566 0.0
12 -20.566 0.0
13 -20.566 0.0
14 -20.566 0.0
15 -20.566 0.0
16 -20.566 0.0
17 -20.566 0.0
18 -20.566 0.0
19 -20.566 0.0
20 -20.566 0.0
21 -20.566 0.0
22 -20.566 0.0
23 -20.566 0.0
24 -20.566 0.0
25.5 -20.566 0.0
27 -20.566 0.0
28.5 -20.566 0.0
30 -20.566 0.0
31.5 -20.566 0.0
33 -20.566 0.0
34.5 -20.566 0.0
36 -20.566 0.0
39 -20.566 0.0
42 -20.566 0.0
45 -20.566 0.0
48 -20.566 0.0
54 -20.566 0.0
60 -20.566 0.0
66 -20.566 0.0
72 -20.566 0.0
78 -20.566 0.0
84 -20.566 0.0
90 -20.566 0.0
96 -20.566 0.0
102 -20.566 0.0
108 -20.566 0.0
114 -20.566 0.0
120 -20.566 0.0
0 -21.566 0.0
1.97 -21.566 0.0
3.94 -21.566 0.0
5.91 -21.566 0.0
8 -21.566 0.0
10 -21.566 0.0
12 -21.566 0.0
14 -21.566 0.0
16 -21.566 0.0
18 -21.566 0.0
20 -21.566 0.0
22 -21.566 0.0
24 -21.566 0.0
27 -21.566 0.0
30 -21.566 0.0
33 -21.566 0.0
36 -21.566 0.0
42 -21.566 0.0
48 -21.566 0.0
60 -21.566 0.0
72 -21.566 0.0
84 -21.566 0.0
96 -21.566 0.0
108 -21.566 0.0
120 -21.566 0.0
0 -22.566 0.0
0.985 -22.566 0.0
1.97 -22.566 0.0
2.955 -22.566 0.0
3.94 -22.566 0.0
4.925 -22.566 0.0
5.91 -22.566 0.0
6.955 -22.566 0.0
8 -22.566 0.0
9 -22.566 0.0
10 -22.566 0.0
11 -22.566 0.0
12 -22.566 0.0
13 -22.566 0.0
14 -22.566 0.0
15 -22.566 0.0
16 -22.566 0.0
17 -22.566 0.0
18 -22.566 0.0
19 -22.566 0.0
20 -22.566 0.0
21 -22.566 0.0
22 -22.566 0.0
23 -22.566 0.0
24 -22.566 0.0
25.5 -22.566 0.0
27 -22.566 0.0
28.5 -22.566 0.0
30 -22.566 0.0
31.5 -22.566 0.0
33 -22.566 0.0
34.5 -22.566 0.0
36 -22.566 0.0
39 -22.566 0.0
42 -22.566 0.0
45 -22.566 0.0
48 -22.566 0.0
54 -22.566 0.0
60 -22.566 0.0
66 -22.566 0.0
72 -22.566 0.0
78 -22.566 0.0
84 -22.566 0.0
90 -22.566 0.0
96 -22.566 0.0
102 -22.566 0.0
108 -22.566 0.0
114 -22.566 0.0
120 -22.566 0.0
0 -24.066 0.0
1.97 -24.066 0.0
3.94 -24.066 0.0
5.91 -24.066 0.0
8 -24.066 0.0
10 -24.066 0.0
12 -24.066 0.0
14 -24.066 0.0
16 -24.066 0.0
18 -24.066 0.0
20 -24.066 0.0
22 -24.066 0.0
24 -24.066 0.0
27 -24.066 0.0
30 -24.066 0.0
33 -24.066 0.0
36 -24.066 0.0
42 -24.066 0.0
48 -24.066 0.0
60 -24.066 0.0
72 -24.066 0.0
84 -24.066 0.0
96 -24.066 0.0
108 -24.066 0.0
120 -24.066 0.0
0 -25.566 0.0
0.985 -25.566 0.0
1.97 -25.566 0.0
2.955 -25.566 0.0
3.94 -25.566 0.0
4.925 -25.566 0.0
5.91 -25.566 0.0
6.955 -25.566 0.0
8 -25.566 0.0
9 -25.566 0.0
10 -25.566 0.0
11 -25.566 0.0
12 -25.566 0.0
13 -25.566 0.0
14 -25.566 0.0
15 -25.566 0.0
16 -25.566 0.0
17 -25.566 0.0
18 -25.566 0.0
19 -25.566 0.0
20 -25.566 0.0
21 -25.566 0.0
22 -25.566 0.0
23 -25.566 0.0
24 -25.566 0.0
25.5 -25.566 0.0
27 -25.566 0.0
28.5 -25.566 0.0
30 -25.566 0.0
31.5 -25.566 0.0
33 -25.566 0.0
34.5 -25.566 0.0
36 -25.566 0.0
39 -25.566 0.0
42 -25.566 0.0
45 -25.566 0.0
48 -25.566 0.0
54 -25.566 0.0
60 -25.566 0.0
66 -25.566 0.0
72 -25.566 0.0
78 -25.566 0.0
84 -25.566 0.0
90 -25.566 0.0
96 -25.566 0.0
102 -25.566 0.0
108 -25.566 0.0
114 -25.566 0.0
120 -25.566 0.0
0 -27.066 0.0
1.97 -27.066 0.0
3.94 -27.066 0.0
5.91 -27.066 0.0
8 -27.066 0.0
10 -27.066 0.0
12 -27.066 0.0
14 -27.066 0.0
16 -27.066 0.0
18 -27.066 0.0
20 -27.066 0.0
22 -27.066 0.0
24 -27.066 0.0
27 -27.066 0.0
30 -27.066 0.0
33 -27.066 0.0
36 -27.066 0.0
42 -27.066 0.0
48 -27.066 0.0
60 -27.066 0.0
72 -27.066 0.0
84 -27.066 0.0
96 -27.066 0.0
108 -27.066 0.0
120 -27.066 0.0
0 -28.566 0.0
0.985 -28.566 0.0
1.97 -28.566 0.0
2.955 -28.566 0.0
3.94 -28.566 0.0
4.925 -28.566 0.0
5.91 -28.566 0.0
6.955 -28.566 0.0
8 -28.566 0.0
9 -28.566 0.0
10 -28.566 0.0
11 -28.566 0.0
12 -28.566 0.0
13 -28.566 0.0
14 -28.566 0.0
15 -28.566 0.0
16 -28.566 0.0
17 -28.566 0.0
18 -28.566 0.0
19 -28.566 0.0
20 -28.566 0.0
21 -28.566 0.0
22 -28.566 0.0
23 -28.566 0.0
24 -28.566 0.0
25.5 -28.566 0.0
27 -28.566 0.0
28.5 -28.566 0.0
30 -28.566 0.0
31.5 -28.566 0.0
33 -28.566 0.0
34.5 -28.566 0.0
36 -28.566 0.0
39 -28.566 0.0
42 -28.566 0.0
45 -28.566 0.0
48 -28.566 0.0
54 -28.566 0.0
60 -28.566 0.0
66 -28.566 0.0
72 -28.566 0.0
78 -28.566 0.0
84 -28.566 0.0
90 -28.566 0.0
96 -28.566 0.0
102 -28.566 0.0
108 -28.566 0.0
114 -28.566 0.0
120 -28.566 0.0
0 -30.066 0.0
1.97 -30.066 0.0
3.94 -30.066 0.0
5.91 -30.066 0.0
8 -30.066 0.0
10 -30.066 0.0
12 -30.066 0.0
14 -30.066 0.0
16 -30.066 0.0
18 -30.066 0.0
20 -30.066 0.0
22 -30.066 0.0
24 -30.066 0.0
27 -30.066 0.0
30 -30.066 0.0
33 -30.066 0.0
36 -30.066 0.0
42 -30.066 0.0
48 -30.066 0.0
60 -30.066 0.0
72 -30.066 0.0
84 -30.066 0.0
96 -30.066 0.0
108 -30.066 0.0
120 -30.066 0.0
0 -31.566 0.0
0.985 -31.566 0.0
1.97 -31.566 0.0
2.955 -31.566 0.0
3.94 -31.566 0.0
4.925 -31.566 0.0
5.91 -31.566 0.0
6.955 -31.566 0.0
8 -31.566 0.0
9 -31.566 0.0
10 -31.566 0.0
11 -31.566 0.0
12 -31.566 0.0
13 -31.566 0.0
14 -31.566 0.0
15 -31.566 0.0
16 -31.566 0.0
17 -31.566 0.0
18 -31.566 0.0
19 -31.566 0.0
20 -31.566 0.0
21 -31.566 0.0
22 -31.566 0.0
23 -31.566 0.0
24 -31.566 0.0
25.5 -31.566 0.0
27 -31.566 0.0
28.5 -31.566 0.0
30 -31.566 0.0
31.5 -31.566 0.0
33 -31.566 0.0
34.5 -31.566 0.0
36 -31.566 0.0
39 -31.566 0.0
42 -31.566 0.0
45 -31.566 0.0
48 -31.566 0.0
54 -31.566 0.0
60 -31.566 0.0
66 -31.566 0.0
72 -31.566 0.0
78 -31.566 0.0
84 -31.566 0.0
90 -31.566 0.0
96 -31.566 0.0
102 -31.566 0.0
108 -31.566 0.0
114 -31.566 0.0
120 -31.566 0.0
0 -33.566 0.0
1.97 -33.566 0.0
3.94 -33.566 0.0
5.91 -33.566 0.0
8 -33.566 0.0
10 -33.566 0.0
12 -33.566 0.0
14 -33.566 0.0
16 -33.566 0.0
18 -33.566 0.0
20 -33.566 0.0
22 -33.566 0.0
24 -33.566 0.0
27 -33.566 0.0
30 -33.566 0.0
33 -33.566 0.0
36 -33.566 0.0
42 -33.566 0.0
48 -33.566 0.0
60 -33.566 0.0
72 -33.566 0.0
84 -33.566 0.0
96 -33.566 0.0
108 -33.566 0.0
120 -33.566 0.0
0 -35.566 0.0
0.985 -35.566 0.0
1.97 -35.566 0.0
2.955 -35.566 0.0
3.94 -35.566 0.0
4.925 -35.566 0.0
5.91 -35.566 0.0
6.955 -35.566 0.0
8 -35.566 0.0
9 -35.566 0.0
10 -35.566 0.0
11 -35.566 0.0
12 -35.566 0.0
13 -35.566 0.0
14 -35.566 0.0
15 -35.566 0.0
16 -35.566 0.0
17 -35.566 0.0
18 -35.566 0.0
19 -35.566 0.0
20 -35.566 0.0
21 -35.566 0.0
22 -35.566 0.0
23 -35.566 0.0
24 -35.566 0.0
25.5 -35.566 0.0
27 -35.566 0.0
28.5 -35.566 0.0
30 -35.566 0.0
31.5 -35.566 0.0
33 -35.566 0.0
34.5 -35.566 0.0
36 -35.566 0.0
39 -35.566 0.0
42 -35.566 0.0
45 -35.566 0.0
48 -35.566 0.0
54 -35.566 0.0
60 -35.566 0.0
66 -35.566 0.0
72 -35.566 0.0
78 -35.566 0.0
84 -35.566 0.0
90 -35.566 0.0
96 -35.566 0.0
102 -35.566 0.0
108 -35.566 0.0
114 -35.566 0.0
120 -35.566 0.0
0 -37.566 0.0
1.97 -37.566 0.0
3.94 -37.566 0.0
5.91 -37.566 0.0
8 -37.566 0.0
10 -37.566 0.0
12 -37.566 0.0
14 -37.566 0.0
16 -37.566 0.0
18 -37.566 0.0
20 -37.566 0.0
22 -37.566 0.0
24 -37.566 0.0
27 -37.566 0.0
30 -37.566 0.0
33 -37.566 0.0
36 -37.566 0.0
42 -37.566 0.0
48 -37.566 0.0
60 -37.566 0.0
72 -37.566 0.0
84 -37.566 0.0
96 -37.566 0.0
108 -37.566 0.0
120 -37.566 0.0
0 -39.566 0.0
0.985 -39.566 0.0
1.97 -39.566 0.0
2.955 -39.566 0.0
3.94 -39.566 0.0
4.925 -39.566 0.0
5.91 -39.566 0.0
6.955 -39.566 0.0
8 -39.566 0.0
9 -39.566 0.0
10 -39.566 0.0
11 -39.566 0.0
12 -39.566 0.0
13 -39.566 0.0
14 -39.566 0.0
15 -39.566 0.0
16 -39.566 0.0
17 -39.566 0.0
18 -39.566 0.0
19 -39.566 0.0
20 -39.566 0.0
21 -39.566 0.0
22 -39.566 0.0
23 -39.566 0.0
24 -39.566 0.0
25.5 -39.566 0.0
27 -39.566 0.0
28.5 -39.566 0.0
30 -39.566 0.0
31.5 -39.566 0.0
33 -39.566 0.0
34.5 -39.566 0.0
36 -39.566 0.0
39 -39.566 0.0
42 -39.566 0.0
45 -39.566 0.0
48 -39.566 0.0
54 -39.566 0.0
60 -39.566 0.0
66 -39.566 0.0
72 -39.566 0.0
78 -39.566 0.0
84 -39.566 0.0
90 -39.566 0.0
96 -39.566 0.0
102 -39.566 0.0
108 -39.566 0.0
114 -39.566 0.0
120 -39.566 0.0
0 -43.566 0.0
1.97 -43.566 0.0
3.94 -43.566 0.0
5.91 -43.566 0.0
8 -43.566 0.0
10 -43.566 0.0
12 -43.566 0.0
14 -43.566 0.0
16 -43.566 0.0
18 -43.566 0.0
20 -43.566 0.0
22 -43.566 0.0
24 -43.566 0.0
27 -43.566 0.0
30 -43.566 0.0
33 -43.566 0.0
36 -43.566 0.0
42 -43.566 0.0
48 -43.566 0.0
60 -43.566 0.0
72 -43.566 0.0
84 -43.566 0.0
96 -43.566 0.0
108 -43.566 0.0
120 -43.566 0.0
0 -47.566 0.0
0.985 -47.566 0.0
1.97 -47.566 0.0
2.955 -47.566 0.0
3.94 -47.566 0.0
4.925 -47.566 0.0
5.91 -47.566 0.0
6.955 -47.566 0.0
8 -47.566 0.0
9 -47.566 0.0
10 -47.566 0.0
11 -47.566 0.0
12 -47.566 0.0
13 -47.566 0.0
14 -47.566 0.0
15 -47.566 0.0
16 -47.566 0.0
17 -47.566 0.0
18 -47.566 0.0
19 -47.566 0.0
20 -47.566 0.0
21 -47.566 0.0
22 -47.566 0.0
23 -47.566 0.0
24 -47.566 0.0
25.5 -47.566 0.0
27 -47.566 0.0
28.5 -47.566 0.0
30 -47.566 0.0
31.5 -47.566 0.0
33 -47.566 0.0
34.5 -47.566 0.0
36 -47.566 0.0
39 -47.566 0.0
42 -47.566 0.0
45 -47.566 0.0
48 -47.566 0.0
54 -47.566 0.0
60 -47.566 0.0
66 -47.566 0.0
72 -47.566 0.0
78 -47.566 0.0
84 -47.566 0.0
90 -47.566 0.0
96 -47.566 0.0
102 -47.566 0.0
108 -47.566 0.0
114 -47.566 0.0
120 -47.566 0.0
0 -53.566 0.0
1.97 -53.566 0.0
3.94 -53.566 0.0
5.91 -53.566 0.0
8 -53.566 0.0
10 -53.566 0.0
12 -53.566 0.0
14 -53.566 0.0
16 -53.566 0.0
18 -53.566 0.0
20 -53.566 0.0
22 -53.566 0.0
24 -53.566 0.0
27 -53.566 0.0
30 -53.566 0.0
33 -53.566 0.0
36 -53.566 0.0
42 -53.566 0.0
48 -53.566 0.0
60 -53.566 0.0
72 -53.566 0.0
84 -53.566 0.0
96 -53.566 0.0
108 -53.566 0.0
120 -53.566 0.0
0 -59.566 0.0
0.985 -59.566 0.0
1.97 -59.566 0.0
2.955 -59.566 0.0
3.94 -59.566 0.0
4.925 -59.566 0.0
5.91 -59.566 0.0
6.955 -59.566 0.0
8 -59.566 0.0
9 -59.566 0.0
10 -59.566 0.0
11 -59.566 0.0
12 -59.566 0.0
13 -59.566 0.0
14 -59.566 0.0
15 -59.566 0.0
16 -59.566 0.0
17 -59.566 0.0
18 -59.566 0.0
19 -59.566 0.0
20 -59.566 0.0
21 -59.566 0.0
22 -59.566 0.0
23 -59.566 0.0
24 -59.566 0.0
25.5 -59.566 0.0
27 -59.566 0.0
28.5 -59.566 0.0
30 -59.566 0.0
31.5 -59.566 0.0
33 -59.566 0.0
34.5 -59.566 0.0
36 -59.566 0.0
39 -59.566 0.0
42 -59.566 0.0
45 -59.566 0.0
48 -59.566 0.0
54 -59.566 0.0
60 -59.566 0.0
66 -59.566 0.0
72 -59.566 0.0
78 -59.566 0.0
84 -59.566 0.0
90 -59.566 0.0
96 -59.566 0.0
102 -59.566 0.0
108 -59.566 0.0
114 -59.566 0.0
120 -59.566 0.0
0 -68.566 0.0
1.97 -68.566 0.0
3.94 -68.566 0.0
5.91 -68.566 0.0
8 -68.566 0.0
10 -68.566 0.0
12 -68.566 0.0
14 -68.566 0.0
16 -68.566 0.0
18 -68.566 0.0
20 -68.566 0.0
22 -68.566 0.0
24 -68.566 0.0
27 -68.566 0.0
30 -68.566 0.0
33 -68.566 0.0
36 -68.566 0.0
42 -68.566 0.0
48 -68.566 0.0
60 -68.566 0.0
72 -68.566 0.0
84 -68.566 0.0
96 -68.566 0.0
108 -68.566 0.0
120 -68.566 0.0
0 -77.566 0.0
0.985 -77.566 0.0
1.97 -77.566 0.0
2.955 -77.566 0.0
3.94 -77.566 0.0
4.925 -77.566 0.0
5.91 -77.566 0.0
6.955 -77.566 0.0
8 -77.566 0.0
9 -77.566 0.0
10 -77.566 0.0
11 -77.566 0.0
12 -77.566 0.0
13 -77.566 0.0
14 -77.566 0.0
15 -77.566 0.0
16 -77.566 0.0
17 -77.566 0.0
18 -77.566 0.0
19 -77.566 0.0
20 -77.566 0.0
21 -77.566 0.0
22 -77.566 0.0
23 -77.566 0.0
24 -77.566 0.0
25.5 -77.566 0.0
27 -77.566 0.0
28.5 -77.566 0.0
30 -77.566 0.0
31.5 -77.566 0.0
33 -77.566 0.0
34.5 -77.566 0.0
36 -77.566 0.0
39 -77.566 0.0
42 -77.566 0.0
45 -77.566 0.0
48 -77.566 0.0
54 -77.566 0.0
60 -77.566 0.0
66 -77.566 0.0
72 -77.566 0.0
78 -77.566 0.0
84 -77.566 0.0
90 -77.566 0.0
96 -77.566 0.0
102 -77.566 0.0
108 -77.566 0.0
114 -77.566 0.0
120 -77.566 0.0
0 -89.566 0.0
1.97 -89.566 0.0
3.94 -89.566 0.0
5.91 -89.566 0.0
8 -89.566 0.0
10 -89.566 0.0
12 -89.566 0.0
14 -89.566 0.0
16 -89.566 0.0
18 -89.566 0.0
20 -89.566 0.0
22 -89.566 0.0
24 -89.566 0.0
27 -89.566 0.0
30 -89.566 0.0
33 -89.566 0.0
36 -89.566 0.0
42 -89.566 0.0
48 -89.566 0.0
60 -89.566 0.0
72 -89.566 0.0
84 -89.566 0.0
96 -89.566 0.0
108 -89.566 0.0
120 -89.566 0.0
0 -101.566 0.0
0.985 -101.566 0.0
1.97 -101.566 0.0
2.955 -101.566 0.0
3.94 -101.566 0.0
4.925 -101.566 0.0
5.91 -101.566 0.0
6.955 -101.566 0.0
8 -101.566 0.0
9 -101.566 0.0
10 -101.566 0.0
11 -101.566 0.0
12 -101.566 0.0
13 -101.566 0.0
14 -101.566 0.0
15 -101.566 0.0
16 -101.566 0.0
17 -101.566 0.0
18 -101.566 0.0
19 -101.566 0.0
20 -101.566 0.0
21 -101.566 0.0
22 -101.566 0.0
23 -101.566 0.0
24 -101.566 0.0
25.5 -101.566 0.0
27 -101.566 0.0
28.5 -101.566 0.0
30 -101.566 0.0
31.5 -101.566 0.0
33 -101.566 0.0
34.5 -101.566 0.0
36 -101.566 0.0
39 -101.566 0.0
42 -101.566 0.0
45 -101.566 0.0
48 -101.566 0.0
54 -101.566 0.0
60 -101.566 0.0
66 -101.566 0.0
72 -101.566 0.0
78 -101.566 0.0
84 -101.566 0.0
90 -101.566 0.0
96 -101.566 0.0
102 -101.566 0.0
108 -101.566 0.0
114 -101.566 0.0
120 -101.566 0.0
0 -116.566 0.0
1.97 -116.566 0.0
3.94 -116.566 0.0
5.91 -116.566 0.0
8 -116.566 0.0
10 -116.566 0.0
12 -116.566 0.0
14 -116.566 0.0
16 -116.566 0.0
18 -116.566 0.0
20 -116.566 0.0
22 -116.566 0.0
24 -116.566 0.0
27 -116.566 0.0
30 -116.566 0.0
33 -116.566 0.0
36 -116.566 0.0
42 -116.566 0.0
48 -116.566 0.0
60 -116.566 0.0
72 -116.566 0.0
84 -116.566 0.0
96 -116.566 0.0
108 -116.566 0.0
120 -116.566 0.0
0 -131.566 0.0
0.985 -131.566 0.0
1.97 -131.566 0.0
2.955 -131.566 0.0
3.94 -131.566 0.0
4.925 -131.566 0.0
5.91 -131.566 0.0
6.955 -131.566 0.0
8 -131.566 0.0
9 -131.566 0.0
10 -131.566 0.0
11 -131.566 0.0
12 -131.566 0.0
13 -131.566 0.0
14 -131.566 0.0
15 -131.566 0.0
16 -131.566 0.0
17 -131.566 0.0
18 -131.566 0.0
19 -131.566 0.0
20 -131.566 0.0
21 -131.566 0.0
22 -131.566 0.0
23 -131.566 0.0
24 -131.566 0.0
25.5 -131.566 0.0
27 -131.566 0.0
28.5 -131.566 0.0
30 -131.566 0.0
31.5 -131.566 0.0
33 -131.566 0.0
34.5 -131.566 0.0
36 -131.566 0.0
39 -131.566 0.0
42 -131.566 0.0
45 -131.566 0.0
48 -131.566 0.0
54 -131.566 0.0
60 -131.566 0.0
66 -131.566 0.0
72 -131.566 0.0
78 -131.566 0.0
84 -131.566 0.0
90 -131.566 0.0
96 -131.566 0.0
102 -131.566 0.0
108 -131.566 0.0
114 -131.566 0.0
120 -131.566 0.0
0 -147.566 0.0
1.97 -147.566 0.0
3.94 -147.566 0.0
5.91 -147.566 0.0
8 -147.566 0.0
10 -147.566 0.0
12 -147.566 0.0
14 -147.566 0.0
16 -147.566 0.0
18 -147.566 0.0
20 -147.566 0.0
22 -147.566 0.0
24 -147.566 0.0
27 -147.566 0.0
30 -147.566 0.0
33 -147.566 0.0
36 -147.566 0.0
42 -147.566 0.0
48 -147.566 0.0
60 -147.566 0.0
72 -147.566 0.0
84 -147.566 0.0
96 -147.566 0.0
108 -147.566 0.0
120 -147.566 0.0
0 -163.566 0.0
0.985 -163.566 0.0
1.97 -163.566 0.0
2.955 -163.566 0.0
3.94 -163.566 0.0
4.925 -163.566 0.0
5.91 -163.566 0.0
6.955 -163.566 0.0
8 -163.566 0.0
9 -163.566 0.0
10 -163.566 0.0
11 -163.566 0.0
12 -163.566 0.0
13 -163.566 0.0
14 -163.566 0.0
15 -163.566 0.0
16 -163.566 0.0
17 -163.566 0.0
18 -163.566 0.0
19 -163.566 0.0
20 -163.566 0.0
21 -163.566 0.0
22 -163.566 0.0
23 -163.566 0.0
24 -163.566 0.0
25.5 -163.566 0.0
27 -163.566 0.0
28.5 -163.566 0.0
30 -163.566 0.0
31.5 -163.566 0.0
33 -163.566 0.0
34.5 -163.566 0.0
36 -163.566 0.0
39 -163.566 0.0
42 -163.566 0.0
45 -163.566 0.0
48 -163.566 0.0
54 -163.566 0.0
60 -163.566 0.0
66 -163.566 0.0
72 -163.566 0.0
78 -163.566 0.0
84 -163.566 0.0
90 -163.566 0.0
96 -163.566 0.0
102 -163.566 0.0
108 -163.566 0.0
114 -163.566 0.0
120 -163.566 0.0
0 -181.566 0.0
1.97 -181.566 0.0
3.94 -181.566 0.0
5.91 -181.566 0.0
8 -181.566 0.0
10 -181.566 0.0
12 -181.566 0.0
14 -181.566 0.0
16 -181.566 0.0
18 -181.566 0.0
20 -181.566 0.0
22 -181.566 0.0
24 -181.566 0.0
27 -181.566 0.0
30 -181.566 0.0
33 -181.566 0.0
36 -181.566 0.0
42 -181.566 0.0
48 -181.566 0.0
60 -181.566 0.0
72 -181.566 0.0
84 -181.566 0.0
96 -181.566 0.0
108 -181.566 0.0
120 -181.566 0.0
0 -199.566 0.0
0.985 -199.566 0.0
1.97 -199.566 0.0
2.955 -199.566 0.0
3.94 -199.566 0.0
4.925 -199.566 0.0
5.91 -199.566 0.0
6.955 -199.566 0.0
8 -199.566 0.0
9 -199.566 0.0
10 -199.566 0.0
11 -199.566 0.0
12 -199.566 0.0
13 -199.566 0.0
14 -199.566 0.0
15 -199.566 0.0
16 -199.566 0.0
17 -199.566 0.0
18 -199.566 0.0
19 -199.566 0.0
20 -199.566 0.0
21 -199.566 0.0
22 -199.566 0.0
23 -199.566 0.0
24 -199.566 0.0
25.5 -199.566 0.0
27 -199.566 0.0
28.5 -199.566 0.0
30 -199.566 0.0
31.5 -199.566 0.0
33 -199.566 0.0
34.5 -199.566 0.0
36 -199.566 0.0
39 -199.566 0.0
42 -199.566 0.0
45 -199.566 0.0
48 -199.566 0.0
54 -199.566 0.0
60 -199.566 0.0
66 -199.566 0.0
72 -199.566 0.0
78 -199.566 0.0
84 -199.566 0.0
90 -199.566 0.0
96 -199.566 0.0
102 -199.566 0.0
108 -199.566 0.0
114 -199.566 0.0
120 -199.566 0.0
0 -218.566 0.0
1.97 -218.566 0.0
3.94 -218.566 0.0
5.91 -218.566 0.0
8 -218.566 0.0
10 -218.566 0.0
12 -218.566 0.0
14 -218.566 0.0
16 -218.566 0.0
18 -218.566 0.0
20 -218.566 0.0
22 -218.566 0.0
24 -218.566 0.0
27 -218.566 0.0
30 -218.566 0.0
33 -218.566 0.0
36 -218.566 0.0
42 -218.566 0.0
48 -218.566 0.0
60 -218.566 0.0
72 -218.566 0.0
84 -218.566 0.0
96 -218.566 0.0
108 -218.566 0.0
120 -218.566 0.0
0 -237.566 0.0
0.985 -237.566 0.0
1.97 -237.566 0.0
2.955 -237.566 0.0
3.94 -237.566 0.0
4.925 -237.566 0.0
5.91 -237.566 0.0
6.955 -237.566 0.0
8 -237.566 0.0
9 -237.566 0.0
10 -237.566 0.0
11 -237.566 0.0
12 -237.566 0.0
13 -237.566 0.0
14 -237.566 0.0
15 -237.566 0.0
16 -237.566 0.0
17 -237.566 0.0
18 -237.566 0.0
19 -237.566 0.0
20 -237.566 0.0
21 -237.566 0.0
22 -237.566 0.0
23 -237.566 0.0
24 -237.566 0.0
25.5 -237.566 0.0
27 -237.566 0.0
28.5 -237.566 0.0
30 -237.566 0.0
31.5 -237.566 0.0
33 -237.566 0.0
34.5 -237.566 0.0
36 -237.566 0.0
39 -237.566 0.0
42 -237.566 0.0
45 -237.566 0.0
48 -237.566 0.0
54 -237.566 0.0
60 -237.566 0.0
66 -237.566 0.0
72 -237.566 0.0
78 -237.566 0.0
84 -237.566 0.0
90 -237.566 0.0
96 -237.566 0.0
102 -237.566 0.0
108 -237.566 0.0
114 -237.566 0.0
120 -237.566 0.0
0 -257.566 0.0
1.97 -257.566 0.0
3.94 -257.566 0.0
5.91 -257.566 0.0
8 -257.566 0.0
10 -257.566 0.0
12 -257.566 0.0
14 -257.566 0.0
16 -257.566 0.0
18 -257.566 0.0
20 -257.566 0.0
22 -257.566 0.0
24 -257.566 0.0
27 -257.566 0.0
30 -257.566 0.0
33 -257.566 0.0
36 -257.566 0.0
42 -257.566 0.0
48 -257.566 0.0
60 -257.566 0.0
72 -257.566 0.0
84 -257.566 0.0
96 -257.566 0.0
108 -257.566 0.0
120 -257.566 0.0
0 -277.566 0.0
0.985 -277.566 0.0
1.97 -277.566 0.0
2.955 -277.566 0.0
3.94 -277.566 0.0
4.925 -277.566 0.0
5.91 -277.566 0.0
6.955 -277.566 0.0
8 -277.566 0.0
9 -277.566 0.0
10 -277.566 0.0
11 -277.566 0.0
12 -277.566 0.0
13 -277.566 0.0
14 -277.566 0.0
15 -277.566 0.0
16 -277.566 0.0
17 -277.566 0.0
18 -277.566 0.0
19 -277.566 0.0
20 -277.566 0.0
21 -277.566 0.0
22 -277.566 0.0
23 -277.566 0.0
24 -277.566 0.0
25.5 -277.566 0.0
27 -277.566 0.0
28.5 -277.566 0.0
30 -277.566 0.0
31.5 -277.566 0.0
33 -277.566 0.0
34.5 -277.566 0.0
36 -277.566 0.0
39 -277.566 0.0
42 -277.566 0.0
45 -277.566 0.0
48 -277.566 0.0
54 -277.566 0.0
60 -277.566 0.0
66 -277.566 0.0
72 -277.566 0.0
78 -277.566 0.0
84 -277.566 0.0
90 -277.566 0.0
96 -277.566 0.0
102 -277.566 0.0
108 -277.566 0.0
114 -277.566 0.0
120 -277.566 0.0
0 -299.566 0.0
1.97 -299.566 0.0
3.94 -299.566 0.0
5.91 -299.566 0.0
8 -299.566 0.0
10 -299.566 0.0
12 -299.566 0.0
14 -299.566 0.0
16 -299.566 0.0
18 -299.566 0.0
20 -299.566 0.0
22 -299.566 0.0
24 -299.566 0.0
27 -299.566 0.0
30 -299.566 0.0
33 -299.566 0.0
36 -299.566 0.0
42 -299.566 0.0
48 -299.566 0.0
60 -299.566 0.0
72 -299.566 0.0
84 -299.566 0.0
96 -299.566 0.0
108 -299.566 0.0
120 -299.566 0.0
0 -321.566 0.0
0.985 -321.566 0.0
1.97 -321.566 0.0
2.955 -321.566 0.0
3.94 -321.566 0.0
4.925 -321.566 0.0
5.91 -321.566 0.0
6.955 -321.566 0.0
8 -321.566 0.0
9 -321.566 0.0
10 -321.566 0.0
11 -321.566 0.0
12 -321.566 0.0
13 -321.566 0.0
14 -321.566 0.0
15 -321.566 0.0
16 -321.566 0.0
17 -321.566 0.0
18 -321.566 0.0
19 -321.566 0.0
20 -321.566 0.0
21 -321.566 0.0
22 -321.566 0.0
23 -321.566 0.0
24 -321.566 0.0
25.5 -321.566 0.0
27 -321.566 0.0
28.5 -321.566 0.0
30 -321.566 0.0
31.5 -321.566 0.0
33 -321.566 0.0
34.5 -321.566 0.0
36 -321.566 0.0
39 -321.566 0.0
42 -321.566 0.0
45 -321.566 0.0
48 -321.566 0.0
54 -321.566 0.0
60 -321.566 0.0
66 -321.566 0.0
72 -321.566 0.0
78 -321.566 0.0
84 -321.566 0.0
90 -321.566 0.0
96 -321.566 0.0
102 -321.566 0.0
108 -321.566 0.0
114 -321.566 0.0
120 -321.566 0.0

CELLS 744 6696
8 74 76  2  0 75 50  1 49
8 76 78  4  2 77 51  3 50
8 78 80  6  4 79 52  5 51
8 80 82  8  6 81 53  7 52
8 82 84 10  8 83 54  9 53
8 84 86 12 10 85 55 11 54
8 86 88 14 12 87 56 13 55
8 88 90 16 14 89 57 15 56
8 90 92 18 16 91 58 17 57
8 92 94 20 18 93 59 19 58
8 94 96 22 20 95 60 21 59
8 96 98 24 22 97 61 23 60
8  98 100  26  24  99  62  25  61
8 100 102  28  26 101  63  27  62
8 102 104  30  28 103  64  29  63
8 104 106  32  30 105  65  31  64
8 106 108  34  32 107  66  33  65
8 108 110  36  34 109  67  35  66
8 110 112  38  36 111  68  37  67
8 112 114  40  38 113  69  39  68
8 114 116  42  40 115  70  41  69
8 116 118  44  42 117  71  43  70
8 118 120  46  44 119  72  45  71
8 120 122  48  46 121  73  47  72
8 148 150  76  74 149 124  75 123
8 150 152  78  76 151 125  77 124
8 152 154  80  78 153 126  79 125
8 154 156  82  80 155 127  81 126
8 156 158  84  82 157 128  83 127
8 158 160  86  84 159 129  85 128
8 160 162  88  86 161 130  87 129
8 162 164  90  88 163 131  89 130
8 164 166  92  90 165 132  91 131
8 166 168  94  92 167 133  93 132
8 168 170  96  94 169 134  95 133
8 170 172  98  96 171 135  97 134
8 172 174 100  98 173 136  99 135
8 174 176 102 100 175 137 101 136
8 176 178 104 102 177 138 103 137
8 178 180 106 104 179 139 105 138
8 180 182 108 106 181 140 107 139
8 182 184 110 108 183 141 109 140
8 184 186 112 110 185 142 111 141
8 186 188 114 112 187 143 113 142
8 188 190 116 114 189 144 115 143
8 190 192 118 116 191 145 117 144
8 192 194 120 118 193 146 119 145
8 194 196 122 120 195 147 121 146
8 222 224 150 148 223 198 149 197
8 224 226 152 150 225 199 151 198
8 226 228 154 152 227 200 153 199
8 228 230 156 154 229 201 155 200
8 230 232 158 156 231 202 157 201
8 232 234 160 158 233 203 159 202
8 234 236 162 160 235 204 161 203
8 236 238 164 162 237 205 163 204
8 238 240 166 164 239 206 165 205
8 240 242 168 166 241 207 167 206
8 242 244 170 168 243 208 169 207
8 244 246 172 170 245 209 171 208
8 246 248 174 172 247 210 173 209
8 248 250 176 174 249 211 175 210
8 250 252 178 176 251 212 177 211
8 252 254 180 178 253 213 179 212
8 254 256 182 180 255 214 181 213
8 256 258 184 182 257 215 183 214
8 258 260 186 184 259 216 185 215
8 260 262 188 186 261 217 187 216
8 262 264 190 188 263 218 189 217
8 264 266 192 190 265 219 191 218
8 266 268 194 192 267 220 193 219
8 268 270 196 194 269 221 195 220
8 296 298 224 222 297 272 223 271
8 298 300 226 224 299 273 225 272
8 300 302 228 226 301 274 227 273
8 302 304 230 228 303 275 229 274
8 304 306 232 230 305 276 231 275
8 306 308 234 232 307 277 233 276
8 308 310 236 234 309 278 235 277
8 310 312 238 236 311 279 237 278
8 312 314 240 238 313 280 239 279
8 314 316 242 240 315 281 241 280
8 316 318 244 242 317 282 243 281
8 318 320 246 244 319 283 245 282
8 320 322 248 246 321 284 247 283
8 322 324 250 248 323 285 249 284
8 324 326 252 250 325 286 251 285
8 326 328 254 252 327 287 253 286
8 328 330 256 254 329 288 255 287
8 330 332 258 256 331 289 257 288
8 332 334 260 258 333 290 259 289
8 334 336 262 260 335 291 261 290
8 336 338 264 262 337 292 263 291
8 338 340 266 264 339 293 265 292
8 340 342 268 266 341 294 267 293
8 342 344 270 268 343 295 269 294
8 370 372 298 296 371 346 297 345
8 372 374 300 298 373 347 299 346
8 374 376 302 300 375 348 301 347
8 376 378 304 302 377 349 303 348
8 378 380 306 304 379 350 305 349
8 380 382 308 306 381 351 307 350
8 382 384 310 308 383 352 309 351
8 384 386 312 310 385 353 311 352
8 386 388 314 312 387 354 313 353
8 388 390 316 314 389 355 315 354
8 390 392 318 316 391 356 317 355
8 392 394 320 318 393 357 319 356
8 394 396 322 320 395 358 321 357
8 396 398 324 322 397 359 323 358
8 398 400 326 324 399 360 325 359
8 400 402 328 326 401 361 327 360
8 402 404 330 328 403 362 329 361
8 404 406 332 330 405 363 331 362
8 406 408 334 332 407 364 333 363
8 408 410 336 334 409 365 335 364
8 410 412 338 336 411 366 337 365
8 412 414 340 338 413 367 339 366
8 414 416 342 340 415 368 341 367
8 416 418 344 342 417 369 343 368
8 444 446 372 370 445 420 371 419
8 446 448 374 372 447 421 373 420
8 448 450 376 374 449 422 375 421
8 450 452 378 376 451 423 377 422
8 452 454 380 378 453 424 379 423
8 454 456 382 380 455 425 381 424
8 456 458 384 382 457 426 383 425
8 458 460 386 384 459 427 385 426
8 460 462 388 386 461 428 387 427
8 462 464 390 388 463 429 389 428
8 464 466 392 390 465 430 391 429
8 466 468 394 392 467 431 393 430
8 468 470 396 394 469 432 395 431
8 470 472 398 396 471 433 397 432
8 472 474 400 398 473 434 399 433
8 474 476 402 400 475 435 401 434
8 476 478 404 402 477 436 403 435
8 478 480 406 404 479 437 405 436
8 480 482 408 406 481 438 407 437
8 482 484 410 408 483 439 409 438
8 484 486 412 410 485 440 411 439
8 486 488 414 412 487 441 413 440
8 488 490 416 414 489 442 415 441
8 490 492 418 416 491 443 417 442
8 518 520 446 444 519 494 445 493
8 520 522 448 446 521 495 447 494
8 522 524 450 448 523 496 449 495
8 524 526 452 450 525 497 451 496
8 526 528 454 452 527 498 453 497
8 528 530 456 454 529 499 455 498
8 530 532 458 456 531 500 457 499
8 532 534 460 458 533 501 459 500
8 534 536 462 460 535 502 461 501
8 536 538 464 462 537 503 463 502
8 538 540 466 464 539 504 465 503
8 540 542 468 466 541 505 467 504
8 542 544 470 468 543 506 469 505
8 544 546 472 470 545 507 471 506
8 546 548 474 472 547 508 473 507
8 548 550 476 474 549 509 475 508
8 550 552 478 476 551 510 477 509
8 552 554 480 478 553 511 479 510
8 554 556 482 480 555 512 481 511
8 556 558 484 482 557 513 483 512
8 558 560 486 484 559 514 485 513
8 560 562 488 486 561 515 487 514
8 562 564 490 488 563 516 489 515
8 564 566 492 490 565 517 491 516
8 592 594 520 518 593 568 519 567
8 594 596 522 520 595 569 521 568
8 596 598 524 522 597 570 523 569
8 598 600 526 524 599 571 525 570
8 600 602 528 526 601 572 527 571
8 602 604 530 528 603 573 529 572
8 604 606 532 530 605 574 531 573
8 606 608 534 532 607 575 533 574
8 608 610 536 534 609 576 535 575
8 610 612 538 536 611 577 537 576
8 612 614 540 538 613 578 539 577
8 614 616 542 540 615 579 541 578
8 616 618 544 542 617 580 543 579
8 618 620 546 544 619 581 545 580
8 620 622 548 546 621 582 547 581
8 622 624 550 548 623 583 549 582
8 624 626 552 550 625 584 551 583
8 626 628 554 552 627 585 553 584
8 628 630 556 554 629 586 555 585
8 630 632 558 556 631 587 557 586
8 632 634 560 558 633 588 559 587
8 634 636 562 560 635 589 561 588
8 636 638 564 562 637 590 563 589
8 638 640 566 564 639 591 565 590
8 666 668 594 592 667 642 593 641
8 668 670 596 594 669 643 595 642
8 670 672 598 596 671 644 597 643
8 672 674 600 598 673 645 599 644
8 674 676 602 600 675 646 601 645
8 676 678 604 602 677 647 603 646
8 678 680 606 604 679 648 605 647
8 680 682 608 606 681 649 607 648
8 682 684 610 608 683 650 609 649
8 684 686 612 610 685 651 611 650
8 686 688 614 612 687 652 613 651
8 688 690 616 614 689 653 615 652
8 690 692 618 616 691 654 617 653
8 692 694 620 618 693 655 619 654
8 694 696 622 620 695 656 621 655
8 696 698 624 622 697 657 623 656
8 698 700 626 624 699 658 625 657
8 700 702 628 626 701 659 627 658
8 702 704 630 628 703 660 629 659
8 704 706 632 630 705 661 631 660
8 706 708 634 632 707 662 633 661
8 708 710 636 634 709 663 635 662
8 710 712 638 636 711 664 637 663
8 712 714 640 638 713 665 639 664
8 740 742 668 666 741 716 667 715
8 742 744 670 668 743 717 669 716
8 744 746 672 670 745 718 671 717
8 746 748 674 672 747 719 673 718
8 748 750 676 674 749 720 675 719
8 750 752 678 676 751 721 677 720
8 752 754 680 678 753 722 679 721
8 754 756 682 680 755 723 681 722
8 756 758 684 682 757 724 683 723
8 758 760 686 684 759 725 685 724
8 760 762 688 686 761 726 687 725
8 762 764 690 688 763 727 689 726
8 764 766 692 690 765 728 691 727
8 766 768 694 692 767 729 693 728
8 768 770 696 694 769 730 695 729
8 770 772 698 696 771 731 697 730
8 772 774 700 698 773 732 699 731
8 774 776 702 700 775 733 701 732
8 776 778 704 702 777 734 703 733
8 778 780 706 704 779 735 705 734
8 780 782 708 706 781 736 707 735
8 782 784 710 708 783 737 709 736
8 784 786 712 710 785 738 711 737
8 786 788 714 712 787 739 713 738
8 814 816 742 740 815 790 741 789
8 816 818 744 742 817 791 743 790
8 818 820 746 744 819 792 745 791
8 820 822 748 746 821 793 747 792
8 822 824 750 748 823 794 749 793
8 824 826 752 750 825 795 751 794
8 826 828 754 752 827 796 753 795
8 828 830 756 754 829 797 755 796
8 830 832 758 756 831 798 757 797
8 832 834 760 758 833 799 759 798
8 834 836 762 760 835 800 761 799
8 836 838 764 762 837 801 763 800
8 838 840 766 764 839 802 765 801
8 840 842 768 766 841 803 767 802
8 842 844 770 768 843 804 769 803
8 844 846 772 770 845 805 771 804
8 846 848 774 772 847 806 773 805
8 848 850 776 774 849 807 775 806
8 850 852 778 776 851 808 777 807
8 852 854 780 778 853 809 779 808
8 854 856 782 780 855 810 781 809
8 856 858 784 782 857 811 783 810
8 858 860 786 784 859 812 785 811
8 860 862 788 786 861 813 787 812
8 888 890 816 814 889 864 815 863
8 890 892 818 816 891 865 817 864
8 892 894 820 818 893 866 819 865
8 894 896 822 820 895 867 821 866
8 896 898 824 822 897 868 823 867
8 898 900 826 824 899 869 825 868
8 900 902 828 826 901 870 827 869
8 902 904 830 828 903 871 829 870
8 904 906 832 830 905 872 831 871
8 906 908 834 832 907 873 833 872
8 908 910 836 834 909 874 835 873
8 910 912 838 836 911 875 837 874
8 912 914 840 838 913 876 839 875
8 914 916 842 840 915 877 841 876
8 916 918 844 842 917 878 843 877
8 918 920 846 844 919 879 845 878
8 920 922 848 846 921 880 847 879
8 922 924 850 848 923 881 849 880
8 924 926 852 850 925 882 851 881
8 926 928 854 852 927 883 853 882
8 928 930 856 854 929 884 855 883
8 930 932 858 856 931 885 857 884
8 932 934 860 858 933 886 859 885
8 934 936 862 860 935 887 861 886
8 962 964 890 888 963 938 889 937
8 964 966 892 890 965 939 891 938
8 966 968 894 892 967 940 893 939
8 968 970 896 894 969 941 895 940
8 970 972 898 896 971 942 897 941
8 972 974 900 898 973 943 899 942
8 974 976 902 900 975 944 901 943
8 976 978 904 902 977 945 903 944
8 978 980 906 904 979 946 905 945
8 980 982 908 906 981 947 907 946
8 982 984 910 908 983 948 909 947
8 984 986 912 910 985 949 911 948
8 986 988 914 912 987 950 913 949
8 988 990 916 914 989 951 915 950
8 990 992 918 916 991 952 917 951
8 992 994 920 918 993 953 919 952
8 994 996 922 920 995 954 921 953
8 996 998 924 922 997 955 923 954
8  998 1000  926  924  999  956  925  955
8 1000 1002  928  926 1001  957  927  956
8 1002 1004  930  928 1003  958  929  957
8 1004 1006  932  930 1005  959  931  958
8 1006 1008  934  932 1007  960  933  959
8 1008 1010  936  934 1009  961  935  960
8 1036 1038  964  962 1037 1012  963 1011
8 1038 1040  966  964 1039 1013  965 1012
8 1040 1042  968  966 1041 1014  967 1013
8 1042 1044  970  968 1043 1015  969 1014
8 1044 1046  972  970 1045 1016  971 1015
8 1046 1048  974  972 1047 1017  973 1016
8 1048 1050  976  974 1049 1018  975 1017
8 1050 1052  978  976 1051 1019  977 1018
8 1052 1054  980  978 1053 1020  979 1019
8 1054 1056  982  980 1055 1021  981 1020
8 1056 1058  984  982 1057 1022  983 1021
8 1058 1060  986  984 1059 1023  985 1022
8 1060 1062  988  986 1061 1024  987 1023
8 1062 1064  990  988 1063 1025  989 1024
8 1064 1066  992  990 1065 1026  991 1025
8 1066 1068  994  992 1067 1027  993 1026
8 1068 1070  996  994 1069 1028  995 1027
8 1070 1072  998  996 1071 1029  997 1028
8 1072 1074 1000  998 1073 1030  999 1029
8 1074 1076 1002 1000 1075 1031 1001 1030
8 1076 1078 1004 1002 1077 1032 1003 1031
8 1078 1080 1006 1004 1079 1033 1005 1032
8 1080 1082 1008 1006 1081 1034 1007 1033
8 1082 1084 1010 1008 1083 1035 1009 1034
8 1110 1112 1038 1036 1111 1086 1037 1085
8 1112 1114 1040 1038 1113 1087 1039 1086
8 1114 1116 1042 1040 1115 1088 1041 1087
8 1116 1118 1044 1042 1117 1089 1043 1088
8 1118 1120 1046 1044 1119 1090 1045 1089
8 1120 1122 1048 1046 1121 1091 1047 1090
8 1122 1124 1050 1048 1123 1092 1049 1091
8 1124 1126 1052 1050 1125 1093 1051 1092
8 1126 1128 1054 1052 1127 1094 1053 1093
8 1128 1130 1056 1054 1129 1095 1055 1094
8 1130 1132 1058 1056 1131 1096 1057 1095
8 1132 1134 1060 1058 1133 1097 1059 1096
8 1134 1136 1062 1060 1135 1098 1061 1097
8 1136 1138 1064 1062 1137 1099 1063 1098
8 1138 1140 1066 1064 1139 1100 1065 1099
8 1140 1142 1068 1066 1141 1101 1067 1100
8 1142 1144 1070 1068 1143 1102 1069 1101
8 1144 1146 1072 1070 1145 1103 1071 1102
8 1146 1148 1074 1072 1147 1104 1073 1103
8 1148 1150 1076 1074 1149 1105 1075 1104
8 1150 1152 1078 1076 1151 1106 1077 1105
8 1152 1154 1080 1078 1153 1107 1079 1106
8 1154 1156 1082 1080 1155 1108 1081 1107
8 1156 1158 1084 1082 1157 1109 1083 1108
8 1184 1186 1112 1110 1185 1160 1111 1159
8 1186 1188 1114 1112 1187 1161 1113 1160
8 1188 1190 1116 1114 1189 1162 1115 1161
8 1190 1192 1118 1116 1191 1163 1117 1162
8 1192 1194 1120 1118 1193 1164 1119 1163
8 1194 1196 1122 1120 1195 1165 1121 1164
8 1196 1198 1124 1122 1197 1166 1123 1165
8 1198 1200 1126 1124 1199 1167 1125 1166
8 1200 1202 1128 1126 1201 1168 1127 1167
8 1202 1204 1130 1128 1203 1169 1129 1168
8 1204 1206 1132 1130 1205 1170 1131 1169
8 1206 1208 1134 1132 1207 1171 1133 1170
8 1208 1210 1136 1134 1209 1172 1135 1171
8 1210 1212 1138 1136 1211 1173 1137 1172
8 1212 1214 1140 1138 1213 1174 1139 1173
8 1214 1216 1142 1140 1215 1175 1141 1174
8 1216 1218 1144 1142 1217 1176 1143 1175
8 1218 1220 1146 1144 1219 1177 1145 1176
8 1220 1222 1148 1146 1221 1178 1147 1177
8 1222 1224 1150 1148 1223 1179 1149 1178
8 1224 1226 1152 1150 1225 1180 1151 1179
8 1226 1228 1154 1152 1227 1181 1153 1180
8 1228 1230 1156 1154 1229 1182 1155 1181
8 1230 1232 1158 1156 1231 1183 1157 1182
8 1258 1260 1186 1184 1259 1234 1185 1233
8 1260 1262 1188 1186 1261 1235 1187 1234
8 1262 1264 1190 1188 1263 1236 1189 1235
8 1264 1266 1192 1190 1265 1237 1191 1236
8 1266 1268 1194 1192 1267 1238 1193 1237
8 1268 1270 1196 1194 1269 1239 1195 1238
8 1270 1272 1198 1196 1271 1240 1197 1239
8 1272 1274 1200 1198 1273 1241 1199 1240
8 1274 1276 1202 1200 1275 1242 1201 1241
8 1276 1278 1204 1202 1277 1243 1203 1242
8 1278 1280 1206 1204 1279 1244 1205 1243
8 1280 1282 1208 1206 1281 1245 1207 1244
8 1282 1284 1210 1208 1283 1246 1209 1245
8 1284 1286 1212 1210 1285 1247 1211 1246
8 1286 1288 1214 1212 1287 1248 1213 1247
8 1288 1290 1216 1214 1289 1249 1215 1248
8 1290 1292 1218 1216 1291 1250 1217 1249
8 1292 1294 1220 1218 1293 1251 1219 1250
8 1294 1296 1222 1220 1295 1252 1221 1251
8 1296 1298 1224 1222 1297 1253 1223 1252
8 1298 1300 1226 1224 1299 1254 1225 1253
8 1300 1302 1228 1226 1301 1255 1227 1254
8 1302 1304 1230 1228 1303 1256 1229 1255
8 1304 1306 1232 1230 1305 1257 1231 1256
8 1332 1334 1260 1258 1333 1308 1259 1307
8 1334 1336 1262 1260 1335 1309 1261 1308
8 1336 1338 1264 1262 1337 1310 1263 1309
8 1338 1340 1266 1264 1339 1311 1265 1310
8 1340 1342 1268 1266 1341 1312 1267 1311
8 1342 1344 1270 1268 1343 1313 1269 1312
8 1344 1346 1272 1270 1345 1314 1271 1313
8 1346 1348 1274 1272 1347 1315 1273 1314
8 1348 1350 1276 1274 1349 1316 1275 1315
8 1350 1352 1278 1276 1351 1317 1277 1316
8 1352 1354 1280 1278 1353 1318 1279 1317
8 1354 1356 1282 1280 1355 1319 1281 1318
8 1356 1358 1284 1282 1357 1320 1283 1319
8 1358 1360 1286 1284 1359 1321 1285 1320
8 1360 1362 1288 1286 1361 1322 1287 1321
8 1362 1364 1290 1288 1363 1323 1289 1322
8 1364 1366 1292 1290 1365 1324 1291 1323
8 1366 1368 1294 1292 1367 1325 1293 1324
8 1368 1370 1296 1294 1369 1326 1295 1325
8 1370 1372 1298 1296 1371 1327 1297 1326
8 1372 1374 1300 1298 1373 1328 1299 1327
8 1374 1376 1302 1300 1375 1329 1301 1328
8 1376 1378 1304 1302 1377 1330 1303 1329
8 1378 1380 1306 1304 1379 1331 1305 1330
8 1406 1408 1334 1332 1407 1382 1333 1381
8 1408 1410 1336 1334 1409 1383 1335 1382
8 1410 1412 1338 1336 1411 1384 1337 1383
8 1412 1414 1340 1338 1413 1385 1339 1384
8 1414 1416 1342 1340 1415 1386 1341 1385
8 1416 1418 1344 1342 1417 1387 1343 1386
8 1418 1420 1346 1344 1419 1388 1345 1387
8 1420 1422 1348 1346 1421 1389 1347 1388
8 1422 1424 1350 1348 1423 1390 1349 1389
8 1424 1426 1352 1350 1425 1391 1351 1390
8 1426 1428 1354 1352 1427 1392 1353 1391
8 1428 1430 1356 1354 1429 1393 1355 1392
8 1430 1432 1358 1356 1431 1394 1357 1393
8 1432 1434 1360 1358 1433 1395 1359 1394
8 1434 1436 1362 1360 1435 1396 1361 1395
8 1436 1438 1364 1362 1437 1397 1363 1396
8 1438 1440 1366 1364 1439 1398 1365 1397
8 1440 1442 1368 1366 1441 1399 1367 1398
8 1442 1444 1370 1368 1443 1400 1369 1399
8 1444 1446 1372 1370 1445 1401 1371 1400
8 1446 1448 1374 1372 1447 1402 1373 1401
8 1448 1450 1376 1374 1449 1403 1375 1402
8 1450 1452 1378 1376 1451 1404 1377 1403
8 1452 1454 1380 1378 1453 1405 1379 1404
8 1480 1482 1408 1406 1481 1456 1407 1455
8 1482 1484 1410 1408 1483 1457 1409 1456
8 1484 1486 1412 1410 1485 1458 1411 1457
8 1486 1488 1414 1412 1487 1459 1413 1458
8 1488 1490 1416 1414 1489 1460 1415 1459
8 1490 1492 1418 1416 1491 1461 1417 1460
8 1492 1494 1420 1418 1493 1462 1419 1461
8 1494 1496 1422 1420 1495 1463 1421 1462
8 1496 1498 1424 1422 1497 1464 1423 1463
8 1498 1500 1426 1424 1499 1465 1425 1464
8 1500 1502 1428 1426 1501 1466 1427 1465
8 1502 1504 1430 1428 1503 1467 1429 1466
8 1504 1506 1432 1430 1505 1468 1431 1467
8 1506 1508 1434 1432 1507 1469 1433 1468
8 1508 1510 1436 1434 1509 1470 1435 1469
8 1510 1512 1438 1436 1511 1471 1437 1470
8 1512 1514 1440 1438 1513 1472 1439 1471
8 1514 1516 1442 1440 1515 1473 1441 1472
8 1516 1518 1444 1442 1517 1474 1443 1473
8 1518 1520 1446 1444 1519 1475 1445 1474
8 1520 1522 1448 1446 1521 1476 1447 1475
8 1522 1524 1450 1448 1523 1477 1449 1476
8 1524 1526 1452 1450 1525 1478 1451 1477
8 1526 1528 1454 1452 1527 1479 1453 1478
8 1554 1556 1482 1480 1555 1530 1481 1529
8 1556 1558 1484 1482 1557 1531 1483 1530
8 1558 1560 1486 1484 1559 1532 1485 1531
8 1560 1562 1488 1486 1561 1533 1487 1532
8 1562 1564 1490 1488 1563 1534 1489 1533
8 1564 1566 1492 1490 1565 1535 1491 1534
8 1566 1568 1494 1492 1567 1536 1493 1535
8 1568 1570 1496 1494 1569 1537 1495 1536
8 1570 1572 1498 1496 1571 1538 1497 1537
8 1572 1574 1500 1498 1573 1539 1499 1538
8 1574 1576 1502 1500 1575 1540 1501 1539
8 1576 1578 1504 1502 1577 1541 1503 1540
8 1578 1580 1506 1504 1579 1542 1505 1541
8 1580 1582 1508 1506 1581 1543 1507 1542
8 1582 1584 1510 1508 1583 1544 1509 1543
8 1584 1586 1512 1510 1585 1545 1511 1544
8 1586 1588 1514 1512 1587 1546 1513 1545
8 1588 1590 1516 1514 1589 1547 1515 1546
8 1590 1592 1518 1516 1591 1548 1517 1547
8 1592 1594 1520 1518 1593 1549 1519 1548
8 1594 1596 1522 1520 1595 1550 1521 1549
8 1596 1598 1524 1522 1597 1551 1523 1550
8 1598 1600 1526 1524 1599 1552 1525 1551
8 1600 1602 1528 1526 1601 1553 1527 1552
8 1628 1630 1556 1554 1629 1604 1555 1603
8 1630 1632 1558 1556 1631 1605 1557 1604
8 1632 1634 1560 1558 1633 1606 1559 1605
8 1634 1636 1562 1560 1635 1607 1561 1606
8 1636 1638 1564 1562 1637 1608 1563 1607
8 1638 1640 1566 1564 1639 1609 1565 1608
8 1640 1642 1568 1566 1641 1610 1567 1609
8 1642 1644 1570 1568 1643 1611 1569 1610
8 1644 1646 1572 1570 1645 1612 1571 1611
8 1646 1648 1574 1572 1647 1613 1573 1612
8 1648 1650 1576 1574 1649 1614 1575 1613
8 1650 1652 1578 1576 1651 1615 1577 1614
8 1652 1654 1580 1578 1653 1616 1579 1615
8 1654 1656 1582 1580 1655 1617 1581 1616
8 1656 1658 1584 1582 1657 1618 1583 1617
8 1658 1660 1586 1584 1659 1619 1585 1618
8 1660 1662 1588 1586 1661 1620 1587 1619
8 1662 1664 1590 1588 1663 1621 1589 1620
8 1664 1666 1592 1590 1665 1622 1591 1621
8 1666 1668 1594 1592 1667 1623 1593 1622
8 1668 1670 1596 1594 1669 1624 1595 1623
8 1670 1672 1598 1596 1671 1625 1597 1624
8 1672 1674 1600 1598 1673 1626 1599 1625
8 1674 1676 1602 1600 1675 1627 1601 1626
8 1702 1704 1630 1628 1703 1678 1629 1677
8 1704 1706 1632 1630 1705 1679 1631 1678
8 1706 1708 1634 1632 1707 1680 1633 1679
8 1708 1710 1636 1634 1709 1681 1635 1680
8 1710 1712 1638 1636 1711 1682 1637 1681
8 1712 1714 1640 1638 1713 1683 1639 1682
8 1714 1716 1642 1640 1715 1684 1641 1683
8 1716 1718 1644 1642 1717 1685 1643 1684
8 1718 1720 1646 1644 1719 1686 1645 1685
8 1720 1722 1648 1646 1721 1687 1647 1686
8 1722 1724 1650 1648 1723 1688 1649 1687
8 1724 1726 1652 1650 1725 1689 1651 1688
8 1726 1728 1654 1652 1727 1690 1653 1689
8 1728 1730 1656 1654 1729 1691 1655 1690
8 1730 1732 1658 1656 1731 1692 1657 1691
8 1732 1734 1660 1658 1733 1693 1659 1692
8 1734 1736 1662 1660 1735 1694 1661 1693
8 1736 1738 1664 1662 1737 1695 1663 1694
8 1738 1740 1666 1664 1739 1696 1665 1695
8 1740 1742 1668 1666 1741 1697 1667 1696
8 1742 1744 1670 1668 1743 1698 1669 1697
8 1744 1746 1672 1670 1745 1699 1671 1698
8 1746 1748 1674 1672 1747 1700 1673 1699
8 1748 1750 1676 1674 1749 1701 1675 1700
8 1776 1778 1704 1702 1777 1752 1703 1751
8 1778 1780 1706 1704 1779 1753 1705 1752
8 1780 1782 1708 1706 1781 1754 1707 1753
8 1782 1784 1710 1708 1783 1755 1709 1754
8 1784 1786 1712 1710 1785 1756 1711 1755
8 1786 1788 1714 1712 1787 1757 1713 1756
8 1788 1790 1716 1714 1789 1758 1715 1757
8 1790 1792 1718 1716 1791 1759 1717 1758
8 1792 1794 1720 1718 1793 1760 1719 1759
8 1794 1796 1722 1720 1795 1761 1721 1760
8 1796 1798 1724 1722 1797 1762 1723 1761
8 1798 1800 1726 1724 1799 1763 1725 1762
8 1800 1802 1728 1726 1801 1764 1727 1763
8 1802 1804 1730 1728 1803 1765 1729 1764
8 1804 1806 1732 1730 1805 1766 1731 1765
8 1806 1808 1734 1732 1807 1767 1733 1766
8 1808 1810 1736 1734 1809 1768 1735 1767
8 1810 1812 1738 1736 1811 1769 1737 1768
8 1812 1814 1740 1738 1813 1770 1739 1769
8 1814 1816 1742 1740 1815 1771 1741 1770
8 1816 1818 1744 1742 1817 1772 1743 1771
8 1818 1820 1746 1744 1819 1773 1745 1772
8 1820 1822 1748 1746 1821 1774 1747 1773
8 1822 1824 1750 1748 1823 1775 1749 1774
8 1850 1852 1778 1776 1851 1826 1777 1825
8 1852 1854 1780 1778 1853 1827 1779 1826
8 1854 1856 1782 1780 1855 1828 1781 1827
8 1856 1858 1784 1782 1857 1829 1783 1828
8 1858 1860 1786 1784 1859 1830 1785 1829
8 1860 1862 1788 1786 1861 1831 1787 1830
8 1862 1864 1790 1788 1863 1832 1789 1831
8 1864 1866 1792 1790 1865 1833 1791 1832
8 1866 1868 1794 1792 1867 1834 1793 1833
8 1868 1870 1796 1794 1869 1835 1795 1834
8 1870 1872 1798 1796 1871 1836 1797 1835
8 1872 1874 1800 1798 1873 1837 1799 1836
8 1874 1876 1802 1800 1875 1838 1801 1837
8 1876 1878 1804 1802 1877 1839 1803 1838
8 1878 1880 1806 1804 1879 1840 1805 1839
8 1880 1882 1808 1806 1881 1841 1807 1840
8 1882 1884 1810 1808 1883 1842 1809 1841
8 1884 1886 1812 1810 1885 1843 1811 1842
8 1886 1888 1814 1812 1887 1844 1813 1843
8 1888 1890 1816 1814 1889 1845 1815 1844
8 1890 1892 1818 1816 1891 1846 1817 1845
8 1892 1894 1820 1818 1893 1847 1819 1846
8 1894 1896 1822 1820 1895 1848 1821 1847
8 1896 1898 1824 1822 1897 1849 1823 1848
8 1924 1926 1852 1850 1925 1900 1851 1899
8 1926 1928 1854 1852 1927 1901 1853 1900
8 1928 1930 1856 1854 1929 1902 1855 1901
8 1930 1932 1858 1856 1931 1903 1857 1902
8 1932 1934 1860 1858 1933 1904 1859 1903
8 1934 1936 1862 1860 1935 1905 1861 1904
8 1936 1938 1864 1862 1937 1906 1863 1905
8 1938 1940 1866 1864 1939 1907 1865 1906
8 1940 1942 1868 1866 1941 1908 1867 1907
8 1942 1944 1870 1868 1943 1909 1869 1908
8 1944 1946 1872 1870 1945 1910 1871 1909
8 1946 1948 1874 1872 1947 1911 1873 1910
8 1948 1950 1876 1874 1949 1912 1875 1911
8 1950 1952 1878 1876 1951 1913 1877 1912
8 1952 1954 1880 1878 1953 1914 1879 1913
8 1954 1956 1882 1880 1955 1915 1881 1914
8 1956 1958 1884 1882 1957 1916 1883 1915
8 1958 1960 1886 1884 1959 1917 1885 1916
8 1960 1962 1888 1886 1961 1918 1887 1917
8 1962 1964 1890 1888 1963 1919 1889 1918
8 1964 1966 1892 1890 1965 1920 1891 1919
8 1966 1968 1894 1892 1967 1921 1893 1920
8 1968 1970 1896 1894 1969 1922 1895 1921
8 1970 1972 1898 1896 1971 1923 1897 1922
8 1998 2000 1926 1924 1999 1974 1925 1973
8 2000 2002 1928 1926 2001 1975 1927 1974
8 2002 2004 1930 1928 2003 1976 1929 1975
8 2004 2006 1932 1930 2005 1977 1931 1976
8 2006 2008 1934 1932 2007 1978 1933 1977
8 2008 2010 1936 1934 2009 1979 1935 1978
8 2010 2012 1938 1936 2011 1980 1937 1979
8 2012 2014 1940 1938 2013 1981 1939 1980
8 2014 2016 1942 1940 2015 1982 1941 1981
8 2016 2018 1944 1942 2017 1983 1943 1982
8 2018 2020 1946 1944 2019 1984 1945 1983
8 2020 2022 1948 1946 2021 1985 1947 1984
8 2022 2024 1950 1948 2023 1986 1949 1985
8 2024 2026 1952 1950 2025 1987 1951 1986
8 2026 2028 1954 1952 2027 1988 1953 1987
8 2028 2030 1956 1954 2029 1989 1955 1988
8 2030 2032 1958 1956 2031 1990 1957 1989
8 2032 2034 1960 1958 2033 1991 1959 1990
8 2034 2036 1962 1960 2035 1992 1961 1991
8 2036 2038 1964 1962 2037 1993 1963 1992
8 2038 2040 1966 1964 2039 1994 1965 1993
8 2040 2042 1968 1966 2041 1995 1967 1994
8 2042 2044 1970 1968 2043 1996 1969 1995
8 2044 2046 1972 1970 2045 1997 1971 1996
8 2072 2074 2000 1998 2073 2048 1999 2047
8 2074 2076 2002 2000 2075 2049 2001 2048
8 2076 2078 2004 2002 2077 2050 2003 2049
8 2078 2080 2006 2004 2079 2051 2005 2050
8 2080 2082 2008 2006 2081 2052 2007 2051
8 2082 2084 2010 2008 2083 2053 2009 2052
8 2084 2086 2012 2010 2085 2054 2011 2053
8 2086 2088 2014 2012 2087 2055 2013 2054
8 2088 2090 2016 2014 2089 2056 2015 2055
8 2090 2092 2018 2016 2091 2057 2017 2056
8 2092 2094 2020 2018 2093 2058 2019 2057
8 2094 2096 2022 2020 2095 2059 2021 2058
8 2096 2098 2024 2022 2097 2060 2023 2059
8 2098 2100 2026 2024 2099 2061 2025 2060
8 2100 2102 2028 2026 2101 2062 2027 2061
8 2102 2104 2030 2028 2103 2063 2029 2062
8 2104 2106 2032 2030 2105 2064 2031 2063
8 2106 2108 2034 2032 2107 2065 2033 2064
8 2108 2110 2036 2034 2109 2066 2035 2065
8 2110 2112 2038 2036 2111 2067 2037 2066
8 2112 2114 2040 2038 2113 2068 2039 2067
8 2114 2116 2042 2040 2115 2069 2041 2068
8 2116 2118 2044 2042 2117 2070 2043 2069
8 2118 2120 2046 2044 2119 2071 2045 2070
8 2146 2148 2074 2072 2147 2122 2073 2121
8 2148 2150 2076 2074 2149 2123 2075 2122
8 2150 2152 2078 2076 2151 2124 2077 2123
8 2152 2154 2080 2078 2153 2125 2079 2124
8 2154 2156 2082 2080 2155 2126 2081 2125
8 2156 2158 2084 2082 2157 2127 2083 2126
8 2158 2160 2086 2084 2159 2128 2085 2127
8 2160 2162 2088 2086 2161 2129 2087 2128
8 2162 2164 2090 2088 2163 2130 2089 2129
8 2164 2166 2092 2090 2165 2131 2091 2130
8 2166 2168 2094 2092 2167 2132 2093 2131
8 2168 2170 2096 2094 2169 2133 2095 2132
8 2170 2172 2098 2096 2171 2134 2097 2133
8 2172 2174 2100 2098 2173 2135 2099 2134
8 2174 2176 2102 2100 2175 2136 2101 2135
8 2176 2178 2104 2102 2177 2137 2103 2136
8 2178 2180 2106 2104 2179 2138 2105 2137
8 2180 2182 2108 2106 2181 2139 2107 2138
8 2182 2184 2110 2108 2183 2140 2109 2139
8 2184 2186 2112 2110 2185 2141 2111 2140
8 2186 2188 2114 2112 2187 2142 2113 2141
8 2188 2190 2116 2114 2189 2143 2115 2142
8 2190 2192 2118 2116 2191 2144 2117 2143
8 2192 2194 2120 2118 2193 2145 2119 2144
8 2220 2222 2148 2146 2221 2196 2147 2195
8 2222 2224 2150 2148 2223 2197 2149 2196
8 2224 2226 2152 2150 2225 2198 2151 2197
8 2226 2228 2154 2152 2227 2199 2153 2198
8 2228 2230 2156 2154 2229 2200 2155 2199
8 2230 2232 2158 2156 2231 2201 2157 2200
8 2232 2234 2160 2158 2233 2202 2159 2201
8 2234 2236 2162 2160 2235 2203 2161 2202
8 2236 2238 2164 2162 2237 2204 2163 2203
8 2238 2240 2166 2164 2239 2205 2165 2204
8 2240 2242 2168 2166 2241 2206 2167 2205
8 2242 2244 2170 2168 2243 2207 2169 2206
8 2244 2246 2172 2170 2245 2208 2171 2207
8 2246 2248 2174 2172 2247 2209 2173 2208
8 2248 2250 2176 2174 2249 2210 2175 2209
8 2250 2252 2178 2176 2251 2211 2177 2210
8 2252 2254 2180 2178 2253 2212 2179 2211
8 2254 2256 2182 2180 2255 2213 2181 2212
8 2256 2258 2184 2182 2257 2214 2183 2213
8 2258 2260 2186 2184 2259 2215 2185 2214
8 2260 2262 2188 2186 2261 2216 2187 2215
8 2262 2264 2190 2188 2263 2217 2189 2216
8 2264 2266 2192 2190 2265 2218 2191 2217
8 2266 2268 2194 2192 2267 2219 2193 2218
8 2294 2296 2222 2220 2295 2270 2221 2269
8 2296 2298 2224 2222 2297 2271 2223 2270
8 2298 2300 2226 2224 2299 2272 2225 2271
8 2300 2302 2228 2226 2301 2273 2227 2272
8 2302 2304 2230 2228 2303 2274 2229 2273
8 2304 2306 2232 2230 2305 2275 2231 2274
8 2306 2308 2234 2232 2307 2276 2233 2275
8 2308 2310 2236 2234 2309 2277 2235 2276
8 2310 2312 2238 2236 2311 2278 2237 2277
8 2312 2314 2240 2238 2313 2279 2239 2278
8 2314 2316 2242 2240 2315 2280 2241 2279
8 2316 2318 2244 2242 2317 2281 2243 2280
8 2318 2320 2246 2244 2319 2282 2245 2281
8 2320 2322 2248 2246 2321 2283 2247 2282
8 2322 2324 2250 2248 2323 2284 2249 2283
8 2324 2326 2252 2250 2325 2285 2251 2284
8 2326 2328 2254 2252 2327 2286 2253 2285
8 2328 2330 2256 2254 2329 2287 2255 2286
8 2330 2332 2258 2256 2331 2288 2257 2287
8 2332 2334 2260 2258 2333 2289 2259 2288
8 2334 2336 2262 2260 2335 2290 2261 2289
8 2336 2338 2264 2262 2337 2291 2263 2290
8 2338 2340 2266 2264 2339 2292 2265 2291
8 2340 2342 2268 2266 2341 2293 2267 2292

CELL_TYPES 744
23
23
23
23
23
23
23
23
23
23
23
23
23
23
23
23
23
23
23
23
23
23
23
23
23
23
23
23
23
23
23
23
23
23
23
23
23
23
23
23
23
23
23
23
23
23
23
23
23
23
23
23
23
23
23
23
23
23
23
23
23
23
23
23
23
23
23
23
23
23
23
23
23
23
23
23
23
23
23
23
23
23
23
23
23
23
23
23
23
23
23
23
23
23
23
23
23
23
23
23
23
23
23
23
23
23
23
23
23
23
23
23
23
23
23
23
23
23
23
23
23
23
23
23
23
23
23
23
23
23
23
23
23
23
23
23
23
23
23
23
23
23
23
23
23
23
23
23
23
23
23
23
23
23
23
23
23
23
23
23
23
23
23
23
23
23
23
23
23
23
23
23
23
23
23
23
23
23
23
23
23
23
23
23
23
23
23
23
23
23
23
23
23
23
23
23
23
23
23
23
23
23
23
23
23
23
23
23
23
23
23
23
23
23
23
23
23
23
23
23
23
23
23
23
23
23
23
23
23
23
23
23
23
23
23
23
23
23
23
23
23
23
23
23
23
23
23
23
23
23
23
23
23
23
23
23
23
23
23
23
23
23
23
23
23
23
23
23
23
23
23
23
23
23
23
23
23
23
23
23
23
23
23
23
23
23
23
23
23
23
23
23
23
23
23
23
23
23
23
23
23
23
23
23
23
23
23
23
23
23
23
23
23
23
23
23
23
23
23
23
23
23
23
23
23
23
23
23
23
23
23
23
23
23
23
23
23
23
23
23
23
23
23
23
23
23
23
23
23
23
23
23
23
23
23
23
23
23
23
23
23
23
23
23
23
23
23
23
23
23
23
23
23
23
23
23
23
23
23
23
23
23
23
23
23
23
23
23
23
23
23
23
23
23
23
23
23
23
23
23
23
23
23
23
23
23
23
23
23
23
23
23
23
23
23
23
23
23
23
23
23
23
23
23
23
23
23
23
23
23
23
23
23
23
23
23
23
23
23
23
23
23
23
23
23
23
23
23
23
23
23
23
23
23
23
23
23
23
23
23
23
23
23
23
23
23
23
23
23
23
23
23
23
23
23
23
23
23
23
23
23
23
23
23
23
23
23
23
23
23
23
23
23
23
23
23
23
23
23
23
23
23
23
23
23
23
23
23
23
23
23
23
23
23
23
23
23
23
23
23
23
23
23
23
23
23
23
23
23
23
23
23
23
23
23
23
23
23
23
23
23
23
23
23
23
23
23
23
23
23
23
23
23
23
23
23
23
23
23
23
23
23
23
23
23
23
23
23
23
23
23
23
23
23
23
23
23
23
23
23
23
23
23
23
23
23
23
23
23
23
23
23
23
23
23
23
23
23
23
23
23
23
23
23
23
23
23
23
23
23
23
23
23
23
23
23
23
23
23
23
23
23
23
23
23
23
23
23
23
23
23
23
23
23
23
23
23
23
23
23
23
23
23
23
23
23
23
23
23
23
23
23
23
23
23
23
23
23
23
23
23
23
23
23
23
23
23
23
23
23
23
23
23
23
23
23
23
23
23
23
23
23
23
23
23
23
23
23
23
23
23
23
23
23
23
23
23
23
23
23
23
23
23
23
23
23
23
23
23
23
23
23
23
23
23
23
23
23
23
23
23
23
23
23
23
23
23
23
23
23
23
23
23
23
23
23
23
23
23
23
23
23
23
23

POINT_DATA 2343
SCALARS Displacement_R double 1
LOOKUP_TABLE default
0
4.0175e-06
4.78503e-06
-6.35016e-06
-4.96515e-05
-0.000162217
-0.000252325
-0.000210121
-0.000162407
-0.000188354
-0.000230804
-0.000271415
-0.000306948
-0.000337316
-0.00036275
-0.000383681
-0.000401115
-0.000415921
-0.000428612
-0.000439559
-0.000449019
-0.000457211
-0.000464285
-0.000470363
-0.00047554
-0.000481777
-0.000486389
-0.000489534
-0.000491377
-0.000492028
-0.000491613
-0.000490219
-0.000487954
-0.000481022
-0.000471471
-0.000459637
-0.000446039
-0.000414405
-0.000378922
-0.000340804
-0.000301327
-0.000261263
-0.000221195
-0.000181658
-0.000142854
-0.000105186
-6.86618e-05
-3.36191e-05
0
0
1.78286e-05
8.30122e-06
3.97848e-05
-0.000122729
-0.000211681
-0.000290719
-0.000344972
-0.000382597
-0.000409606
-0.000429658
-0.000444671
-0.000455757
-0.000466507
-0.000471554
-0.000471983
-0.000468622
-0.000453021
-0.000428729
-0.000364394
-0.000289863
-0.000212824
-0.000137468
-6.60815e-05
0
0
1.53103e-05
2.87541e-05
4.98189e-05
8.31887e-05
0.000161527
0.000184178
6.35247e-05
-6.50648e-05
-0.000140086
-0.000197274
-0.000240443
-0.000276122
-0.000305355
-0.000329083
-0.000348718
-0.000365296
-0.000379436
-0.000391546
-0.000402002
-0.00041106
-0.000418916
-0.000425706
-0.000431552
-0.000436541
-0.000442595
-0.000447102
-0.000450238
-0.000452139
-0.000452927
-0.000452706
-0.000451573
-0.000449596
-0.000443458
-0.000434803
-0.000424073
-0.000411597
-0.000382638
-0.000349971
-0.000314876
-0.000278464
-0.00024148
-0.000204491
-0.000167943
-0.000132103
-9.7255e-05
-6.35097e-05
-3.10827e-05
0
0
4.01193e-05
0.000138012
0.000250835
-2.49774e-05
-0.000183653
-0.000264342
-0.000314741
-0.00034925
-0.0003744
-0.00039321
-0.00040737
-0.000417877
-0.000428161
-0.00043312
-0.000433772
-0.000430877
-0.000416825
-0.000394658
-0.000335664
-0.000267128
-0.000196189
-0.00012675
-6.09399e-05
0
0
1.84262e-05
4.79061e-05
9.1193e-05
0.000161271
0.000247867
0.00025923
0.000145182
-4.70497e-06
-0.000107274
-0.000173956
-0.000221164
-0.00025487
-0.000280973
-0.00030198
-0.000319486
-0.000334322
-0.000347086
-0.000358122
-0.000367716
-0.000376063
-0.00038333
-0.000389633
-0.000395076
-0.000399736
-0.000405409
-0.000409659
-0.00041264
-0.000414479
-0.000415289
-0.000415165
-0.00041419
-0.000412441
-0.000406916
-0.000399062
-0.000389287
-0.000377883
-0.000351398
-0.000321455
-0.00028927
-0.000255851
-0.000221893
-0.000187923
-0.000154343
-0.000121417
-8.93871e-05
-5.83781e-05
-2.85686e-05
0
0
4.14366e-05
0.000153043
0.000229174
-8.30579e-06
-0.000173088
-0.000247949
-0.000290755
-0.000320477
-0.000342681
-0.000359597
-0.000372474
-0.0003821
-0.000391581
-0.000396201
-0.000396869
-0.000394279
-0.000381509
-0.000361279
-0.000307349
-0.000244633
-0.000179688
-0.000116097
-5.58196e-05
0
0
7.5854e-06
2.51026e-05
5.83365e-05
0.000108962
0.000159741
0.000157167
7.47759e-05
-3.70908e-05
-0.000121657
-0.000177943
-0.000216407
-0.00024332
-0.000264004
-0.00028084
-0.000295207
-0.000307622
-0.000318482
-0.000328014
-0.000336402
-0.000343768
-0.000350227
-0.00035586
-0.000360745
-0.000364941
-0.000370062
-0.000373906
-0.000376605
-0.000378268
-0.000378997
-0.000378873
-0.000377979
-0.000376377
-0.000371324
-0.000364153
-0.000355227
-0.000344826
-0.000320646
-0.000293334
-0.000263961
-0.000233469
-0.000202486
-0.000171484
-0.000140849
-0.000110795
-8.15751e-05
-5.32684e-05
-2.6074e-05
0
0
-4.72654e-06
3.1915e-05
4.5675e-05
-9.08801e-05
-0.000191341
-0.00024094
-0.000272225
-0.000295679
-0.000314082
-0.000328546
-0.000339766
-0.00034824
-0.000356619
-0.000360668
-0.000361165
-0.00035873
-0.000346995
-0.000328534
-0.000279416
-0.000222359
-0.000163308
-0.000105503
-5.0718e-05
0
0
-2.20055e-05
-4.29683e-05
-6.24181e-05
-8.06341e-05
-9.82092e-05
-0.000118617
-0.000142963
-0.000168327
-0.000190294
-0.000209226
-0.00022581
-0.000240191
-0.000253088
-0.000264631
-0.000275109
-0.000284568
-0.000293122
-0.000300819
-0.000307727
-0.000313888
-0.000319352
-0.000324161
-0.000328354
-0.00033197
-0.000336385
-0.000339697
-0.000341994
-0.000343382
-0.000343931
-0.000343729
-0.000342832
-0.000341319
-0.000336592
-0.000330017
-0.000321824
-0.000312381
-0.000290335
-0.000265581
-0.000238923
-0.000211299
-0.000183245
-0.00015516
-0.000127453
-0.000100227
-7.38169e-05
-4.81742e-05
-2.35989e-05
0
0
-3.13678e-05
-6.012e-05
-9.31228e-05
-0.000139119
-0.000179476
-0.000210692
-0.000235089
-0.000254706
-0.000270579
-0.000283306
-0.00029332
-0.000300971
-0.000308654
-0.000312512
-0.000313222
-0.000311335
-0.000301473
-0.000285657
-0.000243195
-0.000193658
-0.000142288
-9.19482e-05
-4.42084e-05
0
0
-1.12222e-05
-2.22581e-05
-3.2981e-05
-4.43337e-05
-5.7287e-05
-7.28873e-05
-9.28329e-05
-0.00011423
-0.000134107
-0.000152419
-0.000168654
-0.000182988
-0.000195669
-0.000206935
-0.000217011
-0.000226036
-0.000234134
-0.00024139
-0.00024788
-0.000253665
-0.000258798
-0.000263326
-0.000267294
-0.000270736
-0.000274999
-0.000278268
-0.000280645
-0.00028221
-0.000283043
-0.000283208
-0.00028277
-0.000281778
-0.000278346
-0.000273255
-0.000266792
-0.000259181
-0.000241304
-0.000220959
-0.000198986
-0.000176106
-0.000152813
-0.000129468
-0.000106373
-8.36977e-05
-6.16352e-05
-4.02547e-05
-1.97032e-05
0
0
-1.51347e-05
-3.19374e-05
-5.63709e-05
-9.27022e-05
-0.000127889
-0.000157062
-0.000180139
-0.000198491
-0.000213179
-0.000224892
-0.000234111
-0.000241204
-0.000248488
-0.000252431
-0.000253647
-0.000252621
-0.000245347
-0.000232954
-0.000198873
-0.000158641
-0.000116693
-7.54666e-05
-3.63047e-05
0
0
-4.66107e-06
-9.62668e-06
-1.51644e-05
-2.2105e-05
-3.10544e-05
-4.25376e-05
-5.74124e-05
-7.39477e-05
-9.00746e-05
-0.000105584
-0.000119862
-0.000132765
-0.000144306
-0.000154597
-0.000163785
-0.000171985
-0.000179318
-0.000185866
-0.00019171
-0.000196911
-0.000201526
-0.000205602
-0.000209183
-0.000212306
-0.000216205
-0.00021925
-0.00022153
-0.00022312
-0.000224088
-0.000224492
-0.000224386
-0.000223818
-0.00022146
-0.000217708
-0.000212802
-0.000206932
-0.000192976
-0.000176911
-0.000159478
-0.000141249
-0.000122641
-0.000103962
-8.54471e-05
-6.72593e-05
-4.9536e-05
-3.2365e-05
-1.58365e-05
0
0
-5.24038e-06
-1.40049e-05
-3.06512e-05
-5.72966e-05
-8.51948e-05
-0.00010998
-0.000130237
-0.000146447
-0.000159376
-0.000169649
-0.000177731
-0.000183979
-0.000190502
-0.00019423
-0.000195702
-0.000195333
-0.000190314
-0.000181104
-0.000155068
-0.000123928
-9.12702e-05
-5.90721e-05
-2.84323e-05
0
0
-6.09308e-07
-1.71443e-06
-3.71039e-06
-7.21385e-06
-1.26629e-05
-2.02363e-05
-3.05087e-05
-4.23564e-05
-5.43981e-05
-6.64277e-05
-7.7881e-05
-8.85204e-05
-9.81997e-05
-0.000106933
-0.000114766
-0.000121773
-0.000128035
-0.000133621
-0.0001386
-0.000143026
-0.000146954
-0.000150425
-0.000153481
-0.000156155
-0.000159519
-0.000162182
-0.000164225
-0.00016571
-0.000166697
-0.000167233
-0.000167364
-0.000167126
-0.000165682
-0.000163132
-0.000159666
-0.000155439
-0.000145225
-0.000133322
-0.000120321
-0.000106665
-9.26813e-05
-7.86132e-05
-6.46428e-05
-5.09039e-05
-3.74997e-05
-2.45078e-05
-1.1991e-05
0
0
1.25404e-06
-1.31034e-06
-1.09029e-05
-2.87038e-05
-4.89743e-05
-6.82112e-05
-8.45733e-05
-9.78774e-05
-0.000108521
-0.000116969
-0.000123615
-0.000128773
-0.000134238
-0.000137513
-0.000139043
-0.000139162
-0.000136137
-0.00012992
-0.000111666
-8.94565e-05
-6.59874e-05
-4.27524e-05
-2.05899e-05
0
0
2.16354e-06
3.82081e-06
4.57774e-06
3.97071e-06
1.69016e-06
-2.35044e-06
-8.48777e-06
-1.60662e-05
-2.41733e-05
-3.26083e-05
-4.09289e-05
-4.88779e-05
-5.62619e-05
-6.30255e-05
-6.91461e-05
-7.46518e-05
-7.95825e-05
-8.39847e-05
-8.79078e-05
-9.1395e-05
-9.44897e-05
-9.72272e-05
-9.96422e-05
-0.000101763
-0.00010445
-0.000106609
-0.000108303
-0.000109586
-0.000110501
-0.000111088
-0.000111379
-0.000111402
-0.00011075
-0.000109298
-0.000107184
-0.000104521
-9.79192e-05
-9.00826e-05
-8.14353e-05
-7.22917e-05
-6.2884e-05
-5.33875e-05
-4.3932e-05
-3.46151e-05
-2.55111e-05
-1.66782e-05
-8.16089e-06
0
0
6.15185e-06
8.85662e-06
5.65826e-06
-4.16417e-06
-1.70762e-05
-3.03389e-05
-4.21619e-05
-5.19966e-05
-5.99253e-05
-6.62266e-05
-7.119e-05
-7.50618e-05
-7.92394e-05
-8.18807e-05
-8.3324e-05
-8.38105e-05
-8.25877e-05
-7.92229e-05
-6.85613e-05
-5.51643e-05
-4.08098e-05
-2.649e-05
-1.27716e-05
0
0
4.39208e-06
8.33855e-06
1.14943e-05
1.35041e-05
1.41299e-05
1.33122e-05
1.09012e-05
7.19824e-06
2.75976e-06
-2.19344e-06
-7.33492e-06
-1.2434e-05
-1.73013e-05
-2.18495e-05
-2.60178e-05
-2.98e-05
-3.32018e-05
-3.62469e-05
-3.8963e-05
-4.13792e-05
-4.35255e-05
-4.54281e-05
-4.71127e-05
-4.86004e-05
-5.05067e-05
-5.20701e-05
-5.3338e-05
-5.43468e-05
-5.51286e-05
-5.57084e-05
-5.61085e-05
-5.63469e-05
-5.64017e-05
-5.59767e-05
-5.51541e-05
-5.40013e-05
-5.09228e-05
-4.70863e-05
-4.27392e-05
-3.80655e-05
-3.32008e-05
-2.8249e-05
-2.32869e-05
-1.83741e-05
-1.35559e-05
-8.86903e-06
-4.34149e-06
0
0
1.04681e-05
1.80409e-05
2.07649e-05
1.82166e-05
1.22424e-05
5.00696e-06
-1.95461e-06
-7.95441e-06
-1.28576e-05
-1.67713e-05
-1.98683e-05
-2.23132e-05
-2.50447e-05
-2.69347e-05
-2.81979e-05
-2.89754e-05
-2.94368e-05
-2.88359e-05
-2.56463e-05
-2.0988e-05
-1.57011e-05
-1.02655e-05
-4.96954e-06
0
0
6.4827e-06
1.25981e-05
1.80506e-05
2.25699e-05
2.59535e-05
2.81501e-05
2.91749e-05
2.9043e-05
2.80259e-05
2.63871e-05
2.43604e-05
2.21306e-05
1.98642e-05
1.76527e-05
1.55735e-05
1.36534e-05
1.19105e-05
1.03414e-05
8.93696e-06
7.68378e-06
6.5651e-06
5.56654e-06
4.67202e-06
3.86935e-06
2.80991e-06
1.89671e-06
1.10208e-06
4.06511e-07
-2.06401e-07
-7.48552e-07
-1.2297e-06
-1.65718e-06
-2.37486e-06
-2.93871e-06
-3.37462e-06
-3.70305e-06
-4.09959e-06
-4.22679e-06
-4.1505e-06
-3.92356e-06
-3.58331e-06
-3.16102e-06
-2.68016e-06
-2.16126e-06
-1.62034e-06
-1.07203e-06
-5.28296e-07
0
0
1.61885e-05
3.01429e-05
4.03294e-05
4.66568e-05
4.92403e-05
4.97595e-05
4.93401e-05
4.86564e-05
4.79991e-05
4.74391e-05
4.69542e-05
4.6498e-05
4.57804e-05
4.49503e-05
4.39749e-05
4.2854e-05
4.02379e-05
3.72497e-05
3.06767e-05
2.38839e-05
1.7274e-05
1.10453e-05
5.27936e-06
0
0
1.01715e-05
2.00757e-05
2.94904e-05
3.82212e-05
4.60954e-05
5.30619e-05
5.93895e-05
6.47061e-05
6.89059e-05
7.237e-05
7.52167e-05
7.75642e-05
7.95247e-05
8.1177e-05
8.25957e-05
8.3824e-05
8.49003e-05
8.58453e-05
8.6675e-05
8.73988e-05
8.80225e-05
8.85506e-05
8.89858e-05
8.93308e-05
8.96848e-05
8.98503e-05
8.98379e-05
8.96574e-05
8.93212e-05
8.88395e-05
8.82244e-05
8.74859e-05
8.56835e-05
8.35037e-05
8.10136e-05
7.82679e-05
7.22053e-05
6.56163e-05
5.87316e-05
5.17114e-05
4.46785e-05
3.77195e-05
3.08981e-05
2.42571e-05
1.78282e-05
1.16329e-05
5.68515e-06
0
0
2.44021e-05
4.70812e-05
6.67521e-05
8.37246e-05
9.63847e-05
0.000106158
0.000113731
0.000119662
0.000124323
0.000127952
0.000130699
0.000132672
0.000134363
0.000134748
0.000134034
0.000132405
0.000126985
0.000119452
0.000100653
7.95947e-05
5.81966e-05
3.74856e-05
1.79932e-05
0
0
1.47737e-05
2.93272e-05
4.34681e-05
5.70292e-05
6.98434e-05
8.18392e-05
9.35581e-05
0.000104258
0.000113515
0.000121885
0.000129401
0.000136147
0.000142181
0.000147578
0.000152394
0.000156688
0.000160506
0.00016389
0.000166878
0.000169498
0.000171781
0.000173749
0.000175425
0.000176828
0.000178462
0.000179575
0.000180221
0.000180438
0.00018027
0.000179747
0.000178904
0.000177769
0.000174729
0.000170804
0.000166149
0.000160889
0.000149005
0.000135838
0.000121903
0.000107565
9.31057e-05
7.87233e-05
6.45669e-05
5.07402e-05
3.73208e-05
2.43646e-05
1.19125e-05
0
0
3.50144e-05
6.8386e-05
9.87781e-05
0.000126874
0.000149502
0.000168169
0.000183313
0.000195439
0.000205017
0.000212447
0.000218057
0.000222113
0.00022575
0.000226952
0.000226167
0.000223747
0.000215085
0.000202687
0.000171239
0.000135661
9.93214e-05
6.40324e-05
3.07506e-05
0
0
2.09707e-05
4.17007e-05
6.19697e-05
8.15913e-05
0.000100356
0.000118169
0.000135853
0.000152272
0.000166714
0.000179961
0.000192004
0.000202921
0.00021275
0.000221573
0.000229457
0.000236474
0.000242696
0.000248185
0.000253007
0.000257212
0.000260856
0.000263979
0.000266629
0.000268835
0.000271399
0.000273138
0.000274153
0.000274503
0.000274263
0.00027348
0.000272212
0.000270493
0.000265897
0.000259949
0.000252905
0.000244926
0.000226886
0.000206899
0.000185716
0.000163911
0.000141908
0.000120008
9.84453e-05
7.73717e-05
5.69177e-05
3.71566e-05
1.8174e-05
0
0
4.9648e-05
9.71421e-05
0.000140676
0.000181222
0.000214057
0.000241161
0.000263042
0.000280386
0.000293901
0.000304222
0.000311884
0.000317316
0.000322011
0.000323316
0.000321877
0.000318187
0.000305537
0.000287738
0.000242904
0.000192355
0.000140797
9.07575e-05
4.35739e-05
0
0
2.9818e-05
5.92708e-05
8.80142e-05
0.000115783
0.000142237
0.000167263
0.000191956
0.000214762
0.000234655
0.000252781
0.0002691
0.000283771
0.000296839
0.000308465
0.000318735
0.000327791
0.000335732
0.00034267
0.000348697
0.000353899
0.000358354
0.000362125
0.000365277
0.000367856
0.000370756
0.000372609
0.000373524
0.000373598
0.000372911
0.000371537
0.000369536
0.00036697
0.000360301
0.000351949
0.00034213
0.000331175
0.000306412
0.000279279
0.000250516
0.000221019
0.000191297
0.000161713
0.000132661
0.000104211
7.6691e-05
5.00195e-05
2.44972e-05
0
0
5.71949e-05
0.000112034
0.000162539
0.000209911
0.000248626
0.000280922
0.000307307
0.000328504
0.000345275
0.000358319
0.000368229
0.000375487
0.000382228
0.00038486
0.000384127
0.000380604
0.000366953
0.000346755
0.000294292
0.000233971
0.000171747
0.000110924
5.33191e-05
0
0
2.78028e-05
5.53278e-05
8.23587e-05
0.000108637
0.000133975
0.000158193
0.000182516
0.000205316
0.000225647
0.000244497
0.000261876
0.000277814
0.000292368
0.000305596
0.000317581
0.000328392
0.000338118
0.000346827
0.000354602
0.000361504
0.000367606
0.000372958
0.000377622
0.000381641
0.000386567
0.000390273
0.000392887
0.000394499
0.000395205
0.000395077
0.000394192
0.000392608
0.000387588
0.000380398
0.000371407
0.00036088
0.000336253
0.000308125
0.000277762
0.000246021
0.000213653
0.000181143
0.000148909
0.000117237
8.635e-05
5.64288e-05
2.76075e-05
0
0
5.36636e-05
0.000105575
0.000154207
0.000200985
0.000240439
0.000274529
0.000303443
0.000327589
0.000347472
0.000363606
0.000376467
0.000386473
0.000396891
0.00040265
0.000404517
0.000403107
0.00039239
0.000373659
0.000320853
0.000257206
0.000189909
0.00012314
5.9333e-05
0
0
2.61749e-05
5.21438e-05
7.77298e-05
0.000102754
0.000127046
0.000150483
0.00017426
0.000196841
0.000217235
0.000236422
0.000254365
0.000271084
0.000286586
0.000300912
0.000314098
0.000326195
0.000337256
0.000347334
0.000356487
0.000364762
0.000372218
0.000378898
0.000384852
0.00039012
0.000396832
0.000402213
0.000406386
0.00040944
0.000411474
0.000412562
0.000412782
0.000412198
0.000408874
0.000403009
0.00039499
0.000385137
0.000361031
0.0003325
0.000300996
0.000267557
0.000233048
0.00019808
0.000163166
0.000128666
9.48897e-05
6.20599e-05
3.03737e-05
0
0
5.01012e-05
9.89334e-05
0.000145357
0.000190985
0.000230525
0.000265731
0.000296571
0.000323201
0.000345894
0.000364976
0.000380782
0.000393639
0.000408032
0.000417323
0.000422248
0.000423424
0.000416551
0.000400088
0.000348058
0.000281587
0.000209258
0.000136273
6.58224e-05
0
0
2.41954e-05
4.82484e-05
7.20378e-05
9.54335e-05
0.000118315
0.000140586
0.00016343
0.000185395
0.000205506
0.000224697
0.000242918
0.000260164
0.000276416
0.000291686
0.000305979
0.000319319
0.000331728
0.000343234
0.00035387
0.000363667
0.000372661
0.000380883
0.00038837
0.000395151
0.000404078
0.000411588
0.000417792
0.000422768
0.000426609
0.000429383
0.000431172
0.000432034
0.000431253
0.000427473
0.000421114
0.000412509
0.000389829
0.000361455
0.000329071
0.000293921
0.000257043
0.000219211
0.000181069
0.000143098
0.000105708
6.92153e-05
3.38965e-05
0
0
4.65782e-05
9.22507e-05
0.000136182
0.000180114
0.000219019
0.000254512
0.000286432
0.000314765
0.000339605
0.000361114
0.000379495
0.000394967
0.000413198
0.000426084
0.000434267
0.000438323
0.000436034
0.00042264
0.00037286
0.000304662
0.000228
0.000149176
7.22485e-05
0
0
2.2563e-05
4.50216e-05
6.72886e-05
8.92651e-05
0.000110863
0.000132005
0.000153847
0.000175016
0.000194576
0.000213413
0.000231481
0.00024876
0.000265224
0.000280866
0.000295678
0.000309665
0.000322831
0.00033519
0.000346756
0.000357545
0.000367579
0.000376878
0.000385465
0.000393362
0.000403967
0.000413149
0.00042099
0.00042756
0.000432935
0.000437181
0.000440366
0.00044255
0.000444169
0.000442463
0.000437845
0.000430663
0.000409924
0.000382404
0.00034993
0.000313912
0.000275529
0.000235694
0.00019517
0.00015455
0.000114341
7.49466e-05
3.67262e-05
0
0
4.35777e-05
8.64779e-05
0.000128064
0.000170131
0.000207933
0.000242994
0.000275105
0.000304165
0.000330163
0.000353155
0.000373244
0.000390564
0.000411682
0.000427439
0.000438364
0.000444958
0.000446981
0.00043679
0.000390243
0.000321768
0.000242354
0.000159254
7.73207e-05
0
0
2.11437e-05
4.22079e-05
6.31255e-05
8.38212e-05
0.000104226
0.000124278
0.000145094
0.000165382
0.000184243
0.000202525
0.000220183
0.000237195
0.000253529
0.000269174
0.00028411
0.000298336
0.000311843
0.000324636
0.000336716
0.000348092
0.000358773
0.000368771
0.000378098
0.00038677
0.000398583
0.00040901
0.000418113
0.000425945
0.00043257
0.000438041
0.00044242
0.000445756
0.000449539
0.000449782
0.000446883
0.000441175
0.000422678
0.000396491
0.000364532
0.00032832
0.000289151
0.000248044
0.000205874
0.000163328
0.000121005
7.93932e-05
3.89279e-05
0
0
4.04969e-05
8.04879e-05
0.000119489
0.000159301
0.000195493
0.000229512
0.000261138
0.000290225
0.000316697
0.000340535
0.000361766
0.00038045
0.000403889
0.000422142
0.000435598
0.000444659
0.000451166
0.000444633
0.000402594
0.000335192
0.000254224
0.000167837
8.17077e-05
0
0
1.94633e-05
3.88686e-05
5.81671e-05
7.7302e-05
9.62225e-05
0.000114881
0.000134334
0.00015339
0.000171204
0.000188573
0.000205459
0.000221837
0.000237677
0.000252964
0.000267674
0.000281798
0.000295322
0.000308242
0.000320551
0.00033225
0.000343338
0.000353818
0.000363695
0.000372976
0.000385795
0.00039732
0.000407586
0.000416631
0.000424499
0.000431229
0.000436867
0.000441455
0.000447671
0.000450215
0.000449436
0.00044565
0.000430313
0.000406372
0.000375769
0.000340105
0.000300777
0.00025892
0.000215517
0.000171371
0.000127186
8.35519e-05
4.09969e-05
0
0
3.73316e-05
7.42834e-05
0.000110488
0.000147704
0.000181844
0.000214276
0.000244788
0.000273223
0.00029947
0.000323465
0.000345183
0.000364628
0.000389609
0.00040974
0.000425272
0.000436498
0.000447272
0.000444574
0.000408109
0.000343258
0.00026226
0.000174005
8.49553e-05
0
0
1.79489e-05
3.58535e-05
5.36753e-05
7.13724e-05
8.8904e-05
0.000106234
0.000124354
0.000142165
0.000158877
0.000175239
0.000191215
0.000206786
0.00022192
0.000236603
0.000250811
0.000264533
0.000277751
0.000290459
0.000302643
0.000314303
0.000325429
0.000336023
0.00034608
0.000355605
0.000368895
0.000381003
0.000391946
0.000401746
0.000410432
0.000418029
0.00042457
0.000430086
0.000438207
0.000442648
0.000443712
0.000441664
0.000429459
0.000408017
0.000379274
0.000344816
0.00030612
0.000264366
0.000220639
0.000175817
0.000130699
8.59594e-05
4.2206e-05
0
0
3.31093e-05
6.59536e-05
9.82721e-05
0.000131712
0.000162651
0.000192342
0.000220604
0.000247288
0.000272277
0.00029548
0.000316836
0.00033631
0.000361961
0.000383373
0.000400646
0.000413936
0.000429357
0.000431441
0.000403244
0.000343829
0.000265334
0.00017725
8.68835e-05
0
0
1.52679e-05
3.05079e-05
4.56943e-05
6.08012e-05
7.58005e-05
9.06704e-05
0.000106271
0.000121672
0.000136188
0.000150473
0.000164496
0.000178246
0.000191694
0.000204833
0.000217635
0.000230096
0.000242192
0.00025392
0.000265261
0.000276212
0.000286759
0.000296901
0.000306627
0.000315936
0.000329104
0.00034132
0.000352574
0.000362873
0.00037222
0.000380625
0.000388102
0.000394664
0.000405127
0.000412158
0.000415958
0.000416703
0.00040999
0.000393577
0.000369222
0.000338334
0.000302433
0.000262685
0.000220296
0.000176218
0.000131388
8.65924e-05
4.25688e-05
0
0
2.70302e-05
5.38968e-05
8.04376e-05
0.000108065
0.000133832
0.000158798
0.000182831
0.000205815
0.000227646
0.000248239
0.000267521
0.000285434
0.00030965
0.000330603
0.000348263
0.000362648
0.000381867
0.00038912
0.000372569
0.000323791
0.000253472
0.000171014
8.43172e-05
0
0
1.19082e-05
2.37999e-05
3.56599e-05
4.74732e-05
5.92224e-05
7.08952e-05
8.31745e-05
9.53341e-05
0.000106836
0.000118199
0.000129402
0.000140438
0.000151286
0.000161943
0.000172386
0.000182614
0.000192607
0.000202364
0.000211866
0.000221113
0.000230088
0.000238793
0.000247211
0.000255346
0.000266987
0.00027796
0.000288234
0.000297816
0.000306683
0.000314844
0.000322286
0.000329019
0.000340344
0.000348881
0.000354688
0.000357861
0.000356806
0.000346706
0.000328816
0.000304219
0.000274244
0.00023991
0.000202426
0.000162707
0.00012178
8.04699e-05
3.96244e-05
0
0
1.97163e-05
3.93407e-05
5.87814e-05
7.91056e-05
9.81713e-05
0.000116774
0.000134832
0.000152269
0.000169014
0.000185002
0.000200177
0.000214487
0.000234237
0.000251826
0.000267169
0.000280212
0.000299334
0.000309306
0.000303806
0.000269723
0.00021469
0.000146574
7.27801e-05
0
0
8.05913e-06
1.61096e-05
2.41433e-05
3.21524e-05
4.01272e-05
4.80617e-05
5.64235e-05
6.47217e-05
7.25905e-05
8.03849e-05
8.8092e-05
9.57093e-05
0.000103224
0.000110633
0.000117925
0.000125098
0.000132139
0.000139049
0.000145813
0.000152434
0.000158897
0.000165206
0.000171346
0.000177322
0.00018595
0.000194182
0.000201986
0.000209369
0.000216302
0.000222795
0.000228823
0.000234397
0.000244114
0.000251968
0.000257911
0.000261997
0.000264627
0.000260364
0.000249747
0.000233497
0.000212435
0.00018735
0.000159161
0.00012865
9.6713e-05
6.41026e-05
3.16281e-05
0
0
1.237e-05
2.4693e-05
3.69218e-05
4.97411e-05
6.18104e-05
7.36393e-05
8.51833e-05
9.63998e-05
0.000107248
0.000117691
0.000127691
0.000137217
0.00015055
0.000162658
0.000173467
0.000182918
0.000197584
0.000206475
0.000207268
0.000187594
0.000151678
0.000104751
5.23785e-05
0
0
4.646e-06
9.28782e-06
1.39214e-05
1.85431e-05
2.31481e-05
2.77334e-05
3.25705e-05
3.73767e-05
4.19404e-05
4.64678e-05
5.09521e-05
5.53923e-05
5.97813e-05
6.41189e-05
6.83973e-05
7.26172e-05
7.67704e-05
8.08582e-05
8.48723e-05
8.88143e-05
9.26759e-05
9.64592e-05
0.000100156
0.000103768
0.000109012
0.000114052
0.000118866
0.000123459
0.000127811
0.000131929
0.000135793
0.000139412
0.000145848
0.000151255
0.000155556
0.000158793
0.000161899
0.000160835
0.000155634
0.000146769
0.000134531
0.00011948
0.000102086
8.29334e-05
6.25805e-05
4.15981e-05
2.05624e-05
0
0
6.5631e-06
1.31043e-05
1.96016e-05
2.64226e-05
3.28572e-05
3.91791e-05
4.53669e-05
5.13999e-05
5.7258e-05
6.29223e-05
6.83744e-05
7.35972e-05
8.09661e-05
8.77328e-05
9.38533e-05
9.92898e-05
0.000107994
0.000113671
0.000115788
0.000106234
8.68927e-05
6.0535e-05
3.0433e-05
0
0
2.24275e-06
4.48368e-06
6.72103e-06
8.9532e-06
1.11779e-05
1.33942e-05
1.57332e-05
1.80588e-05
2.02684e-05
2.24622e-05
2.46368e-05
2.67922e-05
2.89248e-05
3.10348e-05
3.31184e-05
3.51763e-05
3.72043e-05
3.92035e-05
4.11695e-05
4.31037e-05
4.50014e-05
4.68646e-05
4.86882e-05
5.04745e-05
5.30743e-05
5.55827e-05
5.79871e-05
6.02922e-05
6.24853e-05
6.45722e-05
6.65402e-05
6.83958e-05
7.1729e-05
7.45841e-05
7.6906e-05
7.87249e-05
8.06967e-05
8.0635e-05
7.84356e-05
7.43738e-05
6.84871e-05
6.11101e-05
5.24033e-05
4.27212e-05
3.23145e-05
2.15241e-05
1.06531e-05
0
0
3.03796e-06
6.06641e-06
9.07591e-06
1.22375e-05
1.52229e-05
1.81594e-05
2.10377e-05
2.38486e-05
2.65834e-05
2.92333e-05
3.17903e-05
3.42465e-05
3.77255e-05
4.09376e-05
4.38617e-05
4.64791e-05
5.07325e-05
5.36007e-05
5.50276e-05
5.08729e-05
4.18884e-05
2.93328e-05
1.47949e-05
0
0
9.9229e-07
1.98381e-06
2.9738e-06
3.9616e-06
4.94624e-06
5.92726e-06
6.96285e-06
7.99274e-06
8.97155e-06
9.94365e-06
1.09076e-05
1.18633e-05
1.28093e-05
1.37458e-05
1.46709e-05
1.55851e-05
1.64865e-05
1.73757e-05
1.82506e-05
1.9112e-05
1.99577e-05
2.07887e-05
2.16027e-05
2.24007e-05
2.35634e-05
2.4687e-05
2.57655e-05
2.68015e-05
2.77889e-05
2.87305e-05
2.96203e-05
3.04617e-05
3.19786e-05
3.32884e-05
3.43624e-05
3.52168e-05
3.61816e-05
3.6248e-05
3.53387e-05
3.35928e-05
3.09964e-05
2.77192e-05
2.38076e-05
1.94424e-05
1.47215e-05
9.81586e-06
4.86107e-06
0
0
1.26235e-06
2.52087e-06
3.77176e-06
5.08627e-06
6.32799e-06
7.54998e-06
8.74844e-06
9.91966e-06
1.10601e-05
1.21661e-05
1.32345e-05
1.42619e-05
1.57196e-05
1.70685e-05
1.82999e-05
1.94057e-05
2.12141e-05
2.2451e-05
2.3129e-05
2.14563e-05
1.77208e-05
1.24388e-05
6.28346e-06
0
0
3.82432e-07
7.64579e-07
1.14614e-06
1.52689e-06
1.90643e-06
2.28462e-06
2.68385e-06
3.08097e-06
3.45839e-06
3.83332e-06
4.2051e-06
4.57385e-06
4.93884e-06
5.30028e-06
5.65737e-06
6.01039e-06
6.35848e-06
6.70201e-06
7.04004e-06
7.37304e-06
7.69999e-06
8.02145e-06
8.33634e-06
8.64528e-06
9.09541e-06
9.53096e-06
9.94906e-06
1.03513e-05
1.07346e-05
1.11008e-05
1.14469e-05
1.17748e-05
1.23662e-05
1.28798e-05
1.33012e-05
1.36397e-05
1.40252e-05
1.40698e-05
1.37284e-05
1.30668e-05
1.20661e-05
1.08026e-05
9.2838e-06
7.58833e-06
5.74799e-06
3.8346e-06
1.89976e-06
0
0
4.70856e-07
9.40296e-07
1.40692e-06
1.89735e-06
2.36069e-06
2.81678e-06
3.26419e-06
3.70157e-06
4.12758e-06
4.54093e-06
4.94037e-06
5.3247e-06
5.87035e-06
6.3758e-06
6.83772e-06
7.25311e-06
7.93413e-06
8.40251e-06
8.66891e-06
8.05413e-06
6.66095e-06
4.6806e-06
2.36615e-06
0
0
1.37739e-07
2.75377e-07
4.12806e-07
5.49946e-07
6.86647e-07
8.22872e-07
9.66677e-07
1.10973e-06
1.24569e-06
1.38076e-06
1.5147e-06
1.64757e-06
1.77908e-06
1.90933e-06
2.03801e-06
2.16524e-06
2.2907e-06
2.41454e-06
2.5364e-06
2.65647e-06
2.77436e-06
2.89029e-06
3.00386e-06
3.11531e-06
3.27771e-06
3.43491e-06
3.58581e-06
3.73106e-06
3.86949e-06
4.00184e-06
4.1269e-06
4.24549e-06
4.45942e-06
4.64556e-06
4.79835e-06
4.92154e-06
5.06231e-06
5.08109e-06
4.95924e-06
4.72259e-06
4.36206e-06
3.90709e-06
3.35843e-06
2.7461e-06
2.08033e-06
1.38812e-06
6.87819e-07
0
0
1.67792e-07
3.35086e-07
5.01384e-07
6.7617e-07
8.41318e-07
1.00389e-06
1.16339e-06
1.31933e-06
1.47123e-06
1.61865e-06
1.76113e-06
1.89825e-06
2.09298e-06
2.27345e-06
2.43846e-06
2.58695e-06
2.83074e-06
2.99891e-06
3.09615e-06
2.8784e-06
2.38177e-06
1.67432e-06
8.46589e-07
0
0
4.87397e-08
9.74418e-08
1.46073e-07
1.94597e-07
2.42973e-07
2.91172e-07
3.42065e-07
3.92679e-07
4.40798e-07
4.88589e-07
5.35996e-07
5.83005e-07
6.29556e-07
6.7564e-07
7.21193e-07
7.66212e-07
8.10629e-07
8.54447e-07
8.97595e-07
9.40079e-07
9.81827e-07
1.02285e-06
1.06307e-06
1.10251e-06
1.16005e-06
1.21567e-06
1.26916e-06
1.32055e-06
1.36963e-06
1.41646e-06
1.46084e-06
1.50281e-06
1.57888e-06
1.64466e-06
1.69917e-06
1.74272e-06
1.794e-06
1.79997e-06
1.75811e-06
1.67352e-06
1.54684e-06
1.38496e-06
1.19118e-06
9.73636e-07
7.37854e-07
4.92175e-07
2.43763e-07
0
0
5.09552e-08
1.01756e-07
1.52254e-07
2.0533e-07
2.55481e-07
3.04851e-07
3.53289e-07
4.0065e-07
4.46788e-07
4.91565e-07
5.34846e-07
5.76501e-07
6.35659e-07
6.90491e-07
7.40629e-07
7.85743e-07
8.59782e-07
9.10807e-07
9.40169e-07
8.74131e-07
7.23401e-07
5.08608e-07
2.57242e-07
0
0
0
0
0
0
0
0
0
0
0
0
0
0
0
0
0
0
0
0
0
0
0
0
0
0
0
0
0
0
0
0
0
0
0
0
0
0
0
0
0
0
0
0
0
0
0
0
0
0
SCALARS Displacement_Z double 1
LOOKUP_TABLE default
0.0985611
0.0985599
0.0985448
0.0985145
0.0984032
0.0981607
0.0973141
0.0965217
0.0963106
0.0962214
0.0961741
0.0961304
0.096088
0.0960433
0.0959975
0.0959504
0.0959028
0.0958547
0.0958062
0.0957573
0.0957082
0.0956587
0.095609
0.0955591
0.0955091
0.0954338
0.0953584
0.095283
0.0952079
0.095133
0.0950586
0.0949847
0.0949114
0.094767
0.0946261
0.0944891
0.0943566
0.094106
0.0938767
0.0936696
0.0934858
0.0933251
0.0931878
0.0930734
0.0929814
0.0929112
0.0928621
0.0928332
0.0928238
0.0983553
0.0983374
0.0982202
0.0972275
0.0963127
0.0961887
0.0961002
0.0960079
0.0959115
0.0958137
0.0957148
0.0956148
0.0955142
0.0953627
0.0952115
0.0950616
0.0949138
0.0946276
0.0943575
0.0938767
0.0934852
0.0931869
0.0929803
0.0928609
0.0928226
0.0981427
0.0981408
0.0981307
0.0981016
0.0980144
0.0977374
0.0971382
0.0965598
0.096327
0.0962498
0.0962018
0.0961575
0.0961124
0.0960655
0.0960175
0.0959688
0.0959197
0.0958704
0.0958208
0.095771
0.095721
0.0956708
0.0956203
0.0955698
0.0955191
0.0954429
0.0953668
0.0952907
0.0952149
0.0951394
0.0950644
0.0949899
0.0949161
0.0947708
0.0946291
0.0944914
0.0943583
0.0941067
0.0938766
0.0936689
0.0934846
0.0933236
0.093186
0.0930714
0.0929792
0.0929089
0.0928597
0.0928308
0.0928214
0.0979264
0.0979175
0.0977864
0.0970466
0.0963515
0.096217
0.0961241
0.0960267
0.0959275
0.0958276
0.0957269
0.0956255
0.0955237
0.0953706
0.0952181
0.095067
0.0949182
0.0946304
0.094359
0.0938764
0.0934839
0.093185
0.0929781
0.0928584
0.0928201
0.0977148
0.0977134
0.0976965
0.0976598
0.0975644
0.0973332
0.0969535
0.0965754
0.0963734
0.096289
0.0962337
0.0961836
0.0961349
0.0960853
0.0960353
0.0959851
0.0959348
0.0958844
0.0958339
0.0957833
0.0957325
0.0956815
0.0956304
0.0955793
0.095528
0.0954511
0.0953742
0.0952975
0.095221
0.0951449
0.0950694
0.0949944
0.0949201
0.094774
0.0946315
0.0944932
0.0943595
0.094107
0.0938761
0.0936679
0.0934831
0.0933218
0.093184
0.0930692
0.0929769
0.0929064
0.0928572
0.0928282
0.0928188
0.0975023
0.0974807
0.0973412
0.0968618
0.0963964
0.0962487
0.0961451
0.0960432
0.0959416
0.0958398
0.0957377
0.095635
0.0955321
0.0953775
0.0952237
0.0950716
0.0949219
0.0946325
0.0943599
0.0938758
0.0934823
0.0931829
0.0929756
0.0928558
0.0928174
0.097297
0.0972897
0.0972662
0.0972216
0.0971339
0.0969823
0.0967713
0.0965542
0.0964115
0.0963266
0.0962632
0.0962075
0.0961541
0.0961021
0.0960504
0.0959991
0.0959478
0.0958966
0.0958453
0.0957939
0.0957425
0.0956909
0.0956393
0.0955876
0.0955358
0.0954582
0.0953806
0.0953032
0.0952262
0.0951496
0.0950736
0.0949981
0.0949234
0.0947765
0.0946334
0.0944945
0.0943602
0.0941069
0.0938754
0.0936667
0.0934814
0.0933198
0.0931818
0.0930668
0.0929743
0.0929038
0.0928545
0.0928255
0.092816
0.097096
0.0970636
0.0969397
0.0966846
0.0964207
0.0962742
0.0961621
0.0960568
0.0959534
0.0958503
0.0957469
0.0956432
0.0955393
0.0953834
0.0952285
0.0950754
0.0949248
0.0946341
0.0943604
0.0938749
0.0934805
0.0931806
0.092973
0.0928531
0.0928146
0.0969052
0.0968973
0.096873
0.0968314
0.0967709
0.0966922
0.0966015
0.0965042
0.0964174
0.0963457
0.0962821
0.0962238
0.0961685
0.096115
0.0960624
0.0960104
0.0959585
0.0959067
0.0958549
0.095803
0.095751
0.095699
0.0956468
0.0955946
0.0955424
0.0954641
0.095386
0.0953081
0.0952305
0.0951535
0.095077
0.0950011
0.094926
0.0947784
0.0946347
0.0944952
0.0943605
0.0941064
0.0938743
0.0936651
0.0934795
0.0933176
0.0931793
0.0930642
0.0929716
0.092901
0.0928516
0.0928226
0.0928131
0.096871
0.0968394
0.0967423
0.0965892
0.0964197
0.0962868
0.0961731
0.0960665
0.0959622
0.0958582
0.095754
0.0956495
0.0955448
0.095388
0.0952322
0.0950783
0.0949271
0.0946353
0.0943608
0.0938741
0.0934791
0.0931788
0.092971
0.0928509
0.0928124
0.0968369
0.0968293
0.0968066
0.0967686
0.0967158
0.0966502
0.0965767
0.0964965
0.09642
0.0963527
0.0962907
0.0962326
0.0961771
0.0961232
0.0960702
0.0960178
0.0959656
0.0959134
0.0958612
0.095809
0.0957567
0.0957043
0.0956519
0.0955994
0.0955469
0.0954682
0.0953897
0.0953115
0.0952336
0.0951562
0.0950795
0.0950034
0.094928
0.09478
0.0946358
0.0944961
0.0943611
0.0941065
0.093874
0.0936645
0.0934787
0.0933167
0.0931782
0.093063
0.0929703
0.0928997
0.0928502
0.0928212
0.0928117
0.096804
0.0967753
0.0966909
0.0965643
0.096419
0.0962934
0.0961804
0.0960735
0.0959685
0.0958639
0.0957591
0.095654
0.0955488
0.0953913
0.0952349
0.0950805
0.0949288
0.0946363
0.0943612
0.0938738
0.0934783
0.0931777
0.0929697
0.0928496
0.0928111
0.0967726
0.0967658
0.0967457
0.0967126
0.0966678
0.0966131
0.096552
0.0964841
0.0964167
0.0963546
0.0962952
0.0962383
0.0961832
0.0961294
0.0960763
0.0960236
0.0959712
0.0959187
0.0958663
0.0958138
0.0957613
0.0957086
0.0956559
0.0956032
0.0955505
0.0954715
0.0953926
0.0953141
0.095236
0.0951584
0.0950814
0.0950051
0.0949295
0.0947811
0.0946367
0.0944966
0.0943614
0.0941064
0.0938736
0.0936639
0.0934779
0.0933157
0.0931771
0.0930618
0.0929691
0.0928984
0.092849
0.0928199
0.0928104
0.0967432
0.0967181
0.0966462
0.09654
0.0964135
0.096296
0.0961853
0.0960786
0.0959734
0.0958684
0.0957631
0.0956575
0.0955519
0.0953938
0.0952369
0.0950821
0.0949301
0.0946369
0.0943614
0.0938733
0.0934775
0.0931766
0.0929685
0.0928483
0.0928098
0.0967158
0.0967099
0.0966925
0.0966642
0.0966262
0.0965801
0.0965283
0.0964696
0.0964095
0.0963523
0.0962961
0.096241
0.0961868
0.0961334
0.0960805
0.0960278
0.0959752
0.0959227
0.0958701
0.0958174
0.0957646
0.0957118
0.0956589
0.095606
0.0955531
0.0954738
0.0953947
0.095316
0.0952376
0.0951598
0.0950826
0.0950062
0.0949305
0.0947818
0.0946371
0.0944968
0.0943614
0.0941062
0.093873
0.0936632
0.093477
0.0933147
0.0931761
0.0930607
0.092968
0.0928972
0.0928478
0.0928187
0.0928092
0.0966905
0.0966689
0.0966077
0.096517
0.096405
0.0962954
0.0961877
0.0960819
0.0959767
0.0958714
0.0957658
0.0956599
0.095554
0.0953954
0.0952382
0.095083
0.0949308
0.0946372
0.0943613
0.0938727
0.0934766
0.0931756
0.0929674
0.0928472
0.0928086
0.0966673
0.0966622
0.0966473
0.0966231
0.0965906
0.096551
0.0965061
0.0964543
0.0964001
0.0963472
0.096294
0.0962409
0.096188
0.0961354
0.0960828
0.0960303
0.0959778
0.0959252
0.0958725
0.0958196
0.0957667
0.0957138
0.0956607
0.0956077
0.0955547
0.0954752
0.0953959
0.095317
0.0952385
0.0951606
0.0950833
0.0950067
0.0949309
0.094782
0.0946371
0.0944967
0.0943611
0.0941057
0.0938724
0.0936624
0.0934762
0.0933138
0.0931751
0.0930597
0.0929669
0.0928961
0.0928466
0.0928176
0.0928081
0.096646
0.0966275
0.0965747
0.0964956
0.0963949
0.0962921
0.0961878
0.0960833
0.0959785
0.0958731
0.0957674
0.0956613
0.0955551
0.0953962
0.0952387
0.0950834
0.0949309
0.094637
0.0943609
0.093872
0.0934757
0.0931746
0.0929664
0.0928461
0.0928075
0.0966267
0.0966222
0.0966093
0.0965883
0.09656
0.0965253
0.0964855
0.0964391
0.0963895
0.0963402
0.0962897
0.0962386
0.0961871
0.0961353
0.0960833
0.0960311
0.0959787
0.0959262
0.0958735
0.0958206
0.0957677
0.0957146
0.0956615
0.0956083
0.0955552
0.0954756
0.0953963
0.0953173
0.0952387
0.0951607
0.0950833
0.0950066
0.0949307
0.0947817
0.0946368
0.0944963
0.0943606
0.094105
0.0938716
0.0936616
0.0934753
0.0933129
0.0931741
0.0930587
0.0929659
0.0928951
0.0928456
0.0928165
0.092807
0.0966089
0.0965927
0.0965464
0.096476
0.096384
0.096287
0.0961859
0.0960829
0.0959786
0.0958735
0.0957676
0.0956614
0.0955551
0.0953961
0.0952385
0.095083
0.0949304
0.0946364
0.0943602
0.0938712
0.0934748
0.0931736
0.0929654
0.0928451
0.0928065
0.0965928
0.0965889
0.0965775
0.0965589
0.0965337
0.0965027
0.0964668
0.0964243
0.0963783
0.0963319
0.0962839
0.0962345
0.0961843
0.0961335
0.0960821
0.0960303
0.0959781
0.0959257
0.0958731
0.0958203
0.0957673
0.0957142
0.0956611
0.0956079
0.0955548
0.0954751
0.0953957
0.0953167
0.0952381
0.09516
0.0950826
0.0950059
0.09493
0.094781
0.094636
0.0944955
0.0943598
0.0941042
0.0938708
0.0936607
0.0934743
0.0933119
0.0931732
0.0930577
0.0929649
0.0928942
0.0928446
0.0928156
0.0928061
0.0965694
0.0965554
0.096515
0.0964527
0.0963691
0.0962781
0.0961808
0.0960798
0.0959765
0.0958718
0.0957661
0.0956599
0.0955536
0.0953946
0.095237
0.0950815
0.094929
0.094635
0.0943589
0.0938699
0.0934736
0.0931724
0.0929642
0.0928439
0.0928054
0.0965491
0.0965458
0.0965361
0.0965201
0.0964984
0.0964713
0.0964396
0.0964015
0.0963597
0.0963168
0.0962717
0.0962247
0.0961764
0.0961269
0.0960765
0.0960255
0.0959739
0.0959219
0.0958695
0.0958169
0.095764
0.095711
0.095658
0.0956049
0.0955518
0.0954722
0.0953929
0.0953139
0.0952354
0.0951574
0.09508
0.0950034
0.0949276
0.0947787
0.0946338
0.0944934
0.0943578
0.0941023
0.093869
0.093659
0.0934728
0.0933104
0.0931717
0.0930563
0.0929635
0.0928928
0.0928433
0.0928142
0.0928047
0.0965313
0.096519
0.0964832
0.0964272
0.0963502
0.0962646
0.0961709
0.0960722
0.0959703
0.0958663
0.0957611
0.0956553
0.0955492
0.0953906
0.0952333
0.0950781
0.0949258
0.0946323
0.0943565
0.093868
0.093472
0.093171
0.0929629
0.0928427
0.0928041
0.0965153
0.0965123
0.0965035
0.096489
0.0964692
0.0964444
0.0964152
0.0963798
0.0963405
0.0962999
0.0962568
0.0962115
0.0961646
0.0961163
0.0960669
0.0960166
0.0959656
0.0959141
0.0958621
0.0958098
0.0957573
0.0957046
0.0956518
0.0955989
0.095546
0.0954667
0.0953877
0.095309
0.0952307
0.0951529
0.0950758
0.0949993
0.0949237
0.0947751
0.0946305
0.0944904
0.094355
0.0940999
0.0938669
0.0936572
0.0934711
0.0933089
0.0931703
0.093055
0.0929623
0.0928916
0.0928421
0.0928131
0.0928036
0.0965004
0.096489
0.0964559
0.0964034
0.0963305
0.0962482
0.0961573
0.0960605
0.09596
0.0958571
0.0957527
0.0956475
0.0955421
0.0953842
0.0952275
0.095073
0.0949212
0.0946285
0.0943533
0.0938658
0.0934703
0.0931696
0.0929617
0.0928416
0.0928031
0.096486
0.0964832
0.0964749
0.0964613
0.0964426
0.0964191
0.0963912
0.0963574
0.0963197
0.0962805
0.0962387
0.0961947
0.0961489
0.0961016
0.0960531
0.0960036
0.0959533
0.0959024
0.095851
0.0957993
0.0957472
0.0956949
0.0956425
0.09559
0.0955375
0.0954587
0.0953801
0.0953018
0.0952239
0.0951465
0.0950698
0.0949937
0.0949183
0.0947703
0.0946262
0.0944865
0.0943515
0.094097
0.0938645
0.0936552
0.0934694
0.0933074
0.093169
0.0930538
0.0929612
0.0928906
0.0928412
0.0928121
0.0928026
0.0964712
0.0964604
0.0964286
0.0963783
0.096308
0.0962281
0.0961395
0.0960446
0.0959457
0.0958441
0.0957409
0.0956368
0.0955322
0.0953755
0.0952199
0.0950661
0.0949151
0.0946237
0.0943495
0.0938632
0.0934685
0.0931684
0.0929607
0.0928408
0.0928023
0.0964549
0.0964523
0.0964443
0.0964312
0.0964132
0.0963907
0.0963639
0.0963312
0.0962948
0.0962568
0.0962162
0.0961734
0.0961287
0.0960825
0.096035
0.0959864
0.095937
0.0958869
0.0958363
0.0957852
0.0957338
0.0956822
0.0956303
0.0955784
0.0955264
0.0954483
0.0953704
0.0952927
0.0952153
0.0951385
0.0950621
0.0949865
0.0949116
0.0947643
0.0946209
0.0944817
0.0943473
0.0940937
0.0938619
0.093653
0.0934676
0.093306
0.0931678
0.0930528
0.0929603
0.0928898
0.0928404
0.0928115
0.092802
0.0963404
0.0963308
0.0963024
0.0962572
0.0961934
0.0961202
0.0960379
0.0959491
0.0958556
0.0957588
0.0956599
0.0955596
0.0954584
0.0953062
0.0951544
0.0950041
0.0948561
0.0945698
0.0942997
0.0938194
0.0934286
0.0931309
0.0929248
0.0928056
0.0927674
0.096227
0.0962248
0.0962182
0.0962072
0.0961922
0.0961731
0.0961504
0.0961226
0.0960912
0.0960583
0.0960228
0.0959851
0.0959454
0.0959041
0.0958612
0.0958171
0.0957719
0.0957258
0.095679
0.0956315
0.0955835
0.0955351
0.0954863
0.0954373
0.095388
0.0953138
0.0952395
0.0951652
0.0950911
0.0950172
0.0949437
0.0948708
0.0947984
0.0946557
0.0945165
0.0943811
0.09425
0.0940022
0.093775
0.09357
0.0933878
0.0932286
0.0930924
0.092979
0.0928877
0.092818
0.0927693
0.0927406
0.0927313
0.0961143
0.0961061
0.0960822
0.0960435
0.0959885
0.0959244
0.0958514
0.0957714
0.0956862
0.0955969
0.0955048
0.0954107
0.0953152
0.0951705
0.0950254
0.0948811
0.0947384
0.094461
0.0941983
0.0937288
0.0933452
0.0930522
0.0928489
0.0927313
0.0926935
0.0960021
0.0960002
0.0959945
0.0959852
0.0959723
0.095956
0.0959364
0.0959123
0.095885
0.0958561
0.0958248
0.0957913
0.0957559
0.0957187
0.0956799
0.0956397
0.0955984
0.095556
0.0955127
0.0954687
0.0954239
0.0953786
0.0953328
0.0952866
0.0952401
0.0951699
0.0950992
0.0950284
0.0949575
0.0948867
0.0948161
0.0947459
0.0946762
0.0945384
0.0944035
0.094272
0.0941445
0.0939028
0.0936806
0.0934798
0.0933008
0.0931443
0.0930103
0.0928985
0.0928085
0.0927398
0.0926917
0.0926634
0.0926542
0.0958343
0.0958275
0.0958076
0.0957752
0.0957285
0.0956736
0.0956101
0.0955395
0.0954634
0.0953828
0.0952987
0.095212
0.0951234
0.0949881
0.0948515
0.0947147
0.0945788
0.0943132
0.09406
0.0936049
0.0932309
0.0929442
0.0927448
0.0926292
0.0925921
0.0956667
0.0956651
0.0956606
0.095653
0.0956425
0.0956292
0.0956131
0.0955932
0.0955705
0.0955464
0.09552
0.0954916
0.0954614
0.0954293
0.0953958
0.0953608
0.0953245
0.095287
0.0952486
0.0952092
0.095169
0.0951281
0.0950866
0.0950445
0.095002
0.0949374
0.0948722
0.0948066
0.0947406
0.0946745
0.0946083
0.0945424
0.0944766
0.0943463
0.0942182
0.0940929
0.093971
0.093739
0.0935249
0.0933306
0.0931569
0.0930048
0.0928742
0.0927652
0.0926772
0.0926101
0.092563
0.0925353
0.0925263
0.0954989
0.0954933
0.0954769
0.09545
0.0954109
0.0953644
0.09531
0.0952488
0.095182
0.0951105
0.0950352
0.0949568
0.0948761
0.0947518
0.0946251
0.0944974
0.0943698
0.0941187
0.0938775
0.0934406
0.0930789
0.0928003
0.0926059
0.092493
0.0924568
0.0953305
0.0953292
0.0953254
0.0953191
0.0953104
0.0952992
0.0952857
0.0952689
0.0952496
0.0952291
0.0952066
0.0951822
0.095156
0.0951282
0.0950989
0.0950682
0.0950362
0.095003
0.0949688
0.0949335
0.0948974
0.0948606
0.094823
0.0947847
0.0947459
0.0946868
0.0946269
0.0945662
0.0945051
0.0944436
0.0943819
0.0943201
0.0942584
0.0941357
0.0940146
0.0938957
0.0937796
0.0935578
0.0933521
0.0931647
0.0929968
0.0928494
0.0927225
0.0926164
0.0925308
0.0924653
0.0924193
0.0923923
0.0923835
0.0951613
0.0951567
0.0951428
0.09512
0.0950867
0.0950467
0.0949995
0.0949461
0.0948872
0.0948235
0.094756
0.0946852
0.0946117
0.0944978
0.0943807
0.094262
0.0941426
0.0939061
0.0936773
0.0932593
0.0929106
0.0926407
0.0924517
0.0923418
0.0923064
0.0949911
0.0949901
0.0949868
0.0949815
0.094974
0.0949644
0.0949529
0.0949385
0.0949219
0.0949042
0.0948847
0.0948635
0.0948406
0.0948163
0.0947905
0.0947634
0.0947351
0.0947056
0.094675
0.0946434
0.094611
0.0945777
0.0945436
0.0945089
0.0944736
0.0944196
0.0943646
0.0943087
0.0942522
0.0941951
0.0941378
0.0940802
0.0940225
0.0939074
0.0937932
0.0936807
0.0935706
0.0933592
0.0931623
0.0929822
0.0928204
0.0926779
0.092555
0.0924521
0.0923688
0.0923051
0.0922604
0.0922341
0.0922255
0.0947623
0.0947584
0.0947467
0.0947276
0.0946994
0.0946654
0.094625
0.0945789
0.0945277
0.0944719
0.0944123
0.0943493
0.0942836
0.0941808
0.0940744
0.0939657
0.0938557
0.093636
0.0934217
0.0930264
0.0926936
0.0924344
0.0922521
0.0921458
0.0921116
0.0945309
0.0945301
0.0945274
0.094523
0.0945168
0.0945089
0.0944993
0.0944873
0.0944735
0.0944587
0.0944424
0.0944245
0.0944052
0.0943846
0.0943627
0.0943395
0.0943152
0.0942898
0.0942634
0.0942361
0.0942078
0.0941787
0.0941489
0.0941184
0.0940872
0.0940393
0.0939903
0.0939404
0.0938897
0.0938383
0.0937864
0.0937341
0.0936816
0.0935763
0.0934713
0.0933674
0.0932652
0.0930679
0.092883
0.092713
0.0925595
0.0924239
0.0923066
0.0922082
0.0921284
0.0920673
0.0920243
0.091999
0.0919907
0.0942968
0.0942935
0.0942838
0.0942678
0.0942441
0.0942154
0.0941812
0.0941418
0.0940978
0.0940496
0.0939977
0.0939425
0.0938846
0.0937933
0.0936981
0.0936001
0.0935003
0.0932993
0.0931012
0.0927321
0.0924181
0.0921717
0.0919976
0.0918957
0.0918629
0.0940596
0.0940588
0.0940566
0.0940529
0.0940477
0.094041
0.0940329
0.0940228
0.0940111
0.0939985
0.0939846
0.0939694
0.0939529
0.0939353
0.0939164
0.0938965
0.0938755
0.0938535
0.0938306
0.0938068
0.0937821
0.0937566
0.0937304
0.0937035
0.093676
0.0936336
0.09359
0.0935454
0.0934999
0.0934537
0.0934069
0.0933597
0.093312
0.0932161
0.09312
0.0930244
0.0929299
0.0927467
0.0925739
0.0924142
0.0922694
0.0921409
0.0920295
0.0919358
0.0918596
0.0918012
0.0917601
0.0917359
0.0917279
0.093575
0.0935725
0.0935649
0.0935523
0.0935336
0.0935109
0.0934836
0.093452
0.0934165
0.0933773
0.0933349
0.0932894
0.0932413
0.093165
0.0930845
0.0930009
0.0929151
0.0927402
0.0925657
0.0922354
0.0919499
0.0917234
0.0915622
0.0914674
0.0914367
0.0930759
0.0930754
0.0930737
0.093071
0.0930672
0.0930623
0.0930563
0.0930488
0.0930402
0.0930308
0.0930205
0.0930091
0.0929968
0.0929835
0.0929693
0.0929542
0.0929383
0.0929215
0.092904
0.0928857
0.0928666
0.0928469
0.0928266
0.0928056
0.092784
0.0927506
0.0927161
0.0926806
0.0926442
0.092607
0.0925691
0.0925306
0.0924916
0.0924126
0.0923328
0.0922527
0.092173
0.0920167
0.0918677
0.0917284
0.0916011
0.0914874
0.0913881
0.0913041
0.0912357
0.091183
0.0911458
0.0911239
0.0911167
0.0922971
0.0922953
0.09229
0.0922812
0.0922681
0.092252
0.0922327
0.0922101
0.0921846
0.0921563
0.0921253
0.092092
0.0920564
0.0919994
0.0919386
0.0918747
0.0918084
0.0916713
0.091532
0.0912622
0.0910232
0.0908302
0.0906911
0.0906087
0.0905819
0.0914792
0.0914789
0.0914778
0.0914759
0.0914734
0.0914701
0.0914661
0.0914611
0.0914553
0.0914491
0.0914421
0.0914344
0.0914261
0.0914171
0.0914075
0.0913972
0.0913863
0.0913748
0.0913627
0.0913501
0.0913369
0.0913232
0.091309
0.0912943
0.0912792
0.0912556
0.0912311
0.0912058
0.0911796
0.0911528
0.0911253
0.0910972
0.0910686
0.0910103
0.0909506
0.0908903
0.0908296
0.0907092
0.0905924
0.090482
0.0903798
0.0902875
0.0902063
0.0901371
0.0900804
0.0900365
0.0900054
0.089987
0.089981
0.0901725
0.0901714
0.0901681
0.0901626
0.0901544
0.0901444
0.0901322
0.090118
0.0901019
0.0900838
0.090064
0.0900425
0.0900194
0.0899821
0.089942
0.0898993
0.0898546
0.0897606
0.0896633
0.0894695
0.0892928
0.0891466
0.0890395
0.0889753
0.0889544
0.0887628
0.0887626
0.088762
0.0887609
0.0887594
0.0887575
0.0887552
0.0887523
0.088749
0.0887453
0.0887413
0.0887368
0.0887319
0.0887266
0.088721
0.0887149
0.0887085
0.0887017
0.0886946
0.0886871
0.0886792
0.088671
0.0886625
0.0886537
0.0886446
0.0886304
0.0886155
0.0886
0.088584
0.0885675
0.0885505
0.088533
0.0885152
0.0884785
0.0884405
0.0884018
0.0883625
0.0882834
0.0882054
0.0881305
0.0880601
0.0879959
0.0879386
0.0878895
0.0878488
0.0878172
0.0877946
0.0877813
0.0877769
0.0867109
0.0867103
0.0867085
0.0867055
0.086701
0.0866956
0.0866889
0.0866811
0.0866722
0.0866623
0.0866513
0.0866393
0.0866264
0.0866054
0.0865827
0.0865583
0.0865326
0.0864778
0.0864201
0.0863025
0.086192
0.0860985
0.0860286
0.0859862
0.0859723
0.08445
0.0844499
0.0844496
0.0844491
0.0844483
0.0844474
0.0844462
0.0844447
0.084443
0.0844411
0.0844391
0.0844368
0.0844343
0.0844316
0.0844287
0.0844256
0.0844223
0.0844188
0.0844151
0.0844113
0.0844072
0.084403
0.0843986
0.084394
0.0843893
0.0843819
0.0843741
0.084366
0.0843576
0.0843489
0.0843399
0.0843306
0.0843211
0.0843014
0.084281
0.08426
0.0842385
0.0841948
0.0841511
0.0841085
0.084068
0.0840307
0.083997
0.0839679
0.0839436
0.0839247
0.083911
0.083903
0.0839003
0.0813137
0.0813135
0.0813126
0.0813112
0.0813091
0.0813065
0.0813033
0.0812996
0.0812954
0.0812906
0.0812853
0.0812796
0.0812734
0.0812632
0.0812522
0.0812403
0.0812277
0.0812006
0.0811718
0.0811121
0.0810548
0.0810053
0.0809679
0.0809449
0.0809373
0.0778186
0.0778185
0.0778184
0.0778181
0.0778178
0.0778174
0.0778169
0.0778162
0.0778155
0.0778146
0.0778137
0.0778127
0.0778116
0.0778104
0.0778092
0.0778078
0.0778063
0.0778048
0.0778032
0.0778014
0.0777996
0.0777978
0.0777958
0.0777938
0.0777917
0.0777884
0.0777849
0.0777813
0.0777775
0.0777736
0.0777695
0.0777654
0.0777611
0.0777522
0.0777429
0.0777333
0.0777234
0.0777033
0.0776829
0.0776629
0.0776438
0.077626
0.0776098
0.0775957
0.0775839
0.0775746
0.0775679
0.077564
0.0775627
0.0736815
0.0736814
0.073681
0.0736804
0.0736795
0.0736784
0.073677
0.0736754
0.0736736
0.0736715
0.0736692
0.0736668
0.0736641
0.0736597
0.0736549
0.0736497
0.0736442
0.0736323
0.0736196
0.0735931
0.0735673
0.0735448
0.0735276
0.073517
0.0735135
0.0691127
0.0691127
0.0691127
0.0691126
0.0691124
0.0691122
0.069112
0.0691118
0.0691114
0.0691111
0.0691107
0.0691103
0.0691098
0.0691093
0.0691088
0.0691082
0.0691076
0.069107
0.0691063
0.0691056
0.0691048
0.069104
0.0691032
0.0691024
0.0691015
0.0691001
0.0690986
0.0690971
0.0690955
0.0690939
0.0690922
0.0690904
0.0690886
0.0690848
0.0690809
0.0690768
0.0690726
0.069064
0.0690553
0.0690467
0.0690384
0.0690307
0.0690237
0.0690175
0.0690124
0.0690083
0.0690054
0.0690037
0.0690031
0.063448
0.063448
0.0634478
0.0634476
0.0634472
0.0634468
0.0634462
0.0634456
0.0634449
0.0634441
0.0634432
0.0634422
0.0634411
0.0634394
0.0634375
0.0634355
0.0634333
0.0634286
0.0634235
0.0634129
0.0634026
0.0633935
0.0633866
0.0633822
0.0633808
0.0572214
0.0572214
0.0572213
0.0572213
0.0572212
0.0572212
0.0572211
0.057221
0.0572209
0.0572208
0.0572206
0.0572205
0.0572203
0.0572201
0.0572199
0.0572197
0.0572195
0.0572192
0.057219
0.0572187
0.0572184
0.0572182
0.0572178
0.0572175
0.0572172
0.0572167
0.0572162
0.0572156
0.057215
0.0572144
0.0572138
0.0572131
0.0572124
0.057211
0.0572096
0.0572081
0.0572065
0.0572033
0.0572001
0.0571969
0.0571938
0.0571909
0.0571882
0.0571859
0.057184
0.0571824
0.0571813
0.0571807
0.0571804
0.0500343
0.0500343
0.0500343
0.0500342
0.050034
0.0500339
0.0500337
0.0500335
0.0500332
0.0500329
0.0500326
0.0500323
0.0500319
0.0500313
0.0500306
0.0500299
0.0500291
0.0500275
0.0500257
0.0500219
0.0500182
0.050015
0.0500125
0.0500109
0.0500104
0.0422132
0.0422132
0.0422131
0.0422131
0.0422131
0.0422131
0.0422131
0.042213
0.042213
0.042213
0.0422129
0.0422129
0.0422128
0.0422127
0.0422127
0.0422126
0.0422125
0.0422124
0.0422124
0.0422123
0.0422122
0.0422121
0.042212
0.0422119
0.0422118
0.0422116
0.0422114
0.0422112
0.042211
0.0422108
0.0422106
0.0422104
0.0422102
0.0422097
0.0422092
0.0422087
0.0422082
0.0422071
0.042206
0.0422049
0.0422039
0.0422029
0.042202
0.0422012
0.0422006
0.0422001
0.0421997
0.0421995
0.0421994
0.0332931
0.033293
0.033293
0.033293
0.033293
0.0332929
0.0332929
0.0332928
0.0332927
0.0332926
0.0332925
0.0332924
0.0332923
0.0332921
0.0332919
0.0332917
0.0332915
0.0332909
0.0332904
0.0332892
0.0332881
0.0332871
0.0332863
0.0332859
0.0332857
0.0236667
0.0236667
0.0236667
0.0236667
0.0236667
0.0236667
0.0236667
0.0236667
0.0236667
0.0236667
0.0236667
0.0236667
0.0236667
0.0236666
0.0236666
0.0236666
0.0236666
0.0236666
0.0236665
0.0236665
0.0236665
0.0236665
0.0236664
0.0236664
0.0236664
0.0236663
0.0236663
0.0236662
0.0236662
0.0236661
0.0236661
0.023666
0.023666
0.0236659
0.0236657
0.0236656
0.0236655
0.0236652
0.0236649
0.0236646
0.0236644
0.0236641
0.0236639
0.0236637
0.0236635
0.0236634
0.0236633
0.0236632
0.0236632
0.0122612
0.0122612
0.0122612
0.0122612
0.0122612
0.0122612
0.0122612
0.0122612
0.0122612
0.0122612
0.0122612
0.0122611
0.0122611
0.0122611
0.0122611
0.012261
0.012261
0.0122609
0.0122609
0.0122607
0.0122605
0.0122604
0.0122603
0.0122602
0.0122602
-0
-0
-0
-0
-0
-0
-0
-0
-0
-0
-0
-0
-0
-0
-0
-0
-0
-0
-0
-0
-0
-0
-0
-0
-0
-0
-0
-0
-0
-0
-0
-0
-0
-0
-0
-0
-0
-0
-0
-0
-0
-0
-0
-0
-0
-0
-0
-0
-0
SCALARS Stress_R double 1
LOOKUP_TABLE default
42.2645
43.8184
44.2527
46.7747
53.0644
62.2239
25.455
-7.36454
0.141939
5.38049
6.20665
5.15033
4.85081
4.26012
3.60548
3.19369
2.79619
2.54495
2.27339
2.08452
1.88919
1.73836
1.58367
1.4569
1.32665
1.1658
1.00629
0.874669
0.743061
0.631926
0.521326
0.427824
0.331391
0.178901
0.0331898
-0.0757565
-0.185898
-0.331202
-0.459175
-0.530909
-0.595034
-0.627381
-0.654548
-0.663475
-0.668876
-0.663471
-0.6556
-0.640337
-0.624963
42.2571
42.9551
40.3109
24.619
9.52505
6.02581
4.7207
3.50386
2.74294
2.22946
1.85302
1.55498
1.30491
0.994337
0.739564
0.525527
0.341185
0.0536162
-0.159374
-0.423108
-0.554382
-0.611965
-0.625938
-0.613147
-0.583531
42.8189
42.1328
41.3494
41.3182
34.6614
35.1934
26.2995
14.7352
12.6179
7.67319
6.46114
5.46137
4.48108
3.97088
3.38695
3.04147
2.65904
2.42364
2.17084
1.99389
1.80802
1.66648
1.52067
1.40182
1.27924
1.12944
0.979444
0.85722
0.733779
0.630701
0.527559
0.439529
0.34912
0.208348
0.0722734
-0.0294169
-0.133921
-0.266855
-0.38758
-0.453297
-0.514037
-0.543643
-0.569578
-0.57771
-0.583146
-0.578099
-0.570887
-0.557043
-0.542345
42.2936
40.6785
29.9672
25.9307
16.0573
6.4352
4.31159
3.23457
2.57426
2.10702
1.76051
1.48397
1.25183
0.963384
0.726973
0.528361
0.356675
0.0903327
-0.108112
-0.351911
-0.473602
-0.527155
-0.540352
-0.528728
-0.501391
42.6593
41.0264
40.2655
36.5912
28.0669
29.0869
25.8369
18.6322
17.4844
10.0817
6.21316
5.41261
4.01538
3.64737
3.06834
2.79385
2.46423
2.25837
2.03304
1.87342
1.70554
1.57666
1.44285
1.33426
1.22129
1.0838
0.945032
0.832785
0.718364
0.623812
0.527807
0.447332
0.363174
0.234073
0.107577
0.0145183
-0.0830193
-0.204712
-0.316884
-0.377075
-0.433617
-0.460764
-0.485021
-0.49248
-0.497734
-0.493066
-0.486606
-0.473814
-0.460395
42.5164
39.3185
28.3717
25.0734
16.7982
6.35779
3.79268
2.90136
2.35121
1.95499
1.64812
1.3998
1.18906
0.92555
0.708845
0.526569
0.368833
0.124275
-0.0581151
-0.281821
-0.393596
-0.442877
-0.455113
-0.444549
-0.419571
43.3419
42.0483
40.6409
37.2185
30.2715
28.4878
24.5362
17.7161
15.1869
9.03174
5.56649
4.62236
3.42522
3.14557
2.68715
2.48121
2.22255
2.05034
1.86632
1.72792
1.58437
1.47
1.35247
1.25495
1.15387
1.02954
0.903866
0.801862
0.69754
0.611525
0.523902
0.450612
0.3734
0.256093
0.140184
0.0558914
-0.0338672
-0.144414
-0.247349
-0.301971
-0.354003
-0.378565
-0.40101
-0.40769
-0.412661
-0.408356
-0.402522
-0.390833
-0.378699
44.2388
41.6453
33.3522
23.4635
12.0476
4.93077
3.08195
2.49041
2.08837
1.77449
1.51806
1.30332
1.11711
0.881096
0.685388
0.520433
0.377478
0.155566
-0.00943332
-0.212761
-0.31431
-0.359094
-0.370198
-0.360595
-0.338053
47.6853
46.8489
45.7492
43.5137
39.1259
35.8562
30.3781
23.4969
20.2124
16.1847
13.6801
12.306
10.9324
10.1321
9.23403
8.57133
7.8709
7.28176
6.685
6.16568
5.64357
5.18355
4.72254
4.31482
3.90105
3.36958
2.8425
2.40064
1.9595
1.58819
1.21772
0.906421
0.581454
0.0849333
-0.396164
-0.744192
-1.10858
-1.5544
-1.95503
-2.15884
-2.34234
-2.41706
-2.47805
-2.47739
-2.46784
-2.42221
-2.37124
-2.29389
-2.22257
40.3572
38.029
34.0189
34.0459
31.1007
23.9325
18.921
15.6784
13.2068
11.1415
9.35382
7.78739
6.39831
4.61653
3.13615
1.89648
0.834243
-0.792734
-1.97915
-3.37891
-4.01446
-4.23201
-4.20802
-4.04065
-3.78593
32.8167
32.4133
31.322
30.5592
29.2885
29.7211
30.3123
29.4805
28.8139
25.639
23.1234
20.5661
18.3028
16.641
15.0014
13.7805
12.5413
11.5402
10.531
9.67806
8.82148
8.08149
7.33996
6.69206
6.03669
5.20075
4.37335
3.6858
2.99845
2.42353
1.84987
1.3651
0.86673
0.101162
-0.638607
-1.17584
-1.73761
-2.41441
-3.03292
-3.33794
-3.62296
-3.73244
-3.82777
-3.82386
-3.80994
-3.73835
-3.65912
-3.54216
-3.42586
26.3985
25.6108
25.0744
26.6911
26.0795
21.7447
17.419
14.2148
11.8048
9.86886
8.24694
6.85709
5.64365
4.10536
2.83995
1.78513
0.884456
-0.495371
-1.50107
-2.68951
-3.23279
-3.42448
-3.41267
-3.27897
-3.06851
21.2064
21.3806
20.9383
21.292
21.3017
22.2668
23.2903
23.223
23.3488
21.5027
20.0667
18.0507
16.2876
14.7518
13.282
12.1317
10.9837
10.0697
9.14924
8.39142
7.62856
6.98496
6.33781
5.78324
5.21973
4.51264
3.8113
3.23627
2.65961
2.18114
1.70167
1.30052
0.886811
0.2514
-0.363988
-0.808634
-1.27322
-1.83555
-2.35196
-2.60549
-2.84639
-2.93991
-3.02362
-3.02393
-3.017
-2.96114
-2.89977
-2.80651
-2.7118
16.7947
16.9345
17.9158
19.9943
20.4502
18.0975
14.9529
12.2374
10.0942
8.38123
6.97265
5.7882
4.76974
3.49694
2.46227
1.60477
0.876276
-0.240826
-1.05222
-2.0173
-2.46178
-2.62396
-2.62211
-2.52129
-2.35641
13.063
13.5027
13.4539
14.2193
14.7736
15.828
16.8973
17.2288
17.6796
16.7438
16.0534
14.6665
13.4781
12.2352
11.0793
10.092
9.12738
8.34259
7.55931
6.91939
6.27656
5.74317
5.20648
4.75423
4.29347
3.7254
3.16117
2.70559
2.24743
1.87084
1.49279
1.17837
0.853291
0.355853
-0.127256
-0.47467
-0.83811
-1.2799
-1.68714
-1.88756
-2.08
-2.15645
-2.22612
-2.22988
-2.22846
-2.18799
-2.14366
-2.0736
-2.00172
9.85665
10.3931
11.8763
13.944
14.9144
13.8765
11.8625
9.82411
8.09743
6.69353
5.54779
4.59924
3.79616
2.80957
2.01955
1.3703
0.821106
-0.0197161
-0.62924
-1.35937
-1.69979
-1.82931
-1.83547
-1.7665
-1.64775
6.96752
7.45768
7.57731
8.42861
9.12443
10.139
11.147
11.6744
12.2853
11.9201
11.7183
10.879
10.1861
9.29939
8.49489
7.7349
7.00672
6.39046
5.7823
5.28368
4.7849
4.37639
3.96539
3.62534
3.27784
2.85861
2.44154
2.11168
1.77866
1.50863
1.23678
1.01244
0.779871
0.425639
0.0807841
-0.166355
-0.425452
-0.741908
-1.03488
-1.18059
-1.32162
-1.3799
-1.43383
-1.44033
-1.44339
-1.41796
-1.39
-1.34295
-1.29437
4.40377
5.03308
6.5549
8.4727
9.69841
9.51065
8.4278
7.09503
5.86494
4.83491
3.99567
3.31174
2.74376
2.06228
1.52875
1.09602
0.732318
0.177162
-0.225207
-0.712083
-0.944582
-1.03908
-1.05179
-1.01382
-0.941407
1.95061
2.40302
2.57817
3.37612
4.05918
4.99006
5.90606
6.5374
7.22358
7.23199
7.35143
6.94941
6.65449
6.11899
5.65406
5.15069
4.68128
4.26124
3.8533
3.51562
3.18025
2.90983
2.63806
2.41916
2.1945
1.93283
1.67182
1.47276
1.27039
1.11035
0.948281
0.816499
0.679126
0.471825
0.269146
0.124327
-0.0281563
-0.216027
-0.391355
-0.481134
-0.568841
-0.608124
-0.645184
-0.653915
-0.660784
-0.650134
-0.638073
-0.613933
-0.588842
-0.307858
0.291397
1.68969
3.43412
4.79676
5.18252
4.83911
4.1678
3.46135
2.84531
2.34603
1.95097
1.63512
1.27481
1.00704
0.796669
0.622537
0.358921
0.16699
-0.0715748
-0.193742
-0.251712
-0.270062
-0.262515
-0.236504
-2.58038
-2.19953
-2.01045
-1.30215
-0.673056
0.179002
1.01376
1.71395
2.4433
2.71791
3.06056
3.00886
3.03031
2.81928
2.66377
2.42455
2.21697
2.00924
1.81532
1.65304
1.49479
1.37327
1.25141
1.16112
1.0671
0.970121
0.872272
0.807744
0.740061
0.692141
0.642313
0.604435
0.563911
0.505376
0.447135
0.405552
0.361115
0.303186
0.247574
0.214159
0.180917
0.160946
0.141465
0.130689
0.120439
0.116409
0.112881
0.114074
0.1157
-6.08418
-5.57053
-4.36005
-2.78854
-1.29479
-0.371698
0.0538651
0.165142
0.146089
0.105629
0.0873268
0.0991508
0.134148
0.213548
0.30368
0.389969
0.467759
0.590236
0.676677
0.766994
0.791131
0.781969
0.756684
0.724523
0.689537
-9.79078
-9.49271
-9.30948
-8.70983
-8.15152
-7.3679
-6.59639
-5.7903
-4.97187
-4.37358
-3.74174
-3.33917
-2.89508
-2.6337
-2.3366
-2.15022
-1.9405
-1.78563
-1.61891
-1.47603
-1.32879
-1.19233
-1.05538
-0.92549
-0.796005
-0.615652
-0.438886
-0.280773
-0.125301
0.0106292
0.144825
0.260425
0.377873
0.561692
0.738259
0.864954
0.995832
1.15012
1.28865
1.34751
1.4026
1.41437
1.42322
1.40932
1.39338
1.36555
1.33647
1.30044
1.26365
-13.4863
-13.032
-11.9144
-10.3571
-8.59562
-7.07703
-5.82992
-4.83396
-4.02174
-3.33288
-2.72943
-2.19153
-1.7068
-1.07285
-0.538149
-0.0868153
0.299479
0.893751
1.32111
1.81314
2.01592
2.06559
2.03075
1.94878
1.8383
-17.6399
-17.3769
-17.1748
-16.5812
-15.9999
-15.1541
-14.3106
-13.3068
-12.2946
-11.3625
-10.4171
-9.58691
-8.73976
-8.02569
-7.2967
-6.6862
-6.06518
-5.53919
-5.00726
-4.54973
-4.08967
-3.68901
-3.28753
-2.93506
-2.57955
-2.12281
-1.67248
-1.2962
-0.921493
-0.606749
-0.292773
-0.0285012
0.242232
0.661348
1.06553
1.35639
1.65794
2.01823
2.3449
2.49341
2.6336
2.67536
2.71069
2.6926
2.6699
2.61769
2.56232
2.48893
2.41401
-21.9955
-21.4957
-20.2147
-18.3327
-15.9973
-13.7211
-11.5908
-9.69114
-8.03802
-6.61294
-5.38568
-4.3256
-3.39996
-2.22972
-1.26989
-0.470989
0.209819
1.25288
2.00876
2.88263
3.25515
3.3582
3.31051
3.17678
2.99137
-27.1066
-26.8015
-26.5244
-25.7716
-25.0049
-23.881
-22.7492
-21.3319
-19.9094
-18.4984
-17.0896
-15.751
-14.4127
-13.2093
-12.0054
-10.9581
-9.90968
-9.01253
-8.11414
-7.34911
-6.5831
-5.92909
-5.27427
-4.71109
-4.14276
-3.42745
-2.72245
-2.14368
-1.5659
-1.08477
-0.605138
-0.200099
0.213048
0.852658
1.46732
1.91445
2.37903
2.93136
3.4331
3.66651
3.88461
3.95296
4.01072
3.98631
3.95436
3.87687
3.79324
3.68242
3.57019
-32.6663
-31.9523
-30.096
-27.3351
-23.8512
-20.3898
-17.1074
-14.1693
-11.6312
-9.47802
-7.66052
-6.1211
-4.79715
-3.14889
-1.8083
-0.696059
0.25424
1.70722
2.76559
3.99062
4.51795
4.66584
4.60009
4.41226
4.15432
-18.9553
-18.7171
-18.4879
-17.8919
-17.2756
-16.3858
-15.4849
-14.3717
-13.2573
-12.1621
-11.0762
-10.0584
-9.04889
-8.1573
-7.27242
-6.51942
-5.77054
-5.14487
-4.52117
-4.00196
-3.48352
-3.04917
-2.61489
-2.24689
-1.8741
-1.4119
-0.956332
-0.584039
-0.212825
0.0961107
0.403786
0.661727
0.930197
1.33852
1.73329
2.01589
2.31385
2.66407
2.97759
3.12287
3.25192
3.28953
3.31701
3.29439
3.26583
3.2096
3.1504
3.07121
3.00054
1.58744
1.5949
1.60243
1.61283
1.62479
1.63496
1.64226
1.6461
1.64654
1.64402
1.63912
1.63241
1.62469
1.6111
1.59589
1.58004
1.56457
1.53289
1.50313
1.4483
1.40266
1.368
1.34361
1.32844
1.32162
1.6264
1.63643
1.63335
1.64086
1.64065
1.64861
1.65092
1.65851
1.66285
1.66837
1.67323
1.67652
1.68097
1.68217
1.68553
1.68495
1.6869
1.68493
1.68546
1.68246
1.68172
1.67799
1.6762
1.67196
1.66961
1.66244
1.65777
1.64981
1.64416
1.63602
1.62978
1.62161
1.61564
1.5988
1.58631
1.56966
1.55854
1.52712
1.50645
1.47992
1.46252
1.44241
1.42886
1.41455
1.40501
1.39571
1.39003
1.38512
1.38308
1.67455
1.68002
1.68543
1.69312
1.70239
1.71082
1.71757
1.72204
1.72404
1.72371
1.72134
1.71729
1.7122
1.70245
1.69079
1.67817
1.66566
1.63903
1.61342
1.5644
1.52232
1.48983
1.46661
1.45193
1.44499
1.71604
1.72308
1.72088
1.72646
1.7263
1.73242
1.73403
1.74029
1.7434
1.74847
1.75211
1.75572
1.75928
1.76138
1.76433
1.765
1.76704
1.76649
1.76751
1.76597
1.76601
1.76369
1.76286
1.75995
1.75864
1.75333
1.75025
1.74399
1.73989
1.73327
1.7285
1.72167
1.71708
1.7026
1.69253
1.67771
1.66857
1.64005
1.6222
1.59748
1.58176
1.56281
1.55027
1.53657
1.52761
1.51852
1.51315
1.50806
1.50614
1.78856
1.79245
1.79607
1.80133
1.80802
1.81453
1.82026
1.82474
1.82766
1.82896
1.82872
1.82707
1.8245
1.81856
1.81064
1.8015
1.79223
1.7713
1.75048
1.7086
1.67099
1.64123
1.6195
1.60543
1.59838
1.85509
1.8602
1.85853
1.86253
1.86223
1.86675
1.86764
1.8725
1.87452
1.87878
1.88134
1.88478
1.88751
1.89
1.89253
1.89405
1.89611
1.89672
1.89818
1.89798
1.89878
1.89789
1.89805
1.89659
1.89638
1.89323
1.89195
1.88776
1.88552
1.88082
1.87785
1.87281
1.86995
1.85866
1.85165
1.83947
1.83308
1.80855
1.79476
1.7725
1.75948
1.74202
1.73121
1.7183
1.71033
1.70153
1.69661
1.69142
1.68951
1.93038
1.93306
1.93556
1.93925
1.94417
1.94924
1.95408
1.95831
1.96166
1.96398
1.9652
1.96537
1.96478
1.96209
1.95755
1.9517
1.94559
1.9304
1.91465
1.8805
1.848
1.82146
1.80156
1.78827
1.78119
2.00095
2.00464
2.00338
2.00625
2.0059
2.00921
2.00967
2.01338
2.01467
2.01812
2.01989
2.02293
2.02495
2.02745
2.02949
2.03138
2.03324
2.03448
2.03603
2.03666
2.03781
2.03788
2.0386
2.03818
2.03864
2.03712
2.03704
2.03453
2.03363
2.03053
2.02895
2.0254
2.02392
2.01537
2.01094
2.00113
1.99712
1.97629
1.96619
1.94631
1.9359
1.91988
1.91081
1.89868
1.89176
1.88325
1.87886
1.87356
1.87176
2.07759
2.07958
2.0814
2.08415
2.08792
2.09197
2.09606
2.0999
2.10328
2.10602
2.10803
2.10927
2.10994
2.10947
2.1074
2.10407
2.10046
2.09002
2.07864
2.05145
2.02377
2.00036
1.9823
1.96985
1.96281
2.15099
2.15374
2.15278
2.15495
2.15465
2.15719
2.15747
2.16042
2.16133
2.1642
2.16553
2.1682
2.1698
2.17218
2.17388
2.17588
2.17755
2.17912
2.18063
2.18176
2.18304
2.18373
2.18473
2.18501
2.18583
2.18549
2.18614
2.18492
2.18491
2.18308
2.18248
2.18018
2.17967
2.17345
2.171
2.1633
2.16122
2.14371
2.13682
2.11916
2.11116
2.09652
2.08911
2.07774
2.07187
2.06365
2.05982
2.05444
2.05279
2.25535
2.25681
2.2581
2.26009
2.2629
2.26604
2.26935
2.27265
2.27578
2.27859
2.28098
2.28289
2.2844
2.28559
2.28554
2.28439
2.28298
2.277
2.26993
2.24994
2.22753
2.20765
2.19173
2.18031
2.1734
2.35694
2.35901
2.35827
2.35989
2.35962
2.36155
2.36168
2.36398
2.36459
2.36691
2.36786
2.37013
2.37134
2.37348
2.37485
2.3768
2.37823
2.37993
2.38133
2.38275
2.38406
2.38518
2.38635
2.38716
2.38824
2.38888
2.39012
2.39006
2.39083
2.3902
2.39055
2.38944
2.38987
2.38612
2.38571
2.38031
2.38028
2.36667
2.3634
2.34851
2.34337
2.33052
2.32516
2.31482
2.31029
2.30251
2.29941
2.29399
2.29255
2.46403
2.46512
2.46609
2.4676
2.46977
2.47228
2.47501
2.47786
2.48071
2.48344
2.48597
2.48822
2.49022
2.4925
2.4939
2.49442
2.49474
2.49252
2.48928
2.47609
2.45899
2.44283
2.42924
2.41901
2.41233
2.56776
2.56928
2.56875
2.56999
2.56981
2.5713
2.57145
2.57329
2.5738
2.57572
2.57652
2.57847
2.57949
2.58144
2.58262
2.58449
2.58578
2.58752
2.58883
2.59041
2.59171
2.59308
2.59431
2.59549
2.59666
2.59798
2.5995
2.60029
2.60149
2.60178
2.60266
2.60254
2.60347
2.60167
2.60254
2.59917
2.60039
2.59018
2.58953
2.57717
2.57434
2.5631
2.55954
2.55013
2.54684
2.53945
2.53707
2.53161
2.53044
2.787
2.78775
2.78837
2.78936
2.79082
2.79256
2.79452
2.79666
2.79892
2.80121
2.8035
2.80571
2.80781
2.81069
2.81311
2.81502
2.81686
2.81834
2.81926
2.81421
2.8041
2.79306
2.78283
2.77441
2.76822
3.00106
3.00207
3.00174
3.00259
3.0025
3.00356
3.0037
3.00504
3.00545
3.0069
3.00752
3.00906
3.00987
3.01148
3.01245
3.01407
3.01516
3.01678
3.01794
3.01951
3.02073
3.02222
3.02345
3.02485
3.02607
3.02795
3.02968
3.03129
3.0329
3.03417
3.03561
3.03657
3.03806
3.03878
3.04116
3.04052
3.0433
3.03826
3.04125
3.0331
3.03376
3.02541
3.02469
3.01706
3.01584
3.00931
3.00819
3.00285
3.00214
3.34063
3.34109
3.34148
3.34209
3.34303
3.34416
3.34548
3.34698
3.34862
3.35036
3.35219
3.35408
3.35593
3.35877
3.36154
3.36415
3.36675
3.37091
3.37512
3.3781
3.37605
3.3715
3.36587
3.36013
3.35488
3.67041
3.671
3.67082
3.67135
3.67132
3.67199
3.67212
3.67299
3.67329
3.67426
3.67471
3.67579
3.67638
3.67754
3.67825
3.67948
3.68031
3.68159
3.6825
3.68381
3.6848
3.68612
3.68716
3.68847
3.68956
3.69148
3.69309
3.69497
3.69661
3.69834
3.69994
3.70151
3.70322
3.70567
3.70871
3.71034
3.71389
3.71388
3.71932
3.71602
3.71958
3.71485
3.71686
3.71163
3.71257
3.70738
3.70769
3.70279
3.70273
4.19196
4.19223
4.19245
4.19282
4.19339
4.19408
4.1949
4.19586
4.19692
4.1981
4.19936
4.20071
4.20205
4.20426
4.20656
4.20889
4.21121
4.21582
4.22078
4.22797
4.23173
4.2327
4.23149
4.2287
4.22484
4.69659
4.69691
4.69682
4.69712
4.69712
4.69752
4.69761
4.69813
4.69833
4.69892
4.69922
4.69989
4.70028
4.70101
4.70149
4.70229
4.70285
4.70371
4.70434
4.70525
4.70595
4.70689
4.70765
4.70862
4.70944
4.71093
4.71216
4.71374
4.71505
4.71661
4.71796
4.71949
4.72097
4.72377
4.72653
4.72906
4.7324
4.73546
4.74132
4.74194
4.74683
4.7456
4.74928
4.74676
4.74924
4.7459
4.74733
4.74348
4.74404
5.40055
5.40068
5.40081
5.40102
5.40134
5.40174
5.40222
5.40277
5.4034
5.40411
5.40487
5.4057
5.40654
5.40795
5.40948
5.41107
5.41263
5.41608
5.41976
5.42655
5.43174
5.43494
5.43611
5.43537
5.43294
6.08149
6.08165
6.08161
6.08177
6.08178
6.08199
6.08205
6.08233
6.08245
6.08278
6.08296
6.08332
6.08355
6.08397
6.08425
6.08471
6.08504
6.08554
6.08592
6.08646
6.08688
6.08745
6.08792
6.08852
6.08903
6.08997
6.09075
6.09178
6.09263
6.09369
6.0946
6.09568
6.09671
6.09881
6.10075
6.10289
6.10533
6.10873
6.11322
6.1154
6.11964
6.12039
6.12396
6.12343
6.12609
6.1245
6.12617
6.12375
6.12456
6.96169
6.96175
6.96182
6.96192
6.96209
6.96229
6.96253
6.96281
6.96314
6.9635
6.9639
6.96434
6.96477
6.96553
6.96635
6.96723
6.96806
6.97003
6.97206
6.97631
6.97998
6.98262
6.984
6.98402
6.9827
7.81951
7.81958
7.81957
7.81964
7.81965
7.81975
7.81978
7.81992
7.81998
7.82014
7.82023
7.82042
7.82054
7.82074
7.82089
7.82112
7.82129
7.82154
7.82174
7.82201
7.82223
7.82253
7.82277
7.82308
7.82335
7.82384
7.82426
7.82481
7.82527
7.82585
7.82634
7.82694
7.82752
7.82872
7.82981
7.8311
7.8325
7.83477
7.83742
7.83925
7.84191
7.84296
7.84534
7.84556
7.84743
7.84689
7.84811
7.8469
7.84754
8.75354
8.75357
8.7536
8.75365
8.75373
8.75382
8.75394
8.75407
8.75423
8.7544
8.75459
8.75479
8.755
8.75536
8.75576
8.75618
8.75659
8.75755
8.75853
8.76068
8.76263
8.76411
8.76496
8.7651
8.76449
9.67254
9.67257
9.67256
9.67259
9.6726
9.67264
9.67266
9.67272
9.67276
9.67283
9.67287
9.67295
9.67301
9.67311
9.67317
9.67328
9.67336
9.67348
9.67357
9.6737
9.6738
9.67394
9.67406
9.6742
9.67433
9.67456
9.67476
9.67502
9.67524
9.67552
9.67576
9.67605
9.67633
9.67692
9.67745
9.6781
9.67879
9.67998
9.68131
9.68236
9.68373
9.68442
9.68567
9.68596
9.68696
9.68682
9.68748
9.68697
9.68732
10.7173
10.7173
10.7173
10.7174
10.7174
10.7174
10.7175
10.7175
10.7176
10.7177
10.7177
10.7178
10.7179
10.7181
10.7182
10.7184
10.7186
10.719
10.7193
10.7203
10.7211
10.7217
10.7221
10.7222
10.7219
11.7536
11.7536
11.7536
11.7536
11.7536
11.7536
11.7536
11.7537
11.7537
11.7537
11.7537
11.7537
11.7538
11.7538
11.7538
11.7539
11.7539
11.754
11.754
11.7541
11.7541
11.7542
11.7542
11.7543
11.7543
11.7544
11.7545
11.7546
11.7547
11.7548
11.755
11.7551
11.7552
11.7555
11.7557
11.756
11.7563
11.7568
11.7574
11.7579
11.7585
11.7588
11.7594
11.7595
11.76
11.76
11.7603
11.7601
11.7602
12.8527
12.8527
12.8527
12.8527
12.8527
12.8527
12.8528
12.8528
12.8528
12.8528
12.8529
12.8529
12.8529
12.853
12.853
12.8531
12.8532
12.8533
12.8535
12.8538
12.8541
12.8544
12.8545
12.8545
12.8544
13.9478
13.9478
13.9478
13.9478
13.9478
13.9478
13.9478
13.9478
13.9479
13.9479
13.9479
13.9479
13.9479
13.9479
13.9479
13.9479
13.948
13.948
13.948
13.948
13.948
13.948
13.9481
13.9481
13.9481
13.9481
13.9482
13.9482
13.9483
13.9483
13.9483
13.9484
13.9484
13.9485
13.9486
13.9487
13.9489
13.9491
13.9493
13.9495
13.9497
13.9498
13.9501
13.9501
13.9503
13.9503
13.9504
13.9504
13.9504
15.1028
15.1028
15.1028
15.1028
15.1028
15.1028
15.1028
15.1028
15.1028
15.1028
15.1028
15.1028
15.1028
15.1028
15.1029
15.1029
15.1029
15.103
15.103
15.1031
15.1032
15.1033
15.1034
15.1034
15.1033
16.2562
16.2562
16.2562
16.2562
16.2562
16.2562
16.2562
16.2562
16.2562
16.2562
16.2562
16.2562
16.2562
16.2562
16.2562
16.2562
16.2562
16.2562
16.2562
16.2563
16.2563
16.2563
16.2563
16.2563
16.2563
16.2563
16.2563
16.2563
16.2563
16.2563
16.2564
16.2564
16.2564
16.2564
16.2564
16.2565
16.2565
16.2566
16.2566
16.2567
16.2568
16.2568
16.2569
16.2569
16.2569
16.2569
16.257
16.2569
16.257
17.5256
17.5256
17.5256
17.5256
17.5256
17.5256
17.5256
17.5256
17.5256
17.5256
17.5256
17.5256
17.5256
17.5256
17.5256
17.5256
17.5256
17.5257
17.5257
17.5257
17.5257
17.5257
17.5257
17.5257
17.5257
18.795
18.795
18.795
18.795
18.795
18.795
18.795
18.795
18.795
18.795
18.795
18.795
18.795
18.795
18.7949
18.7949
18.7949
18.7949
18.7949
18.7949
18.7949
18.7949
18.7949
18.7949
18.7949
18.7949
18.7949
18.7949
18.7949
18.7949
18.7949
18.7949
18.7949
18.7948
18.7948
18.7948
18.7948
18.7948
18.7947
18.7947
18.7946
18.7946
18.7946
18.7945
18.7945
18.7945
18.7945
18.7945
18.7945
SCALARS Stress_Theta double 1
LOOKUP_TABLE default
42.2645
43.6962
44.2002
44.8946
47.1533
57.0174
27.0393
-1.92171
2.76763
4.39616
4.44284
4.158
4.30718
4.11541
3.83407
3.66749
3.48463
3.33886
3.17335
3.04239
2.90527
2.78567
2.6638
2.55493
2.44523
2.29742
2.15314
2.02384
1.89768
1.78313
1.67191
1.5707
1.47142
1.29603
1.13401
0.994814
0.864405
0.651562
0.470692
0.33057
0.210184
0.115371
0.0341989
-0.030376
-0.0853151
-0.129104
-0.165874
-0.194654
-0.218666
42.2571
42.7181
40.8039
21.2561
6.07262
4.2743
4.08616
3.69945
3.36188
3.06689
2.80799
2.57675
2.36694
2.087
1.84199
1.62564
1.43263
1.10889
0.848925
0.470476
0.219899
0.0505659
-0.064459
-0.141927
-0.192673
42.8189
42.0626
41.3068
42.1156
38.5589
36.5476
19.6843
5.23638
5.40336
3.92937
4.39542
4.16032
3.81775
3.74931
3.56719
3.42232
3.23152
3.10474
2.95802
2.83839
2.71018
2.60173
2.48988
2.39039
2.2891
2.15435
2.02118
1.90307
1.78654
1.68179
1.57925
1.48587
1.39362
1.23325
1.0832
0.955144
0.833203
0.638434
0.470202
0.341504
0.229583
0.142307
0.0669042
0.00735389
-0.0436449
-0.0840569
-0.118104
-0.144811
-0.166873
42.2936
41.2041
34.4953
18.359
6.69555
3.96707
3.70776
3.4176
3.12283
2.85426
2.61771
2.40598
2.21373
1.95718
1.73248
1.53376
1.35574
1.05814
0.818388
0.470397
0.23954
0.0833895
-0.0227532
-0.0942932
-0.141146
42.6593
41.4421
40.9223
38.5606
32.8144
29.0423
18.212
7.73526
7.11741
4.69717
3.69404
3.90522
3.52838
3.50359
3.28445
3.17369
3.00719
2.88926
2.75156
2.64255
2.52535
2.42618
2.32304
2.23247
2.13927
2.01645
1.89388
1.78625
1.67894
1.58347
1.4888
1.40387
1.31834
1.17212
1.03338
0.91679
0.803622
0.625638
0.470395
0.352546
0.249302
0.169269
0.0997403
0.045084
-0.00194172
-0.0390247
-0.0704567
-0.0948929
-0.115327
42.5164
40.2042
32.2436
18.1836
7.27512
3.92428
3.44195
3.17656
2.90227
2.65529
2.43716
2.24306
2.06697
1.83223
1.62669
1.44487
1.28171
1.00914
0.789408
0.470765
0.259291
0.116216
0.0189446
-0.0466141
-0.089554
43.3419
42.4218
41.473
38.9031
33.349
27.8987
19.079
10.0381
7.38784
4.81753
3.68169
3.65842
3.30622
3.26025
3.05243
2.94712
2.79619
2.68281
2.55808
2.45595
2.34923
2.25752
2.16359
2.08044
1.99535
1.88316
1.77109
1.67299
1.57478
1.48781
1.40125
1.32381
1.24539
1.11227
0.985125
0.879233
0.775241
0.613281
0.470952
0.36382
0.269087
0.196352
0.132556
0.0828595
0.0397511
0.0059875
-0.0227445
-0.0450738
-0.0636865
44.2388
42.2746
35.0933
20.2236
7.49281
3.89373
3.22948
2.95835
2.69666
2.46604
2.2646
2.08659
1.9256
1.71141
1.52405
1.35848
1.20994
0.961608
0.761779
0.471531
0.279125
0.14903
0.0606265
0.00110684
-0.0378963
47.6853
47.1
46.3432
44.4614
40.6995
36.1712
29.2345
21.9678
18.7489
16.5155
15.2782
14.7007
14.0585
13.5719
13.0184
12.5442
12.0561
11.6081
11.1633
10.7504
10.3436
9.9626
9.58821
9.23644
8.88963
8.40726
7.94076
7.51211
7.0973
6.71461
6.34477
6.0032
5.66932
5.07431
4.52423
4.04435
3.5933
2.84771
2.21322
1.70558
1.27075
0.917746
0.614947
0.366939
0.154353
-0.0203751
-0.169557
-0.290622
-0.394597
40.3572
38.7442
35.0016
30.1861
26.3422
24.0883
22.41
20.8961
19.4538
18.0923
16.8158
15.6243
14.5124
12.9906
11.6291
10.4094
9.31041
7.44142
5.91413
3.6427
2.08354
0.994237
0.225978
-0.316476
-0.695188
32.8167
32.4961
31.714
30.5219
28.7808
27.2191
25.5427
23.853
23.0076
21.9704
21.2701
20.6083
19.9312
19.3345
18.6771
18.083
17.4567
16.874
16.2807
15.7233
15.1648
14.6377
14.1141
13.619
13.1278
12.4402
11.7707
11.1524
10.5513
9.99478
9.45539
8.95405
8.46476
7.58901
6.77667
6.06418
5.39286
4.2827
3.33237
2.57062
1.91545
1.3825
0.924308
0.54776
0.224727
-0.0418898
-0.269337
-0.455695
-0.614102
26.3985
25.6585
23.7099
21.5127
19.7906
18.6171
17.5743
16.5481
15.5218
14.5173
13.552
12.6355
11.7694
10.5713
9.48971
8.514
7.62984
6.119
4.87758
3.0252
1.74906
0.855224
0.223859
-0.222259
-0.533386
21.2064
21.2454
20.7814
20.2422
19.4021
18.7101
18.0476
17.2963
16.9768
16.4194
16.1066
15.6942
15.2998
14.9133
14.4799
14.0783
13.6372
13.2267
12.7939
12.3882
11.9716
11.5793
11.1828
10.8085
10.4322
9.90598
9.38751
8.90905
8.43977
8.00545
7.58162
7.18829
6.80207
6.11099
5.46572
4.90069
4.36497
3.48042
2.71872
2.10914
1.5827
1.15475
0.786006
0.483047
0.222827
0.00817803
-0.175179
-0.325013
-0.452571
16.7947
16.6132
15.7731
14.9043
14.2232
13.6865
13.1168
12.4841
11.806
11.1113
10.4233
9.75632
9.11659
8.2204
7.40289
6.65973
5.98253
4.81812
3.85634
2.41453
1.41755
0.717409
0.222126
-0.127999
-0.371848
13.063
13.2825
13.0538
12.8766
12.5365
12.2942
12.0888
11.8064
11.7523
11.5015
11.4163
11.1962
11.0137
10.7895
10.5408
10.2942
10.0142
9.7493
9.45972
9.18743
8.89982
8.62913
8.34981
8.08637
7.81724
7.44115
7.06526
6.71859
6.37506
6.05706
5.74464
5.45456
5.16825
4.65548
4.17371
3.7519
3.34979
2.68596
2.111
1.65132
1.25258
0.928713
0.648806
0.419064
0.221323
0.0584148
-0.0809202
-0.19454
-0.291229
9.85665
9.95386
9.6943
9.47258
9.33203
9.19113
8.9654
8.64785
8.26309
7.8399
7.40152
6.96367
6.53463
5.92306
5.35723
4.83756
4.36039
3.53371
2.84623
1.80916
1.08849
0.580667
0.220775
-0.0337243
-0.210613
6.96752
7.23282
7.13636
7.14017
7.04906
7.03119
7.04323
6.99998
7.09362
7.03316
7.08786
7.01684
6.98717
6.89675
6.79811
6.68194
6.54198
6.40351
6.24275
6.0901
5.92104
5.76189
5.59182
5.43172
5.2637
5.0293
4.78946
4.56853
4.34599
4.14002
3.93547
3.74545
3.55639
3.21734
2.896
2.61443
2.34415
1.89754
1.50783
1.19631
0.924559
0.703961
0.512545
0.355611
0.220161
0.10878
0.0133708
-0.0641871
-0.130129
4.40377
4.60812
4.6339
4.73054
4.88605
5.00432
5.03745
4.97902
4.84799
4.6678
4.45842
4.23444
4.00459
3.66494
3.34171
3.03891
2.7568
2.26135
1.84413
1.20766
0.761232
0.444743
0.219725
0.0605577
-0.049626
1.95061
2.2051
2.17951
2.267
2.29816
2.3944
2.51359
2.60617
2.78689
2.85482
3.00514
3.05265
3.14014
3.16429
3.19138
3.19005
3.17426
3.14964
3.10719
3.06462
3.00671
2.95198
2.88571
2.82361
2.75257
2.65391
2.54569
2.44629
2.34153
2.24457
2.14549
2.05332
1.95967
1.79124
1.62815
1.48485
1.34505
1.11334
0.907818
0.743251
0.598023
0.480106
0.376959
0.292529
0.219249
0.159235
0.107673
0.0660896
0.0307774
-0.307858
-0.0748734
0.0933357
0.360513
0.700447
1.00834
1.25141
1.41715
1.51454
1.55896
1.56524
1.54532
1.5073
1.43157
1.34522
1.25512
1.16496
0.996628
0.847116
0.608619
0.43515
0.309357
0.218874
0.154842
0.111196
-2.58038
-2.36268
-2.34609
-2.21817
-2.11765
-1.95374
-1.76968
-1.58289
-1.33899
-1.16887
-0.943386
-0.791129
-0.60688
-0.476829
-0.339605
-0.2336
-0.135471
-0.0528024
0.0165242
0.0787825
0.127714
0.173433
0.207956
0.240861
0.264661
0.298348
0.319549
0.339266
0.35068
0.36098
0.366186
0.370607
0.371492
0.371767
0.365921
0.359702
0.349858
0.331425
0.309801
0.291295
0.272451
0.256745
0.241849
0.229645
0.218534
0.209732
0.202028
0.196298
0.191623
-6.08418
-5.85218
-5.58651
-5.18394
-4.66494
-4.14482
-3.65085
-3.20852
-2.82429
-2.49462
-2.21221
-1.96925
-1.75894
-1.49191
-1.26985
-1.08247
-0.921847
-0.662233
-0.461077
-0.177689
0.00705666
0.131654
0.217877
0.278824
0.322572
-9.79078
-9.61142
-9.55563
-9.38308
-9.2135
-8.96615
-8.69812
-8.38735
-8.03587
-7.72003
-7.3645
-7.04995
-6.70773
-6.40579
-6.09228
-5.81027
-5.52927
-5.27122
-5.02105
-4.78799
-4.56523
-4.35603
-4.15707
-3.9695
-3.79081
-3.54155
-3.30903
-3.09524
-2.89429
-2.70908
-2.53388
-2.37195
-2.21711
-1.94144
-1.69132
-1.47388
-1.2724
-0.942397
-0.665109
-0.445031
-0.258253
-0.107072
0.0215641
0.127289
0.217314
0.292095
0.355724
0.408573
0.453647
-13.4863
-13.2454
-12.8623
-12.2771
-11.501
-10.6812
-9.84667
-9.03893
-8.28115
-7.58311
-6.94628
-6.36767
-5.84163
-5.14092
-4.5304
-3.99467
-3.51995
-2.72563
-2.0872
-1.15441
-0.52449
-0.0890107
0.216489
0.432477
0.584684
-17.6399
-17.4748
-17.3781
-17.1488
-16.896
-16.5437
-16.1604
-15.692
-15.187
-14.6867
-14.1574
-13.6407
-13.1043
-12.5949
-12.0768
-11.5903
-11.1043
-10.6495
-10.2011
-9.78151
-9.37125
-8.98692
-8.61279
-8.26176
-7.91984
-7.44513
-6.99235
-6.57762
-6.18092
-5.81584
-5.4661
-5.14301
-4.83087
-4.27462
-3.76457
-3.32012
-2.90494
-2.22288
-1.64463
-1.18428
-0.790997
-0.472157
-0.199586
0.0244281
0.215809
0.374319
0.509433
0.620906
0.715974
-21.9955
-21.6936
-21.1211
-20.2415
-19.0662
-17.81
-16.5127
-15.2383
-14.0267
-12.8985
-11.8602
-10.9101
-10.0409
-8.87675
-7.85699
-6.95795
-6.1579
-4.81459
-3.72999
-2.13899
-1.05961
-0.311252
0.214524
0.5861
0.84727
-27.1066
-26.9084
-26.7478
-26.4043
-26.0063
-25.465
-24.8742
-24.1463
-23.3744
-22.5933
-21.7853
-20.9797
-20.1591
-19.3688
-18.5743
-17.8242
-17.0782
-16.3808
-15.6928
-15.0517
-14.4231
-13.8373
-13.265
-12.7302
-12.2079
-11.4851
-10.7941
-10.1627
-9.55768
-9.00146
-8.46852
-7.97532
-7.49957
-6.65064
-5.87343
-5.194
-4.56049
-3.51791
-2.63477
-1.93018
-1.32836
-0.840253
-0.422701
-0.0796713
0.213574
0.456253
0.662889
0.833589
0.978566
-32.6663
-32.2094
-31.2863
-29.8768
-28.0147
-26.0496
-24.0482
-22.1091
-20.2897
-18.615
-17.0887
-15.7028
-14.4423
-12.763
-11.298
-10.01
-8.86628
-6.94904
-5.40393
-3.13765
-1.60088
-0.536016
0.211724
0.739655
1.11051
-18.9553
-18.7988
-18.6618
-18.377
-18.0453
-17.5988
-17.1139
-16.5217
-15.9013
-15.2781
-14.6427
-14.0149
-13.3843
-12.7836
-12.187
-11.6302
-11.082
-10.575
-10.0789
-9.62105
-9.1749
-8.76217
-8.36107
-7.98863
-7.62596
-7.1268
-6.65224
-6.21994
-5.80766
-5.42912
-5.06779
-4.73479
-4.41332
-3.84114
-3.31942
-2.86516
-2.44251
-1.74672
-1.16077
-0.693147
-0.295273
0.0275732
0.303724
0.530404
0.724923
0.885853
1.02417
1.13769
1.23704
1.58744
1.59253
1.59165
1.58978
1.58691
1.58319
1.57839
1.5726
1.56593
1.55851
1.55046
1.54189
1.5332
1.51939
1.5049
1.4903
1.47633
1.44848
1.42298
1.37761
1.34151
1.31572
1.29932
1.29127
1.29079
1.6264
1.6354
1.63136
1.63499
1.6314
1.63378
1.63097
1.63175
1.62966
1.62867
1.62729
1.62476
1.62352
1.6199
1.61848
1.61417
1.61235
1.60765
1.60535
1.60046
1.59768
1.5927
1.58952
1.5845
1.58121
1.5735
1.56809
1.56018
1.55433
1.54657
1.54047
1.53291
1.52725
1.5121
1.50081
1.48633
1.47668
1.45019
1.43332
1.41197
1.39871
1.38343
1.37396
1.364
1.3583
1.35288
1.35072
1.34931
1.35049
1.67455
1.6783
1.6774
1.67567
1.67308
1.66981
1.66567
1.66071
1.65502
1.64867
1.64178
1.63442
1.62695
1.61501
1.60239
1.58962
1.57744
1.55279
1.53019
1.48915
1.45612
1.43253
1.41764
1.41061
1.41071
1.71604
1.72233
1.71935
1.72202
1.71927
1.72106
1.71868
1.71947
1.71742
1.71699
1.71537
1.71377
1.71227
1.70974
1.70814
1.70491
1.70307
1.69937
1.69722
1.6932
1.69072
1.68652
1.68373
1.67942
1.67657
1.66983
1.66518
1.65818
1.65313
1.64621
1.64095
1.63415
1.62931
1.6156
1.60586
1.59258
1.58427
1.55988
1.54509
1.52526
1.51339
1.49924
1.49076
1.48156
1.47654
1.47159
1.46995
1.46868
1.47027
1.78856
1.79122
1.79024
1.7885
1.78603
1.78304
1.7794
1.77517
1.77039
1.76513
1.75943
1.75334
1.74716
1.73723
1.72667
1.71586
1.70559
1.68452
1.66509
1.6292
1.59979
1.57874
1.56556
1.55963
1.56031
1.85509
1.85967
1.85749
1.85944
1.85734
1.85876
1.8568
1.85759
1.85577
1.85572
1.85419
1.85328
1.85181
1.85016
1.84864
1.84638
1.84473
1.842
1.84016
1.83709
1.83502
1.83172
1.82944
1.82597
1.82368
1.81815
1.81444
1.80859
1.80456
1.79872
1.79448
1.78871
1.78488
1.77308
1.76525
1.75365
1.74715
1.72546
1.71358
1.69564
1.68591
1.67307
1.66613
1.6578
1.65384
1.64944
1.64848
1.6475
1.64946
1.93038
1.93218
1.93139
1.92997
1.92796
1.92554
1.9226
1.91919
1.91534
1.91109
1.90648
1.90154
1.89652
1.88842
1.87976
1.87085
1.86243
1.84485
1.82866
1.79804
1.77247
1.75414
1.74282
1.73805
1.73935
2.00095
2.00426
2.00262
2.00399
2.00231
2.00331
2.00164
2.00223
2.00056
2.00059
1.9991
1.99852
1.99707
1.99596
1.99449
1.99291
1.99137
1.98939
1.98775
1.98545
1.98368
1.98113
1.97923
1.9765
1.97461
1.97016
1.96714
1.96235
1.95909
1.95422
1.9508
1.94593
1.94292
1.9328
1.92656
1.91644
1.91148
1.8922
1.88286
1.86658
1.8588
1.8471
1.84159
1.83401
1.83105
1.8271
1.82679
1.826
1.82833
2.07759
2.07893
2.07828
2.07713
2.07551
2.07355
2.07116
2.06839
2.06526
2.06181
2.05804
2.05401
2.04989
2.04324
2.03611
2.02873
2.02181
2.00712
1.99369
1.96763
1.94545
1.92955
1.91989
1.91616
1.91798
2.15099
2.15345
2.15221
2.15322
2.15191
2.15265
2.15129
2.15177
2.15035
2.15044
2.14912
2.14879
2.14748
2.14674
2.14542
2.14431
2.14294
2.14151
2.14007
2.13836
2.13683
2.13488
2.13327
2.13114
2.12953
2.12599
2.12345
2.11957
2.11686
2.11283
2.11
2.10594
2.10351
2.09484
2.0898
2.081
2.07725
2.06007
2.05284
2.03803
2.03195
2.02123
2.01701
2.01005
2.00801
2.00441
2.00472
2.00406
2.00673
2.25535
2.25632
2.25577
2.2548
2.25344
2.25182
2.24985
2.24759
2.24505
2.24226
2.23924
2.236
2.23269
2.22736
2.22167
2.21574
2.21023
2.19835
2.18764
2.16622
2.14759
2.13423
2.1263
2.12364
2.12596
2.35694
2.3588
2.35785
2.35862
2.35761
2.3582
2.35712
2.35754
2.35638
2.35655
2.35545
2.35531
2.35421
2.35379
2.35267
2.35198
2.35083
2.34988
2.34869
2.3475
2.34626
2.34487
2.34358
2.34202
2.34073
2.33809
2.33607
2.33311
2.33099
2.32785
2.32566
2.32243
2.3206
2.31357
2.30982
2.30248
2.30002
2.28527
2.28037
2.26729
2.26315
2.2536
2.25085
2.24465
2.24367
2.24049
2.24149
2.24096
2.24401
2.46403
2.46476
2.46434
2.4636
2.46257
2.46133
2.45982
2.45808
2.45612
2.45396
2.45162
2.4491
2.4465
2.44232
2.43787
2.43321
2.42892
2.41953
2.41128
2.39413
2.3789
2.36802
2.36179
2.36016
2.36293
2.56776
2.56912
2.56843
2.56901
2.56827
2.56873
2.56793
2.5683
2.56744
2.56764
2.56681
2.56681
2.56596
2.56578
2.56491
2.56454
2.56364
2.56307
2.56214
2.56139
2.56042
2.55951
2.55848
2.55743
2.5564
2.55453
2.55291
2.55078
2.54908
2.54673
2.54498
2.54253
2.54106
2.53546
2.53252
2.52658
2.52484
2.51228
2.50894
2.49742
2.49471
2.48614
2.48457
2.47894
2.47886
2.47594
2.47756
2.47706
2.48043
2.787
2.78751
2.78715
2.78655
2.78571
2.78471
2.78351
2.78215
2.78063
2.77899
2.77722
2.77535
2.77341
2.77036
2.76718
2.76388
2.76089
2.75431
2.74892
2.73709
2.7263
2.71868
2.71466
2.71432
2.71759
3.00106
3.00196
3.00153
3.00197
3.00152
3.0019
3.00143
3.0018
3.0013
3.0016
3.00113
3.00133
3.00086
3.00096
3.00048
3.00048
2.99998
2.99987
2.99935
2.99913
2.99859
2.99825
2.99767
2.99723
2.99664
2.99577
2.9948
2.99373
2.99272
2.99145
2.99039
2.98899
2.98811
2.98467
2.98294
2.97907
2.97837
2.96933
2.96819
2.95926
2.95862
2.95168
2.95183
2.94716
2.94837
2.9459
2.94836
2.9479
2.95164
3.34063
3.34094
3.34072
3.34035
3.33983
3.33922
3.33847
3.33762
3.33668
3.33566
3.33456
3.3334
3.33216
3.33027
3.32834
3.32637
3.32455
3.32073
3.31803
3.31176
3.30603
3.30226
3.30085
3.30196
3.30561
3.67041
3.67094
3.6707
3.67098
3.67074
3.67101
3.67077
3.67106
3.67082
3.67109
3.67088
3.67112
3.67091
3.67113
3.67093
3.67111
3.67091
3.67105
3.67086
3.67095
3.67075
3.67079
3.67058
3.67057
3.67036
3.67024
3.66986
3.66966
3.66927
3.66894
3.66852
3.66808
3.66778
3.66645
3.66578
3.6641
3.66424
3.6593
3.65988
3.6543
3.65534
3.65058
3.6522
3.64876
3.65107
3.64911
3.65223
3.65172
3.65564
4.19196
4.19214
4.19203
4.19184
4.19158
4.19126
4.19088
4.19044
4.18995
4.18942
4.18884
4.18824
4.18755
4.18656
4.18556
4.18455
4.18353
4.18167
4.18057
4.17828
4.17652
4.17588
4.17656
4.17865
4.18216
4.69659
4.69688
4.69676
4.69693
4.69682
4.697
4.6969
4.6971
4.69701
4.69723
4.69717
4.69738
4.69733
4.69755
4.69752
4.69774
4.69772
4.69794
4.69793
4.69814
4.69815
4.69834
4.69836
4.69854
4.69858
4.69882
4.69882
4.69908
4.69909
4.69929
4.69931
4.69946
4.69958
4.69965
4.69974
4.69966
4.70035
4.69898
4.70054
4.69833
4.70035
4.69803
4.70047
4.69853
4.70136
4.70008
4.7033
4.70279
4.70638
5.40055
5.40064
5.4006
5.40052
5.40041
5.40029
5.40013
5.39996
5.39976
5.39954
5.3993
5.39905
5.39875
5.39833
5.39791
5.39749
5.39699
5.39624
5.39579
5.39531
5.39536
5.39604
5.39741
5.39946
5.40213
6.08149
6.08164
6.08158
6.08167
6.08163
6.08173
6.0817
6.08183
6.08181
6.08195
6.08195
6.08209
6.08211
6.08227
6.0823
6.08246
6.08251
6.08268
6.08274
6.08292
6.08299
6.08317
6.08326
6.08345
6.08355
6.08383
6.08396
6.08428
6.08444
6.08476
6.08493
6.08523
6.08549
6.08602
6.08641
6.08696
6.08777
6.08824
6.08988
6.08984
6.09189
6.09144
6.09376
6.09316
6.09566
6.09511
6.0977
6.09735
6.10003
6.96169
6.96173
6.96172
6.96169
6.96165
6.96161
6.96155
6.96149
6.96142
6.96134
6.96126
6.96117
6.96105
6.9609
6.96075
6.9606
6.96038
6.96012
6.9599
6.95988
6.96021
6.96087
6.96187
6.9632
6.96475
7.81951
7.81958
7.81955
7.8196
7.81958
7.81964
7.81963
7.8197
7.8197
7.81978
7.81979
7.81988
7.8199
7.81999
7.82003
7.82012
7.82017
7.82027
7.82033
7.82044
7.8205
7.82062
7.8207
7.82082
7.82091
7.8211
7.82122
7.82144
7.82158
7.82181
7.82197
7.8222
7.82241
7.82287
7.82321
7.82372
7.82432
7.8251
7.82628
7.82687
7.82832
7.8286
7.83021
7.83025
7.83191
7.8318
7.83341
7.83324
7.83482
8.75354
8.75356
8.75356
8.75355
8.75354
8.75353
8.75352
8.7535
8.75348
8.75346
8.75344
8.75341
8.75338
8.75334
8.7533
8.75326
8.75318
8.75312
8.75305
8.75315
8.75338
8.75377
8.75432
8.75499
8.75575
9.67254
9.67257
9.67256
9.67258
9.67257
9.6726
9.6726
9.67263
9.67264
9.67267
9.67268
9.67272
9.67274
9.67279
9.67281
9.67286
9.67288
9.67294
9.67297
9.67303
9.67307
9.67313
9.67317
9.67324
9.67329
9.67339
9.67346
9.67358
9.67366
9.67379
9.67388
9.67401
9.67413
9.67439
9.6746
9.6749
9.67523
9.67575
9.67641
9.67688
9.67768
9.678
9.67888
9.67905
9.67993
9.67997
9.68079
9.68073
9.68151
10.7173
10.7173
10.7173
10.7173
10.7173
10.7173
10.7173
10.7173
10.7173
10.7173
10.7173
10.7173
10.7172
10.7172
10.7172
10.7172
10.7172
10.7171
10.7171
10.7171
10.7172
10.7174
10.7176
10.7179
10.7182
11.7536
11.7536
11.7536
11.7536
11.7536
11.7536
11.7536
11.7536
11.7536
11.7536
11.7536
11.7537
11.7537
11.7537
11.7537
11.7537
11.7537
11.7538
11.7538
11.7538
11.7538
11.7539
11.7539
11.7539
11.7539
11.754
11.754
11.7541
11.7541
11.7542
11.7542
11.7543
11.7544
11.7545
11.7546
11.7547
11.7549
11.7552
11.7555
11.7558
11.7561
11.7563
11.7567
11.7569
11.7573
11.7573
11.7577
11.7576
11.758
12.8527
12.8527
12.8527
12.8527
12.8527
12.8527
12.8527
12.8527
12.8527
12.8527
12.8527
12.8527
12.8527
12.8527
12.8527
12.8527
12.8526
12.8526
12.8526
12.8526
12.8527
12.8527
12.8528
12.8529
12.853
13.9478
13.9478
13.9478
13.9478
13.9478
13.9478
13.9478
13.9478
13.9478
13.9478
13.9478
13.9479
13.9479
13.9479
13.9479
13.9479
13.9479
13.9479
13.9479
13.9479
13.9479
13.9479
13.9479
13.948
13.948
13.948
13.948
13.948
13.948
13.9481
13.9481
13.9481
13.9481
13.9482
13.9482
13.9483
13.9484
13.9485
13.9486
13.9487
13.9489
13.949
13.9491
13.9492
13.9493
13.9493
13.9495
13.9495
13.9496
15.1028
15.1028
15.1028
15.1028
15.1028
15.1028
15.1028
15.1028
15.1028
15.1027
15.1027
15.1027
15.1027
15.1027
15.1027
15.1027
15.1027
15.1027
15.1027
15.1027
15.1027
15.1027
15.1028
15.1028
15.1028
16.2562
16.2562
16.2562
16.2562
16.2562
16.2562
16.2562
16.2562
16.2562
16.2562
16.2562
16.2562
16.2562
16.2562
16.2562
16.2562
16.2562
16.2562
16.2562
16.2562
16.2562
16.2562
16.2562
16.2562
16.2562
16.2562
16.2562
16.2562
16.2563
16.2563
16.2563
16.2563
16.2563
16.2563
16.2563
16.2563
16.2563
16.2564
16.2564
16.2564
16.2565
16.2565
16.2565
16.2565
16.2566
16.2566
16.2566
16.2566
16.2567
17.5256
17.5256
17.5256
17.5256
17.5256
17.5256
17.5256
17.5256
17.5256
17.5256
17.5256
17.5256
17.5256
17.5256
17.5256
17.5256
17.5256
17.5256
17.5256
17.5256
17.5255
17.5255
17.5255
17.5255
17.5256
18.795
18.795
18.795
18.795
18.795
18.795
18.795
18.795
18.795
18.795
18.795
18.795
18.795
18.795
18.7949
18.7949
18.7949
18.7949
18.7949
18.7949
18.7949
18.7949
18.7949
18.7949
18.7949
18.7949
18.7949
18.7949
18.7949
18.7949
18.7949
18.7949
18.7949
18.7948
18.7948
18.7948
18.7948
18.7948
18.7947
18.7947
18.7946
18.7946
18.7946
18.7945
18.7945
18.7945
18.7945
18.7945
18.7945
SCALARS Stress_Z double 1
LOOKUP_TABLE default
80.128
82.1932
82.8293
80.8524
77.8924
91.3709
39.6421
-6.82746
2.00952
1.20565
-0.11699
-0.320577
0.148188
0.0846736
-0.0535476
-0.0234169
-0.00258949
0.00436235
-0.0099496
-0.00188907
-0.00292292
0.000124014
-0.00246677
-0.00011919
-0.00140934
0.000189195
-0.00141756
0.000113361
-0.000895461
-0.000109946
-0.000831751
0.000112316
0.000250341
6.31372e-05
-0.000490869
-0.000252943
0.00139627
0.000186187
-0.000621099
4.93375e-05
-0.000307548
2.98918e-06
-0.000176165
-6.43738e-06
-8.48312e-05
-3.64599e-05
6.45606e-06
-7.56546e-05
7.15225e-05
81.8053
81.682
76.9316
38.0149
3.41899
0.140392
0.0328829
0.0262449
0.0304884
0.0314419
0.0318355
0.0322168
0.0321457
0.0319379
0.0322644
0.0327233
0.0330214
0.0328259
0.0336432
0.0318829
0.0322909
0.0324785
0.0325972
0.0328005
0.0329104
84.2325
82.487
80.8115
83.8312
81.6055
78.6516
38.7528
2.79135
0.535218
-0.892989
0.467188
0.17956
-0.145988
0.0302739
0.0897349
0.0942754
0.0509921
0.0699485
0.0657299
0.0706371
0.063094
0.0674844
0.0646315
0.066962
0.0641935
0.0667854
0.0641228
0.0664427
0.0645321
0.0662149
0.0650571
0.0660774
0.0646255
0.0664427
0.0647089
0.0658686
0.0652197
0.0664074
0.0642697
0.0659236
0.0648616
0.0656901
0.0651231
0.0655694
0.0652457
0.0655129
0.0654095
0.0653957
0.0654428
83.0314
82.8595
78.7344
38.556
2.16648
-0.340444
-0.0100604
0.107227
0.111642
0.105196
0.101383
0.0997471
0.0984231
0.097747
0.0979984
0.0981937
0.0973983
0.0973504
0.0978736
0.097291
0.097861
0.0980376
0.0980732
0.0980801
0.0979985
82.966
82.7243
83.5343
82.4272
77.4978
68.2704
38.6587
9.41821
2.68198
-0.0711229
-0.613136
0.000173163
0.000535026
0.18756
0.153644
0.188351
0.157906
0.163253
0.14415
0.147136
0.137461
0.139916
0.134236
0.136441
0.132213
0.135087
0.131058
0.134036
0.131186
0.133598
0.131407
0.133576
0.130354
0.133765
0.130182
0.13322
0.130419
0.132998
0.129936
0.132099
0.130525
0.131594
0.130742
0.131312
0.130793
0.131182
0.130841
0.131092
0.130776
81.9251
81.5504
74.9609
37.883
3.66938
-0.0825035
0.140162
0.241188
0.218275
0.192191
0.178122
0.171612
0.167789
0.165658
0.165501
0.165538
0.164162
0.163643
0.163704
0.163103
0.163561
0.163683
0.16368
0.163675
0.163595
81.2519
81.357
81.4635
79.5978
72.9783
60.4864
37.5335
14.0233
4.59492
0.865689
-0.117996
0.208785
0.230636
0.367026
0.303149
0.316102
0.273461
0.262182
0.235966
0.230382
0.216754
0.215073
0.207665
0.207851
0.202642
0.204547
0.199731
0.202605
0.199292
0.201762
0.199385
0.201437
0.197914
0.201509
0.197198
0.20079
0.196891
0.200104
0.195918
0.198766
0.196263
0.19786
0.196409
0.197291
0.196457
0.196962
0.196598
0.196703
0.196635
79.8807
78.4715
69.2787
36.4888
6.09798
0.730036
0.409492
0.406602
0.336428
0.285923
0.258712
0.245812
0.238933
0.234881
0.234088
0.233973
0.232593
0.231338
0.230937
0.229261
0.22934
0.229372
0.229388
0.229564
0.229681
78.4639
78.1527
77.2338
74.1556
66.5513
54.3926
35.9041
16.8866
7.27704
2.75275
1.06532
0.774717
0.599806
0.588626
0.489903
0.457448
0.397493
0.368415
0.332201
0.317873
0.298436
0.292649
0.281746
0.280671
0.273199
0.274752
0.267736
0.271499
0.266999
0.269871
0.266211
0.26999
0.266081
0.269326
0.26349
0.268535
0.265576
0.267052
0.262277
0.265011
0.262542
0.263874
0.262368
0.263137
0.262319
0.262611
0.262083
0.262627
0.261897
74.5596
72.1243
60.9114
34.0977
9.28439
2.28617
0.953632
0.644244
0.486493
0.400904
0.357428
0.337127
0.326551
0.320456
0.319448
0.319402
0.317338
0.31514
0.314869
0.30997
0.309815
0.309357
0.309012
0.308958
0.308437
70.9571
70.2534
67.9968
63.4432
55.5747
45.2914
32.6379
19.6985
11.2613
5.97741
3.21996
1.97837
1.3032
1.01019
0.786411
0.680295
0.575335
0.523456
0.467836
0.44488
0.415648
0.407432
0.391638
0.390111
0.379126
0.382602
0.372539
0.37843
0.371218
0.37648
0.371271
0.374867
0.366807
0.374084
0.364804
0.370964
0.361943
0.367726
0.358544
0.362571
0.357848
0.359465
0.35682
0.357546
0.355931
0.356497
0.355353
0.356303
0.353936
65.5759
62.3904
50.91
30.7595
12.0219
4.19963
1.74042
0.974629
0.67482
0.540219
0.479096
0.452814
0.440214
0.434269
0.433181
0.431918
0.425983
0.421653
0.416587
0.411948
0.409383
0.4066
0.404493
0.40263
0.400295
60.7939
60.0029
57.3827
52.9635
46.267
38.1714
29.1463
19.9175
13.0027
8.04758
5.04052
3.21164
2.13235
1.53631
1.14664
0.934582
0.770776
0.685729
0.61017
0.576698
0.540848
0.529937
0.512406
0.511036
0.499994
0.504321
0.494438
0.50074
0.493413
0.498117
0.491785
0.495169
0.485185
0.491566
0.478885
0.48515
0.471074
0.47606
0.464097
0.465446
0.459499
0.458926
0.45546
0.454751
0.452552
0.452381
0.450375
0.452133
0.447799
55.3461
52.2095
42.2751
27.2773
13.0554
5.60744
2.51664
1.34518
0.883222
0.690803
0.611125
0.580328
0.568038
0.563106
0.561882
0.559367
0.551689
0.541975
0.530935
0.519936
0.512276
0.506107
0.50193
0.498986
0.49616
50.3259
49.662
47.2993
43.564
38.2952
32.1411
25.5588
18.7729
13.281
9.03047
6.15581
4.14297
2.86639
2.05403
1.5273
1.21033
0.988309
0.863487
0.767273
0.720373
0.678571
0.66394
0.645837
0.643792
0.634043
0.638196
0.62991
0.635373
0.628654
0.631591
0.625141
0.626038
0.616682
0.618226
0.60423
0.606425
0.590504
0.590553
0.575249
0.573182
0.564524
0.56184
0.556417
0.554366
0.551016
0.549928
0.54756
0.548682
0.544705
45.4391
42.7566
34.8376
23.7206
12.9032
6.3671
3.12307
1.70101
1.10245
0.854202
0.755575
0.720068
0.707962
0.703958
0.701894
0.696962
0.687205
0.671066
0.654056
0.633345
0.618748
0.608074
0.601106
0.59685
0.593955
40.7508
40.238
38.3268
35.4024
31.4056
26.8179
21.972
16.9185
12.6353
9.14426
6.60209
4.67041
3.36762
2.46275
1.86273
1.47339
1.20907
1.04995
0.936495
0.876401
0.829442
0.810576
0.791951
0.788788
0.780106
0.783408
0.776497
0.780324
0.773911
0.77458
0.767576
0.765881
0.756619
0.752434
0.737009
0.733682
0.717164
0.709628
0.691085
0.684301
0.672706
0.667119
0.659561
0.655683
0.651014
0.648792
0.646008
0.646178
0.643136
36.5463
34.4347
28.4073
20.1984
11.9954
6.54527
3.48671
1.98995
1.31407
1.02611
0.912084
0.872023
0.859314
0.854847
0.850696
0.842426
0.829754
0.806087
0.78295
0.750724
0.728007
0.711977
0.701618
0.695686
0.692825
32.3995
32.032
30.5716
28.3796
25.4184
22.0446
18.4803
14.7227
11.4311
8.652
6.52225
4.81287
3.60725
2.71513
2.11029
1.69314
1.41263
1.23337
1.11111
1.04134
0.991535
0.968673
0.94982
0.944896
0.936954
0.938249
0.932058
0.933274
0.926639
0.924392
0.916505
0.911871
0.902244
0.891811
0.87457
0.865244
0.848394
0.831866
0.810135
0.797677
0.783157
0.77398
0.764291
0.758152
0.752111
0.748578
0.745254
0.744444
0.742418
28.8322
27.2583
22.8103
16.8095
10.6576
6.28585
3.60877
2.1854
1.50166
1.1996
1.07783
1.0344
1.0202
1.01336
1.00552
0.992952
0.976694
0.944683
0.915238
0.870559
0.839033
0.81712
0.802997
0.795125
0.792308
25.2099
24.9386
23.876
22.2821
20.1515
17.7198
15.1379
12.3955
9.91745
7.78674
6.07456
4.66218
3.61755
2.81864
2.25845
1.85811
1.58612
1.40496
1.28383
1.21027
1.16095
1.13516
1.11685
1.10962
1.10243
1.10013
1.09441
1.09161
1.08453
1.07836
1.06956
1.06148
1.05167
1.03377
1.01523
0.999258
0.982964
0.955372
0.931758
0.912164
0.89529
0.881596
0.87023
0.861194
0.854038
0.848849
0.845144
0.843086
0.842379
20.4963
19.4738
16.5903
12.693
8.58788
5.49873
3.46192
2.29512
1.6981
1.4212
1.30453
1.25967
1.24236
1.22882
1.21345
1.19373
1.17204
1.12852
1.09072
1.02934
0.985944
0.956058
0.936815
0.926273
0.923515
15.7627
15.6492
15.0478
14.191
13.0062
11.6767
10.2363
8.68586
7.25192
5.9697
4.9115
3.98895
3.28994
2.72084
2.31626
2.00755
1.7988
1.64889
1.55182
1.48586
1.4448
1.41787
1.4014
1.39001
1.38265
1.37249
1.36463
1.35373
1.3439
1.33088
1.31932
1.30533
1.29398
1.26551
1.24324
1.2173
1.19998
1.15792
1.12809
1.09919
1.07719
1.05749
1.0423
1.02952
1.01989
1.01256
1.00771
1.00424
1.005
12.3853
11.8544
10.3375
8.26974
6.03532
4.27364
3.04103
2.2891
1.88035
1.67855
1.58561
1.54285
1.52029
1.49465
1.46714
1.43721
1.40861
1.35165
1.30407
1.22333
1.1661
1.12702
1.1019
1.08841
1.08577
8.77076
8.7464
8.45286
8.0679
7.50388
6.8911
6.2032
5.47202
4.77378
4.14755
3.61698
3.14392
2.78091
2.47125
2.25319
2.07297
1.95599
1.85991
1.80258
1.75335
1.72636
1.69986
1.68611
1.66904
1.66068
1.63954
1.628
1.60686
1.59351
1.57259
1.55838
1.53805
1.52622
1.48686
1.4623
1.42712
1.40925
1.35406
1.31937
1.28205
1.25554
1.2306
1.21204
1.19595
1.18427
1.17483
1.1694
1.16421
1.16672
6.559
6.35927
5.73408
4.87418
3.9286
3.16102
2.60192
2.2428
2.03325
1.91742
1.85243
1.8116
1.78228
1.74205
1.70181
1.66257
1.62851
1.56039
1.50379
1.40813
1.33993
1.29375
1.26424
1.24875
1.24608
3.98786
4.03208
3.92909
3.8537
3.68345
3.53846
3.34299
3.15343
2.95908
2.78446
2.63819
2.4933
2.3919
2.28506
2.22148
2.14778
2.10996
2.05976
2.03666
2.00095
1.98495
1.95721
1.94394
1.92104
1.90992
1.87868
1.86182
1.83235
1.81533
1.78814
1.7707
1.74708
1.73329
1.68816
1.65953
1.62119
1.59915
1.53763
1.49914
1.45555
1.42669
1.39731
1.37695
1.35799
1.34518
1.33399
1.32767
1.32249
1.32396
3.26024
3.24256
3.10908
2.92181
2.70741
2.52379
2.37609
2.26586
2.18529
2.12466
2.07607
2.0344
1.99791
1.94734
1.89895
1.85396
1.81382
1.74058
1.67678
1.57865
1.50522
1.4548
1.42235
1.40449
1.39978
2.34287
2.3846
2.36745
2.38821
2.37614
2.39025
2.38362
2.38722
2.38129
2.3737
2.36718
2.3488
2.33936
2.31448
2.30167
2.27387
2.25852
2.23051
2.21377
2.18703
2.16973
2.14508
2.12814
2.10494
2.08871
2.05798
2.03506
2.00639
1.9847
1.95956
1.93974
1.91512
1.89652
1.85617
1.82394
1.78634
1.75701
1.70096
1.65714
1.61518
1.58304
1.55416
1.53213
1.51309
1.49917
1.48826
1.48149
1.47615
1.47621
2.62526
2.6216
2.59804
2.56175
2.51391
2.46336
2.41151
2.36075
2.31238
2.26692
2.22438
2.18457
2.14749
2.09563
2.04766
2.00334
1.96283
1.88982
1.82755
1.72753
1.65431
1.60353
1.57072
1.55256
1.54682
2.64972
2.65642
2.6473
2.64278
2.62803
2.61675
2.59801
2.57992
2.55744
2.53592
2.51345
2.48955
2.46703
2.44238
2.42042
2.39611
2.37501
2.35171
2.33158
2.30958
2.29045
2.2698
2.25162
2.23226
2.21522
2.18795
2.16415
2.13892
2.11674
2.09354
2.07285
2.05147
2.03271
1.99331
1.96017
1.92589
1.89835
1.84082
1.79855
1.75598
1.72547
1.69578
1.67471
1.65517
1.64192
1.63045
1.62377
1.61901
1.61802
2.68802
2.68523
2.66736
2.63943
2.60177
2.5609
2.51772
2.47416
2.4315
2.39043
2.35126
2.31404
2.27898
2.22945
2.18325
2.14034
2.10102
2.02962
1.96859
1.8696
1.79686
1.74632
1.71363
1.69558
1.68992
2.71987
2.72436
2.71757
2.71401
2.70281
2.69407
2.67938
2.66539
2.64719
2.63026
2.61148
2.59223
2.57287
2.55242
2.53305
2.51229
2.49326
2.47279
2.45432
2.4345
2.4167
2.3977
2.38062
2.36251
2.34635
2.32051
2.29774
2.27356
2.25219
2.22978
2.20977
2.18895
2.17076
2.13223
2.09995
2.06617
2.03921
1.98234
1.94065
1.89841
1.86806
1.83856
1.81756
1.79808
1.78487
1.77338
1.76681
1.76189
1.76113
2.78357
2.78151
2.76815
2.747
2.71797
2.68568
2.65065
2.61437
2.57789
2.54193
2.50693
2.4731
2.44079
2.39457
2.35097
2.31009
2.2724
2.20349
2.14417
2.04721
1.97537
1.92521
1.89265
1.87463
1.86898
2.84217
2.84556
2.84073
2.83839
2.83035
2.82437
2.81363
2.80378
2.79015
2.77785
2.76336
2.7489
2.7335
2.7176
2.70171
2.685
2.66896
2.65194
2.63599
2.61902
2.60333
2.58666
2.57134
2.55513
2.54042
2.51686
2.49583
2.47339
2.45343
2.43234
2.41348
2.39371
2.37646
2.33953
2.30862
2.27588
2.24996
2.19426
2.15378
2.11193
2.08224
2.05281
2.03219
2.01265
1.99965
1.98808
1.98163
1.97663
1.97596
2.91397
2.91241
2.90275
2.88723
2.86552
2.84079
2.81326
2.78394
2.75369
2.72312
2.69271
2.66277
2.6337
2.59148
2.5511
2.51281
2.47723
2.4115
2.35445
2.26016
2.18957
2.13997
2.10763
2.08968
2.08404
2.98133
2.98375
2.98018
2.97838
2.97233
2.96783
2.95959
2.95215
2.94148
2.93209
2.9205
2.90926
2.89668
2.88406
2.87082
2.85725
2.84363
2.82948
2.81569
2.80128
2.7875
2.77305
2.75941
2.74509
2.73182
2.71067
2.69143
2.67092
2.65245
2.63289
2.61528
2.59672
2.58052
2.54547
2.51612
2.48464
2.45992
2.40572
2.36666
2.32537
2.2965
2.26722
2.24708
2.2275
2.2148
2.20312
2.19687
2.19174
2.19121
3.0576
3.05644
3.04915
3.03731
3.02054
3.00109
2.97902
2.95504
2.92978
2.90376
2.87742
2.85106
2.82509
2.78684
2.74975
2.71418
2.68085
2.61858
2.56407
2.47283
2.40374
2.35485
2.32283
2.30499
2.29937
3.1308
3.13257
3.12985
3.12844
3.12378
3.12028
3.11384
3.10807
3.09958
3.09222
3.08286
3.07393
3.06358
3.05341
3.04233
3.03121
3.01962
3.00781
2.9959
2.98365
2.97158
2.95909
2.94698
2.93443
2.92249
2.90364
2.8861
2.86754
2.8505
2.83253
2.81613
2.7989
2.78369
2.75071
2.72289
2.69286
2.66931
2.61685
2.57925
2.53866
2.51069
2.48161
2.46202
2.44242
2.43008
2.41828
2.41226
2.40699
2.40662
3.23783
3.23693
3.23139
3.22234
3.20938
3.19415
3.1766
3.15722
3.13646
3.11473
3.09238
3.0697
3.04702
3.01314
2.97983
2.94747
2.91684
2.85888
2.8076
2.72046
2.65352
2.6057
2.57417
2.55654
2.55097
3.34245
3.34382
3.34179
3.3408
3.33731
3.33478
3.32991
3.32568
3.3192
3.31372
3.30647
3.29972
3.29159
3.28376
3.27492
3.2662
3.25679
3.24736
3.23754
3.22758
3.21748
3.20714
3.19686
3.18629
3.176
3.15988
3.14451
3.12833
3.11318
3.09724
3.08251
3.06698
3.05314
3.02298
2.99734
2.96935
2.94747
2.89763
2.86213
2.82277
2.79607
2.76746
2.74865
2.72916
2.7173
2.70544
2.69973
2.69432
2.69415
3.45497
3.4543
3.45014
3.4433
3.4334
3.42165
3.40791
3.39252
3.37579
3.35801
3.33944
3.32033
3.30095
3.27158
3.24228
3.21341
3.18578
3.1327
3.0852
3.00292
2.93869
2.89229
2.86146
2.84414
2.83864
3.56408
3.56505
3.56354
3.56276
3.56014
3.55819
3.55449
3.55125
3.54626
3.54205
3.53639
3.53117
3.52473
3.51862
3.51152
3.50463
3.49697
3.48943
3.48133
3.47325
3.4648
3.4563
3.44759
3.43878
3.42994
3.41631
3.40289
3.38899
3.37559
3.36164
3.34843
3.33467
3.32208
3.29487
3.2712
3.24552
3.22504
3.17824
3.14457
3.10674
3.08122
3.05322
3.03517
3.01583
3.00447
2.99255
2.98718
2.9816
2.98165
3.79935
3.79887
3.79589
3.79097
3.7838
3.77521
3.76507
3.75357
3.7409
3.72726
3.71284
3.69779
3.68229
3.65849
3.63436
3.61022
3.58674
3.54088
3.49916
3.42503
3.36576
3.32216
3.29282
3.27618
3.27089
4.02997
4.03064
4.02968
4.02926
4.0276
4.02646
4.02412
4.02217
4.01898
4.0164
4.01275
4.00949
4.00528
4.00139
3.99667
3.9922
3.98702
3.98202
3.97644
3.97098
3.96505
3.95917
3.95295
3.94673
3.94028
3.93045
3.92039
3.91011
3.89982
3.88922
3.87884
3.86812
3.85798
3.83621
3.81658
3.79532
3.77785
3.7374
3.70778
3.67356
3.65059
3.62435
3.6079
3.58929
3.57893
3.56719
3.56242
3.55674
3.55707
4.40368
4.40338
4.40154
4.39849
4.39402
4.3886
4.38212
4.37469
4.36638
4.3573
4.34755
4.33722
4.32636
4.30943
4.29191
4.27404
4.2562
4.22063
4.18742
4.12626
4.07562
4.03726
4.01093
3.99578
3.99093
4.76833
4.76873
4.76818
4.76797
4.76701
4.76639
4.76505
4.76397
4.76214
4.7607
4.75858
4.75675
4.75428
4.75206
4.74927
4.74669
4.74359
4.74067
4.73728
4.73403
4.73038
4.72684
4.72295
4.71915
4.71505
4.70892
4.70236
4.69582
4.68896
4.68203
4.67494
4.66775
4.66066
4.64562
4.63128
4.61602
4.60281
4.57208
4.54858
4.5209
4.502
4.47959
4.46578
4.44919
4.44047
4.42961
4.42577
4.42025
4.42093
5.35734
5.35717
5.35615
5.35445
5.35195
5.3489
5.34522
5.34095
5.33614
5.33081
5.32501
5.3188
5.31215
5.30163
5.29055
5.27901
5.26714
5.24307
5.21974
5.17523
5.13684
5.10667
5.08538
5.07292
5.06887
5.93129
5.93151
5.93123
5.93113
5.93065
5.93036
5.92969
5.92918
5.92825
5.92756
5.92649
5.9256
5.92434
5.92326
5.92183
5.92056
5.91897
5.91751
5.91576
5.91413
5.91222
5.91042
5.90837
5.90642
5.90424
5.90105
5.89747
5.89402
5.89022
5.88649
5.88249
5.87852
5.87446
5.86595
5.85731
5.84837
5.84019
5.82108
5.80556
5.78708
5.77405
5.75802
5.74825
5.73568
5.72949
5.72085
5.71829
5.71363
5.71459
6.74734
6.74726
6.74675
6.7459
6.74465
6.74312
6.74127
6.7391
6.73664
6.73389
6.73088
6.72762
6.72408
6.71844
6.7124
6.706
6.69924
6.68534
6.67126
6.64363
6.61874
6.59839
6.5836
6.57475
6.5718
7.54304
7.54316
7.54302
7.54299
7.54277
7.54265
7.54234
7.54212
7.5417
7.5414
7.54091
7.54052
7.53995
7.53948
7.53883
7.53827
7.53754
7.53689
7.53609
7.53537
7.53449
7.53369
7.53274
7.53186
7.53086
7.52941
7.52773
7.52617
7.52437
7.52266
7.52075
7.51891
7.51697
7.51295
7.50863
7.50434
7.50024
7.49067
7.48239
7.4726
7.46544
7.45638
7.45092
7.44339
7.43996
7.43451
7.43325
7.43011
7.43106
8.58653
8.5865
8.58627
8.58588
8.58532
8.58462
8.58377
8.58278
8.58164
8.58037
8.57897
8.57745
8.57579
8.57312
8.57023
8.56714
8.56381
8.55691
8.54964
8.53513
8.52158
8.51011
8.50155
8.49633
8.49453
9.61033
9.61038
9.61032
9.61032
9.61022
9.61018
9.61005
9.60997
9.6098
9.60969
9.60949
9.60934
9.60911
9.60893
9.60867
9.60845
9.60816
9.60791
9.60759
9.60731
9.60695
9.60664
9.60626
9.60592
9.60552
9.60495
9.60426
9.60365
9.60292
9.60225
9.60147
9.60074
9.59996
9.59835
9.59654
9.59483
9.59314
9.58922
9.58565
9.58152
9.57845
9.57442
9.5721
9.56858
9.56719
9.56451
9.56412
9.56247
9.56316
10.7348
10.7348
10.7347
10.7345
10.7343
10.734
10.7336
10.7332
10.7327
10.7322
10.7316
10.731
10.7302
10.7291
10.7279
10.7265
10.7251
10.722
10.7188
10.7122
10.7058
10.7004
10.6962
10.6936
10.6927
11.8455
11.8455
11.8455
11.8455
11.8455
11.8455
11.8454
11.8454
11.8453
11.8453
11.8452
11.8451
11.845
11.845
11.8449
11.8448
11.8447
11.8446
11.8444
11.8443
11.8442
11.8441
11.8439
11.8438
11.8436
11.8434
11.8432
11.8429
11.8426
11.8424
11.8421
11.8418
11.8415
11.8409
11.8401
11.8395
11.8388
11.8373
11.8359
11.8343
11.8331
11.8315
11.8306
11.8292
11.8287
11.8276
11.8275
11.8268
11.8271
13.1139
13.1139
13.1138
13.1138
13.1137
13.1136
13.1134
13.1133
13.1131
13.1128
13.1126
13.1123
13.1121
13.1116
13.1111
13.1105
13.1099
13.1087
13.1074
13.1046
13.1019
13.0996
13.0978
13.0967
13.0963
14.3745
14.3746
14.3745
14.3745
14.3745
14.3745
14.3745
14.3745
14.3745
14.3745
14.3744
14.3744
14.3744
14.3744
14.3743
14.3743
14.3743
14.3742
14.3742
14.3742
14.3741
14.3741
14.374
14.374
14.3739
14.3739
14.3738
14.3737
14.3736
14.3735
14.3734
14.3733
14.3732
14.373
14.3728
14.3726
14.3724
14.3719
14.3714
14.3709
14.3705
14.37
14.3697
14.3692
14.3691
14.3687
14.3687
14.3684
14.3686
15.7144
15.7144
15.7144
15.7144
15.7144
15.7143
15.7143
15.7142
15.7141
15.714
15.714
15.7139
15.7138
15.7136
15.7134
15.7132
15.713
15.7125
15.712
15.711
15.71
15.7091
15.7084
15.708
15.7079
17.0506
17.0506
17.0506
17.0506
17.0506
17.0506
17.0506
17.0506
17.0506
17.0506
17.0506
17.0506
17.0505
17.0505
17.0505
17.0505
17.0505
17.0505
17.0505
17.0505
17.0505
17.0504
17.0504
17.0504
17.0504
17.0504
17.0503
17.0503
17.0503
17.0503
17.0502
17.0502
17.0502
17.0501
17.05
17.05
17.0499
17.0497
17.0496
17.0494
17.0493
17.0491
17.049
17.0489
17.0488
17.0487
17.0487
17.0486
17.0487
18.4609
18.4609
18.4609
18.4609
18.4609
18.4609
18.4609
18.4608
18.4608
18.4608
18.4607
18.4607
18.4607
18.4606
18.4605
18.4605
18.4604
18.4602
18.46
18.4597
18.4593
18.459
18.4587
18.4586
18.4585
19.8698
19.8698
19.8698
19.8698
19.8698
19.8698
19.8698
19.8698
19.8698
19.8698
19.8698
19.8698
19.8698
19.8698
19.8698
19.8698
19.8698
19.8698
19.8698
19.8698
19.8698
19.8698
19.8698
19.8698
19.8698
19.8697
19.8697
19.8697
19.8697
19.8697
19.8697
19.8697
19.8696
19.8696
19.8696
19.8696
19.8695
19.8694
19.8694
19.8693
19.8692
19.8692
19.8691
19.8691
19.869
19.869
19.869
19.8689
19.869
21.4208
21.4208
21.4208
21.4208
21.4208
21.4208
21.4208
21.4208
21.4208
21.4207
21.4207
21.4207
21.4207
21.4207
21.4207
21.4206
21.4206
21.4206
21.4205
21.4204
21.4202
21.4201
21.42
21.42
21.42
22.9716
22.9716
22.9716
22.9716
22.9716
22.9716
22.9716
22.9716
22.9716
22.9716
22.9716
22.9716
22.9716
22.9716
22.9716
22.9716
22.9716
22.9716
22.9716
22.9716
22.9716
22.9716
22.9716
22.9716
22.9716
22.9716
22.9715
22.9715
22.9715
22.9715
22.9715
22.9715
22.9715
22.9715
22.9715
22.9714
22.9714
22.9714
22.9713
22.9713
22.9712
22.9712
22.9712
22.9711
22.9711
22.9711
22.9711
22.971
22.971
SCALARS Stress_Shear double 1
LOOKUP_TABLE default
0.216351
0.313506
1.08107
-0.749479
2.84426
0.540404
-6.94457
0.869397
2.2064
-0.910105
0.677073
0.130707
-0.0128436
-0.0336369
0.00328587
0.00659898
-0.00490364
-0.00205464
-0.00160666
-0.000161945
-0.0014651
-0.000521554
-0.00137714
-0.000266792
-0.00148386
2.95571e-05
-0.00163564
-5.64785e-05
-0.00133277
-7.14428e-05
-0.0012638
0.00015712
-0.00118988
0.000522594
-0.00160098
0.000274361
-0.000785592
0.000796024
-0.00129281
0.000139223
-0.000253348
-0.000107309
0.000231767
-0.000251938
0.000525051
-0.000342373
0.000800443
-0.000484593
0.00194599
0.078967
0.939098
3.11121
-14.1763
2.80083
0.236516
-0.224384
-0.203894
-0.143537
-0.107885
-0.0873919
-0.0743606
-0.0653066
-0.0552119
-0.0473263
-0.040876
-0.0357639
-0.027753
-0.0210048
-0.0132722
-0.00747649
-0.00397164
-0.00175614
-0.000160097
0.00188783
0.0814085
0.139944
0.79696
1.22369
2.75608
-7.93913
-19.9187
-7.35555
2.63038
0.413002
-0.153358
-0.497579
-0.467003
-0.445578
-0.40563
-0.336573
-0.283686
-0.24379
-0.213975
-0.190921
-0.17325
-0.158432
-0.147111
-0.136504
-0.129013
-0.116653
-0.108713
-0.0991336
-0.0931769
-0.0853397
-0.0804266
-0.0737962
-0.0706553
-0.0595924
-0.0544198
-0.0456675
-0.0420197
-0.0305634
-0.0257656
-0.018788
-0.0147349
-0.011472
-0.00799258
-0.00680921
-0.00373727
-0.0037333
-0.000823131
-0.00159263
0.00183355
0.280003
0.443042
-1.24785
-18.6914
-0.530056
-0.493302
-0.7609
-0.575989
-0.412517
-0.311756
-0.252915
-0.214756
-0.188124
-0.158468
-0.135786
-0.117365
-0.103009
-0.0793119
-0.0615548
-0.0374322
-0.0215011
-0.011731
-0.00556781
-0.00143275
0.00180394
0.241901
-0.376865
-0.398776
-2.04199
-4.50028
-11.8049
-18.175
-10.2731
-2.95394
-1.99461
-1.16584
-1.23234
-1.0471
-0.89559
-0.754981
-0.633598
-0.537295
-0.464381
-0.408433
-0.365562
-0.331603
-0.303864
-0.281717
-0.262065
-0.246612
-0.224169
-0.20769
-0.190548
-0.177975
-0.164067
-0.153789
-0.142137
-0.134704
-0.114942
-0.103486
-0.0880692
-0.0805775
-0.0591281
-0.0488614
-0.0361948
-0.0282161
-0.0219943
-0.0155198
-0.0129561
-0.00749483
-0.00699125
-0.00212369
-0.00272842
0.00177786
0.192028
-1.9118
-7.23849
-17.5223
-5.23837
-2.07724
-1.33227
-0.908289
-0.647337
-0.495032
-0.403212
-0.343048
-0.300399
-0.253098
-0.216902
-0.187455
-0.163965
-0.125844
-0.0981664
-0.0594607
-0.03443
-0.0190183
-0.00926505
-0.00274673
0.00175208
0.0334268
-1.54592
-3.19602
-6.08069
-9.95632
-14.5753
-17.263
-12.823
-7.49736
-4.72907
-2.90054
-2.17183
-1.62178
-1.29736
-1.05706
-0.885288
-0.753928
-0.656391
-0.579843
-0.520837
-0.473666
-0.435062
-0.40366
-0.376128
-0.353694
-0.322343
-0.298183
-0.274213
-0.255607
-0.236183
-0.220997
-0.20482
-0.193238
-0.165716
-0.148339
-0.127025
-0.115846
-0.0853064
-0.0700815
-0.0521458
-0.040603
-0.0316511
-0.0224146
-0.0186142
-0.0109082
-0.0100063
-0.00327693
-0.00378686
0.0017295
0.0056061
-4.34004
-12.2422
-18.9099
-9.28751
-3.61552
-1.82904
-1.17403
-0.8426
-0.653302
-0.536179
-0.458208
-0.402098
-0.339403
-0.291049
-0.251653
-0.220131
-0.168965
-0.132134
-0.0798706
-0.0462674
-0.025513
-0.0123883
-0.00372486
0.0016834
0.0690671
-2.39184
-5.16505
-9.56489
-15.0536
-19.3269
-22.0655
-17.0584
-11.2015
-7.02423
-3.99523
-2.84411
-1.94879
-1.5892
-1.26531
-1.09263
-0.928621
-0.824174
-0.731308
-0.662637
-0.606427
-0.557874
-0.521651
-0.484516
-0.460852
-0.415284
-0.39144
-0.353778
-0.336062
-0.30483
-0.290534
-0.264246
-0.256675
-0.21107
-0.19923
-0.162499
-0.156927
-0.106175
-0.0966502
-0.0666995
-0.0532472
-0.0415994
-0.0272823
-0.0254978
-0.0110312
-0.0147994
5.44381e-05
-0.00736802
0.0105072
0.00532242
-6.67238
-16.3618
-22.1289
-12.9636
-5.8743
-3.2904
-2.3361
-1.86115
-1.56629
-1.36012
-1.20339
-1.0791
-0.925733
-0.797928
-0.690728
-0.606838
-0.468551
-0.36496
-0.222841
-0.126183
-0.0675372
-0.0306027
-0.00502034
0.0190908
0.00496692
-3.79035
-7.91815
-12.2767
-17.3653
-19.774
-21.7499
-18.2854
-14.6278
-10.786
-7.69049
-6.07287
-4.65335
-4.02839
-3.41141
-3.10259
-2.78713
-2.58363
-2.3883
-2.23558
-2.09907
-1.97479
-1.87012
-1.76448
-1.68236
-1.54362
-1.4457
-1.32713
-1.24724
-1.14706
-1.07984
-0.995629
-0.947643
-0.803633
-0.729554
-0.617218
-0.5689
-0.413513
-0.345707
-0.254147
-0.198171
-0.155311
-0.107745
-0.092246
-0.050659
-0.050463
-0.0118937
-0.0209168
0.0188635
-0.0709399
-8.29859
-16.832
-20.4616
-15.0155
-9.0092
-5.84998
-4.37712
-3.59537
-3.09334
-2.72515
-2.43124
-2.18757
-1.87993
-1.62204
-1.40524
-1.2319
-0.948633
-0.739968
-0.449348
-0.258782
-0.141397
-0.0671819
-0.0174629
0.0189454
-0.0711883
-4.22159
-8.61495
-12.4488
-16.5094
-18.1864
-19.5671
-17.6275
-15.529
-12.663
-10.2195
-8.47329
-6.97719
-6.10212
-5.31394
-4.83593
-4.3921
-4.0783
-3.7905
-3.55488
-3.34494
-3.15292
-2.9866
-2.82291
-2.68718
-2.47365
-2.30879
-2.12784
-1.9921
-1.83973
-1.7261
-1.59754
-1.51052
-1.29249
-1.16169
-0.993291
-0.905224
-0.667668
-0.549313
-0.408803
-0.318445
-0.248692
-0.175856
-0.146625
-0.0854681
-0.0790188
-0.024766
-0.0306508
0.019077
-0.0897766
-8.32745
-15.4857
-18.3198
-15.3283
-10.8971
-7.83402
-6.0857
-5.05363
-4.3646
-3.85025
-3.43576
-3.08905
-2.65204
-2.28757
-1.98201
-1.73307
-1.33227
-1.03781
-0.629988
-0.366576
-0.203634
-0.100133
-0.0305757
0.0192152
-0.102382
-4.03228
-8.10052
-11.4079
-14.7058
-16.155
-17.3685
-16.3902
-15.2678
-13.2909
-11.5412
-9.97974
-8.63644
-7.6698
-6.82576
-6.22967
-5.69934
-5.2924
-4.92932
-4.62115
-4.34876
-4.09812
-3.87928
-3.66665
-3.48591
-3.21111
-2.99083
-2.76032
-2.57908
-2.38595
-2.23456
-2.07187
-1.95239
-1.67907
-1.50021
-1.29152
-1.16741
-0.870021
-0.70845
-0.531808
-0.41381
-0.322484
-0.231248
-0.189069
-0.115089
-0.100748
-0.0368778
-0.0377358
0.0193999
-0.0864671
-7.58475
-13.6449
-16.2401
-14.8106
-11.7671
-9.14932
-7.36975
-6.19305
-5.36293
-4.72915
-4.21496
-3.78417
-3.24365
-2.7958
-2.42194
-2.11535
-1.6252
-1.26429
-0.767531
-0.449398
-0.252108
-0.126389
-0.0416106
0.0195078
-0.0993875
-3.5924
-7.15783
-10.0084
-12.7735
-14.1341
-15.3206
-14.9568
-14.4758
-13.1825
-12.0077
-10.7415
-9.63706
-8.70254
-7.89023
-7.24079
-6.67171
-6.20104
-5.78682
-5.42242
-5.10238
-4.8048
-4.5447
-4.29304
-4.07714
-3.7544
-3.49174
-3.22352
-3.00831
-2.7848
-2.60563
-2.41772
-2.27488
-1.96126
-1.74757
-1.50945
-1.35864
-1.0187
-0.824775
-0.622376
-0.484079
-0.376845
-0.272514
-0.220294
-0.137538
-0.116606
-0.0464206
-0.0427743
0.0196609
-0.0713984
-6.61717
-11.808
-14.3161
-13.9048
-11.9387
-9.85916
-8.20671
-6.98767
-6.07232
-5.35313
-4.7641
-4.27008
-3.65322
-3.14567
-2.724
-2.37782
-1.82675
-1.42015
-0.862554
-0.507034
-0.286118
-0.14501
-0.0496294
0.0197197
-0.0815567
-3.10267
-6.16031
-8.62522
-10.9926
-12.2981
-13.4716
-13.5032
-13.4389
-12.6399
-11.9033
-10.9318
-10.076
-9.23795
-8.50896
-7.85807
-7.29129
-6.78799
-6.34846
-5.94717
-5.59652
-5.26586
-4.97728
-4.6979
-4.45748
-4.10136
-3.80982
-3.51636
-3.27877
-3.03565
-2.83865
-2.63487
-2.47731
-2.13857
-1.90326
-1.64673
-1.47925
-1.11297
-0.89862
-0.68016
-0.529078
-0.411735
-0.299187
-0.240437
-0.152205
-0.126851
-0.052774
-0.0459876
0.019823
-0.0606456
-5.6701
-10.1547
-12.5811
-12.8176
-11.6366
-10.0611
-8.61179
-7.42728
-6.48054
-5.71312
-5.07726
-4.54303
-3.87897
-3.33632
-2.8878
-2.52007
-1.93648
-1.50542
-0.915164
-0.539347
-0.305426
-0.15571
-0.0543037
0.0198313
-0.0752293
-2.65144
-5.25638
-7.39354
-9.44518
-10.6879
-11.8316
-12.1082
-12.3087
-11.8554
-11.4375
-10.717
-10.081
-9.36043
-8.73411
-8.11443
-7.57723
-7.06712
-6.62443
-6.20476
-5.84015
-5.49044
-5.18646
-4.89075
-4.63669
-4.26171
-3.95474
-3.64819
-3.39946
-3.14705
-2.94174
-2.73084
-2.56671
-2.2173
-1.97257
-1.70818
-1.53342
-1.15602
-0.932438
-0.707069
-0.550167
-0.428329
-0.311948
-0.250198
-0.159354
-0.131889
-0.0559284
-0.0475559
0.019884
-0.0303305
-4.57541
-8.28188
-10.529
-11.2216
-10.7101
-9.66372
-8.50711
-7.4421
-6.5258
-5.75377
-5.10421
-4.55727
-3.88106
-3.33317
-2.88351
-2.51638
-1.93503
-1.50577
-0.917127
-0.541575
-0.307365
-0.157075
-0.0549741
0.0197612
-0.0596611
-2.02578
-4.01754
-5.69666
-7.3215
-8.40967
-9.44208
-9.88744
-10.2913
-10.1597
-10.0565
-9.62384
-9.25624
-8.71607
-8.25653
-7.7249
-7.27152
-6.79648
-6.38999
-5.98223
-5.63219
-5.28693
-4.98975
-4.69751
-4.44856
-4.08066
-3.782
-3.48461
-3.24513
-3.00258
-2.80655
-2.60493
-2.44934
-2.11595
-1.88466
-1.63205
-1.46754
-1.10653
-0.894951
-0.678917
-0.529062
-0.412702
-0.300434
-0.241914
-0.153499
-0.127991
-0.0535173
-0.0463524
0.0197561
-0.0264959
-3.43628
-6.29648
-8.19344
-9.04617
-8.96001
-8.34534
-7.50588
-6.63923
-5.84207
-5.14707
-4.55489
-4.05658
-3.44503
-2.95441
-2.55511
-2.23171
-1.71951
-1.34207
-0.820992
-0.485335
-0.27539
-0.140131
-0.0477783
0.0194752
-0.0410814
-1.47886
-2.94267
-4.18589
-5.41555
-6.262
-7.10545
-7.51663
-7.93652
-7.92008
-7.95208
-7.68033
-7.47706
-7.08182
-6.76495
-6.34347
-5.99834
-5.60406
-5.27755
-4.93173
-4.64315
-4.3488
-4.10179
-3.85361
-3.64769
-3.33775
-3.09344
-2.84521
-2.65157
-2.45076
-2.2936
-2.12736
-2.00506
-1.72894
-1.54765
-1.33655
-1.21018
-0.908563
-0.742313
-0.561348
-0.439172
-0.344027
-0.248998
-0.203515
-0.126164
-0.108926
-0.0420595
-0.0403171
0.0193129
-0.025433
-2.33951
-4.31563
-5.68124
-6.3732
-6.41234
-6.04952
-5.48384
-4.86464
-4.27779
-3.75999
-3.31862
-2.9506
-2.50287
-2.14638
-1.85817
-1.62896
-1.26213
-0.991573
-0.612221
-0.362117
-0.204678
-0.102482
-0.0321672
0.0189041
-0.0356708
-0.892424
-1.78892
-2.52758
-3.30174
-3.79643
-4.35317
-4.58227
-4.89072
-4.86015
-4.9241
-4.73638
-4.64353
-4.37802
-4.20157
-3.92034
-3.71655
-3.45531
-3.25801
-3.03127
-2.8559
-2.66541
-2.5158
-2.35746
-2.2355
-2.03921
-1.89687
-1.74007
-1.62872
-1.50233
-1.41207
-1.30799
-1.24216
-1.06631
-0.966707
-0.829694
-0.762722
-0.569151
-0.475004
-0.358036
-0.282602
-0.223605
-0.160714
-0.134874
-0.0807888
-0.0737182
-0.0245991
-0.0285203
0.0186197
-0.0219627
-0.970562
-1.7902
-2.3615
-2.65228
-2.66888
-2.51726
-2.27925
-2.01898
-1.77385
-1.55964
-1.37912
-1.23209
-1.05403
-0.911094
-0.79542
-0.706577
-0.559753
-0.447074
-0.286738
-0.172775
-0.0992288
-0.0496252
-0.013367
0.0187816
-0.00462694
-0.0395332
-0.0916162
-0.113541
-0.170123
-0.172948
-0.2281
-0.212984
-0.261373
-0.233927
-0.269614
-0.238476
-0.263904
-0.233257
-0.25052
-0.223455
-0.234771
-0.212305
-0.219617
-0.201463
-0.206219
-0.19153
-0.194642
-0.182542
-0.186987
-0.170174
-0.175766
-0.160049
-0.163714
-0.1504
-0.15285
-0.141154
-0.147479
-0.124241
-0.132199
-0.110329
-0.117833
-0.0856391
-0.0896183
-0.0671585
-0.0595759
-0.0497248
-0.0373407
-0.0344032
-0.0197464
-0.0209667
-0.00507142
-0.0091988
0.00962419
5.06106e-05
-0.0426287
-0.0816332
-0.114263
-0.140272
-0.156887
-0.166592
-0.170987
-0.171688
-0.170017
-0.166918
-0.163008
-0.158694
-0.151804
-0.144713
-0.137611
-0.13065
-0.116944
-0.103862
-0.0797544
-0.0586279
-0.0405662
-0.025084
-0.0116476
0.000157741
-0.000121903
-0.0194905
-0.0388179
-0.0569477
-0.0746879
-0.0902715
-0.105335
-0.11836
-0.130685
-0.139529
-0.147861
-0.153567
-0.158879
-0.162033
-0.164941
-0.1662
-0.167343
-0.16729
-0.16722
-0.166306
-0.165439
-0.16398
-0.162607
-0.160807
-0.159157
-0.156094
-0.153238
-0.149905
-0.146824
-0.143388
-0.140193
-0.136709
-0.13354
-0.126522
-0.12016
-0.113262
-0.107121
-0.0940982
-0.0826966
-0.071307
-0.0610456
-0.0514206
-0.0423676
-0.0342205
-0.0262642
-0.0192888
-0.0122385
-0.00615462
0.000159521
2.05682e-06
-0.0356667
-0.0689071
-0.0977724
-0.122302
-0.139628
-0.151466
-0.158726
-0.162459
-0.163629
-0.16301
-0.161174
-0.158566
-0.15363
-0.147939
-0.14183
-0.13557
-0.122638
-0.109773
-0.0852377
-0.0631875
-0.0439953
-0.0273444
-0.0127755
0.00015079
-5.66102e-05
-0.016476
-0.0328537
-0.0484138
-0.0636984
-0.0775051
-0.0909257
-0.103067
-0.114675
-0.123602
-0.132105
-0.138561
-0.144659
-0.148958
-0.152998
-0.155554
-0.157948
-0.159172
-0.160316
-0.16056
-0.160787
-0.160329
-0.159896
-0.158945
-0.158089
-0.156043
-0.154102
-0.151519
-0.149108
-0.146223
-0.143512
-0.140442
-0.137635
-0.13115
-0.12515
-0.118482
-0.112465
-0.0994683
-0.0878107
-0.0760452
-0.0653339
-0.0551544
-0.0455988
-0.0368402
-0.0283856
-0.0208014
-0.0132792
-0.00662211
0.000144391
7.43389e-05
-0.029481
-0.057402
-0.0824664
-0.104945
-0.122108
-0.135146
-0.144481
-0.150704
-0.154434
-0.156232
-0.156562
-0.15584
-0.15321
-0.14929
-0.144529
-0.139301
-0.12767
-0.115442
-0.0909304
-0.068049
-0.0476823
-0.029761
-0.0139476
0.000133835
-7.00685e-05
-0.0133314
-0.0265944
-0.0393739
-0.0519815
-0.0636855
-0.0751443
-0.0859723
-0.0964482
-0.10502
-0.113292
-0.120113
-0.126661
-0.131836
-0.13679
-0.140515
-0.144077
-0.146583
-0.148983
-0.150498
-0.151953
-0.15268
-0.153385
-0.153493
-0.153656
-0.152974
-0.152297
-0.150799
-0.149393
-0.147357
-0.145434
-0.14302
-0.140834
-0.135272
-0.130043
-0.123863
-0.118271
-0.105538
-0.0939277
-0.0817924
-0.0706756
-0.0598728
-0.0497087
-0.0402395
-0.0311046
-0.0228052
-0.0146012
-0.00726136
0.000128664
2.7907e-05
-0.024266
-0.0475649
-0.069061
-0.089189
-0.105494
-0.118835
-0.129337
-0.137274
-0.14299
-0.146837
-0.149145
-0.150255
-0.150028
-0.148093
-0.144938
-0.141006
-0.131178
-0.120014
-0.0961323
-0.0727564
-0.0513795
-0.0322383
-0.0151604
0.000120486
-3.68169e-05
-0.0111423
-0.0222458
-0.0330314
-0.0437122
-0.053801
-0.0637342
-0.0733799
-0.0827916
-0.0907882
-0.0985747
-0.105308
-0.111836
-0.117318
-0.122618
-0.126929
-0.131091
-0.134353
-0.137499
-0.139849
-0.142116
-0.143689
-0.14521
-0.146134
-0.147078
-0.147524
-0.147902
-0.147373
-0.14687
-0.145647
-0.144479
-0.142735
-0.14118
-0.136641
-0.132284
-0.126738
-0.121707
-0.109553
-0.0982788
-0.0860632
-0.0747851
-0.0635847
-0.0530113
-0.0430014
-0.0333466
-0.0244626
-0.0157064
-0.0077962
0.000117466
1.33101e-05
-0.0205522
-0.040468
-0.0591834
-0.0772132
-0.0923846
-0.105383
-0.116202
-0.124947
-0.131794
-0.136953
-0.140642
-0.143123
-0.144833
-0.144619
-0.14295
-0.140285
-0.132363
-0.122475
-0.0997168
-0.0763131
-0.0543097
-0.0342553
-0.0161619
0.000111194
-4.02432e-05
-0.00953895
-0.0190486
-0.0283462
-0.0375738
-0.0463957
-0.0551135
-0.0637396
-0.072203
-0.0795786
-0.0868026
-0.0932471
-0.0995362
-0.105021
-0.110361
-0.114909
-0.119327
-0.122994
-0.126553
-0.129417
-0.132193
-0.134339
-0.13642
-0.137938
-0.139455
-0.140778
-0.141991
-0.142277
-0.14254
-0.142042
-0.141552
-0.14044
-0.139482
-0.135966
-0.132497
-0.127658
-0.123258
-0.111893
-0.101146
-0.0890738
-0.077823
-0.0664139
-0.0555925
-0.0451943
-0.0351532
-0.0258076
-0.0166122
-0.00823472
0.000109631
2.8519e-05
-0.0173757
-0.0343376
-0.0505053
-0.0664289
-0.0802251
-0.0924653
-0.103082
-0.112087
-0.119547
-0.125566
-0.130271
-0.133845
-0.137235
-0.138641
-0.13846
-0.137131
-0.131385
-0.123095
-0.102082
-0.0791262
-0.0568176
-0.0360546
-0.0170756
0.00010278
-2.55788e-05
-0.00797196
-0.0159267
-0.0237448
-0.0315184
-0.0390336
-0.04648
-0.0539738
-0.0613582
-0.0679413
-0.0744178
-0.0803564
-0.0861814
-0.091431
-0.0965686
-0.101117
-0.10556
-0.109419
-0.113183
-0.116384
-0.119503
-0.122089
-0.124606
-0.126628
-0.128635
-0.130775
-0.13278
-0.133895
-0.13495
-0.135243
-0.13551
-0.135122
-0.134857
-0.132608
-0.130284
-0.126401
-0.12289
-0.112746
-0.102941
-0.091309
-0.0803511
-0.0689027
-0.0579804
-0.0472749
-0.0369136
-0.0271335
-0.0175182
-0.00867568
0.000103169
-1.8346e-07
-0.0146901
-0.0291065
-0.0430002
-0.0569141
-0.0692386
-0.0804631
-0.0905034
-0.0993251
-0.106934
-0.113369
-0.118687
-0.123008
-0.127682
-0.130449
-0.131616
-0.13157
-0.128071
-0.121613
-0.102874
-0.0808737
-0.058651
-0.0374687
-0.0178187
9.76644e-05
-4.8813e-05
-0.00679651
-0.0135748
-0.0202636
-0.0269241
-0.0334093
-0.0398492
-0.0464029
-0.0528808
-0.0587437
-0.0645307
-0.0699346
-0.0752553
-0.0801554
-0.0849699
-0.0893413
-0.0936286
-0.0974634
-0.101219
-0.104523
-0.107754
-0.110545
-0.113272
-0.115577
-0.117859
-0.120519
-0.123036
-0.124739
-0.126363
-0.127262
-0.128111
-0.128329
-0.12863
-0.127486
-0.126166
-0.123219
-0.120565
-0.111748
-0.102974
-0.091993
-0.081498
-0.0702278
-0.0593873
-0.0485706
-0.038062
-0.0280158
-0.0181371
-0.00897446
9.79158e-05
3.53095e-05
-0.0117807
-0.023406
-0.0347171
-0.0462207
-0.0566169
-0.066317
-0.0752431
-0.0833447
-0.0905946
-0.0969864
-0.10253
-0.107287
-0.112926
-0.11691
-0.119422
-0.120771
-0.119985
-0.115977
-0.100836
-0.0808763
-0.0595
-0.0383834
-0.0183637
8.73923e-05
-6.77085e-05
-0.00515981
-0.0103008
-0.0153966
-0.0204785
-0.0254713
-0.0304376
-0.0355602
-0.0406371
-0.0453183
-0.0499504
-0.054373
-0.0587416
-0.0628722
-0.0669448
-0.070757
-0.0745098
-0.0779854
-0.0814021
-0.0845307
-0.087602
-0.0903798
-0.0931039
-0.0955336
-0.0979365
-0.100985
-0.103905
-0.106194
-0.108396
-0.110003
-0.111547
-0.112541
-0.113575
-0.114054
-0.114275
-0.112878
-0.111681
-0.105402
-0.0988073
-0.0894274
-0.080256
-0.0697866
-0.0595791
-0.0490117
-0.0386709
-0.0285457
-0.0185698
-0.00918342
9.11624e-05
3.35837e-05
-0.00855978
-0.017045
-0.0253724
-0.033958
-0.0418581
-0.0493911
-0.056503
-0.0631511
-0.0693026
-0.0749339
-0.0800304
-0.0846086
-0.090448
-0.0950826
-0.0985778
-0.101121
-0.103149
-0.102126
-0.0923115
-0.0762635
-0.0573346
-0.0375419
-0.0181252
8.1507e-05
-7.3921e-05
-0.00360052
-0.00718115
-0.010741
-0.0142971
-0.0178117
-0.0213144
-0.0249592
-0.028581
-0.0319633
-0.0353188
-0.038572
-0.0417957
-0.0449005
-0.0479724
-0.0509108
-0.0538138
-0.0565707
-0.0592906
-0.0618539
-0.0643794
-0.0667399
-0.0690623
-0.0712133
-0.0733437
-0.0761981
-0.0789586
-0.0813175
-0.0835996
-0.0854821
-0.0873015
-0.0887305
-0.0901613
-0.0918412
-0.0932473
-0.0933195
-0.0934772
-0.0902036
-0.0863459
-0.079477
-0.0725286
-0.0638382
-0.0551999
-0.0457741
-0.03645
-0.0270184
-0.0176872
-0.00874524
7.45731e-05
3.92055e-05
-0.00560033
-0.0111724
-0.016671
-0.0223932
-0.0277228
-0.0328814
-0.0378394
-0.0425712
-0.0470542
-0.0512693
-0.0552007
-0.058846
-0.0637351
-0.0679042
-0.0713592
-0.0741849
-0.0776873
-0.078871
-0.0744792
-0.0637351
-0.049213
-0.0328339
-0.0160343
8.44293e-05
-6.56616e-05
-0.00221143
-0.00440464
-0.00658913
-0.00877459
-0.0109427
-0.0131064
-0.0153702
-0.0176235
-0.0197454
-0.0218539
-0.0239184
-0.0259685
-0.0279669
-0.0299487
-0.0318714
-0.0337758
-0.0356142
-0.037433
-0.0391795
-0.0409051
-0.042553
-0.0441786
-0.0457215
-0.047254
-0.049374
-0.0514419
-0.053303
-0.0551113
-0.0567051
-0.0582512
-0.059578
-0.0608942
-0.062824
-0.0645459
-0.0654068
-0.0662641
-0.0654337
-0.0639816
-0.060005
-0.0557666
-0.0497859
-0.043685
-0.0365772
-0.0294463
-0.0219409
-0.0144705
-0.0071554
3.13578e-05
2.82475e-05
-0.00323093
-0.00645242
-0.00964161
-0.0129787
-0.0161092
-0.0191663
-0.0221361
-0.025006
-0.0277643
-0.0304005
-0.032905
-0.0352716
-0.0385454
-0.0414566
-0.0439979
-0.0461945
-0.049391
-0.0511803
-0.0502684
-0.0444889
-0.0352855
-0.0240022
-0.0118615
9.20373e-05
-4.68368e-05
-0.00118968
-0.00236596
-0.0035387
-0.0047134
-0.005881
-0.00704749
-0.00827104
-0.00949019
-0.0106434
-0.0117905
-0.0129194
-0.014042
-0.0151431
-0.0162368
-0.0173058
-0.0183664
-0.0193992
-0.0204228
-0.0214156
-0.0223984
-0.0233477
-0.0242859
-0.025188
-0.0260877
-0.0273496
-0.0285888
-0.0297346
-0.0308513
-0.0318689
-0.0328583
-0.0337437
-0.034624
-0.0360241
-0.0373056
-0.0381419
-0.0389427
-0.0391419
-0.0388805
-0.0370424
-0.0349229
-0.031572
-0.0280403
-0.0236893
-0.0192486
-0.0144149
-0.00956734
-0.00473288
-2.5231e-05
1.96509e-05
-0.00162292
-0.00324392
-0.00485089
-0.00653733
-0.00812505
-0.00968284
-0.0112046
-0.0126848
-0.0141184
-0.0155003
-0.0168261
-0.018091
-0.0198709
-0.0214882
-0.0229379
-0.0242242
-0.0262366
-0.0275402
-0.0277949
-0.0252141
-0.0204164
-0.0141046
-0.0070375
8.8089e-05
-2.6526e-05
-0.000551248
-0.00109483
-0.00163702
-0.00218061
-0.00272146
-0.0032621
-0.00382984
-0.00439578
-0.00493247
-0.0054664
-0.00599326
-0.00651751
-0.00703333
-0.00754606
-0.00804905
-0.00854851
-0.00903698
-0.00952152
-0.00999385
-0.0104618
-0.0109164
-0.0113661
-0.0118013
-0.0122364
-0.01285
-0.0134552
-0.0140224
-0.0145758
-0.0150884
-0.0155873
-0.016043
-0.0164966
-0.0172416
-0.0179332
-0.0184311
-0.0188998
-0.0191982
-0.0192433
-0.0185267
-0.0176166
-0.0160671
-0.0143767
-0.0122267
-0.00999252
-0.00751295
-0.00500638
-0.00247897
-4.3658e-05
7.36949e-06
-0.000731275
-0.00146153
-0.00218619
-0.0029476
-0.00366576
-0.00437188
-0.00506342
-0.00573815
-0.00639388
-0.00702851
-0.00764013
-0.0082266
-0.00905756
-0.00982037
-0.0105125
-0.0111343
-0.0121365
-0.0128223
-0.0131281
-0.0120745
-0.00989507
-0.00689949
-0.00346264
4.77615e-05
-1.18858e-05
-0.000237793
-0.00047217
-0.000705984
-0.000940481
-0.00117388
-0.00140725
-0.00165243
-0.00189689
-0.00212892
-0.00235981
-0.00258786
-0.00281486
-0.00303848
-0.00326085
-0.00347931
-0.00369633
-0.00390893
-0.00411992
-0.00432598
-0.00453026
-0.00472914
-0.00492595
-0.00511691
-0.00530814
-0.00557828
-0.00584525
-0.00609671
-0.00634229
-0.0065711
-0.00679404
-0.00699907
-0.00720423
-0.00754409
-0.00786133
-0.0080973
-0.00832098
-0.00849278
-0.00854579
-0.00827014
-0.00789344
-0.00723185
-0.00649223
-0.00554161
-0.00454026
-0.00342167
-0.00228417
-0.00113163
-2.98058e-05
4.69536e-06
-0.000298563
-0.000597189
-0.000893448
-0.00120498
-0.00149894
-0.00178824
-0.00207187
-0.00234896
-0.00261864
-0.00288007
-0.00313251
-0.00337481
-0.00371972
-0.00403747
-0.00432725
-0.00458852
-0.00501586
-0.00531443
-0.00547594
-0.00506802
-0.00417636
-0.0029247
-0.00147188
2.65251e-05
-6.10856e-06
-9.04165e-05
-0.000179036
-0.000267457
-0.00035625
-0.000444661
-0.000533097
-0.000625985
-0.000718592
-0.000806608
-0.000894135
-0.000980666
-0.00106677
-0.00115168
-0.00123608
-0.00131911
-0.00140154
-0.00148242
-0.00156264
-0.00164112
-0.00171887
-0.00179471
-0.00186971
-0.00194263
-0.00201575
-0.00211883
-0.00222091
-0.0023175
-0.00241162
-0.0024998
-0.00258554
-0.00266495
-0.00274407
-0.00287589
-0.0029993
-0.00309371
-0.00318084
-0.00325391
-0.00327881
-0.00318221
-0.00304104
-0.00279313
-0.00251014
-0.00214708
-0.0017604
-0.00132853
-0.000887501
-0.000440043
-1.80003e-05
1.52845e-06
-0.000108803
-0.000217575
-0.000325515
-0.000439039
-0.000546201
-0.000651706
-0.000755191
-0.00085634
-0.000954844
-0.0010504
-0.00114275
-0.00123149
-0.00135792
-0.00147459
-0.00158118
-0.00167759
-0.00183586
-0.00194749
-0.00201219
-0.0018673
-0.00154251
-0.00108229
-0.000545335
9.81975e-06
-2.014e-06
-3.09695e-05
-6.13622e-05
-9.1687e-05
-0.00012214
-0.000152464
-0.000182794
-0.000214655
-0.000246421
-0.000276616
-0.00030664
-0.000336329
-0.000365871
-0.000395013
-0.000423978
-0.000452479
-0.000480778
-0.000508552
-0.000536099
-0.000563061
-0.000589771
-0.000615838
-0.000641613
-0.00066669
-0.000691817
-0.000727259
-0.00076239
-0.000795663
-0.000828071
-0.00085846
-0.000888052
-0.000915485
-0.000942784
-0.000988243
-0.00103109
-0.00106406
-0.00109438
-0.00112059
-0.00112948
-0.00109771
-0.00104933
-0.000964858
-0.000867375
-0.000742664
-0.000609022
-0.000459887
-0.000307355
-0.000152367
-6.77126e-06
5.13605e-07
-3.51793e-05
-7.03485e-05
-0.000105248
-0.000141957
-0.000176612
-0.000210737
-0.000244213
-0.000276941
-0.000308819
-0.00033975
-0.000369646
-0.000398397
-0.00043937
-0.000477188
-0.000511745
-0.000543085
-0.000594519
-0.000630925
-0.000652545
-0.000606163
-0.000501203
-0.00035194
-0.000177418
3.28098e-06
-1.13595e-06
-8.99254e-06
-1.76417e-05
-2.62737e-05
-3.49792e-05
-4.36551e-05
-5.23428e-05
-6.14551e-05
-7.05315e-05
-7.91929e-05
-8.77795e-05
-9.62888e-05
-0.000104737
-0.000113094
-0.000121377
-0.000129554
-0.000137647
-0.000145619
-0.000153497
-0.000161241
-0.000168882
-0.000176374
-0.000183749
-0.000190965
-0.000198201
-0.000208305
-0.000218355
-0.000227981
-0.00023725
-0.000246059
-0.000254552
-0.000262557
-0.000270295
-0.000283317
-0.000295626
-0.000305683
-0.000313711
-0.000321653
-0.000323552
-0.000315583
-0.000300931
-0.000277531
-0.000248911
-0.000213714
-0.00017488
-0.000132332
-8.84001e-05
-4.39495e-05
-3.93055e-06
6.26745e-07
-1.06552e-05
-2.14277e-05
-3.20678e-05
-4.32837e-05
-5.38465e-05
-6.42554e-05
-7.4468e-05
-8.44541e-05
-9.4184e-05
-0.000103629
-0.000112761
-0.000121464
-0.000134052
-0.000145623
-0.000156213
-0.000165614
-0.000181497
-0.00019231
-0.000198991
-0.000184931
-0.000152998
-0.000107499
-5.42603e-05
2.77711e-06
5.09416e-14
-4.37843e-06
-8.75376e-06
-1.31214e-05
-1.74802e-05
-2.18247e-05
-2.61548e-05
-3.07249e-05
-3.52721e-05
-3.95931e-05
-4.38872e-05
-4.8144e-05
-5.23681e-05
-5.65478e-05
-6.06891e-05
-6.4779e-05
-6.88249e-05
-7.28125e-05
-7.67508e-05
-8.06241e-05
-8.44428e-05
-8.81901e-05
-9.18777e-05
-9.54878e-05
-9.90333e-05
-0.000104193
-0.000109194
-0.000113989
-0.000118612
-0.00012301
-0.000127222
-0.000131193
-0.000134966
-0.000141738
-0.000147664
-0.000152478
-0.00015639
-0.000160732
-0.000161344
-0.000157436
-0.000150012
-0.000138526
-0.000124144
-0.000106695
-8.72914e-05
-6.61389e-05
-4.41719e-05
-2.18947e-05
1.94645e-15
SCALARS Radial_Distance double 1
LOOKUP_TABLE default
0
0.985
1.97
2.955
3.94
4.925
5.91
6.955
8
9
10
11
12
13
14
15
16
17
18
19
20
21
22
23
24
25.5
27
28.5
30
31.5
33
34.5
36
39
42
45
48
54
60
66
72
78
84
90
96
102
108
114
120
0
1.97
3.94
5.91
8
10
12
14
16
18
20
22
24
27
30
33
36
42
48
60
72
84
96
108
120
0
0.985
1.97
2.955
3.94
4.925
5.91
6.955
8
9
10
11
12
13
14
15
16
17
18
19
20
21
22
23
24
25.5
27
28.5
30
31.5
33
34.5
36
39
42
45
48
54
60
66
72
78
84
90
96
102
108
114
120
0
1.97
3.94
5.91
8
10
12
14
16
18
20
22
24
27
30
33
36
42
48
60
72
84
96
108
120
0
0.985
1.97
2.955
3.94
4.925
5.91
6.955
8
9
10
11
12
13
14
15
16
17
18
19
20
21
22
23
24
25.5
27
28.5
30
31.5
33
34.5
36
39
42
45
48
54
60
66
72
78
84
90
96
102
108
114
120
0
1.97
3.94
5.91
8
10
12
14
16
18
20
22
24
27
30
33
36
42
48
60
72
84
96
108
120
0
0.985
1.97
2.955
3.94
4.925
5.91
6.955
8
9
10
11
12
13
14
15
16
17
18
19
20
21
22
23
24
25.5
27
28.5
30
31.5
33
34.5
36
39
42
45
48
54
60
66
72
78
84
90
96
102
108
114
120
0
1.97
3.94
5.91
8
10
12
14
16
18
20
22
24
27
30
33
36
42
48
60
72
84
96
108
120
0
0.985
1.97
2.955
3.94
4.925
5.91
6.955
8
9
10
11
12
13
14
15
16
17
18
19
20
21
22
23
24
25.5
27
28.5
30
31.5
33
34.5
36
39
42
45
48
54
60
66
72
78
84
90
96
102
108
114
120
0
1.97
3.94
5.91
8
10
12
14
16
18
20
22
24
27
30
33
36
42
48
60
72
84
96
108
120
0
0.985
1.97
2.955
3.94
4.925
5.91
6.955
8
9
10
11
12
13
14
15
16
17
18
19
20
21
22
23
24
25.5
27
28.5
30
31.5
33
34.5
36
39
42
45
48
54
60
66
72
78
84
90
96
102
108
114
120
0
1.97
3.94
5.91
8
10
12
14
16
18
20
22
24
27
30
33
36
42
48
60
72
84
96
108
120
0
0.985
1.97
2.955
3.94
4.925
5.91
6.955
8
9
10
11
12
13
14
15
16
17
18
19
20
21
22
23
24
25.5
27
28.5
30
31.5
33
34.5
36
39
42
45
48
54
60
66
72
78
84
90
96
102
108
114
120
0
1.97
3.94
5.91
8
10
12
14
16
18
20
22
24
27
30
33
36
42
48
60
72
84
96
108
120
0
0.985
1.97
2.955
3.94
4.925
5.91
6.955
8
9
10
11
12
13
14
15
16
17
18
19
20
21
22
23
24
25.5
27
28.5
30
31.5
33
34.5
36
39
42
45
48
54
60
66
72
78
84
90
96
102
108
114
120
0
1.97
3.94
5.91
8
10
12
14
16
18
20
22
24
27
30
33
36
42
48
60
72
84
96
108
120
0
0.985
1.97
2.955
3.94
4.925
5.91
6.955
8
9
10
11
12
13
14
15
16
17
18
19
20
21
22
23
24
25.5
27
28.5
30
31.5
33
34.5
36
39
42
45
48
54
60
66
72
78
84
90
96
102
108
114
120
0
1.97
3.94
5.91
8
10
12
14
16
18
20
22
24
27
30
33
36
42
48
60
72
84
96
108
120
0
0.985
1.97
2.955
3.94
4.925
5.91
6.955
8
9
10
11
12
13
14
15
16
17
18
19
20
21
22
23
24
25.5
27
28.5
30
31.5
33
34.5
36
39
42
45
48
54
60
66
72
78
84
90
96
102
108
114
120
0
1.97
3.94
5.91
8
10
12
14
16
18
20
22
24
27
30
33
36
42
48
60
72
84
96
108
120
0
0.985
1.97
2.955
3.94
4.925
5.91
6.955
8
9
10
11
12
13
14
15
16
17
18
19
20
21
22
23
24
25.5
27
28.5
30
31.5
33
34.5
36
39
42
45
48
54
60
66
72
78
84
90
96
102
108
114
120
0
1.97
3.94
5.91
8
10
12
14
16
18
20
22
24
27
30
33
36
42
48
60
72
84
96
108
120
0
0.985
1.97
2.955
3.94
4.925
5.91
6.955
8
9
10
11
12
13
14
15
16
17
18
19
20
21
22
23
24
25.5
27
28.5
30
31.5
33
34.5
36
39
42
45
48
54
60
66
72
78
84
90
96
102
108
114
120
0
1.97
3.94
5.91
8
10
12
14
16
18
20
22
24
27
30
33
36
42
48
60
72
84
96
108
120
0
0.985
1.97
2.955
3.94
4.925
5.91
6.955
8
9
10
11
12
13
14
15
16
17
18
19
20
21
22
23
24
25.5
27
28.5
30
31.5
33
34.5
36
39
42
45
48
54
60
66
72
78
84
90
96
102
108
114
120
0
1.97
3.94
5.91
8
10
12
14
16
18
20
22
24
27
30
33
36
42
48
60
72
84
96
108
120
0
0.985
1.97
2.955
3.94
4.925
5.91
6.955
8
9
10
11
12
13
14
15
16
17
18
19
20
21
22
23
24
25.5
27
28.5
30
31.5
33
34.5
36
39
42
45
48
54
60
66
72
78
84
90
96
102
108
114
120
0
1.97
3.94
5.91
8
10
12
14
16
18
20
22
24
27
30
33
36
42
48
60
72
84
96
108
120
0
0.985
1.97
2.955
3.94
4.925
5.91
6.955
8
9
10
11
12
13
14
15
16
17
18
19
20
21
22
23
24
25.5
27
28.5
30
31.5
33
34.5
36
39
42
45
48
54
60
66
72
78
84
90
96
102
108
114
120
0
1.97
3.94
5.91
8
10
12
14
16
18
20
22
24
27
30
33
36
42
48
60
72
84
96
108
120
0
0.985
1.97
2.955
3.94
4.925
5.91
6.955
8
9
10
11
12
13
14
15
16
17
18
19
20
21
22
23
24
25.5
27
28.5
30
31.5
33
34.5
36
39
42
45
48
54
60
66
72
78
84
90
96
102
108
114
120
0
1.97
3.94
5.91
8
10
12
14
16
18
20
22
24
27
30
33
36
42
48
60
72
84
96
108
120
0
0.985
1.97
2.955
3.94
4.925
5.91
6.955
8
9
10
11
12
13
14
15
16
17
18
19
20
21
22
23
24
25.5
27
28.5
30
31.5
33
34.5
36
39
42
45
48
54
60
66
72
78
84
90
96
102
108
114
120
0
1.97
3.94
5.91
8
10
12
14
16
18
20
22
24
27
30
33
36
42
48
60
72
84
96
108
120
0
0.985
1.97
2.955
3.94
4.925
5.91
6.955
8
9
10
11
12
13
14
15
16
17
18
19
20
21
22
23
24
25.5
27
28.5
30
31.5
33
34.5
36
39
42
45
48
54
60
66
72
78
84
90
96
102
108
114
120
0
1.97
3.94
5.91
8
10
12
14
16
18
20
22
24
27
30
33
36
42
48
60
72
84
96
108
120
0
0.985
1.97
2.955
3.94
4.925
5.91
6.955
8
9
10
11
12
13
14
15
16
17
18
19
20
21
22
23
24
25.5
27
28.5
30
31.5
33
34.5
36
39
42
45
48
54
60
66
72
78
84
90
96
102
108
114
120
0
1.97
3.94
5.91
8
10
12
14
16
18
20
22
24
27
30
33
36
42
48
60
72
84
96
108
120
0
0.985
1.97
2.955
3.94
4.925
5.91
6.955
8
9
10
11
12
13
14
15
16
17
18
19
20
21
22
23
24
25.5
27
28.5
30
31.5
33
34.5
36
39
42
45
48
54
60
66
72
78
84
90
96
102
108
114
120
0
1.97
3.94
5.91
8
10
12
14
16
18
20
22
24
27
30
33
36
42
48
60
72
84
96
108
120
0
0.985
1.97
2.955
3.94
4.925
5.91
6.955
8
9
10
11
12
13
14
15
16
17
18
19
20
21
22
23
24
25.5
27
28.5
30
31.5
33
34.5
36
39
42
45
48
54
60
66
72
78
84
90
96
102
108
114
120
0
1.97
3.94
5.91
8
10
12
14
16
18
20
22
24
27
30
33
36
42
48
60
72
84
96
108
120
0
0.985
1.97
2.955
3.94
4.925
5.91
6.955
8
9
10
11
12
13
14
15
16
17
18
19
20
21
22
23
24
25.5
27
28.5
30
31.5
33
34.5
36
39
42
45
48
54
60
66
72
78
84
90
96
102
108
114
120
0
1.97
3.94
5.91
8
10
12
14
16
18
20
22
24
27
30
33
36
42
48
60
72
84
96
108
120
0
0.985
1.97
2.955
3.94
4.925
5.91
6.955
8
9
10
11
12
13
14
15
16
17
18
19
20
21
22
23
24
25.5
27
28.5
30
31.5
33
34.5
36
39
42
45
48
54
60
66
72
78
84
90
96
102
108
114
120
0
1.97
3.94
5.91
8
10
12
14
16
18
20
22
24
27
30
33
36
42
48
60
72
84
96
108
120
0
0.985
1.97
2.955
3.94
4.925
5.91
6.955
8
9
10
11
12
13
14
15
16
17
18
19
20
21
22
23
24
25.5
27
28.5
30
31.5
33
34.5
36
39
42
45
48
54
60
66
72
78
84
90
96
102
108
114
120
0
1.97
3.94
5.91
8
10
12
14
16
18
20
22
24
27
30
33
36
42
48
60
72
84
96
108
120
0
0.985
1.97
2.955
3.94
4.925
5.91
6.955
8
9
10
11
12
13
14
15
16
17
18
19
20
21
22
23
24
25.5
27
28.5
30
31.5
33
34.5
36
39
42
45
48
54
60
66
72
78
84
90
96
102
108
114
120
0
1.97
3.94
5.91
8
10
12
14
16
18
20
22
24
27
30
33
36
42
48
60
72
84
96
108
120
0
0.985
1.97
2.955
3.94
4.925
5.91
6.955
8
9
10
11
12
13
14
15
16
17
18
19
20
21
22
23
24
25.5
27
28.5
30
31.5
33
34.5
36
39
42
45
48
54
60
66
72
78
84
90
96
102
108
114
120
0
1.97
3.94
5.91
8
10
12
14
16
18
20
22
24
27
30
33
36
42
48
60
72
84
96
108
120
0
0.985
1.97
2.955
3.94
4.925
5.91
6.955
8
9
10
11
12
13
14
15
16
17
18
19
20
21
22
23
24
25.5
27
28.5
30
31.5
33
34.5
36
39
42
45
48
54
60
66
72
78
84
90
96
102
108
114
120
0
1.97
3.94
5.91
8
10
12
14
16
18
20
22
24
27
30
33
36
42
48
60
72
84
96
108
120
0
0.985
1.97
2.955
3.94
4.925
5.91
6.955
8
9
10
11
12
13
14
15
16
17
18
19
20
21
22
23
24
25.5
27
28.5
30
31.5
33
34.5
36
39
42
45
48
54
60
66
72
78
84
90
96
102
108
114
120
0
1.97
3.94
5.91
8
10
12
14
16
18
20
22
24
27
30
33
36
42
48
60
72
84
96
108
120
0
0.985
1.97
2.955
3.94
4.925
5.91
6.955
8
9
10
11
12
13
14
15
16
17
18
19
20
21
22
23
24
25.5
27
28.5
30
31.5
33
34.5
36
39
42
45
48
54
60
66
72
78
84
90
96
102
108
114
120
0
1.97
3.94
5.91
8
10
12
14
16
18
20
22
24
27
30
33
36
42
48
60
72
84
96
108
120
0
0.985
1.97
2.955
3.94
4.925
5.91
6.955
8
9
10
11
12
13
14
15
16
17
18
19
20
21
22
23
24
25.5
27
28.5
30
31.5
33
34.5
36
39
42
45
48
54
60
66
72
78
84
90
96
102
108
114
120
0
1.97
3.94
5.91
8
10
12
14
16
18
20
22
24
27
30
33
36
42
48
60
72
84
96
108
120
0
0.985
1.97
2.955
3.94
4.925
5.91
6.955
8
9
10
11
12
13
14
15
16
17
18
19
20
21
22
23
24
25.5
27
28.5
30
31.5
33
34.5
36
39
42
45
48
54
60
66
72
78
84
90
96
102
108
114
120
0
1.97
3.94
5.91
8
10
12
14
16
18
20
22
24
27
30
33
36
42
48
60
72
84
96
108
120
0
0.985
1.97
2.955
3.94
4.925
5.91
6.955
8
9
10
11
12
13
14
15
16
17
18
19
20
21
22
23
24
25.5
27
28.5
30
31.5
33
34.5
36
39
42
45
48
54
60
66
72
78
84
90
96
102
108
114
120
SCALARS Depth double 1
LOOKUP_TABLE default
0
0
0
0
0
0
0
0
0
0
0
0
0
0
0
0
0
0
0
0
0
0
0
0
0
0
0
0
0
0
0
0
0
0
0
0
0
0
0
0
0
0
0
0
0
0
0
0
0
-0.4005
-0.4005
-0.4005
-0.4005
-0.4005
-0.4005
-0.4005
-0.4005
-0.4005
-0.4005
-0.4005
-0.4005
-0.4005
-0.4005
-0.4005
-0.4005
-0.4005
-0.4005
-0.4005
-0.4005
-0.4005
-0.4005
-0.4005
-0.4005
-0.4005
-0.801
-0.801
-0.801
-0.801
-0.801
-0.801
-0.801
-0.801
-0.801
-0.801
-0.801
-0.801
-0.801
-0.801
-0.801
-0.801
-0.801
-0.801
-0.801
-0.801
-0.801
-0.801
-0.801
-0.801
-0.801
-0.801
-0.801
-0.801
-0.801
-0.801
-0.801
-0.801
-0.801
-0.801
-0.801
-0.801
-0.801
-0.801
-0.801
-0.801
-0.801
-0.801
-0.801
-0.801
-0.801
-0.801
-0.801
-0.801
-0.801
-1.2015
-1.2015
-1.2015
-1.2015
-1.2015
-1.2015
-1.2015
-1.2015
-1.2015
-1.2015
-1.2015
-1.2015
-1.2015
-1.2015
-1.2015
-1.2015
-1.2015
-1.2015
-1.2015
-1.2015
-1.2015
-1.2015
-1.2015
-1.2015
-1.2015
-1.602
-1.602
-1.602
-1.602
-1.602
-1.602
-1.602
-1.602
-1.602
-1.602
-1.602
-1.602
-1.602
-1.602
-1.602
-1.602
-1.602
-1.602
-1.602
-1.602
-1.602
-1.602
-1.602
-1.602
-1.602
-1.602
-1.602
-1.602
-1.602
-1.602
-1.602
-1.602
-1.602
-1.602
-1.602
-1.602
-1.602
-1.602
-1.602
-1.602
-1.602
-1.602
-1.602
-1.602
-1.602
-1.602
-1.602
-1.602
-1.602
-2.0025
-2.0025
-2.0025
-2.0025
-2.0025
-2.0025
-2.0025
-2.0025
-2.0025
-2.0025
-2.0025
-2.0025
-2.0025
-2.0025
-2.0025
-2.0025
-2.0025
-2.0025
-2.0025
-2.0025
-2.0025
-2.0025
-2.0025
-2.0025
-2.0025
-2.403
-2.403
-2.403
-2.403
-2.403
-2.403
-2.403
-2.403
-2.403
-2.403
-2.403
-2.403
-2.403
-2.403
-2.403
-2.403
-2.403
-2.403
-2.403
-2.403
-2.403
-2.403
-2.403
-2.403
-2.403
-2.403
-2.403
-2.403
-2.403
-2.403
-2.403
-2.403
-2.403
-2.403
-2.403
-2.403
-2.403
-2.403
-2.403
-2.403
-2.403
-2.403
-2.403
-2.403
-2.403
-2.403
-2.403
-2.403
-2.403
-2.8035
-2.8035
-2.8035
-2.8035
-2.8035
-2.8035
-2.8035
-2.8035
-2.8035
-2.8035
-2.8035
-2.8035
-2.8035
-2.8035
-2.8035
-2.8035
-2.8035
-2.8035
-2.8035
-2.8035
-2.8035
-2.8035
-2.8035
-2.8035
-2.8035
-3.204
-3.204
-3.204
-3.204
-3.204
-3.204
-3.204
-3.204
-3.204
-3.204
-3.204
-3.204
-3.204
-3.204
-3.204
-3.204
-3.204
-3.204
-3.204
-3.204
-3.204
-3.204
-3.204
-3.204
-3.204
-3.204
-3.204
-3.204
-3.204
-3.204
-3.204
-3.204
-3.204
-3.204
-3.204
-3.204
-3.204
-3.204
-3.204
-3.204
-3.204
-3.204
-3.204
-3.204
-3.204
-3.204
-3.204
-3.204
-3.204
-3.8175
-3.8175
-3.8175
-3.8175
-3.8175
-3.8175
-3.8175
-3.8175
-3.8175
-3.8175
-3.8175
-3.8175
-3.8175
-3.8175
-3.8175
-3.8175
-3.8175
-3.8175
-3.8175
-3.8175
-3.8175
-3.8175
-3.8175
-3.8175
-3.8175
-4.431
-4.431
-4.431
-4.431
-4.431
-4.431
-4.431
-4.431
-4.431
-4.431
-4.431
-4.431
-4.431
-4.431
-4.431
-4.431
-4.431
-4.431
-4.431
-4.431
-4.431
-4.431
-4.431
-4.431
-4.431
-4.431
-4.431
-4.431
-4.431
-4.431
-4.431
-4.431
-4.431
-4.431
-4.431
-4.431
-4.431
-4.431
-4.431
-4.431
-4.431
-4.431
-4.431
-4.431
-4.431
-4.431
-4.431
-4.431
-4.431
-5.0445
-5.0445
-5.0445
-5.0445
-5.0445
-5.0445
-5.0445
-5.0445
-5.0445
-5.0445
-5.0445
-5.0445
-5.0445
-5.0445
-5.0445
-5.0445
-5.0445
-5.0445
-5.0445
-5.0445
-5.0445
-5.0445
-5.0445
-5.0445
-5.0445
-5.658
-5.658
-5.658
-5.658
-5.658
-5.658
-5.658
-5.658
-5.658
-5.658
-5.658
-5.658
-5.658
-5.658
-5.658
-5.658
-5.658
-5.658
-5.658
-5.658
-5.658
-5.658
-5.658
-5.658
-5.658
-5.658
-5.658
-5.658
-5.658
-5.658
-5.658
-5.658
-5.658
-5.658
-5.658
-5.658
-5.658
-5.658
-5.658
-5.658
-5.658
-5.658
-5.658
-5.658
-5.658
-5.658
-5.658
-5.658
-5.658
-6.2715
-6.2715
-6.2715
-6.2715
-6.2715
-6.2715
-6.2715
-6.2715
-6.2715
-6.2715
-6.2715
-6.2715
-6.2715
-6.2715
-6.2715
-6.2715
-6.2715
-6.2715
-6.2715
-6.2715
-6.2715
-6.2715
-6.2715
-6.2715
-6.2715
-6.885
-6.885
-6.885
-6.885
-6.885
-6.885
-6.885
-6.885
-6.885
-6.885
-6.885
-6.885
-6.885
-6.885
-6.885
-6.885
-6.885
-6.885
-6.885
-6.885
-6.885
-6.885
-6.885
-6.885
-6.885
-6.885
-6.885
-6.885
-6.885
-6.885
-6.885
-6.885
-6.885
-6.885
-6.885
-6.885
-6.885
-6.885
-6.885
-6.885
-6.885
-6.885
-6.885
-6.885
-6.885
-6.885
-6.885
-6.885
-6.885
-7.4985
-7.4985
-7.4985
-7.4985
-7.4985
-7.4985
-7.4985
-7.4985
-7.4985
-7.4985
-7.4985
-7.4985
-7.4985
-7.4985
-7.4985
-7.4985
-7.4985
-7.4985
-7.4985
-7.4985
-7.4985
-7.4985
-7.4985
-7.4985
-7.4985
-8.112
-8.112
-8.112
-8.112
-8.112
-8.112
-8.112
-8.112
-8.112
-8.112
-8.112
-8.112
-8.112
-8.112
-8.112
-8.112
-8.112
-8.112
-8.112
-8.112
-8.112
-8.112
-8.112
-8.112
-8.112
-8.112
-8.112
-8.112
-8.112
-8.112
-8.112
-8.112
-8.112
-8.112
-8.112
-8.112
-8.112
-8.112
-8.112
-8.112
-8.112
-8.112
-8.112
-8.112
-8.112
-8.112
-8.112
-8.112
-8.112
-8.7255
-8.7255
-8.7255
-8.7255
-8.7255
-8.7255
-8.7255
-8.7255
-8.7255
-8.7255
-8.7255
-8.7255
-8.7255
-8.7255
-8.7255
-8.7255
-8.7255
-8.7255
-8.7255
-8.7255
-8.7255
-8.7255
-8.7255
-8.7255
-8.7255
-9.339
-9.339
-9.339
-9.339
-9.339
-9.339
-9.339
-9.339
-9.339
-9.339
-9.339
-9.339
-9.339
-9.339
-9.339
-9.339
-9.339
-9.339
-9.339
-9.339
-9.339
-9.339
-9.339
-9.339
-9.339
-9.339
-9.339
-9.339
-9.339
-9.339
-9.339
-9.339
-9.339
-9.339
-9.339
-9.339
-9.339
-9.339
-9.339
-9.339
-9.339
-9.339
-9.339
-9.339
-9.339
-9.339
-9.339
-9.339
-9.339
-9.9525
-9.9525
-9.9525
-9.9525
-9.9525
-9.9525
-9.9525
-9.9525
-9.9525
-9.9525
-9.9525
-9.9525
-9.9525
-9.9525
-9.9525
-9.9525
-9.9525
-9.9525
-9.9525
-9.9525
-9.9525
-9.9525
-9.9525
-9.9525
-9.9525
-10.566
-10.566
-10.566
-10.566
-10.566
-10.566
-10.566
-10.566
-10.566
-10.566
-10.566
-10.566
-10.566
-10.566
-10.566
-10.566
-10.566
-10.566
-10.566
-10.566
-10.566
-10.566
-10.566
-10.566
-10.566
-10.566
-10.566
-10.566
-10.566
-10.566
-10.566
-10.566
-10.566
-10.566
-10.566
-10.566
-10.566
-10.566
-10.566
-10.566
-10.566
-10.566
-10.566
-10.566
-10.566
-10.566
-10.566
-10.566
-10.566
-11.566
-11.566
-11.566
-11.566
-11.566
-11.566
-11.566
-11.566
-11.566
-11.566
-11.566
-11.566
-11.566
-11.566
-11.566
-11.566
-11.566
-11.566
-11.566
-11.566
-11.566
-11.566
-11.566
-11.566
-11.566
-12.566
-12.566
-12.566
-12.566
-12.566
-12.566
-12.566
-12.566
-12.566
-12.566
-12.566
-12.566
-12.566
-12.566
-12.566
-12.566
-12.566
-12.566
-12.566
-12.566
-12.566
-12.566
-12.566
-12.566
-12.566
-12.566
-12.566
-12.566
-12.566
-12.566
-12.566
-12.566
-12.566
-12.566
-12.566
-12.566
-12.566
-12.566
-12.566
-12.566
-12.566
-12.566
-12.566
-12.566
-12.566
-12.566
-12.566
-12.566
-12.566
-13.566
-13.566
-13.566
-13.566
-13.566
-13.566
-13.566
-13.566
-13.566
-13.566
-13.566
-13.566
-13.566
-13.566
-13.566
-13.566
-13.566
-13.566
-13.566
-13.566
-13.566
-13.566
-13.566
-13.566
-13.566
-14.566
-14.566
-14.566
-14.566
-14.566
-14.566
-14.566
-14.566
-14.566
-14.566
-14.566
-14.566
-14.566
-14.566
-14.566
-14.566
-14.566
-14.566
-14.566
-14.566
-14.566
-14.566
-14.566
-14.566
-14.566
-14.566
-14.566
-14.566
-14.566
-14.566
-14.566
-14.566
-14.566
-14.566
-14.566
-14.566
-14.566
-14.566
-14.566
-14.566
-14.566
-14.566
-14.566
-14.566
-14.566
-14.566
-14.566
-14.566
-14.566
-15.566
-15.566
-15.566
-15.566
-15.566
-15.566
-15.566
-15.566
-15.566
-15.566
-15.566
-15.566
-15.566
-15.566
-15.566
-15.566
-15.566
-15.566
-15.566
-15.566
-15.566
-15.566
-15.566
-15.566
-15.566
-16.566
-16.566
-16.566
-16.566
-16.566
-16.566
-16.566
-16.566
-16.566
-16.566
-16.566
-16.566
-16.566
-16.566
-16.566
-16.566
-16.566
-16.566
-16.566
-16.566
-16.566
-16.566
-16.566
-16.566
-16.566
-16.566
-16.566
-16.566
-16.566
-16.566
-16.566
-16.566
-16.566
-16.566
-16.566
-16.566
-16.566
-16.566
-16.566
-16.566
-16.566
-16.566
-16.566
-16.566
-16.566
-16.566
-16.566
-16.566
-16.566
-17.566
-17.566
-17.566
-17.566
-17.566
-17.566
-17.566
-17.566
-17.566
-17.566
-17.566
-17.566
-17.566
-17.566
-17.566
-17.566
-17.566
-17.566
-17.566
-17.566
-17.566
-17.566
-17.566
-17.566
-17.566
-18.566
-18.566
-18.566
-18.566
-18.566
-18.566
-18.566
-18.566
-18.566
-18.566
-18.566
-18.566
-18.566
-18.566
-18.566
-18.566
-18.566
-18.566
-18.566
-18.566
-18.566
-18.566
-18.566
-18.566
-18.566
-18.566
-18.566
-18.566
-18.566
-18.566
-18.566
-18.566
-18.566
-18.566
-18.566
-18.566
-18.566
-18.566
-18.566
-18.566
-18.566
-18.566
-18.566
-18.566
-18.566
-18.566
-18.566
-18.566
-18.566
-19.566
-19.566
-19.566
-19.566
-19.566
-19.566
-19.566
-19.566
-19.566
-19.566
-19.566
-19.566
-19.566
-19.566
-19.566
-19.566
-19.566
-19.566
-19.566
-19.566
-19.566
-19.566
-19.566
-19.566
-19.566
-20.566
-20.566
-20.566
-20.566
-20.566
-20.566
-20.566
-20.566
-20.566
-20.566
-20.566
-20.566
-20.566
-20.566
-20.566
-20.566
-20.566
-20.566
-20.566
-20.566
-20.566
-20.566
-20.566
-20.566
-20.566
-20.566
-20.566
-20.566
-20.566
-20.566
-20.566
-20.566
-20.566
-20.566
-20.566
-20.566
-20.566
-20.566
-20.566
-20.566
-20.566
-20.566
-20.566
-20.566
-20.566
-20.566
-20.566
-20.566
-20.566
-21.566
-21.566
-21.566
-21.566
-21.566
-21.566
-21.566
-21.566
-21.566
-21.566
-21.566
-21.566
-21.566
-21.566
-21.566
-21.566
-21.566
-21.566
-21.566
-21.566
-21.566
-21.566
-21.566
-21.566
-21.566
-22.566
-22.566
-22.566
-22.566
-22.566
-22.566
-22.566
-22.566
-22.566
-22.566
-22.566
-22.566
-22.566
-22.566
-22.566
-22.566
-22.566
-22.566
-22.566
-22.566
-22.566
-22.566
-22.566
-22.566
-22.566
-22.566
-22.566
-22.566
-22.566
-22.566
-22.566
-22.566
-22.566
-22.566
-22.566
-22.566
-22.566
-22.566
-22.566
-22.566
-22.566
-22.566
-22.566
-22.566
-22.566
-22.566
-22.566
-22.566
-22.566
-24.066
-24.066
-24.066
-24.066
-24.066
-24.066
-24.066
-24.066
-24.066
-24.066
-24.066
-24.066
-24.066
-24.066
-24.066
-24.066
-24.066
-24.066
-24.066
-24.066
-24.066
-24.066
-24.066
-24.066
-24.066
-25.566
-25.566
-25.566
-25.566
-25.566
-25.566
-25.566
-25.566
-25.566
-25.566
-25.566
-25.566
-25.566
-25.566
-25.566
-25.566
-25.566
-25.566
-25.566
-25.566
-25.566
-25.566
-25.566
-25.566
-25.566
-25.566
-25.566
-25.566
-25.566
-25.566
-25.566
-25.566
-25.566
-25.566
-25.566
-25.566
-25.566
-25.566
-25.566
-25.566
-25.566
-25.566
-25.566
-25.566
-25.566
-25.566
-25.566
-25.566
-25.566
-27.066
-27.066
-27.066
-27.066
-27.066
-27.066
-27.066
-27.066
-27.066
-27.066
-27.066
-27.066
-27.066
-27.066
-27.066
-27.066
-27.066
-27.066
-27.066
-27.066
-27.066
-27.066
-27.066
-27.066
-27.066
-28.566
-28.566
-28.566
-28.566
-28.566
-28.566
-28.566
-28.566
-28.566
-28.566
-28.566
-28.566
-28.566
-28.566
-28.566
-28.566
-28.566
-28.566
-28.566
-28.566
-28.566
-28.566
-28.566
-28.566
-28.566
-28.566
-28.566
-28.566
-28.566
-28.566
-28.566
-28.566
-28.566
-28.566
-28.566
-28.566
-28.566
-28.566
-28.566
-28.566
-28.566
-28.566
-28.566
-28.566
-28.566
-28.566
-28.566
-28.566
-28.566
-30.066
-30.066
-30.066
-30.066
-30.066
-30.066
-30.066
-30.066
-30.066
-30.066
-30.066
-30.066
-30.066
-30.066
-30.066
-30.066
-30.066
-30.066
-30.066
-30.066
-30.066
-30.066
-30.066
-30.066
-30.066
-31.566
-31.566
-31.566
-31.566
-31.566
-31.566
-31.566
-31.566
-31.566
-31.566
-31.566
-31.566
-31.566
-31.566
-31.566
-31.566
-31.566
-31.566
-31.566
-31.566
-31.566
-31.566
-31.566
-31.566
-31.566
-31.566
-31.566
-31.566
-31.566
-31.566
-31.566
-31.566
-31.566
-31.566
-31.566
-31.566
-31.566
-31.566
-31.566
-31.566
-31.566
-31.566
-31.566
-31.566
-31.566
-31.566
-31.566
-31.566
-31.566
-33.566
-33.566
-33.566
-33.566
-33.566
-33.566
-33.566
-33.566
-33.566
-33.566
-33.566
-33.566
-33.566
-33.566
-33.566
-33.566
-33.566
-33.566
-33.566
-33.566
-33.566
-33.566
-33.566
-33.566
-33.566
-35.566
-35.566
-35.566
-35.566
-35.566
-35.566
-35.566
-35.566
-35.566
-35.566
-35.566
-35.566
-35.566
-35.566
-35.566
-35.566
-35.566
-35.566
-35.566
-35.566
-35.566
-35.566
-35.566
-35.566
-35.566
-35.566
-35.566
-35.566
-35.566
-35.566
-35.566
-35.566
-35.566
-35.566
-35.566
-35.566
-35.566
-35.566
-35.566
-35.566
-35.566
-35.566
-35.566
-35.566
-35.566
-35.566
-35.566
-35.566
-35.566
-37.566
-37.566
-37.566
-37.566
-37.566
-37.566
-37.566
-37.566
-37.566
-37.566
-37.566
-37.566
-37.566
-37.566
-37.566
-37.566
-37.566
-37.566
-37.566
-37.566
-37.566
-37.566
-37.566
-37.566
-37.566
-39.566
-39.566
-39.566
-39.566
-39.566
-39.566
-39.566
-39.566
-39.566
-39.566
-39.566
-39.566
-39.566
-39.566
-39.566
-39.566
-39.566
-39.566
-39.566
-39.566
-39.566
-39.566
-39.566
-39.566
-39.566
-39.566
-39.566
-39.566
-39.566
-39.566
-39.566
-39.566
-39.566
-39.566
-39.566
-39.566
-39.566
-39.566
-39.566
-39.566
-39.566
-39.566
-39.566
-39.566
-39.566
-39.566
-39.566
-39.566
-39.566
-43.566
-43.566
-43.566
-43.566
-43.566
-43.566
-43.566
-43.566
-43.566
-43.566
-43.566
-43.566
-43.566
-43.566
-43.566
-43.566
-43.566
-43.566
-43.566
-43.566
-43.566
-43.566
-43.566
-43.566
-43.566
-47.566
-47.566
-47.566
-47.566
-47.566
-47.566
-47.566
-47.566
-47.566
-47.566
-47.566
-47.566
-47.566
-47.566
-47.566
-47.566
-47.566
-47.566
-47.566
-47.566
-47.566
-47.566
-47.566
-47.566
-47.566
-47.566
-47.566
-47.566
-47.566
-47.566
-47.566
-47.566
-47.566
-47.566
-47.566
-47.566
-47.566
-47.566
-47.566
-47.566
-47.566
-47.566
-47.566
-47.566
-47.566
-47.566
-47.566
-47.566
-47.566
-53.566
-53.566
-53.566
-53.566
-53.566
-53.566
-53.566
-53.566
-53.566
-53.566
-53.566
-53.566
-53.566
-53.566
-53.566
-53.566
-53.566
-53.566
-53.566
-53.566
-53.566
-53.566
-53.566
-53.566
-53.566
-59.566
-59.566
-59.566
-59.566
-59.566
-59.566
-59.566
-59.566
-59.566
-59.566
-59.566
-59.566
-59.566
-59.566
-59.566
-59.566
-59.566
-59.566
-59.566
-59.566
-59.566
-59.566
-59.566
-59.566
-59.566
-59.566
-59.566
-59.566
-59.566
-59.566
-59.566
-59.566
-59.566
-59.566
-59.566
-59.566
-59.566
-59.566
-59.566
-59.566
-59.566
-59.566
-59.566
-59.566
-59.566
-59.566
-59.566
-59.566
-59.566
-68.566
-68.566
-68.566
-68.566
-68.566
-68.566
-68.566
-68.566
-68.566
-68.566
-68.566
-68.566
-68.566
-68.566
-68.566
-68.566
-68.566
-68.566
-68.566
-68.566
-68.566
-68.566
-68.566
-68.566
-68.566
-77.566
-77.566
-77.566
-77.566
-77.566
-77.566
-77.566
-77.566
-77.566
-77.566
-77.566
-77.566
-77.566
-77.566
-77.566
-77.566
-77.566
-77.566
-77.566
-77.566
-77.566
-77.566
-77.566
-77.566
-77.566
-77.566
-77.566
-77.566
-77.566
-77.566
-77.566
-77.566
-77.566
-77.566
-77.566
-77.566
-77.566
-77.566
-77.566
-77.566
-77.566
-77.566
-77.566
-77.566
-77.566
-77.566
-77.566
-77.566
-77.566
-89.566
-89.566
-89.566
-89.566
-89.566
-89.566
-89.566
-89.566
-89.566
-89.566
-89.566
-89.566
-89.566
-89.566
-89.566
-89.566
-89.566
-89.566
-89.566
-89.566
-89.566
-89.566
-89.566
-89.566
-89.566
-101.566
-101.566
-101.566
-101.566
-101.566
-101.566
-101.566
-101.566
-101.566
-101.566
-101.566
-101.566
-101.566
-101.566
-101.566
-101.566
-101.566
-101.566
-101.566
-101.566
-101.566
-101.566
-101.566
-101.566
-101.566
-101.566
-101.566
-101.566
-101.566
-101.566
-101.566
-101.566
-101.566
-101.566
-101.566
-101.566
-101.566
-101.566
-101.566
-101.566
-101.566
-101.566
-101.566
-101.566
-101.566
-101.566
-101.566
-101.566
-101.566
-116.566
-116.566
-116.566
-116.566
-116.566
-116.566
-116.566
-116.566
-116.566
-116.566
-116.566
-116.566
-116.566
-116.566
-116.566
-116.566
-116.566
-116.566
-116.566
-116.566
-116.566
-116.566
-116.566
-116.566
-116.566
-131.566
-131.566
-131.566
-131.566
-131.566
-131.566
-131.566
-131.566
-131.566
-131.566
-131.566
-131.566
-131.566
-131.566
-131.566
-131.566
-131.566
-131.566
-131.566
-131.566
-131.566
-131.566
-131.566
-131.566
-131.566
-131.566
-131.566
-131.566
-131.566
-131.566
-131.566
-131.566
-131.566
-131.566
-131.566
-131.566
-131.566
-131.566
-131.566
-131.566
-131.566
-131.566
-131.566
-131.566
-131.566
-131.566
-131.566
-131.566
-131.566
-147.566
-147.566
-147.566
-147.566
-147.566
-147.566
-147.566
-147.566
-147.566
-147.566
-147.566
-147.566
-147.566
-147.566
-147.566
-147.566
-147.566
-147.566
-147.566
-147.566
-147.566
-147.566
-147.566
-147.566
-147.566
-163.566
-163.566
-163.566
-163.566
-163.566
-163.566
-163.566
-163.566
-163.566
-163.566
-163.566
-163.566
-163.566
-163.566
-163.566
-163.566
-163.566
-163.566
-163.566
-163.566
-163.566
-163.566
-163.566
-163.566
-163.566
-163.566
-163.566
-163.566
-163.566
-163.566
-163.566
-163.566
-163.566
-163.566
-163.566
-163.566
-163.566
-163.566
-163.566
-163.566
-163.566
-163.566
-163.566
-163.566
-163.566
-163.566
-163.566
-163.566
-163.566
-181.566
-181.566
-181.566
-181.566
-181.566
-181.566
-181.566
-181.566
-181.566
-181.566
-181.566
-181.566
-181.566
-181.566
-181.566
-181.566
-181.566
-181.566
-181.566
-181.566
-181.566
-181.566
-181.566
-181.566
-181.566
-199.566
-199.566
-199.566
-199.566
-199.566
-199.566
-199.566
-199.566
-199.566
-199.566
-199.566
-199.566
-199.566
-199.566
-199.566
-199.566
-199.566
-199.566
-199.566
-199.566
-199.566
-199.566
-199.566
-199.566
-199.566
-199.566
-199.566
-199.566
-199.566
-199.566
-199.566
-199.566
-199.566
-199.566
-199.566
-199.566
-199.566
-199.566
-199.566
-199.566
-199.566
-199.566
-199.566
-199.566
-199.566
-199.566
-199.566
-199.566
-199.566
-218.566
-218.566
-218.566
-218.566
-218.566
-218.566
-218.566
-218.566
-218.566
-218.566
-218.566
-218.566
-218.566
-218.566
-218.566
-218.566
-218.566
-218.566
-218.566
-218.566
-218.566
-218.566
-218.566
-218.566
-218.566
-237.566
-237.566
-237.566
-237.566
-237.566
-237.566
-237.566
-237.566
-237.566
-237.566
-237.566
-237.566
-237.566
-237.566
-237.566
-237.566
-237.566
-237.566
-237.566
-237.566
-237.566
-237.566
-237.566
-237.566
-237.566
-237.566
-237.566
-237.566
-237.566
-237.566
-237.566
-237.566
-237.566
-237.566
-237.566
-237.566
-237.566
-237.566
-237.566
-237.566
-237.566
-237.566
-237.566
-237.566
-237.566
-237.566
-237.566
-237.566
-237.566
-257.566
-257.566
-257.566
-257.566
-257.566
-257.566
-257.566
-257.566
-257.566
-257.566
-257.566
-257.566
-257.566
-257.566
-257.566
-257.566
-257.566
-257.566
-257.566
-257.566
-257.566
-257.566
-257.566
-257.566
-257.566
-277.566
-277.566
-277.566
-277.566
-277.566
-277.566
-277.566
-277.566
-277.566
-277.566
-277.566
-277.566
-277.566
-277.566
-277.566
-277.566
-277.566
-277.566
-277.566
-277.566
-277.566
-277.566
-277.566
-277.566
-277.566
-277.566
-277.566
-277.566
-277.566
-277.566
-277.566
-277.566
-277.566
-277.566
-277.566
-277.566
-277.566
-277.566
-277.566
-277.566
-277.566
-277.566
-277.566
-277.566
-277.566
-277.566
-277.566
-277.566
-277.566
-299.566
-299.566
-299.566
-299.566
-299.566
-299.566
-299.566
-299.566
-299.566
-299.566
-299.566
-299.566
-299.566
-299.566
-299.566
-299.566
-299.566
-299.566
-299.566
-299.566
-299.566
-299.566
-299.566
-299.566
-299.566
-321.566
-321.566
-321.566
-321.566
-321.566
-321.566
-321.566
-321.566
-321.566
-321.566
-321.566
-321.566
-321.566
-321.566
-321.566
-321.566
-321.566
-321.566
-321.566
-321.566
-321.566
-321.566
-321.566
-321.566
-321.566
-321.566
-321.566
-321.566
-321.566
-321.566
-321.566
-321.566
-321.566
-321.566
-321.566
-321.566
-321.566
-321.566
-321.566
-321.566
-321.566
-321.566
-321.566
-321.566
-321.566
-321.566
-321.566
-321.566
-321.566
