# vtk DataFile Version 2.0
./vtk
ASCII

DATASET UNSTRUCTURED_GRID
POINTS 95 double
0 0 0.0
0.5 0 0.0
1 0 0.0
1.5 0 0.0
2 0 0.0
2.5 0 0.0
3 0 0.0
0 -0.75 0.0
1 -0.75 0.0
2 -0.75 0.0
3 -0.75 0.0
0 -1.5 0.0
0.5 -1.5 0.0
1 -1.5 0.0
1.5 -1.5 0.0
2 -1.5 0.0
2.5 -1.5 0.0
3 -1.5 0.0
0 -2.25 0.0
1 -2.25 0.0
2 -2.25 0.0
3 -2.25 0.0
0 -3 0.0
0.5 -3 0.0
1 -3 0.0
1.5 -3 0.0
2 -3 0.0
2.5 -3 0.0
3 -3 0.0
0 -3.75 0.0
1 -3.75 0.0
2 -3.75 0.0
3 -3.75 0.0
0 -4.5 0.0
0.5 -4.5 0.0
1 -4.5 0.0
1.5 -4.5 0.0
2 -4.5 0.0
2.5 -4.5 0.0
3 -4.5 0.0
0 -5.25 0.0
1 -5.25 0.0
2 -5.25 0.0
3 -5.25 0.0
0 -6 0.0
0.5 -6 0.0
1 -6 0.0
1.5 -6 0.0
2 -6 0.0
2.5 -6 0.0
3 -6 0.0
0 -6.75 0.0
1 -6.75 0.0
2 -6.75 0.0
3 -6.75 0.0
0 -7.5 0.0
0.5 -7.5 0.0
1 -7.5 0.0
1.5 -7.5 0.0
2 -7.5 0.0
2.5 -7.5 0.0
3 -7.5 0.0
0 -8.25 0.0
1 -8.25 0.0
2 -8.25 0.0
3 -8.25 0.0
0 -9 0.0
0.5 -9 0.0
1 -9 0.0
1.5 -9 0.0
2 -9 0.0
2.5 -9 0.0
3 -9 0.0
0 -9.75 0.0
1 -9.75 0.0
2 -9.75 0.0
3 -9.75 0.0
0 -10.5 0.0
0.5 -10.5 0.0
1 -10.5 0.0
1.5 -10.5 0.0
2 -10.5 0.0
2.5 -10.5 0.0
3 -10.5 0.0
0 -11.25 0.0
1 -11.25 0.0
2 -11.25 0.0
3 -11.25 0.0
0 -12 0.0
0.5 -12 0.0
1 -12 0.0
1.5 -12 0.0
2 -12 0.0
2.5 -12 0.0
3 -12 0.0

CELLS 24 216
8 11 13  2  0 12  8  1  7
8 13 15  4  2 14  9  3  8
8 15 17  6  4 16 10  5  9
8 22 24 13 11 23 19 12 18
8 24 26 15 13 25 20 14 19
8 26 28 17 15 27 21 16 20
8 33 35 24 22 34 30 23 29
8 35 37 26 24 36 31 25 30
8 37 39 28 26 38 32 27 31
8 44 46 35 33 45 41 34 40
8 46 48 37 35 47 42 36 41
8 48 50 39 37 49 43 38 42
8 55 57 46 44 56 52 45 51
8 57 59 48 46 58 53 47 52
8 59 61 50 48 60 54 49 53
8 66 68 57 55 67 63 56 62
8 68 70 59 57 69 64 58 63
8 70 72 61 59 71 65 60 64
8 77 79 68 66 78 74 67 73
8 79 81 70 68 80 75 69 74
8 81 83 72 70 82 76 71 75
8 88 90 79 77 89 85 78 84
8 90 92 81 79 91 86 80 85
8 92 94 83 81 93 87 82 86

CELL_TYPES 24
23
23
23
23
23
23
23
23
23
23
23
23
23
23
23
23
23
23
23
23
23
23
23
23

POINT_DATA 95
SCALARS Displacement_R double 1
LOOKUP_TABLE default
0
4.11413e-05
8.22826e-05
0.000123426
0.000164573
0.000205721
0.000246868
0
8.29138e-05
0.000165832
0.000248758
0
4.17695e-05
8.35413e-05
0.000125314
0.000167088
0.000208864
0.000250645
0
8.41703e-05
0.000168345
0.000252536
0
4.24057e-05
8.48077e-05
0.000127208
0.000169616
0.000212026
0.000254433
0
8.55079e-05
0.000170944
0.000256378
0
4.31456e-05
8.62737e-05
0.000129342
0.000172366
0.000215358
0.000258414
0
8.72355e-05
0.000174074
0.00026058
0
4.42519e-05
8.83696e-05
0.000132316
0.000176061
0.000219565
0.000262869
0
9.03389e-05
0.000178749
0.000265526
0
4.66747e-05
9.2884e-05
0.000137891
0.000182039
0.000225264
0.000268962
0
9.4625e-05
0.000186146
0.000271315
0
4.76532e-05
9.49032e-05
0.000142596
0.00018795
0.000232392
0.000271502
0
9.04386e-05
0.000179788
0.000264038
0
3.69017e-05
7.48119e-05
0.000114819
0.000158543
0.000200067
0.000245028
0
4.36328e-05
9.57213e-05
0.000170911
0
0
0
0
0
0
0
SCALARS Displacement_Z double 1
LOOKUP_TABLE default
0.00312608
0.00312597
0.00312565
0.00312512
0.00312438
0.00312343
0.00312228
0.0029316
0.00293117
0.00292989
0.00292779
0.00273609
0.00273598
0.00273566
0.00273512
0.00273438
0.00273342
0.00273226
0.00253956
0.00253912
0.00253783
0.00253569
0.00234198
0.00234188
0.00234155
0.00234101
0.00234024
0.00233927
0.0023381
0.00214334
0.00214292
0.00214163
0.00213944
0.00194349
0.00194338
0.00194313
0.00194268
0.00194199
0.00194099
0.0019397
0.00174217
0.00174202
0.00174123
0.00173898
0.00153904
0.00153923
0.00153931
0.00153944
0.00153923
0.00153865
0.00153754
0.00133376
0.00133462
0.00133604
0.00133496
0.0011242
0.00112453
0.00112681
0.0011293
0.00113193
0.00113309
0.0011314
0.000909868
0.000914862
0.000925683
0.000929895
0.000694062
0.000696292
0.000699949
0.000708072
0.000716172
0.000725922
0.000733103
0.000480051
0.000487178
0.000509028
0.000540616
0.000281464
0.000281667
0.000286737
0.000293925
0.000308161
0.000321646
0.000347076
0.000114166
0.000116871
0.000122803
0.000151025
-0
-0
-0
-0
-0
-0
-0
SCALARS Stress_R double 1
LOOKUP_TABLE default
9.83391
9.8339
9.83379
9.83331
9.83273
9.83264
9.83258
9.83407
9.83378
9.83368
9.83343
9.83493
9.83444
9.83459
9.8343
9.83476
9.83479
9.83409
9.8357
9.83606
9.83516
9.83559
9.82696
9.83083
9.83141
9.83293
9.83507
9.83461
9.83989
9.83032
9.83539
9.84103
9.83855
9.81029
9.81299
9.81597
9.82132
9.83662
9.83652
9.84047
9.81693
9.83215
9.83875
9.85129
9.65543
9.76467
9.75231
9.79927
9.83636
9.80361
9.91243
9.67177
9.77918
9.89282
9.88123
9.79252
9.79066
9.81116
9.83172
9.86739
9.84875
9.71826
9.71766
9.74509
9.77042
10.0228
10.6268
10.7756
10.3448
10.31
9.82017
9.99478
10.1322
9.85415
9.90401
9.58315
8.55571
13.4587
13.1258
12.9598
12.5169
13.1344
12.7169
10.7579
12.9525
12.5095
10.5446
10.3843
18.0078
18.0459
18.7268
18.1616
18.475
23.0521
30.267
SCALARS Stress_Theta double 1
LOOKUP_TABLE default
9.83391
9.8339
9.83381
9.83348
9.83303
9.83284
9.83268
9.83407
9.83384
9.83384
9.8337
9.83493
9.83451
9.83471
9.8344
9.83488
9.83514
9.83462
9.8357
9.836
9.83554
9.83599
9.82696
9.83072
9.83112
9.83301
9.8355
9.83478
9.83989
9.83032
9.83456
9.83856
9.83959
9.81029
9.81248
9.81412
9.81738
9.83029
9.83375
9.84158
9.81693
9.82772
9.82663
9.83706
9.65543
9.7608
9.74447
9.78419
9.81388
9.77415
9.87722
9.67179
9.75783
9.82203
9.83872
9.79252
9.77718
9.76862
9.75148
9.74289
9.75659
9.6664
9.71766
9.73309
9.65771
9.73008
10.6268
10.7638
10.3717
10.252
9.74191
9.72236
9.62548
9.85413
9.8781
9.54043
8.39748
13.4587
13.157
13.0153
12.737
13.3397
12.9259
11.109
12.9525
12.5956
10.991
11.0102
18.0079
18.0463
18.7331
18.1681
18.5211
23.1262
30.3772
SCALARS Stress_Z double 1
LOOKUP_TABLE default
19.666
19.666
19.6659
19.6657
19.6654
19.6652
19.665
19.7277
19.7276
19.7279
19.7281
19.79
19.7897
19.7903
19.7899
19.7907
19.7915
19.7912
19.8532
19.8534
19.8534
19.8547
19.9037
19.9087
19.9086
19.9116
19.9157
19.9146
19.9218
19.9783
19.9816
19.9822
19.9859
20.0263
20.0268
20.0263
20.0245
20.036
20.041
20.0551
20.1414
20.1374
20.1088
20.1048
20.0298
20.1649
20.1244
20.1597
20.1772
20.0942
20.2173
20.2781
20.3238
20.2728
20.2402
20.7329
20.6514
20.5651
20.4103
20.2666
20.2284
20.097
20.7897
20.7191
20.358
20.0319
22.137
22.2865
21.7142
21.4613
20.5998
20.2801
19.675
20.4508
20.5112
19.9376
17.9608
23.8396
23.5499
23.4598
23.386
24.4842
23.9121
21.5356
20.0826
19.7914
18.3819
19.4526
22.1475
22.1944
23.0586
22.4047
22.9858
28.879
37.8915
SCALARS Stress_Shear double 1
LOOKUP_TABLE default
3.45586e-05
-5.50656e-05
-0.000114006
-9.64267e-05
-0.000112621
-6.3515e-05
4.85132e-05
2.10097e-05
-0.000261896
-0.000309795
2.68494e-05
-5.13204e-05
-0.000226308
-0.000426701
-0.000485966
-0.000569459
-0.000364389
-0.000112361
-1.05768e-05
-0.000333623
-0.000667759
-0.000102516
0.00023721
0.000160273
6.08941e-05
-0.00023044
-0.000740742
-0.000485716
-1.18349e-05
-0.000642052
0.00244937
0.00145643
-0.000397657
-0.000801794
0.00329402
0.00670759
0.0067121
0.00519322
0.00209143
-0.00138811
0.00150835
0.015795
0.0153091
-0.00149
0.00704706
0.0189971
0.032749
0.0365213
0.0332716
0.0184612
0.00477641
-0.0142891
0.0746773
0.0831087
-0.0054413
-0.0185983
0.0640277
0.133207
0.147572
0.161693
0.0824042
-0.0196614
0.0234819
0.157474
0.205583
0.00738476
0.0444601
0.086323
0.188559
0.224391
0.267061
0.219693
0.146744
0.012248
0.0105476
0.0836913
0.324067
-0.0689764
-0.160822
-0.311174
-0.309742
-0.415711
-0.139814
0.324933
-0.0346452
-0.714026
-1.33691
-1.81751
-0.00177425
-0.563321
-1.15186
-1.8128
-2.51143
-3.98129
-5.80707
SCALARS Radial_Distance double 1
LOOKUP_TABLE default
0
0.5
1
1.5
2
2.5
3
0
1
2
3
0
0.5
1
1.5
2
2.5
3
0
1
2
3
0
0.5
1
1.5
2
2.5
3
0
1
2
3
0
0.5
1
1.5
2
2.5
3
0
1
2
3
0
0.5
1
1.5
2
2.5
3
0
1
2
3
0
0.5
1
1.5
2
2.5
3
0
1
2
3
0
0.5
1
1.5
2
2.5
3
0
1
2
3
0
0.5
1
1.5
2
2.5
3
0
1
2
3
0
0.5
1
1.5
2
2.5
3
SCALARS Depth double 1
LOOKUP_TABLE default
0
0
0
0
0
0
0
-0.75
-0.75
-0.75
-0.75
-1.5
-1.5
-1.5
-1.5
-1.5
-1.5
-1.5
-2.25
-2.25
-2.25
-2.25
-3
-3
-3
-3
-3
-3
-3
-3.75
-3.75
-3.75
-3.75
-4.5
-4.5
-4.5
-4.5
-4.5
-4.5
-4.5
-5.25
-5.25
-5.25
-5.25
-6
-6
-6
-6
-6
-6
-6
-6.75
-6.75
-6.75
-6.75
-7.5
-7.5
-7.5
-7.5
-7.5
-7.5
-7.5
-8.25
-8.25
-8.25
-8.25
-9
-9
-9
-9
-9
-9
-9
-9.75
-9.75
-9.75
-9.75
-10.5
-10.5
-10.5
-10.5
-10.5
-10.5
-10.5
-11.25
-11.25
-11.25
-11.25
-12
-12
-12
-12
-12
-12
-12
