# vtk DataFile Version 2.0
./vtk
ASCII

DATASET UNSTRUCTURED_GRID
POINTS 454 double
0 0 0.0
0.5 0 0.0
1 0 0.0
1.5 0 0.0
2 0 0.0
2.5 0 0.0
3 0 0.0
3.5 0 0.0
4 0 0.0
4.5 0 0.0
5 0 0.0
6.9457 0 0.0
8.8914 0 0.0
12.3514 0 0.0
15.8114 0 0.0
21.9642 0 0.0
28.1171 0 0.0
39.0585 0 0.0
50 0 0.0
0 -0.4 0.0
1 -0.4 0.0
2 -0.4 0.0
3 -0.4 0.0
4 -0.4 0.0
5 -0.4 0.0
8.8914 -0.4 0.0
15.8114 -0.4 0.0
28.1171 -0.4 0.0
50 -0.4 0.0
0 -0.8 0.0
0.5 -0.8 0.0
1 -0.8 0.0
1.5 -0.8 0.0
2 -0.8 0.0
2.5 -0.8 0.0
3 -0.8 0.0
3.5 -0.8 0.0
4 -0.8 0.0
4.5 -0.8 0.0
5 -0.8 0.0
6.9457 -0.8 0.0
8.8914 -0.8 0.0
12.3514 -0.8 0.0
15.8114 -0.8 0.0
21.9642 -0.8 0.0
28.1171 -0.8 0.0
39.0585 -0.8 0.0
50 -0.8 0.0
0 -1.2 0.0
1 -1.2 0.0
2 -1.2 0.0
3 -1.2 0.0
4 -1.2 0.0
5 -1.2 0.0
8.8914 -1.2 0.0
15.8114 -1.2 0.0
28.1171 -1.2 0.0
50 -1.2 0.0
0 -1.6 0.0
0.5 -1.6 0.0
1 -1.6 0.0
1.5 -1.6 0.0
2 -1.6 0.0
2.5 -1.6 0.0
3 -1.6 0.0
3.5 -1.6 0.0
4 -1.6 0.0
4.5 -1.6 0.0
5 -1.6 0.0
6.9457 -1.6 0.0
8.8914 -1.6 0.0
12.3514 -1.6 0.0
15.8114 -1.6 0.0
21.9642 -1.6 0.0
28.1171 -1.6 0.0
39.0585 -1.6 0.0
50 -1.6 0.0
0 -2 0.0
1 -2 0.0
2 -2 0.0
3 -2 0.0
4 -2 0.0
5 -2 0.0
8.8914 -2 0.0
15.8114 -2 0.0
28.1171 -2 0.0
50 -2 0.0
0 -2.4 0.0
0.5 -2.4 0.0
1 -2.4 0.0
1.5 -2.4 0.0
2 -2.4 0.0
2.5 -2.4 0.0
3 -2.4 0.0
3.5 -2.4 0.0
4 -2.4 0.0
4.5 -2.4 0.0
5 -2.4 0.0
6.9457 -2.4 0.0
8.8914 -2.4 0.0
12.3514 -2.4 0.0
15.8114 -2.4 0.0
21.9642 -2.4 0.0
28.1171 -2.4 0.0
39.0585 -2.4 0.0
50 -2.4 0.0
0 -2.8 0.0
1 -2.8 0.0
2 -2.8 0.0
3 -2.8 0.0
4 -2.8 0.0
5 -2.8 0.0
8.8914 -2.8 0.0
15.8114 -2.8 0.0
28.1171 -2.8 0.0
50 -2.8 0.0
0 -3.2 0.0
0.5 -3.2 0.0
1 -3.2 0.0
1.5 -3.2 0.0
2 -3.2 0.0
2.5 -3.2 0.0
3 -3.2 0.0
3.5 -3.2 0.0
4 -3.2 0.0
4.5 -3.2 0.0
5 -3.2 0.0
6.9457 -3.2 0.0
8.8914 -3.2 0.0
12.3514 -3.2 0.0
15.8114 -3.2 0.0
21.9642 -3.2 0.0
28.1171 -3.2 0.0
39.0585 -3.2 0.0
50 -3.2 0.0
0 -3.6 0.0
1 -3.6 0.0
2 -3.6 0.0
3 -3.6 0.0
4 -3.6 0.0
5 -3.6 0.0
8.8914 -3.6 0.0
15.8114 -3.6 0.0
28.1171 -3.6 0.0
50 -3.6 0.0
0 -4 0.0
0.5 -4 0.0
1 -4 0.0
1.5 -4 0.0
2 -4 0.0
2.5 -4 0.0
3 -4 0.0
3.5 -4 0.0
4 -4 0.0
4.5 -4 0.0
5 -4 0.0
6.9457 -4 0.0
8.8914 -4 0.0
12.3514 -4 0.0
15.8114 -4 0.0
21.9642 -4 0.0
28.1171 -4 0.0
39.0585 -4 0.0
50 -4 0.0
0 -5.1 0.0
1 -5.1 0.0
2 -5.1 0.0
3 -5.1 0.0
4 -5.1 0.0
5 -5.1 0.0
8.8914 -5.1 0.0
15.8114 -5.1 0.0
28.1171 -5.1 0.0
50 -5.1 0.0
0 -6.2 0.0
0.5 -6.2 0.0
1 -6.2 0.0
1.5 -6.2 0.0
2 -6.2 0.0
2.5 -6.2 0.0
3 -6.2 0.0
3.5 -6.2 0.0
4 -6.2 0.0
4.5 -6.2 0.0
5 -6.2 0.0
6.9457 -6.2 0.0
8.8914 -6.2 0.0
12.3514 -6.2 0.0
15.8114 -6.2 0.0
21.9642 -6.2 0.0
28.1171 -6.2 0.0
39.0585 -6.2 0.0
50 -6.2 0.0
0 -7.3 0.0
1 -7.3 0.0
2 -7.3 0.0
3 -7.3 0.0
4 -7.3 0.0
5 -7.3 0.0
8.8914 -7.3 0.0
15.8114 -7.3 0.0
28.1171 -7.3 0.0
50 -7.3 0.0
0 -8.4 0.0
0.5 -8.4 0.0
1 -8.4 0.0
1.5 -8.4 0.0
2 -8.4 0.0
2.5 -8.4 0.0
3 -8.4 0.0
3.5 -8.4 0.0
4 -8.4 0.0
4.5 -8.4 0.0
5 -8.4 0.0
6.9457 -8.4 0.0
8.8914 -8.4 0.0
12.3514 -8.4 0.0
15.8114 -8.4 0.0
21.9642 -8.4 0.0
28.1171 -8.4 0.0
39.0585 -8.4 0.0
50 -8.4 0.0
0 -9.5 0.0
1 -9.5 0.0
2 -9.5 0.0
3 -9.5 0.0
4 -9.5 0.0
5 -9.5 0.0
8.8914 -9.5 0.0
15.8114 -9.5 0.0
28.1171 -9.5 0.0
50 -9.5 0.0
0 -10.6 0.0
0.5 -10.6 0.0
1 -10.6 0.0
1.5 -10.6 0.0
2 -10.6 0.0
2.5 -10.6 0.0
3 -10.6 0.0
3.5 -10.6 0.0
4 -10.6 0.0
4.5 -10.6 0.0
5 -10.6 0.0
6.9457 -10.6 0.0
8.8914 -10.6 0.0
12.3514 -10.6 0.0
15.8114 -10.6 0.0
21.9642 -10.6 0.0
28.1171 -10.6 0.0
39.0585 -10.6 0.0
50 -10.6 0.0
0 -11.7 0.0
1 -11.7 0.0
2 -11.7 0.0
3 -11.7 0.0
4 -11.7 0.0
5 -11.7 0.0
8.8914 -11.7 0.0
15.8114 -11.7 0.0
28.1171 -11.7 0.0
50 -11.7 0.0
0 -12.8 0.0
0.5 -12.8 0.0
1 -12.8 0.0
1.5 -12.8 0.0
2 -12.8 0.0
2.5 -12.8 0.0
3 -12.8 0.0
3.5 -12.8 0.0
4 -12.8 0.0
4.5 -12.8 0.0
5 -12.8 0.0
6.9457 -12.8 0.0
8.8914 -12.8 0.0
12.3514 -12.8 0.0
15.8114 -12.8 0.0
21.9642 -12.8 0.0
28.1171 -12.8 0.0
39.0585 -12.8 0.0
50 -12.8 0.0
0 -13.9 0.0
1 -13.9 0.0
2 -13.9 0.0
3 -13.9 0.0
4 -13.9 0.0
5 -13.9 0.0
8.8914 -13.9 0.0
15.8114 -13.9 0.0
28.1171 -13.9 0.0
50 -13.9 0.0
0 -15 0.0
0.5 -15 0.0
1 -15 0.0
1.5 -15 0.0
2 -15 0.0
2.5 -15 0.0
3 -15 0.0
3.5 -15 0.0
4 -15 0.0
4.5 -15 0.0
5 -15 0.0
6.9457 -15 0.0
8.8914 -15 0.0
12.3514 -15 0.0
15.8114 -15 0.0
21.9642 -15 0.0
28.1171 -15 0.0
39.0585 -15 0.0
50 -15 0.0
0 -23.5 0.0
1 -23.5 0.0
2 -23.5 0.0
3 -23.5 0.0
4 -23.5 0.0
5 -23.5 0.0
8.8914 -23.5 0.0
15.8114 -23.5 0.0
28.1171 -23.5 0.0
50 -23.5 0.0
0 -32 0.0
0.5 -32 0.0
1 -32 0.0
1.5 -32 0.0
2 -32 0.0
2.5 -32 0.0
3 -32 0.0
3.5 -32 0.0
4 -32 0.0
4.5 -32 0.0
5 -32 0.0
6.9457 -32 0.0
8.8914 -32 0.0
12.3514 -32 0.0
15.8114 -32 0.0
21.9642 -32 0.0
28.1171 -32 0.0
39.0585 -32 0.0
50 -32 0.0
0 -40.5 0.0
1 -40.5 0.0
2 -40.5 0.0
3 -40.5 0.0
4 -40.5 0.0
5 -40.5 0.0
8.8914 -40.5 0.0
15.8114 -40.5 0.0
28.1171 -40.5 0.0
50 -40.5 0.0
0 -49 0.0
0.5 -49 0.0
1 -49 0.0
1.5 -49 0.0
2 -49 0.0
2.5 -49 0.0
3 -49 0.0
3.5 -49 0.0
4 -49 0.0
4.5 -49 0.0
5 -49 0.0
6.9457 -49 0.0
8.8914 -49 0.0
12.3514 -49 0.0
15.8114 -49 0.0
21.9642 -49 0.0
28.1171 -49 0.0
39.0585 -49 0.0
50 -49 0.0
0 -57.5 0.0
1 -57.5 0.0
2 -57.5 0.0
3 -57.5 0.0
4 -57.5 0.0
5 -57.5 0.0
8.8914 -57.5 0.0
15.8114 -57.5 0.0
28.1171 -57.5 0.0
50 -57.5 0.0
0 -66 0.0
0.5 -66 0.0
1 -66 0.0
1.5 -66 0.0
2 -66 0.0
2.5 -66 0.0
3 -66 0.0
3.5 -66 0.0
4 -66 0.0
4.5 -66 0.0
5 -66 0.0
6.9457 -66 0.0
8.8914 -66 0.0
12.3514 -66 0.0
15.8114 -66 0.0
21.9642 -66 0.0
28.1171 -66 0.0
39.0585 -66 0.0
50 -66 0.0
0 -74.5 0.0
1 -74.5 0.0
2 -74.5 0.0
3 -74.5 0.0
4 -74.5 0.0
5 -74.5 0.0
8.8914 -74.5 0.0
15.8114 -74.5 0.0
28.1171 -74.5 0.0
50 -74.5 0.0
0 -83 0.0
0.5 -83 0.0
1 -83 0.0
1.5 -83 0.0
2 -83 0.0
2.5 -83 0.0
3 -83 0.0
3.5 -83 0.0
4 -83 0.0
4.5 -83 0.0
5 -83 0.0
6.9457 -83 0.0
8.8914 -83 0.0
12.3514 -83 0.0
15.8114 -83 0.0
21.9642 -83 0.0
28.1171 -83 0.0
39.0585 -83 0.0
50 -83 0.0
0 -91.5 0.0
1 -91.5 0.0
2 -91.5 0.0
3 -91.5 0.0
4 -91.5 0.0
5 -91.5 0.0
8.8914 -91.5 0.0
15.8114 -91.5 0.0
28.1171 -91.5 0.0
50 -91.5 0.0
0 -100 0.0
0.5 -100 0.0
1 -100 0.0
1.5 -100 0.0
2 -100 0.0
2.5 -100 0.0
3 -100 0.0
3.5 -100 0.0
4 -100 0.0
4.5 -100 0.0
5 -100 0.0
6.9457 -100 0.0
8.8914 -100 0.0
12.3514 -100 0.0
15.8114 -100 0.0
21.9642 -100 0.0
28.1171 -100 0.0
39.0585 -100 0.0
50 -100 0.0

CELLS 135 1215
8 29 31  2  0 30 20  1 19
8 31 33  4  2 32 21  3 20
8 33 35  6  4 34 22  5 21
8 35 37  8  6 36 23  7 22
8 37 39 10  8 38 24  9 23
8 39 41 12 10 40 25 11 24
8 41 43 14 12 42 26 13 25
8 43 45 16 14 44 27 15 26
8 45 47 18 16 46 28 17 27
8 58 60 31 29 59 49 30 48
8 60 62 33 31 61 50 32 49
8 62 64 35 33 63 51 34 50
8 64 66 37 35 65 52 36 51
8 66 68 39 37 67 53 38 52
8 68 70 41 39 69 54 40 53
8 70 72 43 41 71 55 42 54
8 72 74 45 43 73 56 44 55
8 74 76 47 45 75 57 46 56
8 87 89 60 58 88 78 59 77
8 89 91 62 60 90 79 61 78
8 91 93 64 62 92 80 63 79
8 93 95 66 64 94 81 65 80
8 95 97 68 66 96 82 67 81
8 97 99 70 68 98 83 69 82
8  99 101  72  70 100  84  71  83
8 101 103  74  72 102  85  73  84
8 103 105  76  74 104  86  75  85
8 116 118  89  87 117 107  88 106
8 118 120  91  89 119 108  90 107
8 120 122  93  91 121 109  92 108
8 122 124  95  93 123 110  94 109
8 124 126  97  95 125 111  96 110
8 126 128  99  97 127 112  98 111
8 128 130 101  99 129 113 100 112
8 130 132 103 101 131 114 102 113
8 132 134 105 103 133 115 104 114
8 145 147 118 116 146 136 117 135
8 147 149 120 118 148 137 119 136
8 149 151 122 120 150 138 121 137
8 151 153 124 122 152 139 123 138
8 153 155 126 124 154 140 125 139
8 155 157 128 126 156 141 127 140
8 157 159 130 128 158 142 129 141
8 159 161 132 130 160 143 131 142
8 161 163 134 132 162 144 133 143
8 174 176 147 145 175 165 146 164
8 176 178 149 147 177 166 148 165
8 178 180 151 149 179 167 150 166
8 180 182 153 151 181 168 152 167
8 182 184 155 153 183 169 154 168
8 184 186 157 155 185 170 156 169
8 186 188 159 157 187 171 158 170
8 188 190 161 159 189 172 160 171
8 190 192 163 161 191 173 162 172
8 203 205 176 174 204 194 175 193
8 205 207 178 176 206 195 177 194
8 207 209 180 178 208 196 179 195
8 209 211 182 180 210 197 181 196
8 211 213 184 182 212 198 183 197
8 213 215 186 184 214 199 185 198
8 215 217 188 186 216 200 187 199
8 217 219 190 188 218 201 189 200
8 219 221 192 190 220 202 191 201
8 232 234 205 203 233 223 204 222
8 234 236 207 205 235 224 206 223
8 236 238 209 207 237 225 208 224
8 238 240 211 209 239 226 210 225
8 240 242 213 211 241 227 212 226
8 242 244 215 213 243 228 214 227
8 244 246 217 215 245 229 216 228
8 246 248 219 217 247 230 218 229
8 248 250 221 219 249 231 220 230
8 261 263 234 232 262 252 233 251
8 263 265 236 234 264 253 235 252
8 265 267 238 236 266 254 237 253
8 267 269 240 238 268 255 239 254
8 269 271 242 240 270 256 241 255
8 271 273 244 242 272 257 243 256
8 273 275 246 244 274 258 245 257
8 275 277 248 246 276 259 247 258
8 277 279 250 248 278 260 249 259
8 290 292 263 261 291 281 262 280
8 292 294 265 263 293 282 264 281
8 294 296 267 265 295 283 266 282
8 296 298 269 267 297 284 268 283
8 298 300 271 269 299 285 270 284
8 300 302 273 271 301 286 272 285
8 302 304 275 273 303 287 274 286
8 304 306 277 275 305 288 276 287
8 306 308 279 277 307 289 278 288
8 319 321 292 290 320 310 291 309
8 321 323 294 292 322 311 293 310
8 323 325 296 294 324 312 295 311
8 325 327 298 296 326 313 297 312
8 327 329 300 298 328 314 299 313
8 329 331 302 300 330 315 301 314
8 331 333 304 302 332 316 303 315
8 333 335 306 304 334 317 305 316
8 335 337 308 306 336 318 307 317
8 348 350 321 319 349 339 320 338
8 350 352 323 321 351 340 322 339
8 352 354 325 323 353 341 324 340
8 354 356 327 325 355 342 326 341
8 356 358 329 327 357 343 328 342
8 358 360 331 329 359 344 330 343
8 360 362 333 331 361 345 332 344
8 362 364 335 333 363 346 334 345
8 364 366 337 335 365 347 336 346
8 377 379 350 348 378 368 349 367
8 379 381 352 350 380 369 351 368
8 381 383 354 352 382 370 353 369
8 383 385 356 354 384 371 355 370
8 385 387 358 356 386 372 357 371
8 387 389 360 358 388 373 359 372
8 389 391 362 360 390 374 361 373
8 391 393 364 362 392 375 363 374
8 393 395 366 364 394 376 365 375
8 406 408 379 377 407 397 378 396
8 408 410 381 379 409 398 380 397
8 410 412 383 381 411 399 382 398
8 412 414 385 383 413 400 384 399
8 414 416 387 385 415 401 386 400
8 416 418 389 387 417 402 388 401
8 418 420 391 389 419 403 390 402
8 420 422 393 391 421 404 392 403
8 422 424 395 393 423 405 394 404
8 435 437 408 406 436 426 407 425
8 437 439 410 408 438 427 409 426
8 439 441 412 410 440 428 411 427
8 441 443 414 412 442 429 413 428
8 443 445 416 414 444 430 415 429
8 445 447 418 416 446 431 417 430
8 447 449 420 418 448 432 419 431
8 449 451 422 420 450 433 421 432
8 451 453 424 422 452 434 423 433

CELL_TYPES 135
23
23
23
23
23
23
23
23
23
23
23
23
23
23
23
23
23
23
23
23
23
23
23
23
23
23
23
23
23
23
23
23
23
23
23
23
23
23
23
23
23
23
23
23
23
23
23
23
23
23
23
23
23
23
23
23
23
23
23
23
23
23
23
23
23
23
23
23
23
23
23
23
23
23
23
23
23
23
23
23
23
23
23
23
23
23
23
23
23
23
23
23
23
23
23
23
23
23
23
23
23
23
23
23
23
23
23
23
23
23
23
23
23
23
23
23
23
23
23
23
23
23
23
23
23
23
23
23
23
23
23
23
23
23
23

POINT_DATA 454
SCALARS Displacement_R double 1
LOOKUP_TABLE default
0
-2.57963e-05
-5.12892e-05
-7.62005e-05
-0.000100226
-0.000123159
-0.000144745
-0.000165247
-0.000183746
-0.000198726
-0.000209586
-0.000220816
-0.000211901
-0.000187869
-0.000160303
-0.000125019
-9.07625e-05
-4.40094e-05
0
0
-3.88114e-05
-7.55267e-05
-0.000108034
-0.000133139
-0.000150183
-0.000171949
-0.0001361
-7.95513e-05
0
0
-1.38598e-05
-2.74725e-05
-4.06486e-05
-5.3096e-05
-6.45812e-05
-7.47491e-05
-8.34977e-05
-9.03214e-05
-9.49432e-05
-0.000101613
-0.000126076
-0.000132826
-0.000124808
-0.00011218
-9.08725e-05
-6.84001e-05
-3.34465e-05
0
0
-1.71298e-05
-3.27432e-05
-4.5234e-05
-5.34522e-05
-6.18091e-05
-9.52227e-05
-8.81766e-05
-5.7181e-05
0
0
-3.86039e-06
-7.57631e-06
-1.1068e-05
-1.41588e-05
-1.6719e-05
-1.86564e-05
-2.00942e-05
-2.14456e-05
-2.33889e-05
-2.67221e-05
-4.5634e-05
-5.86081e-05
-6.45636e-05
-6.43683e-05
-5.75641e-05
-4.60253e-05
-2.30782e-05
0
0
1.35787e-06
3.16522e-06
5.61912e-06
7.67356e-06
5.83088e-06
-2.28842e-05
-4.07543e-05
-3.48969e-05
0
0
5.00563e-06
9.98464e-06
1.49073e-05
1.97378e-05
2.44189e-05
2.87465e-05
3.25589e-05
3.5426e-05
3.69547e-05
3.7017e-05
2.67575e-05
1.23097e-05
-5.94858e-06
-1.73166e-05
-2.48287e-05
-2.38256e-05
-1.28434e-05
0
0
1.85828e-05
3.62436e-05
5.1761e-05
6.32234e-05
6.84506e-05
4.73297e-05
5.88599e-06
-1.28424e-05
0
0
1.38515e-05
2.74896e-05
4.07423e-05
5.33547e-05
6.51167e-05
7.57455e-05
8.49248e-05
9.23554e-05
9.78004e-05
0.000101316
9.8461e-05
8.2431e-05
5.19089e-05
2.89117e-05
7.50976e-06
-1.90703e-06
-2.69238e-06
0
0
3.70392e-05
7.17839e-05
0.000101724
0.000124193
0.000136999
0.000118139
5.16421e-05
8.86967e-06
0
0
2.3969e-05
4.7554e-05
7.04685e-05
9.2247e-05
0.000112522
0.000130827
0.000146801
0.000160107
0.000170316
0.000177213
0.000176727
0.000154471
0.00010988
7.41958e-05
3.96493e-05
1.96077e-05
7.42732e-06
0
0
4.51102e-05
8.73803e-05
0.000124006
0.000152429
0.000170927
0.00016722
9.60673e-05
3.65215e-05
0
0
2.07996e-05
4.12496e-05
6.10968e-05
7.99735e-05
9.76423e-05
0.000113817
0.000128276
0.000140848
0.000151665
0.000160739
0.000177244
0.000172306
0.000145121
0.000115885
7.78585e-05
5.33522e-05
2.42045e-05
0
0
3.72522e-05
7.24916e-05
0.000103881
0.000130051
0.000150164
0.000174011
0.00013277
6.97679e-05
0
0
1.69745e-05
3.37408e-05
5.01077e-05
6.59031e-05
8.0936e-05
9.50952e-05
0.000108191
0.000120223
0.000131111
0.000140744
0.000165339
0.000174123
0.000167594
0.000149176
0.000115943
8.64649e-05
4.10702e-05
0
0
3.1167e-05
6.11091e-05
8.8712e-05
0.00011312
0.000133674
0.000175747
0.000165885
0.000103689
0
0
1.48285e-05
2.95287e-05
4.3986e-05
5.80927e-05
7.17341e-05
8.48305e-05
9.7264e-05
0.000108995
0.000119961
0.000130146
0.000160941
0.000180011
0.000191026
0.00018417
0.000156546
0.000121522
5.85464e-05
0
0
2.91708e-05
5.75491e-05
8.43906e-05
0.000109084
0.000131162
0.000188859
0.000205387
0.000140443
0
0
1.5144e-05
3.01995e-05
4.50853e-05
5.97109e-05
7.39906e-05
8.78574e-05
0.000101218
0.00011404
0.000126281
0.000137899
0.000176324
0.000204225
0.00022919
0.000230519
0.000203842
0.000160275
7.72521e-05
0
0
3.31308e-05
6.55794e-05
9.66678e-05
0.000125815
0.00015247
0.000228179
0.000261376
0.000181507
0
0
1.92119e-05
3.83256e-05
5.72146e-05
7.58347e-05
9.403e-05
0.000111801
0.000128967
0.000145572
0.000161427
0.000176576
0.000226391
0.000263946
0.000296553
0.000298658
0.000262612
0.000203851
9.78541e-05
0
0
1.91573e-05
3.80895e-05
5.65525e-05
7.43276e-05
9.12281e-05
0.000146362
0.000192965
0.000158877
0
0
4.53586e-06
9.07676e-06
1.35907e-05
1.81142e-05
2.25843e-05
2.70668e-05
3.14735e-05
3.58931e-05
4.02085e-05
4.45428e-05
6.02099e-05
7.57005e-05
9.62624e-05
0.000112289
0.000120751
0.000107779
6.0267e-05
0
0
5.71669e-06
1.1383e-05
1.6966e-05
2.24264e-05
2.77256e-05
4.60568e-05
6.88636e-05
7.08136e-05
0
0
1.57523e-06
3.14451e-06
4.71846e-06
6.27781e-06
7.84135e-06
9.38177e-06
1.09279e-05
1.24434e-05
1.3967e-05
1.54512e-05
2.13586e-05
2.65438e-05
3.49298e-05
4.10045e-05
4.50189e-05
4.35408e-05
2.50272e-05
0
0
1.91645e-06
3.82717e-06
5.72269e-06
7.5948e-06
9.43582e-06
1.61117e-05
2.45913e-05
2.66869e-05
0
0
5.55528e-07
1.11156e-06
1.66335e-06
2.21569e-06
2.76046e-06
3.30587e-06
3.84025e-06
4.37509e-06
4.89487e-06
5.41518e-06
7.28892e-06
9.13657e-06
1.18953e-05
1.42005e-05
1.63574e-05
1.59587e-05
9.28344e-06
0
0
6.63476e-07
1.32314e-06
1.97635e-06
2.62034e-06
3.2529e-06
5.55037e-06
8.67496e-06
9.67421e-06
0
0
1.94171e-07
3.87835e-07
5.81844e-07
7.74686e-07
9.67763e-07
1.15898e-06
1.35034e-06
1.53923e-06
1.72788e-06
1.91342e-06
2.63085e-06
3.28416e-06
4.31703e-06
5.10039e-06
5.83293e-06
5.7513e-06
3.40778e-06
0
0
2.08522e-07
4.162e-07
6.22013e-07
8.25016e-07
1.0244e-06
1.74832e-06
2.73381e-06
3.05841e-06
0
0
0
0
0
0
0
0
0
0
0
0
0
0
0
0
0
0
0
0
SCALARS Displacement_Z double 1
LOOKUP_TABLE default
0.00283635
0.00283229
0.00281997
0.00279962
0.00277121
0.00273485
0.00269058
0.00263846
0.00257661
0.00250463
0.00241038
0.00212529
0.00190386
0.0015853
0.00134122
0.00102361
0.000806025
0.000580498
0.000510867
0.00284348
0.00282679
0.00277702
0.00269495
0.00257892
0.00241731
0.001907
0.00134196
0.000805709
0.000510073
0.00284574
0.00284147
0.00282873
0.00280759
0.00277814
0.00274042
0.00269444
0.00264012
0.00257718
0.00250343
0.00242227
0.00213857
0.00190996
0.00158843
0.00134271
0.00102374
0.000805458
0.00057937
0.000509376
0.00284379
0.00282657
0.0027752
0.00269049
0.00257204
0.00242405
0.00191233
0.0013434
0.000805262
0.000508785
0.00283824
0.00283386
0.00282081
0.00279915
0.00276897
0.00273035
0.00268346
0.00262858
0.00256593
0.00249657
0.00242336
0.00214709
0.00191428
0.00159112
0.00134412
0.00102409
0.000805127
0.000578551
0.000508291
0.00282954
0.00281204
0.00275997
0.00267449
0.0025584
0.00242072
0.00191566
0.00134476
0.000805031
0.000507888
0.00281795
0.00281355
0.00280046
0.00277872
0.00274852
0.00271002
0.00266366
0.00260995
0.0025498
0.00248441
0.00241585
0.00214919
0.00191647
0.00159314
0.00134543
0.00102468
0.000804992
0.000578047
0.000507581
0.00280363
0.00278627
0.00273479
0.0026511
0.00253964
0.00240954
0.00191661
0.00134598
0.000804988
0.00050736
0.00278638
0.00278208
0.00276928
0.00274805
0.00271863
0.00268129
0.00263657
0.00258514
0.00252796
0.00246615
0.00240119
0.00214504
0.00191619
0.00159447
0.00134658
0.00102549
0.00080504
0.000577857
0.000507235
0.00276596
0.00274923
0.00269973
0.00261974
0.00251429
0.0023913
0.00191511
0.00134705
0.00080513
0.000507201
0.00274175
0.00273768
0.0027255
0.00270534
0.00267744
0.00264213
0.00259996
0.00255163
0.00249806
0.00244018
0.00237952
0.00213554
0.00191367
0.00159531
0.00134755
0.0010265
0.000805276
0.000577968
0.000507261
0.00261753
0.00260369
0.00256298
0.00249795
0.00241277
0.00231526
0.00190056
0.00134847
0.000805803
0.000507928
0.00250581
0.00250285
0.0024942
0.00247983
0.00246013
0.00243522
0.0024057
0.00237193
0.00233462
0.00229393
0.00225092
0.00206645
0.0018828
0.00159035
0.00134812
0.00102983
0.000806386
0.000579877
0.000509324
0.00240744
0.00239769
0.00236901
0.00232312
0.00226265
0.00219078
0.00186225
0.00134627
0.000806877
0.000511227
0.00232118
0.00231907
0.00231285
0.00230255
0.00228836
0.00227039
0.00224895
0.00222431
0.00219673
0.00216639
0.00213374
0.00199025
0.00183815
0.00157324
0.00134247
0.00103007
0.000807485
0.000583607
0.000513833
0.00224483
0.00223762
0.00221633
0.00218197
0.002136
0.00208049
0.00181204
0.00133673
0.00080809
0.00051703
0.00217606
0.00217443
0.00216968
0.00216177
0.00215085
0.00213696
0.00212031
0.00210103
0.00207934
0.00205536
0.00202943
0.00191262
0.00178315
0.00154478
0.00132882
0.00102658
0.000808875
0.000589167
0.000520943
0.00211217
0.00210647
0.00208956
0.00206206
0.00202499
0.00197967
0.00175239
0.00131895
0.000809717
0.000525475
0.00205023
0.00204896
0.00204506
0.00203864
0.0020297
0.00201838
0.00200471
0.00198887
0.00197092
0.00195103
0.00192928
0.00183085
0.00171849
0.00150522
0.00130709
0.00101958
0.000810846
0.000596768
0.000530756
0.00198688
0.0019821
0.00196812
0.00194537
0.00191454
0.0018765
0.00168165
0.00129338
0.000812163
0.000536751
0.00191746
0.00191622
0.00191311
0.00190774
0.00190054
0.00189116
0.00188005
0.00186693
0.00185225
0.00183581
0.00181805
0.00173554
0.00164042
0.00145405
0.00127829
0.00101029
0.000813938
0.000606698
0.000543535
0.00129891
0.00129777
0.00129384
0.00128728
0.0012782
0.00126672
0.00120302
0.00103925
0.000746863
0.000543692
0.000964485
0.000964122
0.000963671
0.000962705
0.000961645
0.000960042
0.000958329
0.000956094
0.000953728
0.000950888
0.000947879
0.000932967
0.00091477
0.000877909
0.000830255
0.0007448
0.000661114
0.000559868
0.000524303
0.000744326
0.000743931
0.000742875
0.000741147
0.000738767
0.000735761
0.000718458
0.000672101
0.000575823
0.000488843
0.000583608
0.000583607
0.00058348
0.000583307
0.00058301
0.000582673
0.000582219
0.000581722
0.00058112
0.000580472
0.000579734
0.000575848
0.000571047
0.00055871
0.000544942
0.000516991
0.00048875
0.000449249
0.00043558
0.000457907
0.000457822
0.000457531
0.000457043
0.000456355
0.000455461
0.000450486
0.000436652
0.000404885
0.000373733
0.000351463
0.000351436
0.000351398
0.000351321
0.000351232
0.000351103
0.00035096
0.000350782
0.000350587
0.000350366
0.000350125
0.000348975
0.00034749
0.000344178
0.000340105
0.000331074
0.00032175
0.000308606
0.000303778
0.000256233
0.000256206
0.000256129
0.000256004
0.000255829
0.000255605
0.000254224
0.000250072
0.000240654
0.000230937
0.000167433
0.000167431
0.000167422
0.000167407
0.000167384
0.000167356
0.000167321
0.000167279
0.000167232
0.000167178
0.00016712
0.000166808
0.000166428
0.000165555
0.000164495
0.000162215
0.000159875
0.000156405
0.000155169
8.2219e-05
8.22153e-05
8.22014e-05
8.21781e-05
8.21455e-05
8.21033e-05
8.18799e-05
8.12238e-05
7.98266e-05
7.83126e-05
-0
-0
-0
-0
-0
-0
-0
-0
-0
-0
-0
-0
-0
-0
-0
-0
-0
-0
-0
SCALARS Stress_R double 1
LOOKUP_TABLE default
32.2435
31.9393
31.7078
31.0501
30.4273
29.3027
28.5196
27.5869
25.7342
22.3326
12.5828
3.5428
0.158865
-0.710519
-1.28154
-1.25744
-1.31454
-1.28653
-1.31956
26.1126
25.6632
24.4612
22.258
18.1432
11.2266
1.0557
-0.884582
-1.11299
-1.16435
20.8174
20.5724
20.4216
19.877
19.3667
18.3713
17.4512
16.073
13.1328
12.6281
10.8335
4.9205
1.41869
0.202055
-0.481043
-0.717499
-0.913054
-0.968192
-1.01364
15.4113
15.0706
14.1769
12.4674
9.78742
9.23772
2.09649
-0.126478
-0.732313
-0.8699
10.5591
10.4146
10.3337
10.0199
9.67665
9.15715
8.49257
7.90286
7.02489
6.99413
7.16444
3.94323
2.45762
0.968289
0.21334
-0.189968
-0.550927
-0.645898
-0.722665
5.65502
5.52745
5.18255
4.57368
4.19956
5.15988
2.6993
0.555727
-0.37299
-0.577864
0.960647
0.984858
0.97771
1.01008
0.962811
1.06612
1.01625
1.32138
1.47137
1.99181
3.07749
2.42256
2.90192
1.6458
0.894303
0.32142
-0.197576
-0.327032
-0.433108
-3.71214
-3.55891
-3.18253
-2.48004
-1.20723
1.00441
3.04868
1.23471
-0.0187817
-0.287221
-8.61285
-8.40798
-8.31947
-7.90425
-7.56507
-6.84708
-6.2258
-5.16639
-4.18565
-2.92701
-0.992064
0.928072
3.31892
2.31199
1.58342
0.820409
0.155741
-0.011452
-0.144421
-13.4158
-12.9814
-11.8467
-9.85754
-7.05108
-2.88542
3.60891
1.92738
0.342482
0.00330064
-8.65432
-8.42278
-8.36112
-7.95839
-7.63913
-6.94029
-6.31959
-5.35162
-4.43928
-3.33165
-1.43513
0.775321
2.85781
1.89792
1.37303
0.765407
0.323852
0.176505
0.0938365
0.750055
0.807023
0.844043
0.914408
1.0065
1.38234
1.34174
0.5159
0.143836
0.0754432
0.305277
0.402962
0.362198
0.430061
0.410305
0.488913
0.494716
0.579734
0.598085
0.654805
0.922121
0.676313
1.10837
0.465857
0.463115
0.239735
0.158579
0.151724
0.124888
-0.0134714
0.0373231
0.0847942
0.152309
0.258093
0.444031
0.744223
0.426547
0.207347
0.180854
-0.42154
-0.359104
-0.377075
-0.32346
-0.322343
-0.259803
-0.232091
-0.168298
-0.148821
-0.0909175
0.0798042
0.0881604
0.462475
0.18414
0.373645
0.230882
0.248716
0.235105
0.233325
-0.564845
-0.530042
-0.491175
-0.432501
-0.357943
-0.218928
0.17365
0.301153
0.292423
0.282281
-1.00167
-0.962114
-0.96943
-0.931207
-0.923513
-0.875002
-0.849148
-0.793823
-0.759399
-0.707716
-0.603413
-0.465304
-0.11631
-0.10919
0.236764
0.215569
0.344312
0.325185
0.335989
-1.1328
-1.10855
-1.07065
-1.0126
-0.931655
-0.825303
-0.352188
0.161675
0.386503
0.383877
-1.72886
-1.69218
-1.69649
-1.65675
-1.64371
-1.59014
-1.55825
-1.49286
-1.45303
-1.38035
-1.30876
-1.03503
-0.652611
-0.383032
0.126423
0.218604
0.450226
0.42415
0.435476
-1.91145
-1.87764
-1.82933
-1.75024
-1.64128
-1.52182
-0.864786
0.0648723
0.49719
0.484185
-1.41392
-1.39186
-1.39047
-1.36068
-1.34653
-1.30546
-1.27826
-1.22721
-1.1908
-1.13665
-1.06849
-0.830581
-0.548684
-0.22905
0.114016
0.231532
0.369128
0.329477
0.331304
0.0849763
0.0856698
0.0859339
0.0866107
0.0874085
0.0827343
0.0974649
0.13152
0.143803
0.131538
0.035863
0.0361192
0.0363949
0.0371376
0.037771
0.0389266
0.0399211
0.0414231
0.0429426
0.0446537
0.048906
0.0565135
0.066339
0.082036
0.0989771
0.107847
0.133684
0.118101
0.132686
0.0868975
0.0868682
0.0872168
0.087655
0.0882882
0.0905203
0.0906798
0.0956649
0.117009
0.121808
0.0833054
0.0834961
0.0834164
0.0834645
0.0834288
0.0835439
0.0835425
0.0836787
0.0836738
0.083864
0.0823691
0.0837082
0.0849292
0.0883531
0.0943834
0.099758
0.108843
0.108089
0.1171
0.0948303
0.0949112
0.0949221
0.0949749
0.0950436
0.0946642
0.0961744
0.0991639
0.10545
0.109262
0.0933164
0.0932954
0.0933144
0.0933519
0.0933929
0.0934448
0.0935041
0.0935763
0.0936696
0.0937579
0.094138
0.0944062
0.0943626
0.0957027
0.0963664
0.0990794
0.103505
0.102933
0.107179
0.0982135
0.098206
0.0982276
0.0982503
0.0982788
0.098375
0.0984174
0.0991234
0.102101
0.103426
0.0981745
0.0981933
0.0981893
0.0981962
0.0981967
0.0982112
0.0982188
0.0982382
0.0982542
0.0982829
0.098212
0.0983839
0.0985267
0.0988524
0.0991869
0.099843
0.101128
0.100967
0.102439
0.099926
0.0999338
0.0999363
0.0999428
0.0999498
0.0999272
0.0999875
0.100224
0.100657
0.100818
0.10175
0.101751
0.101748
0.101744
0.101736
0.101729
0.101717
0.101706
0.101691
0.101675
0.101655
0.101614
0.101528
0.101369
0.101091
0.100809
0.100479
0.0993547
0.0996275
SCALARS Stress_Theta double 1
LOOKUP_TABLE default
32.2435
32.0067
31.8418
31.4643
31.0767
30.357
29.8174
29.4104
28.2691
26.4037
18.7012
10.4829
7.22892
4.32679
2.55973
1.26329
0.501953
-0.11443
-0.444441
26.1126
25.7799
25.0451
23.7181
21.0608
14.5371
6.24035
2.24321
0.453606
-0.391698
20.8174
20.6273
20.522
20.2047
19.8829
19.2999
18.7178
17.913
16.0468
14.8075
11.7436
7.17699
5.0178
3.11086
1.94726
0.99255
0.406309
-0.0832836
-0.34289
15.4113
15.1581
14.6021
13.5085
11.5192
9.05809
4.12545
1.62307
0.349214
-0.29767
10.5591
10.4467
10.3885
10.1965
9.96968
9.64368
9.18368
8.55868
7.64754
6.97684
6.2166
3.58426
3.05202
1.94518
1.30002
0.723716
0.29467
-0.0471979
-0.248346
5.65502
5.55632
5.3084
4.78332
4.0185
3.51956
2.00435
0.981231
0.240081
-0.200217
0.960647
0.978941
0.966409
0.968817
0.912209
0.897503
0.7612
0.738525
0.537944
0.520461
0.826428
0.15542
0.95808
0.801481
0.667413
0.455114
0.184691
-0.0120027
-0.151584
-3.71214
-3.60762
-3.43951
-3.18243
-2.78723
-1.93267
-0.119172
0.360351
0.133052
-0.102023
-8.61285
-8.45539
-8.40682
-8.19225
-8.02227
-7.65943
-7.36652
-6.86737
-6.43494
-5.76549
-4.70318
-3.30258
-1.11523
-0.34079
0.0611252
0.187924
0.0788357
0.0232377
-0.0550902
-13.4158
-13.1074
-12.488
-11.4235
-9.93952
-7.66364
-2.19095
-0.232221
0.0334542
-0.00500478
-8.65432
-8.47139
-8.44884
-8.24771
-8.10188
-7.75428
-7.4569
-6.95513
-6.48918
-5.95824
-4.91046
-3.18821
-1.30168
-0.69749
-0.225855
-0.0248535
0.0164116
0.0389664
0.0336787
0.750055
0.783961
0.733521
0.657951
0.55977
0.688978
0.39992
0.072734
0.0303098
0.0367604
0.305277
0.392113
0.341916
0.367797
0.311613
0.327146
0.274116
0.28119
0.228952
0.226161
0.396786
-0.0235139
0.268098
-0.151591
-0.012819
-0.0279393
0.00942821
0.0568262
0.0623841
-0.0134714
0.0210858
0.00662704
-0.0201353
-0.0319768
0.0213844
0.0249376
-0.0582594
0.0162462
0.0939794
-0.42154
-0.365566
-0.390453
-0.362058
-0.383499
-0.358586
-0.367015
-0.347819
-0.367225
-0.358299
-0.25481
-0.384605
-0.138624
-0.348853
-0.1159
-0.0911044
0.0160926
0.0798386
0.121702
-0.564845
-0.540132
-0.538788
-0.537771
-0.53372
-0.483859
-0.335698
-0.185977
0.0153341
0.14613
-1.00167
-0.966098
-0.97759
-0.954814
-0.960751
-0.935721
-0.931908
-0.906366
-0.899412
-0.878608
-0.814805
-0.786941
-0.548359
-0.570685
-0.25432
-0.163694
0.0205538
0.106308
0.174492
-1.1328
-1.11485
-1.10143
-1.08153
-1.04972
-1.00017
-0.73925
-0.347353
0.0127622
0.197142
-1.72886
-1.69493
-1.7019
-1.67371
-1.67078
-1.63515
-1.62012
-1.57783
-1.55866
-1.51081
-1.46544
-1.29417
-1.01882
-0.841332
-0.416966
-0.246716
0.0213473
0.135446
0.222279
-1.91145
-1.88302
-1.85628
-1.81149
-1.748
-1.68294
-1.25411
-0.544207
0.0085801
0.243877
-1.41392
-1.39365
-1.3948
-1.37225
-1.36513
-1.33542
-1.31936
-1.28323
-1.26102
-1.22526
-1.18018
-1.01538
-0.815122
-0.575047
-0.299018
-0.12638
0.042809
0.114386
0.17362
0.0849763
0.0854899
0.0844624
0.0830389
0.0810983
0.0747368
0.0700026
0.0727613
0.0777636
0.0911882
0.035863
0.0361462
0.0362755
0.037005
0.0374365
0.0384835
0.0392198
0.0405254
0.0416616
0.0431162
0.0462364
0.052871
0.0598005
0.0684418
0.0801235
0.0763258
0.0930067
0.0834444
0.0998946
0.0868975
0.0867473
0.086876
0.0869597
0.0870812
0.0882085
0.0863973
0.0847475
0.0918312
0.0996213
0.0833054
0.0834642
0.0834299
0.0833995
0.0833646
0.0833701
0.083344
0.0833544
0.0833113
0.0833505
0.0822677
0.0825148
0.0829551
0.0843909
0.0872907
0.0898469
0.095067
0.0939726
0.103228
0.0948303
0.0949178
0.0948882
0.0948681
0.0948405
0.0944852
0.0948944
0.0952465
0.0969341
0.100443
0.0933164
0.093298
0.0932949
0.0933261
0.0933354
0.0933695
0.0933861
0.0934261
0.0934599
0.0935024
0.0937256
0.0939063
0.0936952
0.0944622
0.0946623
0.0958464
0.0984575
0.0977394
0.101994
0.0982135
0.0981976
0.0982016
0.0981978
0.0981901
0.0982202
0.0980708
0.0980667
0.0990144
0.10014
0.0981745
0.0981906
0.09819
0.0981906
0.098191
0.0981962
0.0982004
0.0982083
0.0982171
0.0982305
0.0981787
0.0982413
0.0982998
0.0983849
0.0984666
0.0987024
0.0993861
0.0990882
0.100507
0.099926
0.0999332
0.0999309
0.0999288
0.0999245
0.0998975
0.0998661
0.0998312
0.0997278
0.0998062
0.10175
0.101751
0.101748
0.101744
0.101736
0.101729
0.101717
0.101706
0.101691
0.101675
0.101655
0.101614
0.101528
0.10137
0.101091
0.100809
0.100478
0.0993559
0.0996258
SCALARS Stress_Z double 1
LOOKUP_TABLE default
15.3984
15.2862
15.2985
15.3047
15.4101
15.2056
15.3117
15.98
15.6528
15.2552
5.01489
-0.87065
0.165279
0.034321
-0.0945509
-0.0121808
-0.022518
-0.00623607
0.0144209
14.756
14.7188
14.7275
14.6443
13.5076
4.55594
0.264187
-0.0813273
-0.018206
0.0144525
14.6895
14.6031
14.6571
14.6237
14.6847
14.6297
14.668
14.6623
13.3676
11.5945
5.27586
0.00642265
0.207147
0.0236732
-0.0283323
0.00692027
-0.0105658
-0.00377876
0.00788146
13.6028
13.5514
13.5115
13.2069
11.6764
5.99593
0.559246
-0.00753633
-0.00978897
-0.00192194
12.8681
12.8153
12.8486
12.7897
12.7391
12.6645
12.4177
11.6302
10.2322
8.4837
5.98103
0.658712
0.647337
0.107875
0.0236957
0.0111827
-0.0038805
0.0045631
-0.00336283
11.5651
11.511
11.3421
10.7001
8.92697
5.85404
0.823736
0.0500178
0.00410647
-0.00590053
10.388
10.3932
10.3422
10.277
10.1035
9.87028
9.37326
8.76211
7.65706
6.53415
5.59288
1.32399
1.00118
0.231145
0.0865465
0.00984754
0.0109544
0.0108629
-0.0068338
9.23984
9.18328
8.88904
8.17688
6.7913
5.17362
1.13183
0.127217
0.0219555
-0.00645949
7.93297
7.99512
7.86915
7.77877
7.5114
7.28849
6.82069
6.3433
5.58938
5.08328
4.87762
1.79444
1.36936
0.317327
0.172247
0.00944663
0.0287603
0.0187396
-0.0104061
7.34477
7.2876
6.9311
6.28291
5.26521
4.43315
1.44046
0.226042
0.0430956
-0.010591
6.55502
6.63377
6.48453
6.376
6.10054
5.87413
5.47464
5.16185
4.69883
4.14146
4.00568
2.1212
1.48491
0.353563
0.206818
0.019939
0.0530494
0.0190441
0.00127163
5.5011
5.44708
5.15479
4.68104
4.04796
3.56262
1.4152
0.253314
0.05565
0.00830707
4.568
4.62832
4.52373
4.46028
4.28088
4.14372
3.90832
3.71017
3.43182
3.21805
3.17226
1.82369
1.4145
0.371493
0.240708
0.0525212
0.0542661
0.0365315
0.0165195
3.76454
3.73564
3.55453
3.26571
2.92212
2.60611
1.25935
0.281258
0.0781415
0.0314492
2.90051
2.94164
2.88398
2.85948
2.76513
2.70045
2.58617
2.48662
2.33826
2.2083
2.16778
1.43828
1.18045
0.397551
0.308848
0.094567
0.0949932
0.0474908
0.0411999
2.46
2.44699
2.34937
2.19456
1.99993
1.81756
1.05213
0.331023
0.110056
0.0473348
1.75427
1.78093
1.75016
1.74187
1.69303
1.66505
1.6058
1.55872
1.48547
1.42109
1.39535
1.03434
0.917608
0.388147
0.357861
0.133639
0.131999
0.0609938
0.0573092
1.55423
1.54856
1.50054
1.42227
1.32608
1.22704
0.831396
0.360964
0.139365
0.0607441
0.924593
0.95447
0.934648
0.943182
0.916254
0.916169
0.886431
0.878608
0.840216
0.82929
0.810363
0.698519
0.681875
0.370132
0.398163
0.161677
0.163913
0.0746856
0.0657739
0.99553
1.00659
0.983333
0.947044
0.902269
0.8329
0.643401
0.373459
0.164335
0.0662353
0.548965
0.566307
0.556656
0.566493
0.554829
0.562292
0.550551
0.555661
0.541967
0.537291
0.53712
0.507726
0.498073
0.382981
0.34577
0.207052
0.163857
0.0824986
0.0709405
0.48841
0.487334
0.482379
0.474502
0.463807
0.446888
0.387126
0.279374
0.156049
0.0975753
0.223795
0.224341
0.224448
0.22529
0.225594
0.226694
0.227252
0.228527
0.229419
0.230699
0.233388
0.238541
0.242118
0.235786
0.233825
0.18642
0.169861
0.11946
0.117615
0.237552
0.237177
0.236682
0.235777
0.234534
0.233909
0.222473
0.198038
0.159579
0.127714
0.184141
0.184236
0.184128
0.184011
0.183841
0.183689
0.183457
0.183248
0.182936
0.182706
0.18132
0.180203
0.178465
0.175674
0.172298
0.163413
0.157532
0.138943
0.141053
0.178281
0.178321
0.178179
0.177963
0.177659
0.176958
0.175056
0.168134
0.15463
0.14203
0.160798
0.160782
0.160763
0.160756
0.160717
0.160683
0.160622
0.160563
0.160487
0.160394
0.160471
0.16004
0.15914
0.158515
0.157119
0.154531
0.153149
0.145918
0.14781
0.159761
0.159728
0.159681
0.159597
0.15948
0.159376
0.158476
0.156351
0.151862
0.146989
0.154553
0.154565
0.154558
0.154553
0.154543
0.154537
0.154526
0.154517
0.154503
0.154493
0.154412
0.154323
0.154147
0.153667
0.153022
0.151897
0.151138
0.148401
0.148838
0.153808
0.153809
0.153793
0.153767
0.153728
0.153659
0.153365
0.152593
0.150687
0.148707
0.152625
0.152627
0.152621
0.152617
0.152604
0.152594
0.152576
0.15256
0.152537
0.152513
0.152483
0.152421
0.152292
0.152054
0.151638
0.151212
0.15072
0.149031
0.149443
SCALARS Stress_Shear double 1
LOOKUP_TABLE default
0.015776
-0.00363281
-0.01621
-0.00727418
-0.0298018
-0.0318276
0.0650744
0.248782
0.965621
-1.47011
-2.75335
0.315215
0.0858399
-0.120927
0.122392
-0.0420668
0.0685407
-0.023283
0.0844518
0.00326831
-0.403408
-0.79044
-1.16209
-1.82049
-4.61113
-0.350476
0.0269788
0.0484687
0.0830352
-0.0104835
-0.390698
-0.785253
-1.15755
-1.55947
-1.97709
-2.43507
-3.18577
-4.39219
-5.6639
-6.46564
-2.87618
-0.844682
-0.540346
-0.0216269
-0.172555
0.0466766
-0.0495723
0.0817774
-0.0108743
-1.06485
-2.16848
-3.50343
-5.52151
-7.1573
-1.37821
-0.0471924
0.0431526
0.0809076
-0.00865746
-0.659498
-1.33164
-2.00621
-2.74114
-3.51485
-4.39803
-5.36686
-6.63823
-7.15711
-7.69461
-4.18687
-1.81205
-0.933672
-0.115253
-0.282147
0.0264576
-0.0768606
0.0802155
-0.0154411
-1.4474
-2.98154
-4.72175
-6.59881
-7.50113
-2.05776
-0.17908
0.0106675
0.0794735
-0.011266
-0.756385
-1.53289
-2.31065
-3.16822
-3.98616
-4.93591
-5.69375
-6.60335
-6.84898
-7.38876
-4.489
-2.24975
-1.12302
-0.244814
-0.361292
-0.0144589
-0.0950724
0.0789305
-0.0188989
-1.42177
-2.92048
-4.48354
-5.83885
-6.55949
-2.20514
-0.313863
-0.0378629
0.0782479
-0.0134862
-0.628802
-1.279
-1.91433
-2.62708
-3.24793
-3.98432
-4.47509
-5.08739
-5.23002
-5.79076
-3.68652
-2.10627
-1.13994
-0.386381
-0.412654
-0.0721548
-0.105058
0.0777715
-0.0139361
-0.929063
-1.88792
-2.83274
-3.56187
-4.12449
-1.80764
-0.46329
-0.104772
0.0773453
-0.00188595
-0.265738
-0.543754
-0.789611
-1.07281
-1.28679
-1.55855
-1.69431
-1.90359
-1.91
-2.2083
-1.74384
-1.45967
-0.964241
-0.570817
-0.430847
-0.15733
-0.102722
0.0439451
-0.000512671
-0.473284
-0.919505
-1.30631
-1.58168
-1.78493
-1.40978
-0.65439
-0.197824
0.0104119
-0.0035001
-0.211611
-0.422172
-0.619281
-0.815039
-0.984056
-1.14832
-1.27227
-1.39451
-1.47208
-1.58715
-1.5473
-1.41626
-1.02237
-0.694729
-0.420894
-0.204658
-0.0932866
0.010531
0.000883564
-0.355685
-0.686609
-0.969754
-1.18649
-1.37414
-1.3308
-0.705658
-0.204849
0.0102188
-0.00165917
-0.151819
-0.302621
-0.445042
-0.585503
-0.710855
-0.831043
-0.93149
-1.0302
-1.10471
-1.20421
-1.25955
-1.25862
-0.971786
-0.70347
-0.405515
-0.199329
-0.0882772
0.0103213
0.000588243
-0.253503
-0.492
-0.702552
-0.874951
-1.03127
-1.13241
-0.665931
-0.187634
0.0103027
-0.00180176
-0.107038
-0.213204
-0.314786
-0.41528
-0.506505
-0.595585
-0.671991
-0.747324
-0.805938
-0.883568
-0.964666
-1.02238
-0.823463
-0.623184
-0.354968
-0.172537
-0.0776355
0.0106637
0.00098804
-0.172501
-0.336461
-0.48411
-0.609101
-0.726769
-0.863467
-0.540994
-0.151736
0.0108556
0.00124302
-0.0679172
-0.136057
-0.200633
-0.265017
-0.323621
-0.381601
-0.432023
-0.482015
-0.524405
-0.580027
-0.641831
-0.712359
-0.577876
-0.453474
-0.261256
-0.128912
-0.0606988
0.011375
-0.00430485
-0.0894316
-0.173492
-0.24981
-0.315608
-0.382817
-0.484366
-0.324102
-0.102437
0.011864
-0.00541655
-0.0190781
-0.0364949
-0.0536525
-0.0709122
-0.0870505
-0.1028
-0.116969
-0.130446
-0.140546
-0.158666
-0.183274
-0.217426
-0.195665
-0.181726
-0.122124
-0.0798728
-0.0383194
0.00738092
0.00221093
-0.0114548
-0.0232645
-0.0344673
-0.0450831
-0.0546501
-0.088716
-0.100907
-0.0642414
0.000806227
-0.00170845
-0.00291411
-0.00525195
-0.00763796
-0.0100481
-0.0125679
-0.0149493
-0.0174815
-0.0197615
-0.0222855
-0.0247382
-0.0333567
-0.0387412
-0.0496818
-0.0581376
-0.0544607
-0.0495578
-0.0237297
-0.000667145
-0.000484616
-0.0028737
-0.00558147
-0.00827251
-0.0108804
-0.0134659
-0.0217517
-0.0332088
-0.0313633
0.000554778
0.000332207
-0.000628087
-0.0013785
-0.00210799
-0.00283726
-0.00351836
-0.00423104
-0.00487439
-0.0055627
-0.0061481
-0.00713613
-0.00942193
-0.0123105
-0.0154735
-0.0178823
-0.0194229
-0.0192668
-0.0102437
-0.00018418
0.000138822
-0.000826792
-0.00169062
-0.00254421
-0.00340657
-0.00420565
-0.00713847
-0.0107185
-0.0118633
0.000366622
-0.000112731
-0.000262305
-0.00048626
-0.000713166
-0.000938249
-0.00117303
-0.00138972
-0.00162003
-0.00181697
-0.00203449
-0.00222897
-0.00302844
-0.00376773
-0.00478135
-0.00584454
-0.0064651
-0.00656334
-0.00360662
-0.000164412
-2.2394e-05
-0.000252442
-0.000495853
-0.000738139
-0.000977557
-0.00122182
-0.00215614
-0.00340719
-0.00391222
0.000101907
1.06978e-05
-5.8703e-05
-0.000121792
-0.000184107
-0.000247665
-0.000308408
-0.000371932
-0.000431508
-0.000493042
-0.000548989
-0.000631929
-0.000854297
-0.00106513
-0.00138192
-0.00168932
-0.00189689
-0.00190519
-0.00109247
-2.89172e-05
1.06463e-05
-8.48737e-05
-0.000172484
-0.000258413
-0.000344068
-0.000418794
-0.000708621
-0.00111213
-0.00129432
8.81894e-05
-2.22951e-16
-3.51965e-05
-7.03132e-05
-0.000105373
-0.000140249
-0.000174977
-0.000209412
-0.000243621
-0.000277442
-0.000311038
-0.000344145
-0.000469334
-0.000584421
-0.000771546
-0.000919358
-0.00103451
-0.00102138
-0.000594533
3.10218e-15
SCALARS Radial_Distance double 1
LOOKUP_TABLE default
0
0.5
1
1.5
2
2.5
3
3.5
4
4.5
5
6.9457
8.8914
12.3514
15.8114
21.9642
28.1171
39.0585
50
0
1
2
3
4
5
8.8914
15.8114
28.1171
50
0
0.5
1
1.5
2
2.5
3
3.5
4
4.5
5
6.9457
8.8914
12.3514
15.8114
21.9642
28.1171
39.0585
50
0
1
2
3
4
5
8.8914
15.8114
28.1171
50
0
0.5
1
1.5
2
2.5
3
3.5
4
4.5
5
6.9457
8.8914
12.3514
15.8114
21.9642
28.1171
39.0585
50
0
1
2
3
4
5
8.8914
15.8114
28.1171
50
0
0.5
1
1.5
2
2.5
3
3.5
4
4.5
5
6.9457
8.8914
12.3514
15.8114
21.9642
28.1171
39.0585
50
0
1
2
3
4
5
8.8914
15.8114
28.1171
50
0
0.5
1
1.5
2
2.5
3
3.5
4
4.5
5
6.9457
8.8914
12.3514
15.8114
21.9642
28.1171
39.0585
50
0
1
2
3
4
5
8.8914
15.8114
28.1171
50
0
0.5
1
1.5
2
2.5
3
3.5
4
4.5
5
6.9457
8.8914
12.3514
15.8114
21.9642
28.1171
39.0585
50
0
1
2
3
4
5
8.8914
15.8114
28.1171
50
0
0.5
1
1.5
2
2.5
3
3.5
4
4.5
5
6.9457
8.8914
12.3514
15.8114
21.9642
28.1171
39.0585
50
0
1
2
3
4
5
8.8914
15.8114
28.1171
50
0
0.5
1
1.5
2
2.5
3
3.5
4
4.5
5
6.9457
8.8914
12.3514
15.8114
21.9642
28.1171
39.0585
50
0
1
2
3
4
5
8.8914
15.8114
28.1171
50
0
0.5
1
1.5
2
2.5
3
3.5
4
4.5
5
6.9457
8.8914
12.3514
15.8114
21.9642
28.1171
39.0585
50
0
1
2
3
4
5
8.8914
15.8114
28.1171
50
0
0.5
1
1.5
2
2.5
3
3.5
4
4.5
5
6.9457
8.8914
12.3514
15.8114
21.9642
28.1171
39.0585
50
0
1
2
3
4
5
8.8914
15.8114
28.1171
50
0
0.5
1
1.5
2
2.5
3
3.5
4
4.5
5
6.9457
8.8914
12.3514
15.8114
21.9642
28.1171
39.0585
50
0
1
2
3
4
5
8.8914
15.8114
28.1171
50
0
0.5
1
1.5
2
2.5
3
3.5
4
4.5
5
6.9457
8.8914
12.3514
15.8114
21.9642
28.1171
39.0585
50
0
1
2
3
4
5
8.8914
15.8114
28.1171
50
0
0.5
1
1.5
2
2.5
3
3.5
4
4.5
5
6.9457
8.8914
12.3514
15.8114
21.9642
28.1171
39.0585
50
0
1
2
3
4
5
8.8914
15.8114
28.1171
50
0
0.5
1
1.5
2
2.5
3
3.5
4
4.5
5
6.9457
8.8914
12.3514
15.8114
21.9642
28.1171
39.0585
50
0
1
2
3
4
5
8.8914
15.8114
28.1171
50
0
0.5
1
1.5
2
2.5
3
3.5
4
4.5
5
6.9457
8.8914
12.3514
15.8114
21.9642
28.1171
39.0585
50
0
1
2
3
4
5
8.8914
15.8114
28.1171
50
0
0.5
1
1.5
2
2.5
3
3.5
4
4.5
5
6.9457
8.8914
12.3514
15.8114
21.9642
28.1171
39.0585
50
SCALARS Depth double 1
LOOKUP_TABLE default
0
0
0
0
0
0
0
0
0
0
0
0
0
0
0
0
0
0
0
-0.4
-0.4
-0.4
-0.4
-0.4
-0.4
-0.4
-0.4
-0.4
-0.4
-0.8
-0.8
-0.8
-0.8
-0.8
-0.8
-0.8
-0.8
-0.8
-0.8
-0.8
-0.8
-0.8
-0.8
-0.8
-0.8
-0.8
-0.8
-0.8
-1.2
-1.2
-1.2
-1.2
-1.2
-1.2
-1.2
-1.2
-1.2
-1.2
-1.6
-1.6
-1.6
-1.6
-1.6
-1.6
-1.6
-1.6
-1.6
-1.6
-1.6
-1.6
-1.6
-1.6
-1.6
-1.6
-1.6
-1.6
-1.6
-2
-2
-2
-2
-2
-2
-2
-2
-2
-2
-2.4
-2.4
-2.4
-2.4
-2.4
-2.4
-2.4
-2.4
-2.4
-2.4
-2.4
-2.4
-2.4
-2.4
-2.4
-2.4
-2.4
-2.4
-2.4
-2.8
-2.8
-2.8
-2.8
-2.8
-2.8
-2.8
-2.8
-2.8
-2.8
-3.2
-3.2
-3.2
-3.2
-3.2
-3.2
-3.2
-3.2
-3.2
-3.2
-3.2
-3.2
-3.2
-3.2
-3.2
-3.2
-3.2
-3.2
-3.2
-3.6
-3.6
-3.6
-3.6
-3.6
-3.6
-3.6
-3.6
-3.6
-3.6
-4
-4
-4
-4
-4
-4
-4
-4
-4
-4
-4
-4
-4
-4
-4
-4
-4
-4
-4
-5.1
-5.1
-5.1
-5.1
-5.1
-5.1
-5.1
-5.1
-5.1
-5.1
-6.2
-6.2
-6.2
-6.2
-6.2
-6.2
-6.2
-6.2
-6.2
-6.2
-6.2
-6.2
-6.2
-6.2
-6.2
-6.2
-6.2
-6.2
-6.2
-7.3
-7.3
-7.3
-7.3
-7.3
-7.3
-7.3
-7.3
-7.3
-7.3
-8.4
-8.4
-8.4
-8.4
-8.4
-8.4
-8.4
-8.4
-8.4
-8.4
-8.4
-8.4
-8.4
-8.4
-8.4
-8.4
-8.4
-8.4
-8.4
-9.5
-9.5
-9.5
-9.5
-9.5
-9.5
-9.5
-9.5
-9.5
-9.5
-10.6
-10.6
-10.6
-10.6
-10.6
-10.6
-10.6
-10.6
-10.6
-10.6
-10.6
-10.6
-10.6
-10.6
-10.6
-10.6
-10.6
-10.6
-10.6
-11.7
-11.7
-11.7
-11.7
-11.7
-11.7
-11.7
-11.7
-11.7
-11.7
-12.8
-12.8
-12.8
-12.8
-12.8
-12.8
-12.8
-12.8
-12.8
-12.8
-12.8
-12.8
-12.8
-12.8
-12.8
-12.8
-12.8
-12.8
-12.8
-13.9
-13.9
-13.9
-13.9
-13.9
-13.9
-13.9
-13.9
-13.9
-13.9
-15
-15
-15
-15
-15
-15
-15
-15
-15
-15
-15
-15
-15
-15
-15
-15
-15
-15
-15
-23.5
-23.5
-23.5
-23.5
-23.5
-23.5
-23.5
-23.5
-23.5
-23.5
-32
-32
-32
-32
-32
-32
-32
-32
-32
-32
-32
-32
-32
-32
-32
-32
-32
-32
-32
-40.5
-40.5
-40.5
-40.5
-40.5
-40.5
-40.5
-40.5
-40.5
-40.5
-49
-49
-49
-49
-49
-49
-49
-49
-49
-49
-49
-49
-49
-49
-49
-49
-49
-49
-49
-57.5
-57.5
-57.5
-57.5
-57.5
-57.5
-57.5
-57.5
-57.5
-57.5
-66
-66
-66
-66
-66
-66
-66
-66
-66
-66
-66
-66
-66
-66
-66
-66
-66
-66
-66
-74.5
-74.5
-74.5
-74.5
-74.5
-74.5
-74.5
-74.5
-74.5
-74.5
-83
-83
-83
-83
-83
-83
-83
-83
-83
-83
-83
-83
-83
-83
-83
-83
-83
-83
-83
-91.5
-91.5
-91.5
-91.5
-91.5
-91.5
-91.5
-91.5
-91.5
-91.5
-100
-100
-100
-100
-100
-100
-100
-100
-100
-100
-100
-100
-100
-100
-100
-100
-100
-100
-100
