# vtk DataFile Version 2.0
./vtk
ASCII

DATASET UNSTRUCTURED_GRID
POINTS 889 double
0 0 0.0
0.5 0 0.0
1 0 0.0
1.5 0 0.0
2 0 0.0
2.5 0 0.0
3 0 0.0
3.5 0 0.0
4 0 0.0
4.5 0 0.0
5 0 0.0
6.9457 0 0.0
8.8914 0 0.0
12.3514 0 0.0
15.8114 0 0.0
21.9642 0 0.0
28.1171 0 0.0
39.0585 0 0.0
50 0 0.0
0 -0.5 0.0
1 -0.5 0.0
2 -0.5 0.0
3 -0.5 0.0
4 -0.5 0.0
5 -0.5 0.0
8.8914 -0.5 0.0
15.8114 -0.5 0.0
28.1171 -0.5 0.0
50 -0.5 0.0
0 -1 0.0
0.5 -1 0.0
1 -1 0.0
1.5 -1 0.0
2 -1 0.0
2.5 -1 0.0
3 -1 0.0
3.5 -1 0.0
4 -1 0.0
4.5 -1 0.0
5 -1 0.0
6.9457 -1 0.0
8.8914 -1 0.0
12.3514 -1 0.0
15.8114 -1 0.0
21.9642 -1 0.0
28.1171 -1 0.0
39.0585 -1 0.0
50 -1 0.0
0 -1.5 0.0
1 -1.5 0.0
2 -1.5 0.0
3 -1.5 0.0
4 -1.5 0.0
5 -1.5 0.0
8.8914 -1.5 0.0
15.8114 -1.5 0.0
28.1171 -1.5 0.0
50 -1.5 0.0
0 -2 0.0
0.5 -2 0.0
1 -2 0.0
1.5 -2 0.0
2 -2 0.0
2.5 -2 0.0
3 -2 0.0
3.5 -2 0.0
4 -2 0.0
4.5 -2 0.0
5 -2 0.0
6.9457 -2 0.0
8.8914 -2 0.0
12.3514 -2 0.0
15.8114 -2 0.0
21.9642 -2 0.0
28.1171 -2 0.0
39.0585 -2 0.0
50 -2 0.0
0 -2.5 0.0
1 -2.5 0.0
2 -2.5 0.0
3 -2.5 0.0
4 -2.5 0.0
5 -2.5 0.0
8.8914 -2.5 0.0
15.8114 -2.5 0.0
28.1171 -2.5 0.0
50 -2.5 0.0
0 -3 0.0
0.5 -3 0.0
1 -3 0.0
1.5 -3 0.0
2 -3 0.0
2.5 -3 0.0
3 -3 0.0
3.5 -3 0.0
4 -3 0.0
4.5 -3 0.0
5 -3 0.0
6.9457 -3 0.0
8.8914 -3 0.0
12.3514 -3 0.0
15.8114 -3 0.0
21.9642 -3 0.0
28.1171 -3 0.0
39.0585 -3 0.0
50 -3 0.0
0 -3.5 0.0
1 -3.5 0.0
2 -3.5 0.0
3 -3.5 0.0
4 -3.5 0.0
5 -3.5 0.0
8.8914 -3.5 0.0
15.8114 -3.5 0.0
28.1171 -3.5 0.0
50 -3.5 0.0
0 -4 0.0
0.5 -4 0.0
1 -4 0.0
1.5 -4 0.0
2 -4 0.0
2.5 -4 0.0
3 -4 0.0
3.5 -4 0.0
4 -4 0.0
4.5 -4 0.0
5 -4 0.0
6.9457 -4 0.0
8.8914 -4 0.0
12.3514 -4 0.0
15.8114 -4 0.0
21.9642 -4 0.0
28.1171 -4 0.0
39.0585 -4 0.0
50 -4 0.0
0 -4.5 0.0
1 -4.5 0.0
2 -4.5 0.0
3 -4.5 0.0
4 -4.5 0.0
5 -4.5 0.0
8.8914 -4.5 0.0
15.8114 -4.5 0.0
28.1171 -4.5 0.0
50 -4.5 0.0
0 -5 0.0
0.5 -5 0.0
1 -5 0.0
1.5 -5 0.0
2 -5 0.0
2.5 -5 0.0
3 -5 0.0
3.5 -5 0.0
4 -5 0.0
4.5 -5 0.0
5 -5 0.0
6.9457 -5 0.0
8.8914 -5 0.0
12.3514 -5 0.0
15.8114 -5 0.0
21.9642 -5 0.0
28.1171 -5 0.0
39.0585 -5 0.0
50 -5 0.0
0 -5.5 0.0
1 -5.5 0.0
2 -5.5 0.0
3 -5.5 0.0
4 -5.5 0.0
5 -5.5 0.0
8.8914 -5.5 0.0
15.8114 -5.5 0.0
28.1171 -5.5 0.0
50 -5.5 0.0
0 -6 0.0
0.5 -6 0.0
1 -6 0.0
1.5 -6 0.0
2 -6 0.0
2.5 -6 0.0
3 -6 0.0
3.5 -6 0.0
4 -6 0.0
4.5 -6 0.0
5 -6 0.0
6.9457 -6 0.0
8.8914 -6 0.0
12.3514 -6 0.0
15.8114 -6 0.0
21.9642 -6 0.0
28.1171 -6 0.0
39.0585 -6 0.0
50 -6 0.0
0 -6.5 0.0
1 -6.5 0.0
2 -6.5 0.0
3 -6.5 0.0
4 -6.5 0.0
5 -6.5 0.0
8.8914 -6.5 0.0
15.8114 -6.5 0.0
28.1171 -6.5 0.0
50 -6.5 0.0
0 -7 0.0
0.5 -7 0.0
1 -7 0.0
1.5 -7 0.0
2 -7 0.0
2.5 -7 0.0
3 -7 0.0
3.5 -7 0.0
4 -7 0.0
4.5 -7 0.0
5 -7 0.0
6.9457 -7 0.0
8.8914 -7 0.0
12.3514 -7 0.0
15.8114 -7 0.0
21.9642 -7 0.0
28.1171 -7 0.0
39.0585 -7 0.0
50 -7 0.0
0 -7.5 0.0
1 -7.5 0.0
2 -7.5 0.0
3 -7.5 0.0
4 -7.5 0.0
5 -7.5 0.0
8.8914 -7.5 0.0
15.8114 -7.5 0.0
28.1171 -7.5 0.0
50 -7.5 0.0
0 -8 0.0
0.5 -8 0.0
1 -8 0.0
1.5 -8 0.0
2 -8 0.0
2.5 -8 0.0
3 -8 0.0
3.5 -8 0.0
4 -8 0.0
4.5 -8 0.0
5 -8 0.0
6.9457 -8 0.0
8.8914 -8 0.0
12.3514 -8 0.0
15.8114 -8 0.0
21.9642 -8 0.0
28.1171 -8 0.0
39.0585 -8 0.0
50 -8 0.0
0 -8.5 0.0
1 -8.5 0.0
2 -8.5 0.0
3 -8.5 0.0
4 -8.5 0.0
5 -8.5 0.0
8.8914 -8.5 0.0
15.8114 -8.5 0.0
28.1171 -8.5 0.0
50 -8.5 0.0
0 -9 0.0
0.5 -9 0.0
1 -9 0.0
1.5 -9 0.0
2 -9 0.0
2.5 -9 0.0
3 -9 0.0
3.5 -9 0.0
4 -9 0.0
4.5 -9 0.0
5 -9 0.0
6.9457 -9 0.0
8.8914 -9 0.0
12.3514 -9 0.0
15.8114 -9 0.0
21.9642 -9 0.0
28.1171 -9 0.0
39.0585 -9 0.0
50 -9 0.0
0 -9.5 0.0
1 -9.5 0.0
2 -9.5 0.0
3 -9.5 0.0
4 -9.5 0.0
5 -9.5 0.0
8.8914 -9.5 0.0
15.8114 -9.5 0.0
28.1171 -9.5 0.0
50 -9.5 0.0
0 -10 0.0
0.5 -10 0.0
1 -10 0.0
1.5 -10 0.0
2 -10 0.0
2.5 -10 0.0
3 -10 0.0
3.5 -10 0.0
4 -10 0.0
4.5 -10 0.0
5 -10 0.0
6.9457 -10 0.0
8.8914 -10 0.0
12.3514 -10 0.0
15.8114 -10 0.0
21.9642 -10 0.0
28.1171 -10 0.0
39.0585 -10 0.0
50 -10 0.0
0 -10.5 0.0
1 -10.5 0.0
2 -10.5 0.0
3 -10.5 0.0
4 -10.5 0.0
5 -10.5 0.0
8.8914 -10.5 0.0
15.8114 -10.5 0.0
28.1171 -10.5 0.0
50 -10.5 0.0
0 -11 0.0
0.5 -11 0.0
1 -11 0.0
1.5 -11 0.0
2 -11 0.0
2.5 -11 0.0
3 -11 0.0
3.5 -11 0.0
4 -11 0.0
4.5 -11 0.0
5 -11 0.0
6.9457 -11 0.0
8.8914 -11 0.0
12.3514 -11 0.0
15.8114 -11 0.0
21.9642 -11 0.0
28.1171 -11 0.0
39.0585 -11 0.0
50 -11 0.0
0 -11.5 0.0
1 -11.5 0.0
2 -11.5 0.0
3 -11.5 0.0
4 -11.5 0.0
5 -11.5 0.0
8.8914 -11.5 0.0
15.8114 -11.5 0.0
28.1171 -11.5 0.0
50 -11.5 0.0
0 -12 0.0
0.5 -12 0.0
1 -12 0.0
1.5 -12 0.0
2 -12 0.0
2.5 -12 0.0
3 -12 0.0
3.5 -12 0.0
4 -12 0.0
4.5 -12 0.0
5 -12 0.0
6.9457 -12 0.0
8.8914 -12 0.0
12.3514 -12 0.0
15.8114 -12 0.0
21.9642 -12 0.0
28.1171 -12 0.0
39.0585 -12 0.0
50 -12 0.0
0 -12.5 0.0
1 -12.5 0.0
2 -12.5 0.0
3 -12.5 0.0
4 -12.5 0.0
5 -12.5 0.0
8.8914 -12.5 0.0
15.8114 -12.5 0.0
28.1171 -12.5 0.0
50 -12.5 0.0
0 -13 0.0
0.5 -13 0.0
1 -13 0.0
1.5 -13 0.0
2 -13 0.0
2.5 -13 0.0
3 -13 0.0
3.5 -13 0.0
4 -13 0.0
4.5 -13 0.0
5 -13 0.0
6.9457 -13 0.0
8.8914 -13 0.0
12.3514 -13 0.0
15.8114 -13 0.0
21.9642 -13 0.0
28.1171 -13 0.0
39.0585 -13 0.0
50 -13 0.0
0 -13.5 0.0
1 -13.5 0.0
2 -13.5 0.0
3 -13.5 0.0
4 -13.5 0.0
5 -13.5 0.0
8.8914 -13.5 0.0
15.8114 -13.5 0.0
28.1171 -13.5 0.0
50 -13.5 0.0
0 -14 0.0
0.5 -14 0.0
1 -14 0.0
1.5 -14 0.0
2 -14 0.0
2.5 -14 0.0
3 -14 0.0
3.5 -14 0.0
4 -14 0.0
4.5 -14 0.0
5 -14 0.0
6.9457 -14 0.0
8.8914 -14 0.0
12.3514 -14 0.0
15.8114 -14 0.0
21.9642 -14 0.0
28.1171 -14 0.0
39.0585 -14 0.0
50 -14 0.0
0 -14.5 0.0
1 -14.5 0.0
2 -14.5 0.0
3 -14.5 0.0
4 -14.5 0.0
5 -14.5 0.0
8.8914 -14.5 0.0
15.8114 -14.5 0.0
28.1171 -14.5 0.0
50 -14.5 0.0
0 -15 0.0
0.5 -15 0.0
1 -15 0.0
1.5 -15 0.0
2 -15 0.0
2.5 -15 0.0
3 -15 0.0
3.5 -15 0.0
4 -15 0.0
4.5 -15 0.0
5 -15 0.0
6.9457 -15 0.0
8.8914 -15 0.0
12.3514 -15 0.0
15.8114 -15 0.0
21.9642 -15 0.0
28.1171 -15 0.0
39.0585 -15 0.0
50 -15 0.0
0 -16.5 0.0
1 -16.5 0.0
2 -16.5 0.0
3 -16.5 0.0
4 -16.5 0.0
5 -16.5 0.0
8.8914 -16.5 0.0
15.8114 -16.5 0.0
28.1171 -16.5 0.0
50 -16.5 0.0
0 -18 0.0
0.5 -18 0.0
1 -18 0.0
1.5 -18 0.0
2 -18 0.0
2.5 -18 0.0
3 -18 0.0
3.5 -18 0.0
4 -18 0.0
4.5 -18 0.0
5 -18 0.0
6.9457 -18 0.0
8.8914 -18 0.0
12.3514 -18 0.0
15.8114 -18 0.0
21.9642 -18 0.0
28.1171 -18 0.0
39.0585 -18 0.0
50 -18 0.0
0 -19.5 0.0
1 -19.5 0.0
2 -19.5 0.0
3 -19.5 0.0
4 -19.5 0.0
5 -19.5 0.0
8.8914 -19.5 0.0
15.8114 -19.5 0.0
28.1171 -19.5 0.0
50 -19.5 0.0
0 -21 0.0
0.5 -21 0.0
1 -21 0.0
1.5 -21 0.0
2 -21 0.0
2.5 -21 0.0
3 -21 0.0
3.5 -21 0.0
4 -21 0.0
4.5 -21 0.0
5 -21 0.0
6.9457 -21 0.0
8.8914 -21 0.0
12.3514 -21 0.0
15.8114 -21 0.0
21.9642 -21 0.0
28.1171 -21 0.0
39.0585 -21 0.0
50 -21 0.0
0 -22.5 0.0
1 -22.5 0.0
2 -22.5 0.0
3 -22.5 0.0
4 -22.5 0.0
5 -22.5 0.0
8.8914 -22.5 0.0
15.8114 -22.5 0.0
28.1171 -22.5 0.0
50 -22.5 0.0
0 -24 0.0
0.5 -24 0.0
1 -24 0.0
1.5 -24 0.0
2 -24 0.0
2.5 -24 0.0
3 -24 0.0
3.5 -24 0.0
4 -24 0.0
4.5 -24 0.0
5 -24 0.0
6.9457 -24 0.0
8.8914 -24 0.0
12.3514 -24 0.0
15.8114 -24 0.0
21.9642 -24 0.0
28.1171 -24 0.0
39.0585 -24 0.0
50 -24 0.0
0 -25.5 0.0
1 -25.5 0.0
2 -25.5 0.0
3 -25.5 0.0
4 -25.5 0.0
5 -25.5 0.0
8.8914 -25.5 0.0
15.8114 -25.5 0.0
28.1171 -25.5 0.0
50 -25.5 0.0
0 -27 0.0
0.5 -27 0.0
1 -27 0.0
1.5 -27 0.0
2 -27 0.0
2.5 -27 0.0
3 -27 0.0
3.5 -27 0.0
4 -27 0.0
4.5 -27 0.0
5 -27 0.0
6.9457 -27 0.0
8.8914 -27 0.0
12.3514 -27 0.0
15.8114 -27 0.0
21.9642 -27 0.0
28.1171 -27 0.0
39.0585 -27 0.0
50 -27 0.0
0 -28.5 0.0
1 -28.5 0.0
2 -28.5 0.0
3 -28.5 0.0
4 -28.5 0.0
5 -28.5 0.0
8.8914 -28.5 0.0
15.8114 -28.5 0.0
28.1171 -28.5 0.0
50 -28.5 0.0
0 -30 0.0
0.5 -30 0.0
1 -30 0.0
1.5 -30 0.0
2 -30 0.0
2.5 -30 0.0
3 -30 0.0
3.5 -30 0.0
4 -30 0.0
4.5 -30 0.0
5 -30 0.0
6.9457 -30 0.0
8.8914 -30 0.0
12.3514 -30 0.0
15.8114 -30 0.0
21.9642 -30 0.0
28.1171 -30 0.0
39.0585 -30 0.0
50 -30 0.0
0 -31.5 0.0
1 -31.5 0.0
2 -31.5 0.0
3 -31.5 0.0
4 -31.5 0.0
5 -31.5 0.0
8.8914 -31.5 0.0
15.8114 -31.5 0.0
28.1171 -31.5 0.0
50 -31.5 0.0
0 -33 0.0
0.5 -33 0.0
1 -33 0.0
1.5 -33 0.0
2 -33 0.0
2.5 -33 0.0
3 -33 0.0
3.5 -33 0.0
4 -33 0.0
4.5 -33 0.0
5 -33 0.0
6.9457 -33 0.0
8.8914 -33 0.0
12.3514 -33 0.0
15.8114 -33 0.0
21.9642 -33 0.0
28.1171 -33 0.0
39.0585 -33 0.0
50 -33 0.0
0 -34.5 0.0
1 -34.5 0.0
2 -34.5 0.0
3 -34.5 0.0
4 -34.5 0.0
5 -34.5 0.0
8.8914 -34.5 0.0
15.8114 -34.5 0.0
28.1171 -34.5 0.0
50 -34.5 0.0
0 -36 0.0
0.5 -36 0.0
1 -36 0.0
1.5 -36 0.0
2 -36 0.0
2.5 -36 0.0
3 -36 0.0
3.5 -36 0.0
4 -36 0.0
4.5 -36 0.0
5 -36 0.0
6.9457 -36 0.0
8.8914 -36 0.0
12.3514 -36 0.0
15.8114 -36 0.0
21.9642 -36 0.0
28.1171 -36 0.0
39.0585 -36 0.0
50 -36 0.0
0 -37.5 0.0
1 -37.5 0.0
2 -37.5 0.0
3 -37.5 0.0
4 -37.5 0.0
5 -37.5 0.0
8.8914 -37.5 0.0
15.8114 -37.5 0.0
28.1171 -37.5 0.0
50 -37.5 0.0
0 -39 0.0
0.5 -39 0.0
1 -39 0.0
1.5 -39 0.0
2 -39 0.0
2.5 -39 0.0
3 -39 0.0
3.5 -39 0.0
4 -39 0.0
4.5 -39 0.0
5 -39 0.0
6.9457 -39 0.0
8.8914 -39 0.0
12.3514 -39 0.0
15.8114 -39 0.0
21.9642 -39 0.0
28.1171 -39 0.0
39.0585 -39 0.0
50 -39 0.0
0 -40.5 0.0
1 -40.5 0.0
2 -40.5 0.0
3 -40.5 0.0
4 -40.5 0.0
5 -40.5 0.0
8.8914 -40.5 0.0
15.8114 -40.5 0.0
28.1171 -40.5 0.0
50 -40.5 0.0
0 -42 0.0
0.5 -42 0.0
1 -42 0.0
1.5 -42 0.0
2 -42 0.0
2.5 -42 0.0
3 -42 0.0
3.5 -42 0.0
4 -42 0.0
4.5 -42 0.0
5 -42 0.0
6.9457 -42 0.0
8.8914 -42 0.0
12.3514 -42 0.0
15.8114 -42 0.0
21.9642 -42 0.0
28.1171 -42 0.0
39.0585 -42 0.0
50 -42 0.0
0 -43.5 0.0
1 -43.5 0.0
2 -43.5 0.0
3 -43.5 0.0
4 -43.5 0.0
5 -43.5 0.0
8.8914 -43.5 0.0
15.8114 -43.5 0.0
28.1171 -43.5 0.0
50 -43.5 0.0
0 -45 0.0
0.5 -45 0.0
1 -45 0.0
1.5 -45 0.0
2 -45 0.0
2.5 -45 0.0
3 -45 0.0
3.5 -45 0.0
4 -45 0.0
4.5 -45 0.0
5 -45 0.0
6.9457 -45 0.0
8.8914 -45 0.0
12.3514 -45 0.0
15.8114 -45 0.0
21.9642 -45 0.0
28.1171 -45 0.0
39.0585 -45 0.0
50 -45 0.0
0 -50.5 0.0
1 -50.5 0.0
2 -50.5 0.0
3 -50.5 0.0
4 -50.5 0.0
5 -50.5 0.0
8.8914 -50.5 0.0
15.8114 -50.5 0.0
28.1171 -50.5 0.0
50 -50.5 0.0
0 -56 0.0
0.5 -56 0.0
1 -56 0.0
1.5 -56 0.0
2 -56 0.0
2.5 -56 0.0
3 -56 0.0
3.5 -56 0.0
4 -56 0.0
4.5 -56 0.0
5 -56 0.0
6.9457 -56 0.0
8.8914 -56 0.0
12.3514 -56 0.0
15.8114 -56 0.0
21.9642 -56 0.0
28.1171 -56 0.0
39.0585 -56 0.0
50 -56 0.0
0 -61.5 0.0
1 -61.5 0.0
2 -61.5 0.0
3 -61.5 0.0
4 -61.5 0.0
5 -61.5 0.0
8.8914 -61.5 0.0
15.8114 -61.5 0.0
28.1171 -61.5 0.0
50 -61.5 0.0
0 -67 0.0
0.5 -67 0.0
1 -67 0.0
1.5 -67 0.0
2 -67 0.0
2.5 -67 0.0
3 -67 0.0
3.5 -67 0.0
4 -67 0.0
4.5 -67 0.0
5 -67 0.0
6.9457 -67 0.0
8.8914 -67 0.0
12.3514 -67 0.0
15.8114 -67 0.0
21.9642 -67 0.0
28.1171 -67 0.0
39.0585 -67 0.0
50 -67 0.0
0 -72.5 0.0
1 -72.5 0.0
2 -72.5 0.0
3 -72.5 0.0
4 -72.5 0.0
5 -72.5 0.0
8.8914 -72.5 0.0
15.8114 -72.5 0.0
28.1171 -72.5 0.0
50 -72.5 0.0
0 -78 0.0
0.5 -78 0.0
1 -78 0.0
1.5 -78 0.0
2 -78 0.0
2.5 -78 0.0
3 -78 0.0
3.5 -78 0.0
4 -78 0.0
4.5 -78 0.0
5 -78 0.0
6.9457 -78 0.0
8.8914 -78 0.0
12.3514 -78 0.0
15.8114 -78 0.0
21.9642 -78 0.0
28.1171 -78 0.0
39.0585 -78 0.0
50 -78 0.0
0 -83.5 0.0
1 -83.5 0.0
2 -83.5 0.0
3 -83.5 0.0
4 -83.5 0.0
5 -83.5 0.0
8.8914 -83.5 0.0
15.8114 -83.5 0.0
28.1171 -83.5 0.0
50 -83.5 0.0
0 -89 0.0
0.5 -89 0.0
1 -89 0.0
1.5 -89 0.0
2 -89 0.0
2.5 -89 0.0
3 -89 0.0
3.5 -89 0.0
4 -89 0.0
4.5 -89 0.0
5 -89 0.0
6.9457 -89 0.0
8.8914 -89 0.0
12.3514 -89 0.0
15.8114 -89 0.0
21.9642 -89 0.0
28.1171 -89 0.0
39.0585 -89 0.0
50 -89 0.0
0 -94.5 0.0
1 -94.5 0.0
2 -94.5 0.0
3 -94.5 0.0
4 -94.5 0.0
5 -94.5 0.0
8.8914 -94.5 0.0
15.8114 -94.5 0.0
28.1171 -94.5 0.0
50 -94.5 0.0
0 -100 0.0
0.5 -100 0.0
1 -100 0.0
1.5 -100 0.0
2 -100 0.0
2.5 -100 0.0
3 -100 0.0
3.5 -100 0.0
4 -100 0.0
4.5 -100 0.0
5 -100 0.0
6.9457 -100 0.0
8.8914 -100 0.0
12.3514 -100 0.0
15.8114 -100 0.0
21.9642 -100 0.0
28.1171 -100 0.0
39.0585 -100 0.0
50 -100 0.0

CELLS 270 2430
8 29 31  2  0 30 20  1 19
8 31 33  4  2 32 21  3 20
8 33 35  6  4 34 22  5 21
8 35 37  8  6 36 23  7 22
8 37 39 10  8 38 24  9 23
8 39 41 12 10 40 25 11 24
8 41 43 14 12 42 26 13 25
8 43 45 16 14 44 27 15 26
8 45 47 18 16 46 28 17 27
8 58 60 31 29 59 49 30 48
8 60 62 33 31 61 50 32 49
8 62 64 35 33 63 51 34 50
8 64 66 37 35 65 52 36 51
8 66 68 39 37 67 53 38 52
8 68 70 41 39 69 54 40 53
8 70 72 43 41 71 55 42 54
8 72 74 45 43 73 56 44 55
8 74 76 47 45 75 57 46 56
8 87 89 60 58 88 78 59 77
8 89 91 62 60 90 79 61 78
8 91 93 64 62 92 80 63 79
8 93 95 66 64 94 81 65 80
8 95 97 68 66 96 82 67 81
8 97 99 70 68 98 83 69 82
8  99 101  72  70 100  84  71  83
8 101 103  74  72 102  85  73  84
8 103 105  76  74 104  86  75  85
8 116 118  89  87 117 107  88 106
8 118 120  91  89 119 108  90 107
8 120 122  93  91 121 109  92 108
8 122 124  95  93 123 110  94 109
8 124 126  97  95 125 111  96 110
8 126 128  99  97 127 112  98 111
8 128 130 101  99 129 113 100 112
8 130 132 103 101 131 114 102 113
8 132 134 105 103 133 115 104 114
8 145 147 118 116 146 136 117 135
8 147 149 120 118 148 137 119 136
8 149 151 122 120 150 138 121 137
8 151 153 124 122 152 139 123 138
8 153 155 126 124 154 140 125 139
8 155 157 128 126 156 141 127 140
8 157 159 130 128 158 142 129 141
8 159 161 132 130 160 143 131 142
8 161 163 134 132 162 144 133 143
8 174 176 147 145 175 165 146 164
8 176 178 149 147 177 166 148 165
8 178 180 151 149 179 167 150 166
8 180 182 153 151 181 168 152 167
8 182 184 155 153 183 169 154 168
8 184 186 157 155 185 170 156 169
8 186 188 159 157 187 171 158 170
8 188 190 161 159 189 172 160 171
8 190 192 163 161 191 173 162 172
8 203 205 176 174 204 194 175 193
8 205 207 178 176 206 195 177 194
8 207 209 180 178 208 196 179 195
8 209 211 182 180 210 197 181 196
8 211 213 184 182 212 198 183 197
8 213 215 186 184 214 199 185 198
8 215 217 188 186 216 200 187 199
8 217 219 190 188 218 201 189 200
8 219 221 192 190 220 202 191 201
8 232 234 205 203 233 223 204 222
8 234 236 207 205 235 224 206 223
8 236 238 209 207 237 225 208 224
8 238 240 211 209 239 226 210 225
8 240 242 213 211 241 227 212 226
8 242 244 215 213 243 228 214 227
8 244 246 217 215 245 229 216 228
8 246 248 219 217 247 230 218 229
8 248 250 221 219 249 231 220 230
8 261 263 234 232 262 252 233 251
8 263 265 236 234 264 253 235 252
8 265 267 238 236 266 254 237 253
8 267 269 240 238 268 255 239 254
8 269 271 242 240 270 256 241 255
8 271 273 244 242 272 257 243 256
8 273 275 246 244 274 258 245 257
8 275 277 248 246 276 259 247 258
8 277 279 250 248 278 260 249 259
8 290 292 263 261 291 281 262 280
8 292 294 265 263 293 282 264 281
8 294 296 267 265 295 283 266 282
8 296 298 269 267 297 284 268 283
8 298 300 271 269 299 285 270 284
8 300 302 273 271 301 286 272 285
8 302 304 275 273 303 287 274 286
8 304 306 277 275 305 288 276 287
8 306 308 279 277 307 289 278 288
8 319 321 292 290 320 310 291 309
8 321 323 294 292 322 311 293 310
8 323 325 296 294 324 312 295 311
8 325 327 298 296 326 313 297 312
8 327 329 300 298 328 314 299 313
8 329 331 302 300 330 315 301 314
8 331 333 304 302 332 316 303 315
8 333 335 306 304 334 317 305 316
8 335 337 308 306 336 318 307 317
8 348 350 321 319 349 339 320 338
8 350 352 323 321 351 340 322 339
8 352 354 325 323 353 341 324 340
8 354 356 327 325 355 342 326 341
8 356 358 329 327 357 343 328 342
8 358 360 331 329 359 344 330 343
8 360 362 333 331 361 345 332 344
8 362 364 335 333 363 346 334 345
8 364 366 337 335 365 347 336 346
8 377 379 350 348 378 368 349 367
8 379 381 352 350 380 369 351 368
8 381 383 354 352 382 370 353 369
8 383 385 356 354 384 371 355 370
8 385 387 358 356 386 372 357 371
8 387 389 360 358 388 373 359 372
8 389 391 362 360 390 374 361 373
8 391 393 364 362 392 375 363 374
8 393 395 366 364 394 376 365 375
8 406 408 379 377 407 397 378 396
8 408 410 381 379 409 398 380 397
8 410 412 383 381 411 399 382 398
8 412 414 385 383 413 400 384 399
8 414 416 387 385 415 401 386 400
8 416 418 389 387 417 402 388 401
8 418 420 391 389 419 403 390 402
8 420 422 393 391 421 404 392 403
8 422 424 395 393 423 405 394 404
8 435 437 408 406 436 426 407 425
8 437 439 410 408 438 427 409 426
8 439 441 412 410 440 428 411 427
8 441 443 414 412 442 429 413 428
8 443 445 416 414 444 430 415 429
8 445 447 418 416 446 431 417 430
8 447 449 420 418 448 432 419 431
8 449 451 422 420 450 433 421 432
8 451 453 424 422 452 434 423 433
8 464 466 437 435 465 455 436 454
8 466 468 439 437 467 456 438 455
8 468 470 441 439 469 457 440 456
8 470 472 443 441 471 458 442 457
8 472 474 445 443 473 459 444 458
8 474 476 447 445 475 460 446 459
8 476 478 449 447 477 461 448 460
8 478 480 451 449 479 462 450 461
8 480 482 453 451 481 463 452 462
8 493 495 466 464 494 484 465 483
8 495 497 468 466 496 485 467 484
8 497 499 470 468 498 486 469 485
8 499 501 472 470 500 487 471 486
8 501 503 474 472 502 488 473 487
8 503 505 476 474 504 489 475 488
8 505 507 478 476 506 490 477 489
8 507 509 480 478 508 491 479 490
8 509 511 482 480 510 492 481 491
8 522 524 495 493 523 513 494 512
8 524 526 497 495 525 514 496 513
8 526 528 499 497 527 515 498 514
8 528 530 501 499 529 516 500 515
8 530 532 503 501 531 517 502 516
8 532 534 505 503 533 518 504 517
8 534 536 507 505 535 519 506 518
8 536 538 509 507 537 520 508 519
8 538 540 511 509 539 521 510 520
8 551 553 524 522 552 542 523 541
8 553 555 526 524 554 543 525 542
8 555 557 528 526 556 544 527 543
8 557 559 530 528 558 545 529 544
8 559 561 532 530 560 546 531 545
8 561 563 534 532 562 547 533 546
8 563 565 536 534 564 548 535 547
8 565 567 538 536 566 549 537 548
8 567 569 540 538 568 550 539 549
8 580 582 553 551 581 571 552 570
8 582 584 555 553 583 572 554 571
8 584 586 557 555 585 573 556 572
8 586 588 559 557 587 574 558 573
8 588 590 561 559 589 575 560 574
8 590 592 563 561 591 576 562 575
8 592 594 565 563 593 577 564 576
8 594 596 567 565 595 578 566 577
8 596 598 569 567 597 579 568 578
8 609 611 582 580 610 600 581 599
8 611 613 584 582 612 601 583 600
8 613 615 586 584 614 602 585 601
8 615 617 588 586 616 603 587 602
8 617 619 590 588 618 604 589 603
8 619 621 592 590 620 605 591 604
8 621 623 594 592 622 606 593 605
8 623 625 596 594 624 607 595 606
8 625 627 598 596 626 608 597 607
8 638 640 611 609 639 629 610 628
8 640 642 613 611 641 630 612 629
8 642 644 615 613 643 631 614 630
8 644 646 617 615 645 632 616 631
8 646 648 619 617 647 633 618 632
8 648 650 621 619 649 634 620 633
8 650 652 623 621 651 635 622 634
8 652 654 625 623 653 636 624 635
8 654 656 627 625 655 637 626 636
8 667 669 640 638 668 658 639 657
8 669 671 642 640 670 659 641 658
8 671 673 644 642 672 660 643 659
8 673 675 646 644 674 661 645 660
8 675 677 648 646 676 662 647 661
8 677 679 650 648 678 663 649 662
8 679 681 652 650 680 664 651 663
8 681 683 654 652 682 665 653 664
8 683 685 656 654 684 666 655 665
8 696 698 669 667 697 687 668 686
8 698 700 671 669 699 688 670 687
8 700 702 673 671 701 689 672 688
8 702 704 675 673 703 690 674 689
8 704 706 677 675 705 691 676 690
8 706 708 679 677 707 692 678 691
8 708 710 681 679 709 693 680 692
8 710 712 683 681 711 694 682 693
8 712 714 685 683 713 695 684 694
8 725 727 698 696 726 716 697 715
8 727 729 700 698 728 717 699 716
8 729 731 702 700 730 718 701 717
8 731 733 704 702 732 719 703 718
8 733 735 706 704 734 720 705 719
8 735 737 708 706 736 721 707 720
8 737 739 710 708 738 722 709 721
8 739 741 712 710 740 723 711 722
8 741 743 714 712 742 724 713 723
8 754 756 727 725 755 745 726 744
8 756 758 729 727 757 746 728 745
8 758 760 731 729 759 747 730 746
8 760 762 733 731 761 748 732 747
8 762 764 735 733 763 749 734 748
8 764 766 737 735 765 750 736 749
8 766 768 739 737 767 751 738 750
8 768 770 741 739 769 752 740 751
8 770 772 743 741 771 753 742 752
8 783 785 756 754 784 774 755 773
8 785 787 758 756 786 775 757 774
8 787 789 760 758 788 776 759 775
8 789 791 762 760 790 777 761 776
8 791 793 764 762 792 778 763 777
8 793 795 766 764 794 779 765 778
8 795 797 768 766 796 780 767 779
8 797 799 770 768 798 781 769 780
8 799 801 772 770 800 782 771 781
8 812 814 785 783 813 803 784 802
8 814 816 787 785 815 804 786 803
8 816 818 789 787 817 805 788 804
8 818 820 791 789 819 806 790 805
8 820 822 793 791 821 807 792 806
8 822 824 795 793 823 808 794 807
8 824 826 797 795 825 809 796 808
8 826 828 799 797 827 810 798 809
8 828 830 801 799 829 811 800 810
8 841 843 814 812 842 832 813 831
8 843 845 816 814 844 833 815 832
8 845 847 818 816 846 834 817 833
8 847 849 820 818 848 835 819 834
8 849 851 822 820 850 836 821 835
8 851 853 824 822 852 837 823 836
8 853 855 826 824 854 838 825 837
8 855 857 828 826 856 839 827 838
8 857 859 830 828 858 840 829 839
8 870 872 843 841 871 861 842 860
8 872 874 845 843 873 862 844 861
8 874 876 847 845 875 863 846 862
8 876 878 849 847 877 864 848 863
8 878 880 851 849 879 865 850 864
8 880 882 853 851 881 866 852 865
8 882 884 855 853 883 867 854 866
8 884 886 857 855 885 868 856 867
8 886 888 859 857 887 869 858 868

CELL_TYPES 270
23
23
23
23
23
23
23
23
23
23
23
23
23
23
23
23
23
23
23
23
23
23
23
23
23
23
23
23
23
23
23
23
23
23
23
23
23
23
23
23
23
23
23
23
23
23
23
23
23
23
23
23
23
23
23
23
23
23
23
23
23
23
23
23
23
23
23
23
23
23
23
23
23
23
23
23
23
23
23
23
23
23
23
23
23
23
23
23
23
23
23
23
23
23
23
23
23
23
23
23
23
23
23
23
23
23
23
23
23
23
23
23
23
23
23
23
23
23
23
23
23
23
23
23
23
23
23
23
23
23
23
23
23
23
23
23
23
23
23
23
23
23
23
23
23
23
23
23
23
23
23
23
23
23
23
23
23
23
23
23
23
23
23
23
23
23
23
23
23
23
23
23
23
23
23
23
23
23
23
23
23
23
23
23
23
23
23
23
23
23
23
23
23
23
23
23
23
23
23
23
23
23
23
23
23
23
23
23
23
23
23
23
23
23
23
23
23
23
23
23
23
23
23
23
23
23
23
23
23
23
23
23
23
23
23
23
23
23
23
23
23
23
23
23
23
23
23
23
23
23
23
23
23
23
23
23
23
23
23
23
23
23
23
23
23
23
23
23
23
23

POINT_DATA 889
SCALARS Displacement_R double 1
LOOKUP_TABLE default
0
-2.58091e-05
-5.13161e-05
-7.62311e-05
-0.00010024
-0.000123264
-0.000144949
-0.000165542
-0.000183843
-0.000198414
-0.000209438
-0.00022112
-0.000212053
-0.000187995
-0.000160458
-0.000125013
-9.07412e-05
-4.3998e-05
0
0
-3.58971e-05
-6.97691e-05
-9.94297e-05
-0.000121807
-0.000137512
-0.000162254
-0.000130148
-7.67166e-05
0
0
-1.12146e-05
-2.21983e-05
-3.27909e-05
-4.2711e-05
-5.17446e-05
-5.95348e-05
-6.61566e-05
-7.13287e-05
-7.50289e-05
-8.09749e-05
-0.000105026
-0.000113869
-0.000109631
-0.000100255
-8.24709e-05
-6.27872e-05
-3.0834e-05
0
0
-9.9214e-06
-1.86555e-05
-2.51196e-05
-2.91143e-05
-3.5064e-05
-6.77234e-05
-7.03691e-05
-4.87936e-05
0
0
6.49278e-07
1.36618e-06
2.16406e-06
3.13886e-06
4.34138e-06
5.67108e-06
6.93908e-06
7.66087e-06
7.30202e-06
5.66337e-06
-8.93158e-06
-2.2906e-05
-3.51483e-05
-4.07723e-05
-4.11219e-05
-3.4896e-05
-1.79491e-05
0
0
1.21203e-05
2.38578e-05
3.44814e-05
4.23469e-05
4.48421e-05
2.1064e-05
-1.15282e-05
-2.10933e-05
0
0
1.15742e-05
2.29802e-05
3.40856e-05
4.46835e-05
5.46176e-05
6.3595e-05
7.13367e-05
7.7535e-05
8.19605e-05
8.46414e-05
8.0232e-05
6.47969e-05
3.74928e-05
1.74416e-05
-5.19504e-07
-7.37108e-06
-5.23238e-06
0
0
3.45774e-05
6.70229e-05
9.49861e-05
0.000115971
0.000127821
0.000109172
4.59487e-05
6.12227e-06
0
0
2.39703e-05
4.75607e-05
7.04741e-05
9.22636e-05
0.000112535
0.00013085
0.000146777
0.00016009
0.000170373
0.000177467
0.000176797
0.000154422
0.000110007
7.41805e-05
3.97136e-05
1.95527e-05
7.41725e-06
0
0
4.67696e-05
9.06028e-05
0.000128433
0.000157333
0.000175052
0.000161634
8.47206e-05
2.74132e-05
0
0
2.29172e-05
4.54449e-05
6.72794e-05
8.79918e-05
0.000107296
0.000124808
0.000140177
0.000153091
0.000163561
0.000171503
0.000180365
0.000166689
0.000128391
9.48086e-05
5.72207e-05
3.52308e-05
1.50251e-05
0
0
4.37917e-05
8.48283e-05
0.000120446
0.000148396
0.000167399
0.000170018
0.00010379
4.27769e-05
0
0
2.11664e-05
4.19834e-05
6.21729e-05
8.13927e-05
9.93702e-05
0.000115814
0.000130478
0.000143255
0.000154004
0.000162771
0.000178026
0.000172001
0.000142782
0.000112403
7.46107e-05
5.03215e-05
2.26236e-05
0
0
4.01246e-05
7.78898e-05
0.000111109
0.000138096
0.000157935
0.000173273
0.000120476
5.77928e-05
0
0
1.92959e-05
3.83018e-05
5.67817e-05
7.44568e-05
9.11078e-05
0.000106524
0.000120525
0.000132999
0.000143866
0.000153104
0.000173015
0.000173822
0.000154177
0.000128312
9.18227e-05
6.52973e-05
3.02226e-05
0
0
3.65704e-05
7.12149e-05
0.000102191
0.000128176
0.000148392
0.000174163
0.000135868
7.28135e-05
0
0
1.76021e-05
3.49701e-05
5.19138e-05
6.8215e-05
8.36928e-05
9.81856e-05
0.000111545
0.000123682
0.000134525
0.000144034
0.000167557
0.000174284
0.000163985
0.000143353
0.000109089
8.03942e-05
3.78709e-05
0
0
3.35313e-05
6.55245e-05
9.45917e-05
0.000119664
0.000140059
0.00017458
0.000150803
8.80516e-05
0
0
1.62281e-05
3.22705e-05
4.79752e-05
6.31684e-05
7.77058e-05
9.14566e-05
0.000104299
0.000116156
0.000126964
0.000136677
0.000163206
0.000175077
0.000173558
0.000158371
0.000126723
9.58037e-05
4.56246e-05
0
0
3.12101e-05
6.11956e-05
8.88437e-05
0.000113276
0.000133892
0.000176061
0.000166151
0.000103691
0
0
1.52546e-05
3.0361e-05
4.51974e-05
5.96247e-05
7.35257e-05
8.67934e-05
9.93264e-05
0.000111057
0.000121926
0.00013189
0.000161184
0.000177621
0.000184187
0.000174255
0.000145085
0.000111703
5.35414e-05
0
0
2.97437e-05
5.8501e-05
8.53665e-05
0.000109605
0.000130682
0.000179952
0.000182822
0.000119906
0
0
1.4746e-05
2.93715e-05
4.37772e-05
5.7849e-05
7.14895e-05
8.46096e-05
9.71221e-05
0.000108967
0.00012009
0.000130447
0.000162598
0.000183221
0.00019714
0.000191929
0.000164564
0.000128262
6.16786e-05
0
0
2.92694e-05
5.77202e-05
8.45938e-05
0.000109255
0.000131216
0.000187555
0.00020176
0.000136861
0
0
1.47797e-05
2.94573e-05
4.39478e-05
5.81543e-05
7.1991e-05
8.53824e-05
9.82524e-05
0.000110542
0.000122204
0.000133186
0.000168599
0.000193207
0.000213695
0.000212355
0.000185568
0.00014564
7.00934e-05
0
0
2.99683e-05
5.92172e-05
8.70732e-05
0.000112959
0.000136412
0.000200264
0.000223944
0.000154703
0
0
1.54636e-05
3.08338e-05
4.60324e-05
6.09702e-05
7.55665e-05
8.97495e-05
0.000103453
0.000116623
0.000129192
0.000141136
0.000180542
0.000209068
0.00023519
0.000236528
0.000208523
0.000163969
7.88445e-05
0
0
3.2101e-05
6.35061e-05
9.35569e-05
0.000121675
0.000147411
0.000219693
0.000250374
0.000173537
0
0
1.69561e-05
3.38166e-05
5.05002e-05
6.69168e-05
8.29833e-05
9.86269e-05
0.000113764
0.000128337
0.000142283
0.000155569
0.000200162
0.000232583
0.00026307
0.00026545
0.000233882
0.000183327
8.79983e-05
0
0
3.6048e-05
7.13343e-05
0.00010514
0.000136836
0.000165903
0.000248064
0.000282071
0.000193383
0
0
1.9488e-05
3.88653e-05
5.80327e-05
7.68899e-05
9.53348e-05
0.000113287
0.000130645
0.000147355
0.000163356
0.000178586
0.000229346
0.000266509
0.000298813
0.000300154
0.000262166
0.00020367
9.76407e-05
0
0
3.35597e-05
6.64869e-05
9.81726e-05
0.000128079
0.000155733
0.000237042
0.000278246
0.00019749
0
0
1.46182e-05
2.91732e-05
4.36078e-05
5.78639e-05
7.18776e-05
8.56057e-05
9.89793e-05
0.00011197
0.000124515
0.000136591
0.000178268
0.000211458
0.000246216
0.000256828
0.000236405
0.000190114
9.34939e-05
0
0
2.55593e-05
5.0737e-05
7.51648e-05
9.85034e-05
0.000120447
0.000188888
0.000236887
0.0001821
0
0
1.12672e-05
2.24942e-05
3.36458e-05
4.46846e-05
5.55721e-05
6.62771e-05
7.6761e-05
8.69991e-05
9.69554e-05
0.000106614
0.00014091
0.000169284
0.000202888
0.000217914
0.00020911
0.000173398
8.75071e-05
0
0
1.99117e-05
3.95803e-05
5.87693e-05
7.72585e-05
9.48572e-05
0.000151938
0.000200317
0.000164519
0
0
8.85893e-06
1.7692e-05
2.64765e-05
3.51876e-05
4.38005e-05
5.22948e-05
6.06457e-05
6.88358e-05
7.68342e-05
8.46325e-05
0.000112729
0.000136739
0.000167444
0.000183867
0.000182458
0.00015534
8.03425e-05
0
0
1.57855e-05
3.1409e-05
4.67118e-05
6.15423e-05
7.5766e-05
0.000123214
0.000168654
0.000146302
0
0
7.06955e-06
1.41213e-05
2.11399e-05
2.81082e-05
3.50094e-05
4.18286e-05
4.855e-05
5.51591e-05
6.16381e-05
6.79777e-05
9.10748e-05
0.000111254
0.000138435
0.000154586
0.0001576
0.000137241
7.2571e-05
0
0
1.26702e-05
2.52277e-05
3.75619e-05
4.95658e-05
6.11421e-05
0.000100558
0.00014159
0.000128502
0
0
5.70146e-06
1.13903e-05
1.70559e-05
2.26858e-05
2.82683e-05
3.37925e-05
3.92471e-05
4.4622e-05
4.99046e-05
5.50873e-05
7.41207e-05
9.1023e-05
0.000114628
0.000129652
0.00013509
0.000119924
6.46533e-05
0
0
1.02619e-05
2.04429e-05
3.04633e-05
4.02457e-05
4.97181e-05
8.24582e-05
0.000118628
0.000111756
0
0
4.63361e-06
9.25802e-06
1.38655e-05
1.8447e-05
2.2994e-05
2.74985e-05
3.1952e-05
3.63471e-05
4.06752e-05
4.49297e-05
6.0648e-05
7.47743e-05
9.5023e-05
0.000108541
0.000115107
0.000103866
5.69317e-05
0
0
8.36534e-06
1.66711e-05
2.48583e-05
3.28697e-05
4.06509e-05
6.7848e-05
9.92321e-05
9.64156e-05
0
0
3.78647e-06
7.56611e-06
1.13332e-05
1.50807e-05
1.88027e-05
2.24927e-05
2.61448e-05
2.9753e-05
3.33114e-05
3.68144e-05
4.98149e-05
6.16038e-05
7.883e-05
9.07342e-05
9.76144e-05
8.93055e-05
4.96406e-05
0
0
6.85076e-06
1.36567e-05
2.03733e-05
2.69573e-05
3.33666e-05
5.59595e-05
8.28975e-05
8.26314e-05
0
0
3.1061e-06
6.20697e-06
9.29828e-06
1.23748e-05
1.54319e-05
1.84648e-05
2.14689e-05
2.44396e-05
2.73722e-05
3.02628e-05
4.10241e-05
5.08525e-05
6.54231e-05
7.57539e-05
8.2455e-05
7.63225e-05
4.29245e-05
0
0
5.62791e-06
1.12213e-05
1.67461e-05
2.21688e-05
2.7458e-05
4.62235e-05
6.91724e-05
7.04225e-05
0
0
2.55466e-06
5.1053e-06
7.64863e-06
1.01804e-05
1.26971e-05
1.51949e-05
1.76701e-05
2.0119e-05
2.25388e-05
2.49254e-05
3.38429e-05
4.20207e-05
5.43056e-05
6.31802e-05
6.94173e-05
6.48875e-05
3.68602e-05
0
0
4.63355e-06
9.24075e-06
1.37949e-05
1.82698e-05
2.26383e-05
3.82233e-05
5.76701e-05
5.97104e-05
0
0
2.10421e-06
4.20536e-06
6.30048e-06
8.38699e-06
1.04616e-05
1.2522e-05
1.45648e-05
1.6588e-05
1.85884e-05
2.05639e-05
2.79423e-05
3.47643e-05
4.50383e-05
5.26676e-05
5.82876e-05
5.48784e-05
3.14818e-05
0
0
2.97061e-06
5.92565e-06
8.84944e-06
1.17266e-05
1.45423e-05
2.46598e-05
3.76596e-05
4.02087e-05
0
0
1.04379e-06
2.0863e-06
3.12619e-06
4.1624e-06
5.19326e-06
6.21806e-06
7.23484e-06
8.24321e-06
9.2409e-06
1.02279e-05
1.39323e-05
1.73935e-05
2.27033e-05
2.68116e-05
3.01865e-05
2.91521e-05
1.69499e-05
0
0
1.48262e-06
2.95811e-06
4.41944e-06
5.85967e-06
7.27209e-06
1.23812e-05
1.91247e-05
2.10064e-05
0
0
5.23939e-07
1.04724e-06
1.56936e-06
2.08968e-06
2.60753e-06
3.12243e-06
3.63361e-06
4.14071e-06
4.64276e-06
5.13962e-06
7.00925e-06
8.76006e-06
1.14743e-05
1.35922e-05
1.5507e-05
1.51203e-05
8.86665e-06
0
0
7.48997e-07
1.49457e-06
2.2333e-06
2.96183e-06
3.67693e-06
6.27322e-06
9.75757e-06
1.08737e-05
0
0
2.67545e-07
5.34788e-07
8.01447e-07
1.06724e-06
1.33182e-06
1.59498e-06
1.85632e-06
2.11569e-06
2.37257e-06
2.62692e-06
3.58586e-06
4.4871e-06
5.8825e-06
6.98342e-06
8.00319e-06
7.84738e-06
4.62482e-06
0
0
3.81166e-07
7.60642e-07
1.13674e-06
1.50779e-06
1.87221e-06
3.19678e-06
4.99039e-06
5.60326e-06
0
0
1.28935e-07
2.57716e-07
3.86227e-07
5.14301e-07
6.41822e-07
7.68624e-07
8.94592e-07
1.01956e-06
1.14336e-06
1.26589e-06
1.72965e-06
2.16413e-06
2.84498e-06
3.37957e-06
3.89758e-06
3.8156e-06
2.26795e-06
0
0
1.41932e-07
2.83241e-07
4.23325e-07
5.6159e-07
6.97537e-07
1.19113e-06
1.86472e-06
2.11927e-06
0
0
0
0
0
0
0
0
0
0
0
0
0
0
0
0
0
0
0
0
SCALARS Displacement_Z double 1
LOOKUP_TABLE default
0.00283722
0.00283316
0.00282083
0.00280048
0.0027721
0.00273571
0.00269137
0.00263922
0.00257734
0.00250504
0.00241137
0.00212594
0.00190428
0.00158551
0.00134124
0.00102344
0.000805931
0.000580494
0.000510896
0.00284535
0.00282859
0.00277858
0.00269614
0.00257929
0.00241944
0.00190816
0.00134215
0.000805544
0.00050992
0.00284614
0.00284183
0.002829
0.0028077
0.00277802
0.00273997
0.00269357
0.00263893
0.00257589
0.00250284
0.00242424
0.0021419
0.00191171
0.00158935
0.00134308
0.00102363
0.00080526
0.000579133
0.000509096
0.00284086
0.00282348
0.0027717
0.00268638
0.00256829
0.00242469
0.00191432
0.00134392
0.000805055
0.000508431
0.00283042
0.00282603
0.0028129
0.00279114
0.00276083
0.00272211
0.00267529
0.00262083
0.00255928
0.00249195
0.00242137
0.0021496
0.00191615
0.00159242
0.0013448
0.00102418
0.000804942
0.000578257
0.000507918
0.00281556
0.00279809
0.0027462
0.00266152
0.00254814
0.00241547
0.00191702
0.00134552
0.000804889
0.000507542
0.00279627
0.00279193
0.00277902
0.0027576
0.00272789
0.00269015
0.00264492
0.00259282
0.00253488
0.00247218
0.00240631
0.00214726
0.00191698
0.0015944
0.00134631
0.00102508
0.000804921
0.000577872
0.000507316
0.00277231
0.00275547
0.00270562
0.00262502
0.00251874
0.00239482
0.00191588
0.00134691
0.000805016
0.000507232
0.00274266
0.00273859
0.00272639
0.00270623
0.00267828
0.00264297
0.00260078
0.00255242
0.0024988
0.002441
0.00238037
0.00213617
0.00191416
0.00159551
0.00134755
0.00102631
0.000805197
0.000577961
0.000507295
0.0026847
0.00266954
0.00262486
0.00255327
0.00245921
0.00235091
0.0019087
0.00134811
0.000805451
0.000507536
0.00262907
0.00262553
0.00261503
0.00259766
0.00257373
0.00254354
0.00250764
0.00246661
0.00242127
0.00237235
0.00232107
0.00210636
0.00190224
0.00159471
0.00134846
0.00102815
0.000805715
0.000578601
0.000507929
0.0025761
0.00256313
0.002525
0.00246408
0.0023845
0.0022919
0.00189508
0.00134858
0.000805949
0.000508411
0.00252593
0.00252292
0.00251395
0.00249916
0.00247878
0.00245311
0.00242259
0.00238775
0.00234913
0.00230729
0.002263
0.00207362
0.00188698
0.00159141
0.0013484
0.00102945
0.000806199
0.000579634
0.000509039
0.00247854
0.00246749
0.00243501
0.00238312
0.00231506
0.00223494
0.00187821
0.00134792
0.000806441
0.000509779
0.0024339
0.00243133
0.00242367
0.00241104
0.00239363
0.00237169
0.00234557
0.00231565
0.00228236
0.00224611
0.00220743
0.00203948
0.00186861
0.0015856
0.00134707
0.00103011
0.000806704
0.000581035
0.000510664
0.00239182
0.00238235
0.00235449
0.00230985
0.00225092
0.00218081
0.00185849
0.00134586
0.000806962
0.000511667
0.00235217
0.00234996
0.00234337
0.00233248
0.00231745
0.00229848
0.00227584
0.00224982
0.00222075
0.00218895
0.00215483
0.00200471
0.00184766
0.00157732
0.00134424
0.00103006
0.000807246
0.000582801
0.000512814
0.00231473
0.00230652
0.00228233
0.00224342
0.00219171
0.00212965
0.00183641
0.00134223
0.000807528
0.000514081
0.00227931
0.00227738
0.00227162
0.00226211
0.00224896
0.00223233
0.00221242
0.00218948
0.00216376
0.00213552
0.00210508
0.00196967
0.00182454
0.00156666
0.00133978
0.00102924
0.00080784
0.000584939
0.000515494
0.00224566
0.00223844
0.00221713
0.00218271
0.00213674
0.00208115
0.00181231
0.00133693
0.000808155
0.00051703
0.00221357
0.00221186
0.00220676
0.00219832
0.00218664
0.00217185
0.00215411
0.0021336
0.00211055
0.00208516
0.00205768
0.00193439
0.00179951
0.00155368
0.00133363
0.00102764
0.000808506
0.000587463
0.000518713
0.00218278
0.00217633
0.00215728
0.00212643
0.00208502
0.00203464
0.00178634
0.00132993
0.000808866
0.000520521
0.00215305
0.00215151
0.00214693
0.00213934
0.00212882
0.00211549
0.00209946
0.00208091
0.00205999
0.0020369
0.00201185
0.0018986
0.00177259
0.00153841
0.0013258
0.00102528
0.00080927
0.000590391
0.000522479
0.0021241
0.00211828
0.00210102
0.00207301
0.00203529
0.00198919
0.00175843
0.00132128
0.00080969
0.000524566
0.00209567
0.00209427
0.0020901
0.00208319
0.00207362
0.00206146
0.00204683
0.00202986
0.0020107
0.00198952
0.00196648
0.00186178
0.00174363
0.00152084
0.00131635
0.00102222
0.000810166
0.000593749
0.000526807
0.00206743
0.00206211
0.00204633
0.00202067
0.00198602
0.00194354
0.00172834
0.00131105
0.000810669
0.000529183
0.00203906
0.00203778
0.00203396
0.00202763
0.00201885
0.00200768
0.00199424
0.00197863
0.00196098
0.00194143
0.00192016
0.0018231
0.00171232
0.00150091
0.0013054
0.00101855
0.000811239
0.000597565
0.000531716
0.0020102
0.00200531
0.00199083
0.00196725
0.00193532
0.00189608
0.00169568
0.00129941
0.000811851
0.000534394
0.00198042
0.00197924
0.00197575
0.00196994
0.00196189
0.00195165
0.00193932
0.00192497
0.00190874
0.00189073
0.00187102
0.00178141
0.0016782
0.00147851
0.00129311
0.00101445
0.000812546
0.000601869
0.000537235
0.00194926
0.00194482
0.00193161
0.00191007
0.00188086
0.00184484
0.00165994
0.0012865
0.0008133
0.000540239
0.00191621
0.00191518
0.00191201
0.00190678
0.00189948
0.00189023
0.00187904
0.00186605
0.0018513
0.00183492
0.00181702
0.00173512
0.00164068
0.00145362
0.00127967
0.00101011
0.000814155
0.000606687
0.00054341
0.00177602
0.00177264
0.00176252
0.00174596
0.00172337
0.00169528
0.00154858
0.00123447
0.000803413
0.000544713
0.00165325
0.00165252
0.00165045
0.00164696
0.00164215
0.00163598
0.00162854
0.00161982
0.00160992
0.00159888
0.00158676
0.00153047
0.001463
0.00132593
0.00118898
0.000964531
0.000791843
0.000604268
0.000545569
0.00154457
0.00154225
0.00153538
0.00152408
0.0015086
0.00148924
0.00138461
0.00114512
0.000779854
0.00054593
0.00144778
0.00144729
0.00144585
0.00144344
0.00144009
0.00143581
0.00143062
0.00142454
0.00141761
0.00140988
0.00140137
0.00136113
0.00131199
0.00120957
0.00110187
0.000916502
0.000767109
0.000599253
0.000545735
0.00136094
0.00135932
0.00135446
0.00134645
0.00133543
0.00132155
0.00124502
0.00106044
0.000754001
0.000544982
0.0012826
0.00128225
0.00128121
0.00127948
0.00127707
0.00127399
0.00127024
0.00126585
0.00126082
0.00125519
0.00124897
0.00121947
0.00118292
0.00110507
0.00102011
0.000867854
0.000740269
0.000591622
0.000543591
0.00121149
0.0012103
0.00120675
0.00120088
0.00119279
0.00118256
0.00112533
0.000981613
0.000726282
0.000541624
0.00114665
0.00114639
0.00114562
0.00114434
0.00114255
0.00114027
0.00113749
0.00113422
0.00113048
0.00112629
0.00112164
0.00109951
0.00107179
0.00101177
0.000944416
0.000819783
0.000711816
0.000581467
0.000538969
0.00108724
0.00108635
0.00108369
0.00107929
0.0010732
0.00106549
0.0010219
0.000908966
0.000697204
0.000535744
0.00103259
0.00103239
0.00103181
0.00103084
0.00102949
0.00102776
0.00102566
0.00102318
0.00102034
0.00101715
0.00101361
0.000996695
0.000975347
0.000928527
0.000874853
0.000773012
0.000682245
0.00056896
0.000531818
0.000982115
0.000981436
0.000979405
0.000976043
0.000971383
0.00096547
0.000931761
0.000842324
0.000667233
0.000527347
0.000935337
0.000935186
0.000934739
0.000933993
0.000932954
0.00093162
0.000929998
0.000928087
0.000925897
0.00092343
0.000920693
0.00090758
0.000890925
0.000854048
0.000811076
0.000727923
0.000651981
0.000554309
0.000522188
0.000891821
0.000891295
0.000889721
0.000887113
0.000883494
0.000878895
0.000852517
0.000781228
0.000636747
0.000516523
0.000851218
0.0008511
0.000850752
0.000850171
0.00084936
0.000848319
0.000847053
0.000845561
0.000843849
0.00084192
0.000839778
0.000829493
0.00081637
0.000787099
0.000752557
0.00068467
0.000621357
0.000537743
0.000510205
0.000813203
0.000812791
0.000811557
0.000809511
0.000806669
0.000803053
0.000782217
0.0007251
0.000606031
0.000503425
0.000777513
0.00077742
0.000777146
0.000776688
0.000776049
0.000775229
0.00077423
0.000773054
0.000771703
0.00077018
0.000768489
0.000760348
0.000749925
0.000726551
0.000698697
0.000643257
0.000590611
0.000519487
0.000496042
0.000743898
0.000743572
0.000742596
0.000740976
0.000738724
0.000735857
0.000719279
0.000673334
0.000575284
0.000488246
0.000712155
0.000712082
0.000711864
0.000711501
0.000710993
0.000710342
0.000709549
0.000708614
0.00070754
0.000706328
0.000704978
0.000698495
0.000690161
0.000671406
0.000648899
0.0006036
0.000559905
0.000499756
0.000479902
0.000682091
0.00068183
0.000681052
0.000679762
0.000677969
0.000675682
0.000662419
0.000625337
0.000544629
0.000471197
0.000653545
0.000653484
0.000653311
0.000653018
0.000652614
0.000652092
0.00065146
0.000650711
0.000649855
0.000648888
0.000647816
0.000642601
0.00063594
0.000620795
0.00060258
0.000565578
0.000529331
0.000478746
0.000462005
0.000559452
0.000559298
0.000558833
0.000558059
0.000556982
0.000555606
0.000547607
0.000524938
0.000474265
0.00042581
0.000478284
0.000478255
0.000478177
0.000478045
0.000477863
0.000477626
0.000477341
0.000477002
0.000476616
0.000476178
0.000475694
0.000473316
0.000470282
0.00046331
0.000454816
0.000437247
0.000419341
0.000393426
0.000384809
0.000405931
0.00040586
0.000405647
0.000405295
0.000404803
0.000404174
0.000400504
0.000389961
0.000365711
0.00034152
0.0003398
0.000339787
0.000339752
0.000339692
0.000339609
0.000339502
0.000339372
0.000339218
0.000339042
0.000338844
0.000338624
0.000337541
0.000336154
0.000332968
0.000329084
0.000320844
0.000312334
0.000299745
0.000295559
0.000277938
0.000277907
0.000277812
0.000277656
0.000277437
0.000277156
0.000275525
0.000270787
0.000259725
0.000248423
0.000219074
0.000219069
0.000219054
0.000219028
0.000218993
0.000218948
0.000218893
0.000218827
0.000218753
0.000218669
0.000218576
0.000218113
0.00021752
0.000216172
0.000214514
0.000210966
0.000207282
0.000201722
0.000199909
0.000162266
0.000162254
0.000162218
0.000162157
0.000162073
0.000161965
0.00016134
0.000159517
0.000155249
0.000150808
0.000106979
0.000106977
0.000106972
0.000106964
0.000106953
0.000106939
0.000106922
0.000106902
0.000106879
0.000106853
0.000106825
0.000106678
0.000106493
0.000106076
0.000105565
0.000104454
0.000103314
0.000101508
0.000100986
5.28732e-05
5.28711e-05
5.28644e-05
5.28531e-05
5.28372e-05
5.28163e-05
5.27014e-05
5.23497e-05
5.1613e-05
5.07942e-05
-0
-0
-0
-0
-0
-0
-0
-0
-0
-0
-0
-0
-0
-0
-0
-0
-0
-0
-0
SCALARS Stress_R double 1
LOOKUP_TABLE default
32.3396
32.0332
31.8029
31.1303
30.5609
29.4773
28.7376
27.7739
25.6518
22.0921
12.9813
3.52345
0.102406
-0.714672
-1.27775
-1.2656
-1.31174
-1.28589
-1.31999
24.6723
24.2388
23.0471
20.8274
16.8494
11.0234
1.27762
-0.792824
-1.06428
-1.12731
18.2368
18.0105
17.8766
17.376
16.907
15.9974
15.1095
13.9189
11.3675
11.1112
10.1031
4.80947
1.67472
0.401224
-0.306256
-0.58683
-0.818543
-0.888047
-0.939251
11.646
11.3703
10.6576
9.31357
7.51889
7.86021
2.35584
0.132616
-0.595291
-0.760218
5.73984
5.67012
5.62851
5.48227
5.25629
5.04078
4.6812
4.55104
4.28312
4.48651
5.10977
3.21917
2.71742
1.30877
0.552508
0.0673126
-0.372921
-0.48617
-0.577873
-0.197128
-0.155721
-0.0558223
0.139295
0.862495
2.54384
2.91049
0.978872
-0.14966
-0.396401
-6.22536
-6.06264
-5.998
-5.68107
-5.44702
-4.88728
-4.41992
-3.54446
-2.78775
-1.71917
0.0104118
1.27513
3.20867
2.14307
1.41175
0.697476
0.0674978
-0.0895547
-0.218272
-12.1203
-11.7191
-10.6792
-8.8467
-6.25288
-2.42767
3.49874
1.84331
0.301691
-0.0335896
-8.7088
-8.47891
-8.41575
-8.01047
-7.68798
-6.99169
-6.35918
-5.36788
-4.46286
-3.41555
-1.4899
0.738817
2.85893
1.90698
1.3833
0.768583
0.324076
0.178428
0.089618
1.10921
1.16056
1.17797
1.22066
1.30006
1.70038
1.51986
0.51274
0.123576
0.0456839
0.851946
0.961196
0.906412
0.97665
0.930857
1.00931
0.990443
1.074
1.07473
1.14622
1.47835
1.00166
1.40239
0.6064
0.489717
0.238101
0.127158
0.104396
0.0685959
0.585091
0.643569
0.688855
0.759502
0.872292
1.18294
1.24199
0.489262
0.144929
0.0953235
0.375013
0.473276
0.433035
0.502312
0.478936
0.555363
0.565305
0.638803
0.670433
0.722394
0.969527
0.713922
1.11702
0.495423
0.476963
0.244985
0.157895
0.141822
0.118261
0.201857
0.258403
0.309467
0.389867
0.490981
0.744907
0.967825
0.463414
0.176017
0.142259
0.0229055
0.107298
0.0771086
0.139721
0.129394
0.199422
0.21309
0.281757
0.314313
0.365674
0.561262
0.438784
0.836804
0.368212
0.443508
0.24489
0.192399
0.18037
0.165418
-0.0992041
-0.0500025
-0.000174932
0.0748252
0.167784
0.377579
0.692917
0.42019
0.211655
0.188608
-0.261009
-0.192199
-0.214403
-0.160799
-0.164078
-0.10345
-0.0861434
-0.0251292
0.00540515
0.0577015
0.210253
0.182052
0.562249
0.235814
0.393898
0.239251
0.230138
0.219442
0.211969
-0.360678
-0.318967
-0.273543
-0.204844
-0.118582
0.0560728
0.425391
0.3639
0.249967
0.23479
-0.516036
-0.460591
-0.476861
-0.431463
-0.430774
-0.377703
-0.359327
-0.303696
-0.273991
-0.222609
-0.102238
-0.0622594
0.296225
0.103259
0.33369
0.230987
0.270062
0.259196
0.258328
-0.608415
-0.573353
-0.531689
-0.467926
-0.38628
-0.238365
0.167144
0.300179
0.290126
0.280966
-0.767514
-0.722678
-0.734214
-0.695242
-0.691456
-0.643973
-0.624526
-0.572461
-0.542466
-0.491326
-0.394776
-0.300442
0.0392482
-0.0269846
0.268672
0.222975
0.311669
0.299915
0.304639
-0.8624
-0.832119
-0.792571
-0.731105
-0.65101
-0.521288
-0.082317
0.234393
0.331843
0.327182
-1.03483
-0.997663
-1.00548
-0.970677
-0.963828
-0.919558
-0.898086
-0.847486
-0.815671
-0.763048
-0.682826
-0.53906
-0.209779
-0.153179
0.204186
0.218026
0.354848
0.341934
0.350924
-1.1393
-1.11181
-1.07202
-1.00938
-0.92676
-0.806307
-0.324578
0.171456
0.375187
0.373419
-1.33553
-1.30325
-1.30797
-1.27491
-1.26451
-1.22043
-1.19626
-1.14358
-1.10842
-1.05137
-0.980372
-0.784588
-0.452525
-0.273486
0.145251
0.218903
0.3998
0.38563
0.397104
-1.45585
-1.429
-1.38616
-1.31756
-1.2274
-1.10797
-0.561454
0.115937
0.420579
0.419603
-1.68848
-1.65804
-1.66021
-1.62596
-1.61152
-1.56398
-1.53446
-1.47677
-1.43106
-1.37133
-1.30355
-1.0431
-0.69078
-0.385238
0.0966854
0.228361
0.447022
0.431455
0.442919
-1.83113
-1.80227
-1.75214
-1.67141
-1.56382
-1.4344
-0.792976
0.0727423
0.469107
0.465514
-2.11386
-2.08435
-2.08316
-2.04528
-2.02452
-1.97006
-1.93032
-1.86201
-1.80567
-1.72616
-1.67096
-1.31536
-0.921055
-0.488202
0.0676036
0.248458
0.498228
0.479986
0.487816
-2.28419
-2.25269
-2.19066
-2.09192
-1.96066
-1.82071
-1.03881
0.0466686
0.523897
0.510734
-1.30785
-1.29112
-1.28828
-1.26421
-1.2481
-1.21247
-1.18329
-1.13794
-1.10148
-1.04624
-0.996712
-0.776194
-0.525136
-0.211138
0.11085
0.225171
0.36044
0.328039
0.330368
0.03557
0.0377431
0.0413233
0.0470433
0.0547485
0.0627587
0.114925
0.174584
0.164616
0.127922
0.0319864
0.0339574
0.0337801
0.0360801
0.0369428
0.0401375
0.0420323
0.045977
0.0486258
0.0530552
0.0567768
0.075883
0.101367
0.11705
0.160422
0.140667
0.16175
0.127197
0.129592
0.0464237
0.0476211
0.0497937
0.0532739
0.0579797
0.0626571
0.0948365
0.146229
0.157073
0.13121
0.0450527
0.046186
0.0461062
0.0474892
0.0480548
0.050032
0.0512324
0.0537268
0.0555161
0.0584179
0.0593794
0.0732642
0.0884572
0.104675
0.13664
0.129854
0.153675
0.126017
0.132187
0.0547941
0.0556055
0.0570005
0.0592744
0.0623065
0.0649621
0.0862983
0.127548
0.149216
0.132894
0.0545216
0.0552753
0.0552031
0.0561092
0.0564606
0.0577414
0.0584796
0.0600881
0.061299
0.0632095
0.0636905
0.0735144
0.0826067
0.0973883
0.121076
0.121579
0.145837
0.123979
0.133202
0.0615597
0.0620871
0.0630288
0.064574
0.0666294
0.0683312
0.0827
0.115387
0.141794
0.1331
0.0618579
0.0623674
0.0623195
0.0629305
0.0631642
0.0640397
0.0645245
0.0656329
0.0664403
0.067767
0.0679939
0.0751079
0.0808042
0.0933216
0.111045
0.115429
0.138641
0.121563
0.132842
0.0671519
0.0675248
0.0681816
0.0692666
0.0707404
0.0718486
0.0818491
0.107562
0.135119
0.132126
0.0677432
0.0681035
0.0680669
0.0684988
0.0686632
0.0692815
0.0696267
0.0704126
0.070965
0.0719106
0.0720251
0.0772931
0.080963
0.0913393
0.104678
0.110927
0.132301
0.119053
0.131441
0.0718807
0.0721479
0.0726246
0.0734106
0.0744846
0.0752453
0.0824051
0.102636
0.12931
0.130307
0.0726055
0.0728676
0.0728411
0.0731548
0.0732725
0.0737233
0.0739752
0.0745515
0.0749469
0.0756388
0.0756906
0.0796733
0.0821166
0.0906356
0.100747
0.107667
0.126861
0.116618
0.129336
0.0759243
0.076122
0.076476
0.07706
0.0778663
0.0784058
0.083667
0.0996349
0.12436
0.127954
0.0766943
0.0768896
0.0768695
0.077104
0.0771912
0.0775284
0.0777167
0.0781501
0.0784384
0.0789598
0.0789799
0.0820415
0.0837204
0.0906954
0.098421
0.105322
0.122271
0.114349
0.12682
0.0794061
0.0795562
0.0798249
0.0802694
0.0808856
0.0812802
0.0852302
0.0979011
0.120198
0.125328
0.0801719
0.0803193
0.0803052
0.0804824
0.0805489
0.0808044
0.0809498
0.081278
0.0815012
0.0818943
0.08191
0.0842885
0.0854636
0.0911924
0.0971405
0.103649
0.118438
0.112289
0.12413
0.0824262
0.0825398
0.0827496
0.0830939
0.0835702
0.0838695
0.0868878
0.0969926
0.116732
0.122631
0.0831455
0.0832652
0.0832508
0.0833926
0.0834423
0.0836457
0.083757
0.0840214
0.0841848
0.0845029
0.0844641
0.0864007
0.0872036
0.0919045
0.0965668
0.102446
0.115271
0.110451
0.121436
0.0850177
0.0851115
0.0852702
0.0855369
0.0859188
0.0861321
0.0884492
0.0965363
0.113903
0.120022
0.0843756
0.0844612
0.0844588
0.0845705
0.0846178
0.0847776
0.0848732
0.0850809
0.0852194
0.0854515
0.0855251
0.0870419
0.0878511
0.0917513
0.0955704
0.101397
0.112194
0.109364
0.118656
0.0910227
0.0910746
0.0911636
0.0913132
0.0915214
0.091595
0.0928155
0.0973148
0.109056
0.114017
0.0903187
0.0903595
0.0903588
0.0904125
0.0904372
0.0905162
0.0905658
0.0906693
0.0907452
0.0908716
0.0909204
0.0916803
0.0920845
0.0941588
0.0961607
0.0997194
0.106226
0.105012
0.111475
0.0951227
0.0951453
0.0951879
0.0952576
0.0953541
0.0954025
0.0959943
0.098142
0.104427
0.107699
0.0950123
0.0950317
0.0950314
0.0950558
0.0950676
0.0951045
0.0951285
0.0951773
0.0952146
0.0952758
0.0952915
0.0956544
0.0958282
0.0968634
0.0976907
0.0996412
0.103122
0.102611
0.106229
0.0975028
0.0975145
0.0975354
0.09757
0.0976175
0.097638
0.0979109
0.0989641
0.102261
0.104067
0.0976071
0.0976164
0.0976158
0.0976274
0.0976323
0.0976496
0.09766
0.0976827
0.0976998
0.0977283
0.0977331
0.0979014
0.0979988
0.0984928
0.0988577
0.0998386
0.101586
0.10132
0.103212
0.0989619
0.0989672
0.0989766
0.0989919
0.0990129
0.0990232
0.0991386
0.0996044
0.101181
0.102012
0.0994994
0.0995037
0.0995028
0.0995072
0.099508
0.0995143
0.0995171
0.0995251
0.0995307
0.0995408
0.0995295
0.0995916
0.0996041
0.0997816
0.0998652
0.10018
0.100866
0.100475
0.101325
0.100394
0.100395
0.100394
0.100394
0.100393
0.100393
0.100381
0.100389
0.100569
0.100445
0.1018
0.1018
0.101798
0.101795
0.10179
0.101784
0.101776
0.101768
0.101757
0.101743
0.101727
0.101684
0.101602
0.101416
0.101136
0.100814
0.100456
0.0993752
0.0995328
SCALARS Stress_Theta double 1
LOOKUP_TABLE default
32.3396
32.1003
31.9367
31.5518
31.1988
30.4985
29.9758
29.6395
28.423
26.2022
18.9485
10.4593
7.20091
4.32501
2.5679
1.25827
0.50348
-0.114074
-0.445127
24.6723
24.3497
23.6281
22.2805
19.6544
13.8068
6.01522
2.16521
0.440608
-0.379832
18.2368
18.0618
17.9677
17.6752
17.3779
16.858
16.2947
15.4974
13.7677
12.6729
10.33
6.29814
4.4805
2.81132
1.78766
0.924252
0.379939
-0.0749974
-0.318243
11.646
11.4416
10.9834
10.0634
8.52253
6.99501
3.3289
1.38366
0.308645
-0.26131
5.73984
5.68515
5.65023
5.55519
5.3969
5.21756
4.91279
4.55252
4.01949
3.68226
3.50924
1.87477
2.00819
1.36766
0.98214
0.589533
0.239299
-0.0296671
-0.20014
-0.197128
-0.1733
-0.166904
-0.22079
-0.234993
0.11949
0.668489
0.590986
0.173463
-0.139112
-6.22536
-6.10001
-6.06583
-5.90782
-5.79953
-5.5395
-5.35031
-4.97605
-4.71175
-4.1875
-3.27504
-2.4275
-0.584191
-0.0523999
0.211124
0.254706
0.104171
0.0150778
-0.0806543
-12.1203
-11.8375
-11.2717
-10.3059
-8.96119
-6.92844
-1.94777
-0.156772
0.04755
-0.0179377
-8.7088
-8.52701
-8.50424
-8.29901
-8.151
-7.80556
-7.50457
-6.9756
-6.50638
-6.00942
-4.94535
-3.23645
-1.29608
-0.68932
-0.218931
-0.0224726
0.0150204
0.0412412
0.0293811
1.10921
1.13754
1.06261
0.948012
0.812863
0.924866
0.527337
0.0934191
0.0315264
0.0203205
0.851946
0.949105
0.88377
0.905106
0.817753
0.819937
0.730028
0.708819
0.61382
0.58964
0.782996
0.157349
0.443143
-0.0384767
0.0488378
0.00700985
0.0193698
0.0424938
0.0326899
0.585091
0.621464
0.581205
0.51569
0.452141
0.555008
0.33152
0.0314327
0.0191631
0.0484687
0.375013
0.46243
0.412011
0.439029
0.379099
0.390065
0.338173
0.33346
0.290575
0.265967
0.407856
-0.00794905
0.258785
-0.13057
0.0053815
-0.0169931
0.0145913
0.0524798
0.0604591
0.201857
0.239108
0.217758
0.184745
0.149218
0.239194
0.164532
-0.016151
0.0142071
0.0734517
0.0229055
0.0982963
0.0595084
0.0869737
0.0460267
0.0636038
0.0286048
0.034698
0.00840705
-0.00253778
0.107842
-0.169093
0.0891354
-0.223257
-0.0422457
-0.0437663
0.0123486
0.0637497
0.0855593
-0.0992041
-0.0658043
-0.07498
-0.0902145
-0.106473
-0.0295518
-0.00148977
-0.0677774
0.0126467
0.0977092
-0.261009
-0.199466
-0.228704
-0.203147
-0.231008
-0.212276
-0.233763
-0.222936
-0.2393
-0.238453
-0.154509
-0.325416
-0.0800195
-0.314936
-0.0956725
-0.0736662
0.0122211
0.075334
0.109944
-0.360678
-0.331635
-0.333225
-0.336498
-0.338077
-0.271291
-0.169144
-0.125261
0.0125168
0.121664
-0.516036
-0.466354
-0.488209
-0.465158
-0.484011
-0.464423
-0.477002
-0.461978
-0.47013
-0.461369
-0.396006
-0.485288
-0.252899
-0.407764
-0.155487
-0.105865
0.012887
0.0870731
0.133974
-0.608415
-0.583407
-0.579209
-0.573133
-0.562844
-0.502717
-0.34192
-0.188961
0.012628
0.14541
-0.767514
-0.727276
-0.743271
-0.72218
-0.734014
-0.713544
-0.719036
-0.70019
-0.701133
-0.685641
-0.633352
-0.655976
-0.432992
-0.504904
-0.221812
-0.139787
0.0133952
0.0989519
0.157714
-0.8624
-0.840193
-0.830854
-0.816309
-0.795099
-0.737721
-0.523678
-0.259298
0.0121857
0.168908
-1.03483
-1.0014
-1.01283
-0.992631
-0.998536
-0.976519
-0.975574
-0.952745
-0.946769
-0.924644
-0.880681
-0.844736
-0.624361
-0.609506
-0.295032
-0.175079
0.0130809
0.111021
0.181097
-1.1393
-1.11849
-1.1038
-1.08044
-1.04792
-0.988897
-0.719076
-0.337025
0.0106704
0.192044
-1.33553
-1.30642
-1.31421
-1.29358
-1.29409
-1.2691
-1.26241
-1.23396
-1.22122
-1.19143
-1.1514
-1.05929
-0.832055
-0.724605
-0.375797
-0.211577
0.011527
0.123385
0.203941
-1.45585
-1.43484
-1.41407
-1.38045
-1.33523
-1.27017
-0.934077
-0.423212
0.00786343
0.214618
-1.68848
-1.66094
-1.66592
-1.64309
-1.63866
-1.6089
-1.59559
-1.56008
-1.53564
-1.50157
-1.46118
-1.30808
-1.06296
-0.853108
-0.464969
-0.249297
0.00856968
0.136262
0.22584
-1.83113
-1.8079
-1.77917
-1.73259
-1.66925
-1.59019
-1.17555
-0.518641
0.00411386
0.236202
-2.11386
-2.08731
-2.08904
-2.06287
-2.05236
-2.0161
-1.99316
-1.94871
-1.9148
-1.86231
-1.83066
-1.59558
-1.32231
-1.00191
-0.559214
-0.289159
0.00510808
0.150066
0.245975
-2.28419
-2.25886
-2.22021
-2.15859
-2.07605
-1.9917
-1.47042
-0.623035
0.00157371
0.255973
-1.30785
-1.29313
-1.29235
-1.2763
-1.26722
-1.24407
-1.22649
-1.19725
-1.17546
-1.13851
-1.10756
-0.965942
-0.802281
-0.562954
-0.31129
-0.134707
0.0359761
0.113199
0.173238
0.03557
0.0368757
0.0370766
0.0373888
0.0379566
0.0377398
0.0502201
0.0677718
0.0739416
0.0819178
0.0319864
0.0336194
0.0330972
0.0340357
0.0336864
0.0347289
0.0346169
0.0357115
0.0357045
0.0367192
0.037046
0.0414349
0.0501592
0.0453531
0.0693202
0.0539571
0.0759424
0.0678345
0.0841298
0.0464237
0.0470931
0.0472358
0.0474269
0.0477203
0.047301
0.0533523
0.0677916
0.0767225
0.086587
0.0450527
0.0459703
0.0456752
0.0462019
0.0460141
0.0466221
0.046564
0.0472452
0.0473252
0.0480712
0.0473488
0.0508496
0.0546912
0.0543049
0.0694799
0.0594646
0.078646
0.0715671
0.0885621
0.0547941
0.0552701
0.0553714
0.0555351
0.0557446
0.0552719
0.0585948
0.0694887
0.079568
0.0905637
0.0545216
0.0551368
0.0549281
0.0552762
0.0551371
0.0555285
0.0554515
0.0558751
0.0559395
0.0563644
0.0557173
0.0582971
0.0597696
0.0612352
0.0710817
0.0646513
0.0813606
0.0749314
0.0922361
0.0615597
0.061864
0.0619416
0.0620675
0.0622088
0.0617938
0.063672
0.0719444
0.082293
0.0937498
0.0618579
0.0622719
0.0621315
0.0623606
0.0622607
0.062521
0.0624501
0.0627352
0.0627545
0.0630588
0.062534
0.0644374
0.0648519
0.0668165
0.0733881
0.0694328
0.0838819
0.078011
0.0951119
0.0671519
0.0673696
0.0674263
0.0675211
0.0676458
0.0672905
0.0683727
0.07466
0.0847856
0.0961966
0.0677432
0.0680361
0.0679348
0.068096
0.068024
0.0682066
0.0681559
0.0683554
0.0683518
0.0685644
0.0681535
0.069594
0.0695074
0.0715221
0.0759661
0.0737389
0.0861609
0.0808264
0.0972734
0.0718807
0.0720366
0.072082
0.0721552
0.0722539
0.071966
0.0726055
0.0774151
0.0870119
0.0980072
0.0726055
0.0728184
0.0727451
0.0728616
0.0728078
0.0729403
0.0729031
0.073049
0.0730392
0.0731941
0.072869
0.0739808
0.0736849
0.0755593
0.0785996
0.0775522
0.0881877
0.0833815
0.0988386
0.0759243
0.07604
0.0760762
0.0761341
0.0762167
0.0759861
0.0763758
0.0800845
0.0889719
0.0993006
0.0766943
0.076853
0.0767982
0.0768853
0.0768449
0.0769441
0.0769164
0.0770266
0.0770137
0.0771323
0.0768754
0.0777456
0.0773831
0.0790542
0.081156
0.0808889
0.0899712
0.085677
0.0999315
0.0794061
0.0794946
0.0795239
0.0795715
0.0796396
0.0794549
0.0797034
0.0825918
0.0906822
0.100193
0.0801719
0.0802914
0.0802508
0.0803163
0.0802861
0.0803611
0.080342
0.0804252
0.0804183
0.0805041
0.0803073
0.0809915
0.0806232
0.0820929
0.0835528
0.0837829
0.0915304
0.0877158
0.100666
0.0824262
0.0824925
0.0825182
0.0825578
0.0826146
0.0824761
0.0826352
0.0848918
0.0921709
0.10079
0.0831455
0.0832436
0.0832097
0.0832641
0.0832389
0.0833008
0.0832839
0.0833544
0.0833409
0.0834193
0.0832333
0.083832
0.0834554
0.0847306
0.0857762
0.0862564
0.092901
0.0895094
0.101132
0.0850177
0.0850754
0.0850922
0.0851222
0.0851708
0.0850363
0.0851162
0.0869348
0.0935007
0.101176
0.0843756
0.0844448
0.0844246
0.0844702
0.084459
0.0845117
0.0845085
0.0845701
0.0845726
0.084622
0.0845461
0.0850382
0.0848863
0.0860742
0.0870284
0.0881363
0.0936312
0.0916048
0.101195
0.0910227
0.0910537
0.0910592
0.0910696
0.0910851
0.0909706
0.0908818
0.0915674
0.0957143
0.100967
0.0903187
0.0903527
0.0903443
0.0903695
0.090368
0.0904001
0.0904057
0.0904446
0.0904581
0.0905026
0.090487
0.0907978
0.0907776
0.0915994
0.0922291
0.0933674
0.0969049
0.0955414
0.101989
0.0951227
0.0951355
0.0951403
0.0951471
0.0951564
0.0951155
0.0951037
0.0954415
0.097723
0.100722
0.0950123
0.0950283
0.0950246
0.0950355
0.0950349
0.0950495
0.0950527
0.0950707
0.0950783
0.0951
0.0950876
0.0952319
0.0952101
0.0956261
0.095831
0.0965207
0.0983856
0.0976883
0.101237
0.0975028
0.0975098
0.0975125
0.0975166
0.097522
0.0975008
0.0974879
0.0976586
0.0988465
0.100406
0.0976071
0.0976148
0.0976125
0.0976175
0.0976165
0.0976229
0.0976232
0.0976309
0.0976334
0.0976426
0.0976339
0.0976963
0.0976903
0.0978732
0.0979304
0.0982614
0.099162
0.0987621
0.100598
0.0989619
0.0989649
0.0989652
0.0989656
0.0989658
0.0989544
0.0989281
0.0989556
0.0994396
0.100112
0.0994994
0.0995028
0.0995012
0.0995024
0.0995005
0.0995014
0.0994994
0.0995001
0.0994986
0.0994993
0.0994845
0.0994941
0.0994613
0.0994885
0.0994329
0.0994193
0.0996865
0.0992294
0.100034
0.100394
0.100394
0.10039
0.100384
0.100376
0.100367
0.1003
0.100148
0.0999226
0.0997489
0.1018
0.1018
0.101798
0.101795
0.10179
0.101784
0.101776
0.101768
0.101757
0.101743
0.101727
0.101684
0.101602
0.101416
0.101135
0.100815
0.100455
0.0993765
0.0995308
SCALARS Stress_Z double 1
LOOKUP_TABLE default
15.5561
15.4379
15.4514
15.4569
15.6179
15.4009
15.4847
16.3768
16.1555
14.9792
5.35265
-0.968109
0.138607
0.0238395
-0.0825008
-0.0182161
-0.0203968
-0.0056206
0.0129271
14.5942
14.5551
14.5618
14.4274
13.2124
4.82986
0.325165
-0.0727141
-0.0171235
0.0125088
14.4454
14.3696
14.425
14.3881
14.4371
14.4285
14.4338
14.1619
12.6898
10.8054
5.50416
0.197779
0.238369
0.0212715
-0.010443
0.00889666
-0.00793801
-0.00293477
0.00632287
12.8683
12.8136
12.73
12.2646
10.5963
6.06166
0.656575
0.0157879
-0.00502258
-0.00411796
11.7148
11.6862
11.6828
11.6279
11.5087
11.3552
10.9773
10.156
8.84349
7.42419
5.85395
1.02999
0.819842
0.158682
0.056369
0.012101
0.00204555
0.00746901
-0.00557243
10.1089
10.0517
9.80462
9.08266
7.54021
5.44903
1.00491
0.0972958
0.0146219
-0.00682512
8.42422
8.4755
8.36959
8.27898
8.02809
7.78575
7.30394
6.79756
5.93913
5.36678
5.09809
1.69966
1.30651
0.309823
0.15
0.00977502
0.0215363
0.0177735
-0.0119064
7.59847
7.54269
7.19842
6.5403
5.5005
4.50753
1.38908
0.216669
0.0396422
-0.0118516
6.46851
6.54616
6.39817
6.29312
6.02271
5.78947
5.39173
5.11592
4.67112
4.08768
3.98795
2.06052
1.49123
0.373066
0.209919
0.0237939
0.0490175
0.0221413
-0.00443021
6.10961
6.04544
5.71342
5.16703
4.43947
3.84997
1.4574
0.23204
0.0464901
0.00116263
5.66367
5.73137
5.60333
5.51992
5.28603
5.10455
4.79213
4.5062
4.11649
3.79872
3.6874
1.94484
1.44473
0.347303
0.219367
0.0379541
0.0437124
0.0285012
0.00609713
5.16818
5.11774
4.84404
4.40128
3.84227
3.39506
1.39487
0.23683
0.0520682
0.014744
4.72658
4.78764
4.68194
4.61815
4.43314
4.28623
4.04659
3.8302
3.55658
3.29096
3.18969
1.83163
1.38137
0.370262
0.24517
0.0569124
0.0556035
0.0327228
0.0187632
4.32312
4.28635
4.06888
3.72424
3.29297
2.94352
1.33622
0.261115
0.0628694
0.0239433
3.91619
3.97033
3.88616
3.83901
3.69566
3.58624
3.40119
3.23893
3.02926
2.82571
2.73897
1.67657
1.30675
0.383847
0.272095
0.0758888
0.0687667
0.0386771
0.027989
3.58821
3.56159
3.39426
3.13103
2.79999
2.52369
1.25406
0.285919
0.0765291
0.0321131
3.22484
3.26937
3.20384
3.1703
3.0614
2.97945
2.83945
2.71674
2.55481
2.40185
2.32628
1.50734
1.21234
0.391985
0.297123
0.09371
0.0836985
0.044931
0.0362381
2.95429
2.93575
2.80925
2.61011
2.35888
2.14195
1.15549
0.308155
0.0913713
0.0397921
2.63348
2.66987
2.61952
2.59614
2.51355
2.4539
2.34782
2.25708
2.13312
2.01877
1.95548
1.33373
1.10472
0.395811
0.318665
0.110725
0.0992472
0.0511169
0.0439153
2.41078
2.3984
2.30433
2.15574
1.96741
1.79918
1.04802
0.32682
0.106283
0.0470433
2.12765
2.15742
2.11901
2.10357
2.0415
1.99936
1.91973
1.8544
1.76078
1.67716
1.62519
1.1635
0.991501
0.396297
0.336173
0.126973
0.114483
0.0570665
0.0510355
1.94719
1.9398
1.87127
1.76263
1.62424
1.49596
0.938668
0.341262
0.120456
0.0537504
1.69646
1.72152
1.69222
1.68332
1.63727
1.60911
1.55042
1.50521
1.43589
1.37696
1.335
1.003
0.879392
0.394951
0.349195
0.142202
0.128692
0.0627021
0.0574392
1.55673
1.55356
1.50515
1.4282
1.32943
1.23373
0.833291
0.350762
0.133304
0.0596887
1.33383
1.35604
1.33352
1.33015
1.29644
1.27985
1.23695
1.20867
1.15813
1.1194
1.08595
0.858166
0.773737
0.393567
0.35723
0.155874
0.141362
0.0680287
0.0628134
1.23701
1.2376
1.20465
1.15234
1.08419
1.01451
0.736055
0.354469
0.144495
0.0644971
1.03837
1.05979
1.04181
1.04349
1.01853
1.01132
0.980312
0.965736
0.93408
0.905465
0.879946
0.735776
0.677679
0.393851
0.359756
0.167125
0.152164
0.0732251
0.0665231
0.990953
0.995101
0.973746
0.939775
0.896245
0.850131
0.649756
0.35201
0.154148
0.0674473
0.817181
0.837096
0.822764
0.827831
0.809525
0.809192
0.788601
0.781966
0.758958
0.749551
0.715368
0.651647
0.595925
0.391965
0.36137
0.173928
0.16171
0.0788055
0.0673006
0.833654
0.838129
0.823591
0.799741
0.768154
0.714252
0.559052
0.345777
0.164039
0.0671143
0.724592
0.734299
0.726698
0.727821
0.717324
0.714917
0.702705
0.69678
0.679721
0.674933
0.660286
0.594327
0.525846
0.402008
0.328646
0.191346
0.157447
0.0807816
0.071225
0.68586
0.683748
0.674691
0.660015
0.640521
0.615867
0.510255
0.323655
0.151204
0.0785381
0.597344
0.598272
0.59599
0.594114
0.589735
0.585774
0.579535
0.573555
0.565484
0.557562
0.548158
0.509008
0.46962
0.370204
0.316363
0.19606
0.154068
0.087261
0.082314
0.55081
0.54938
0.543959
0.535077
0.523059
0.507457
0.436816
0.303394
0.155352
0.0867048
0.490855
0.491261
0.489868
0.488591
0.485894
0.483317
0.479404
0.475609
0.4706
0.465744
0.458916
0.434278
0.405119
0.339147
0.294751
0.197343
0.157726
0.094903
0.0905641
0.456776
0.455935
0.452496
0.446873
0.439207
0.429076
0.380616
0.28322
0.158614
0.094742
0.414477
0.414777
0.413855
0.413039
0.411263
0.409585
0.406989
0.404489
0.401214
0.397846
0.393068
0.376557
0.355141
0.309929
0.274196
0.19583
0.160356
0.101916
0.0985104
0.389137
0.388564
0.386285
0.382544
0.377373
0.37038
0.33637
0.264156
0.160767
0.102296
0.35823
0.35842
0.357792
0.357221
0.356
0.354835
0.353028
0.351295
0.349003
0.346706
0.34333
0.331853
0.315953
0.283897
0.255441
0.192711
0.161867
0.108303
0.105862
0.338865
0.338475
0.336895
0.334298
0.330714
0.325738
0.301203
0.246799
0.16189
0.109207
0.315656
0.315792
0.315346
0.314941
0.314075
0.313247
0.311965
0.310729
0.309079
0.307437
0.304992
0.296788
0.284789
0.261492
0.238796
0.188758
0.16245
0.114052
0.112496
0.30064
0.300361
0.299233
0.297373
0.294802
0.291171
0.273059
0.231461
0.162189
0.1154
0.282841
0.282939
0.282615
0.282319
0.281687
0.281083
0.280147
0.279243
0.278028
0.276827
0.275012
0.269003
0.25982
0.242522
0.224349
0.18449
0.162339
0.119169
0.118374
0.271037
0.270833
0.270006
0.26864
0.266752
0.264045
0.250407
0.218185
0.161894
0.12086
0.257162
0.257236
0.256994
0.256774
0.256303
0.255852
0.255154
0.254478
0.253563
0.252668
0.251297
0.246802
0.239687
0.226614
0.211996
0.18024
0.161763
0.123677
0.123506
0.247787
0.247636
0.247017
0.245993
0.244576
0.242516
0.232085
0.206848
0.161215
0.125615
0.236834
0.236888
0.236705
0.236537
0.23618
0.235838
0.23531
0.234797
0.234105
0.233417
0.232371
0.228937
0.223369
0.213359
0.201534
0.176206
0.160909
0.127611
0.127939
0.229336
0.229217
0.228746
0.227964
0.226883
0.225316
0.217218
0.197249
0.160328
0.129718
0.220593
0.220644
0.2205
0.220376
0.220096
0.219835
0.219421
0.219026
0.218475
0.217957
0.217111
0.21454
0.210081
0.202363
0.192773
0.17246
0.159941
0.131021
0.131723
0.214538
0.214458
0.214092
0.213487
0.212648
0.211373
0.20498
0.189185
0.159396
0.133221
0.205529
0.205559
0.205455
0.205361
0.205157
0.204964
0.20466
0.20437
0.203968
0.203555
0.202968
0.200988
0.197692
0.191814
0.184429
0.168725
0.158197
0.134783
0.134569
0.192314
0.19226
0.192038
0.19167
0.19116
0.190382
0.186428
0.176301
0.156901
0.138627
0.174644
0.174664
0.17462
0.174589
0.174505
0.174434
0.174311
0.1742
0.17404
0.173889
0.173655
0.172929
0.17154
0.169316
0.166178
0.159497
0.155305
0.14201
0.143584
0.170519
0.170493
0.170395
0.170232
0.170004
0.169664
0.16789
0.16316
0.153819
0.144221
0.162178
0.162187
0.162166
0.16215
0.16211
0.162076
0.162018
0.161965
0.16189
0.161819
0.161703
0.161349
0.160672
0.159625
0.157998
0.154911
0.152837
0.145885
0.146902
0.160315
0.160304
0.160257
0.16018
0.160071
0.159906
0.159046
0.156765
0.15207
0.147005
0.156449
0.156453
0.156443
0.156434
0.156414
0.156396
0.156367
0.156339
0.156301
0.156264
0.156204
0.15602
0.15569
0.155123
0.154247
0.152652
0.151509
0.147814
0.148304
0.155598
0.155592
0.155568
0.155527
0.155469
0.155385
0.154927
0.153708
0.151135
0.148297
0.154087
0.154088
0.154083
0.154077
0.154065
0.154053
0.154035
0.154018
0.153995
0.153971
0.15393
0.153813
0.153615
0.153259
0.152727
0.151696
0.150879
0.148688
0.148775
0.153255
0.153251
0.153236
0.153213
0.153179
0.153139
0.152881
0.152191
0.150638
0.148932
0.1527
0.1527
0.152697
0.152693
0.152685
0.152677
0.152664
0.152652
0.152635
0.152615
0.152591
0.152526
0.152404
0.152124
0.151704
0.151221
0.150686
0.149061
0.149301
SCALARS Stress_Shear double 1
LOOKUP_TABLE default
0.0141201
-0.00835277
-0.025925
-0.0175848
-0.0494444
-0.0195045
0.116535
0.282314
0.807746
-1.73778
-2.96135
0.28733
0.0881518
-0.130144
0.135658
-0.0496573
0.0757045
-0.0247998
0.0844964
0.00158672
-0.494641
-0.971958
-1.48102
-2.38213
-5.05604
-0.48813
0.022391
0.0501845
0.0827829
-0.0112033
-0.475344
-0.953983
-1.41451
-1.91265
-2.46882
-3.07946
-3.94439
-5.31983
-6.32795
-7.03117
-3.41775
-1.116
-0.650535
-0.0492424
-0.202571
0.0428585
-0.056583
0.0813179
-0.014538
-1.24169
-2.54795
-4.11061
-6.1327
-7.41815
-1.68861
-0.0951915
0.0341415
0.0802916
-0.00687291
-0.741414
-1.49921
-2.26302
-3.10136
-3.94479
-4.90722
-5.79997
-6.92169
-7.25493
-7.77447
-4.51627
-2.12256
-1.06184
-0.180746
-0.323337
0.00727194
-0.0866916
0.0795545
-0.0185072
-1.47798
-3.03983
-4.71597
-6.26607
-7.02595
-2.21056
-0.265832
-0.0175378
0.078665
-0.0111181
-0.692496
-1.40616
-2.11206
-2.89826
-3.59446
-4.41433
-4.97775
-5.66003
-5.83877
-6.40781
-4.04021
-2.21398
-1.16056
-0.356012
-0.398355
-0.058764
-0.102843
0.0780934
-0.0159572
-1.00866
-2.05493
-3.09119
-3.89926
-4.46892
-1.88519
-0.452913
-0.0974148
0.0775753
-0.00152843
-0.268406
-0.548154
-0.799255
-1.08575
-1.30389
-1.57982
-1.73188
-1.94485
-1.94381
-2.23487
-1.75961
-1.46554
-0.959354
-0.56714
-0.434414
-0.152992
-0.103304
0.0440878
-0.000963098
-0.50276
-0.981981
-1.40251
-1.71268
-1.92005
-1.40247
-0.627465
-0.190627
0.0107053
-0.00175471
-0.242652
-0.484696
-0.713499
-0.941361
-1.14011
-1.33585
-1.48203
-1.62459
-1.69466
-1.81478
-1.67157
-1.42731
-0.994452
-0.653846
-0.414605
-0.1972
-0.0935019
0.0107073
-0.000877625
-0.456123
-0.883175
-1.24886
-1.51403
-1.70887
-1.42253
-0.676262
-0.202164
0.0105478
-0.00110184
-0.215429
-0.429877
-0.631319
-0.830504
-1.00325
-1.1705
-1.29928
-1.42273
-1.49734
-1.61769
-1.56537
-1.41482
-1.01348
-0.690616
-0.416523
-0.204398
-0.0930739
0.0104814
-0.000213296
-0.400099
-0.772534
-1.08946
-1.3265
-1.52024
-1.38672
-0.699615
-0.205236
0.0103582
-0.000894212
-0.187008
-0.373005
-0.547801
-0.72014
-0.870347
-1.01597
-1.13153
-1.24237
-1.31855
-1.43364
-1.4389
-1.36175
-1.01018
-0.706131
-0.415427
-0.20498
-0.091868
0.0103225
-7.18307e-05
-0.345572
-0.667582
-0.944159
-1.15863
-1.34451
-1.3215
-0.706086
-0.20344
0.0102542
-0.000648621
-0.160784
-0.320686
-0.471533
-0.620147
-0.751448
-0.879018
-0.983221
-1.0836
-1.15727
-1.26339
-1.30609
-1.28482
-0.983219
-0.70442
-0.408074
-0.20105
-0.0895182
0.01027
2.44885e-05
-0.296653
-0.574364
-0.816207
-1.00949
-1.18219
-1.23615
-0.695441
-0.197413
0.0102586
-0.000502141
-0.137719
-0.274747
-0.404593
-0.532641
-0.64712
-0.758687
-0.851906
-0.942101
-1.011
-1.10719
-1.17249
-1.19104
-0.934778
-0.685208
-0.393307
-0.192986
-0.0859507
0.0103286
7.75088e-06
-0.253686
-0.492422
-0.702951
-0.875251
-1.03232
-1.13567
-0.667213
-0.187325
0.0103695
-0.000412648
-0.117422
-0.234311
-0.345521
-0.45536
-0.554443
-0.65134
-0.733631
-0.813569
-0.876306
-0.962259
-1.03851
-1.08354
-0.86619
-0.648119
-0.370471
-0.180905
-0.0811581
0.0104891
-4.08616e-05
-0.215326
-0.418888
-0.600185
-0.751223
-0.891079
-1.02153
-0.620953
-0.173281
0.0105752
-0.00036784
-0.0989985
-0.197603
-0.29168
-0.384792
-0.469235
-0.552148
-0.623287
-0.692725
-0.748087
-0.823554
-0.901267
-0.962229
-0.777621
-0.592689
-0.339178
-0.164946
-0.075151
0.0107366
-0.000121439
-0.179538
-0.349872
-0.502687
-0.631604
-0.752499
-0.892235
-0.556081
-0.155482
0.0108608
-0.000363579
-0.0813142
-0.16236
-0.23977
-0.316607
-0.386463
-0.455344
-0.514771
-0.573208
-0.619808
-0.684088
-0.755044
-0.824161
-0.668044
-0.518258
-0.299193
-0.145427
-0.0679286
0.0110554
-0.000229412
-0.143864
-0.280704
-0.404204
-0.509158
-0.608707
-0.74331
-0.471809
-0.134384
0.0112137
-0.000373784
-0.0630027
-0.125867
-0.185871
-0.245727
-0.300103
-0.354303
-0.400665
-0.447288
-0.483561
-0.535361
-0.590895
-0.663509
-0.535243
-0.424149
-0.250243
-0.123084
-0.0594345
0.011436
-0.000369501
-0.105249
-0.205543
-0.296468
-0.374398
-0.452017
-0.567244
-0.367612
-0.111031
0.011637
-0.00040876
-0.0423494
-0.0847226
-0.12495
-0.165523
-0.201887
-0.238761
-0.269589
-0.300867
-0.32701
-0.365851
-0.399286
-0.46763
-0.37708
-0.309444
-0.191663
-0.0994966
-0.049473
0.0118941
0.000404185
-0.0598545
-0.117034
-0.169289
-0.214373
-0.263799
-0.343715
-0.242635
-0.0875931
0.0121779
0.000849637
-0.0166404
-0.0337124
-0.0497509
-0.0661797
-0.0810554
-0.0963904
-0.109733
-0.124015
-0.134872
-0.153577
-0.170815
-0.208797
-0.188402
-0.174434
-0.122769
-0.0774544
-0.0372727
0.00733371
0.000304083
-0.0268809
-0.0529763
-0.0775055
-0.0999235
-0.120919
-0.171158
-0.157476
-0.0779176
0.0017587
-0.000286683
-0.0110108
-0.0219104
-0.0326238
-0.0432394
-0.0534423
-0.0634778
-0.0729443
-0.0821045
-0.0905407
-0.0996939
-0.12363
-0.145961
-0.148694
-0.144616
-0.110571
-0.0767708
-0.034896
0.00140483
-1.85598e-05
-0.0183302
-0.036236
-0.053302
-0.0691893
-0.084272
-0.125934
-0.131397
-0.0743323
0.00113698
-4.68157e-05
-0.00766234
-0.0153073
-0.0228187
-0.0302847
-0.037501
-0.0446569
-0.0514454
-0.0580619
-0.0641703
-0.0709615
-0.0900694
-0.108141
-0.116212
-0.119709
-0.0972027
-0.0720167
-0.0331413
0.0008936
3.91104e-05
-0.0130147
-0.0257879
-0.0380726
-0.0497084
-0.0608983
-0.0942107
-0.108473
-0.0688225
0.000726565
-5.55937e-05
-0.00554178
-0.0110629
-0.0165151
-0.0219358
-0.0272182
-0.0324617
-0.0375119
-0.0424312
-0.047112
-0.0521791
-0.0672506
-0.0817239
-0.0915345
-0.0983598
-0.08403
-0.0658281
-0.030866
0.000557641
1.00699e-05
-0.00955944
-0.0189768
-0.028106
-0.0368312
-0.0453129
-0.0718107
-0.0890436
-0.0622857
0.000466273
-2.65194e-05
-0.0041292
-0.00824901
-0.0123237
-0.0163806
-0.0203488
-0.0242969
-0.0281126
-0.0318671
-0.0354588
-0.0392799
-0.0512345
-0.0628547
-0.0726639
-0.0805613
-0.0718201
-0.0589958
-0.0282445
0.000349375
9.94948e-06
-0.00720692
-0.014324
-0.0212591
-0.027936
-0.0344521
-0.0556222
-0.0729333
-0.0554084
0.000310246
-1.89292e-05
-0.00314717
-0.00628763
-0.0093995
-0.0124997
-0.0155434
-0.0185713
-0.0215152
-0.024422
-0.027224
-0.0301673
-0.0397049
-0.0490519
-0.0581007
-0.0659242
-0.0608924
-0.0520813
-0.0254462
0.000227711
5.64158e-06
-0.00554281
-0.0110263
-0.0163904
-0.0215822
-0.0266686
-0.0436573
-0.0597106
-0.0486371
0.000221384
-1.23276e-05
-0.00244113
-0.00487788
-0.00729519
-0.00970518
-0.0120767
-0.0144376
-0.016741
-0.0190229
-0.0212319
-0.0235327
-0.0311905
-0.0387328
-0.046744
-0.0539595
-0.0513319
-0.0454375
-0.0226174
0.000160079
4.27383e-06
-0.00432971
-0.0086191
-0.0128271
-0.0169166
-0.0209341
-0.0346304
-0.0489034
-0.0422437
0.000171613
-8.25444e-06
-0.00191935
-0.00383574
-0.00573858
-0.00763642
-0.0095077
-0.0113711
-0.0131953
-0.015004
-0.0167633
-0.0185856
-0.024765
-0.0308696
-0.0377973
-0.0441974
-0.0430938
-0.0392688
-0.0198701
0.000122215
2.24462e-06
-0.00342326
-0.006818
-0.0101553
-0.0134098
-0.016611
-0.0276993
-0.0400783
-0.0363785
0.000140702
-7.53796e-06
-0.00152582
-0.00304898
-0.00456295
-0.00607341
-0.00756476
-0.00905095
-0.0105075
-0.0119547
-0.0133604
-0.0148159
-0.019827
-0.024783
-0.0306818
-0.0362294
-0.0360684
-0.0336798
-0.0172811
9.67623e-05
4.52069e-06
-0.00273124
-0.00544289
-0.00811396
-0.0107254
-0.013298
-0.0223122
-0.0328621
-0.0311135
0.000114768
1.36214e-06
-0.0012202
-0.00244043
-0.00365269
-0.00486207
-0.00605768
-0.00724937
-0.00842244
-0.00958579
-0.0107316
-0.0119001
-0.0159732
-0.0200113
-0.0249965
-0.0297064
-0.030115
-0.0287208
-0.0148922
7.2107e-05
-7.84761e-06
-0.00219678
-0.00437531
-0.00652248
-0.00862575
-0.0107113
-0.0180349
-0.0269238
-0.0264955
8.66583e-05
-2.73161e-05
-0.00098148
-0.00195444
-0.002923
-0.00389105
-0.00484905
-0.00580289
-0.00674089
-0.00766744
-0.00856887
-0.00953365
-0.012822
-0.0160943
-0.0202436
-0.024182
-0.0248998
-0.024243
-0.0126972
4.43812e-05
1.94001e-05
-0.00134687
-0.00269041
-0.00401711
-0.00532381
-0.00659236
-0.0112054
-0.0171325
-0.0178294
0.000329054
-2.27141e-05
-0.000455875
-0.000904776
-0.00135197
-0.00179964
-0.00224391
-0.0026856
-0.00312227
-0.00355081
-0.00397304
-0.00443326
-0.00598991
-0.00753283
-0.00965245
-0.0116389
-0.0125215
-0.0126761
-0.00681559
8.13506e-06
3.20792e-06
-0.000632739
-0.00126266
-0.00188608
-0.00250217
-0.00310598
-0.00530689
-0.00826226
-0.00917548
0.000184957
-6.33289e-06
-0.000213034
-0.000424293
-0.00063474
-0.000845322
-0.00105429
-0.00126222
-0.00146771
-0.00166887
-0.0018667
-0.00208486
-0.00282564
-0.00356071
-0.00456737
-0.00555045
-0.006087
-0.00627755
-0.00342747
3.77574e-06
2.96309e-06
-0.000293288
-0.000585779
-0.0008754
-0.00116248
-0.0014409
-0.00247325
-0.00388115
-0.00445418
0.000103731
-3.63585e-06
-9.62936e-05
-0.00019154
-0.000286463
-0.000381466
-0.000475844
-0.000569585
-0.000662403
-0.000752249
-0.000840931
-0.000942324
-0.00128366
-0.0016101
-0.00207757
-0.00253743
-0.00281226
-0.00291672
-0.00161288
1.45035e-05
6.53266e-07
-0.000132326
-0.000264145
-0.000394865
-0.000524969
-0.000649733
-0.0011134
-0.00175467
-0.00204395
7.2055e-05
-2.40874e-06
-4.30222e-05
-8.53122e-05
-0.000127484
-0.000169681
-0.000211645
-0.000253145
-0.000294287
-0.000333487
-0.000372195
-0.000419586
-0.000573233
-0.000714322
-0.000928443
-0.00112611
-0.00126818
-0.00129252
-0.000740989
2.93901e-05
1.78605e-06
-7.46435e-05
-0.000149425
-0.000223601
-0.000297606
-0.000366307
-0.000629605
-0.00098593
-0.00114129
5.69551e-05
-2.61071e-15
-3.7764e-05
-7.54902e-05
-0.000113123
-0.000150649
-0.000187994
-0.000225164
-0.00026207
-0.000298733
-0.000335105
-0.000371167
-0.000505757
-0.000633215
-0.000831088
-0.000993343
-0.00113727
-0.0011351
-0.000655248
1.36316e-15
SCALARS Radial_Distance double 1
LOOKUP_TABLE default
0
0.5
1
1.5
2
2.5
3
3.5
4
4.5
5
6.9457
8.8914
12.3514
15.8114
21.9642
28.1171
39.0585
50
0
1
2
3
4
5
8.8914
15.8114
28.1171
50
0
0.5
1
1.5
2
2.5
3
3.5
4
4.5
5
6.9457
8.8914
12.3514
15.8114
21.9642
28.1171
39.0585
50
0
1
2
3
4
5
8.8914
15.8114
28.1171
50
0
0.5
1
1.5
2
2.5
3
3.5
4
4.5
5
6.9457
8.8914
12.3514
15.8114
21.9642
28.1171
39.0585
50
0
1
2
3
4
5
8.8914
15.8114
28.1171
50
0
0.5
1
1.5
2
2.5
3
3.5
4
4.5
5
6.9457
8.8914
12.3514
15.8114
21.9642
28.1171
39.0585
50
0
1
2
3
4
5
8.8914
15.8114
28.1171
50
0
0.5
1
1.5
2
2.5
3
3.5
4
4.5
5
6.9457
8.8914
12.3514
15.8114
21.9642
28.1171
39.0585
50
0
1
2
3
4
5
8.8914
15.8114
28.1171
50
0
0.5
1
1.5
2
2.5
3
3.5
4
4.5
5
6.9457
8.8914
12.3514
15.8114
21.9642
28.1171
39.0585
50
0
1
2
3
4
5
8.8914
15.8114
28.1171
50
0
0.5
1
1.5
2
2.5
3
3.5
4
4.5
5
6.9457
8.8914
12.3514
15.8114
21.9642
28.1171
39.0585
50
0
1
2
3
4
5
8.8914
15.8114
28.1171
50
0
0.5
1
1.5
2
2.5
3
3.5
4
4.5
5
6.9457
8.8914
12.3514
15.8114
21.9642
28.1171
39.0585
50
0
1
2
3
4
5
8.8914
15.8114
28.1171
50
0
0.5
1
1.5
2
2.5
3
3.5
4
4.5
5
6.9457
8.8914
12.3514
15.8114
21.9642
28.1171
39.0585
50
0
1
2
3
4
5
8.8914
15.8114
28.1171
50
0
0.5
1
1.5
2
2.5
3
3.5
4
4.5
5
6.9457
8.8914
12.3514
15.8114
21.9642
28.1171
39.0585
50
0
1
2
3
4
5
8.8914
15.8114
28.1171
50
0
0.5
1
1.5
2
2.5
3
3.5
4
4.5
5
6.9457
8.8914
12.3514
15.8114
21.9642
28.1171
39.0585
50
0
1
2
3
4
5
8.8914
15.8114
28.1171
50
0
0.5
1
1.5
2
2.5
3
3.5
4
4.5
5
6.9457
8.8914
12.3514
15.8114
21.9642
28.1171
39.0585
50
0
1
2
3
4
5
8.8914
15.8114
28.1171
50
0
0.5
1
1.5
2
2.5
3
3.5
4
4.5
5
6.9457
8.8914
12.3514
15.8114
21.9642
28.1171
39.0585
50
0
1
2
3
4
5
8.8914
15.8114
28.1171
50
0
0.5
1
1.5
2
2.5
3
3.5
4
4.5
5
6.9457
8.8914
12.3514
15.8114
21.9642
28.1171
39.0585
50
0
1
2
3
4
5
8.8914
15.8114
28.1171
50
0
0.5
1
1.5
2
2.5
3
3.5
4
4.5
5
6.9457
8.8914
12.3514
15.8114
21.9642
28.1171
39.0585
50
0
1
2
3
4
5
8.8914
15.8114
28.1171
50
0
0.5
1
1.5
2
2.5
3
3.5
4
4.5
5
6.9457
8.8914
12.3514
15.8114
21.9642
28.1171
39.0585
50
0
1
2
3
4
5
8.8914
15.8114
28.1171
50
0
0.5
1
1.5
2
2.5
3
3.5
4
4.5
5
6.9457
8.8914
12.3514
15.8114
21.9642
28.1171
39.0585
50
0
1
2
3
4
5
8.8914
15.8114
28.1171
50
0
0.5
1
1.5
2
2.5
3
3.5
4
4.5
5
6.9457
8.8914
12.3514
15.8114
21.9642
28.1171
39.0585
50
0
1
2
3
4
5
8.8914
15.8114
28.1171
50
0
0.5
1
1.5
2
2.5
3
3.5
4
4.5
5
6.9457
8.8914
12.3514
15.8114
21.9642
28.1171
39.0585
50
0
1
2
3
4
5
8.8914
15.8114
28.1171
50
0
0.5
1
1.5
2
2.5
3
3.5
4
4.5
5
6.9457
8.8914
12.3514
15.8114
21.9642
28.1171
39.0585
50
0
1
2
3
4
5
8.8914
15.8114
28.1171
50
0
0.5
1
1.5
2
2.5
3
3.5
4
4.5
5
6.9457
8.8914
12.3514
15.8114
21.9642
28.1171
39.0585
50
0
1
2
3
4
5
8.8914
15.8114
28.1171
50
0
0.5
1
1.5
2
2.5
3
3.5
4
4.5
5
6.9457
8.8914
12.3514
15.8114
21.9642
28.1171
39.0585
50
0
1
2
3
4
5
8.8914
15.8114
28.1171
50
0
0.5
1
1.5
2
2.5
3
3.5
4
4.5
5
6.9457
8.8914
12.3514
15.8114
21.9642
28.1171
39.0585
50
0
1
2
3
4
5
8.8914
15.8114
28.1171
50
0
0.5
1
1.5
2
2.5
3
3.5
4
4.5
5
6.9457
8.8914
12.3514
15.8114
21.9642
28.1171
39.0585
50
0
1
2
3
4
5
8.8914
15.8114
28.1171
50
0
0.5
1
1.5
2
2.5
3
3.5
4
4.5
5
6.9457
8.8914
12.3514
15.8114
21.9642
28.1171
39.0585
50
0
1
2
3
4
5
8.8914
15.8114
28.1171
50
0
0.5
1
1.5
2
2.5
3
3.5
4
4.5
5
6.9457
8.8914
12.3514
15.8114
21.9642
28.1171
39.0585
50
0
1
2
3
4
5
8.8914
15.8114
28.1171
50
0
0.5
1
1.5
2
2.5
3
3.5
4
4.5
5
6.9457
8.8914
12.3514
15.8114
21.9642
28.1171
39.0585
50
0
1
2
3
4
5
8.8914
15.8114
28.1171
50
0
0.5
1
1.5
2
2.5
3
3.5
4
4.5
5
6.9457
8.8914
12.3514
15.8114
21.9642
28.1171
39.0585
50
0
1
2
3
4
5
8.8914
15.8114
28.1171
50
0
0.5
1
1.5
2
2.5
3
3.5
4
4.5
5
6.9457
8.8914
12.3514
15.8114
21.9642
28.1171
39.0585
50
0
1
2
3
4
5
8.8914
15.8114
28.1171
50
0
0.5
1
1.5
2
2.5
3
3.5
4
4.5
5
6.9457
8.8914
12.3514
15.8114
21.9642
28.1171
39.0585
50
0
1
2
3
4
5
8.8914
15.8114
28.1171
50
0
0.5
1
1.5
2
2.5
3
3.5
4
4.5
5
6.9457
8.8914
12.3514
15.8114
21.9642
28.1171
39.0585
50
SCALARS Depth double 1
LOOKUP_TABLE default
0
0
0
0
0
0
0
0
0
0
0
0
0
0
0
0
0
0
0
-0.5
-0.5
-0.5
-0.5
-0.5
-0.5
-0.5
-0.5
-0.5
-0.5
-1
-1
-1
-1
-1
-1
-1
-1
-1
-1
-1
-1
-1
-1
-1
-1
-1
-1
-1
-1.5
-1.5
-1.5
-1.5
-1.5
-1.5
-1.5
-1.5
-1.5
-1.5
-2
-2
-2
-2
-2
-2
-2
-2
-2
-2
-2
-2
-2
-2
-2
-2
-2
-2
-2
-2.5
-2.5
-2.5
-2.5
-2.5
-2.5
-2.5
-2.5
-2.5
-2.5
-3
-3
-3
-3
-3
-3
-3
-3
-3
-3
-3
-3
-3
-3
-3
-3
-3
-3
-3
-3.5
-3.5
-3.5
-3.5
-3.5
-3.5
-3.5
-3.5
-3.5
-3.5
-4
-4
-4
-4
-4
-4
-4
-4
-4
-4
-4
-4
-4
-4
-4
-4
-4
-4
-4
-4.5
-4.5
-4.5
-4.5
-4.5
-4.5
-4.5
-4.5
-4.5
-4.5
-5
-5
-5
-5
-5
-5
-5
-5
-5
-5
-5
-5
-5
-5
-5
-5
-5
-5
-5
-5.5
-5.5
-5.5
-5.5
-5.5
-5.5
-5.5
-5.5
-5.5
-5.5
-6
-6
-6
-6
-6
-6
-6
-6
-6
-6
-6
-6
-6
-6
-6
-6
-6
-6
-6
-6.5
-6.5
-6.5
-6.5
-6.5
-6.5
-6.5
-6.5
-6.5
-6.5
-7
-7
-7
-7
-7
-7
-7
-7
-7
-7
-7
-7
-7
-7
-7
-7
-7
-7
-7
-7.5
-7.5
-7.5
-7.5
-7.5
-7.5
-7.5
-7.5
-7.5
-7.5
-8
-8
-8
-8
-8
-8
-8
-8
-8
-8
-8
-8
-8
-8
-8
-8
-8
-8
-8
-8.5
-8.5
-8.5
-8.5
-8.5
-8.5
-8.5
-8.5
-8.5
-8.5
-9
-9
-9
-9
-9
-9
-9
-9
-9
-9
-9
-9
-9
-9
-9
-9
-9
-9
-9
-9.5
-9.5
-9.5
-9.5
-9.5
-9.5
-9.5
-9.5
-9.5
-9.5
-10
-10
-10
-10
-10
-10
-10
-10
-10
-10
-10
-10
-10
-10
-10
-10
-10
-10
-10
-10.5
-10.5
-10.5
-10.5
-10.5
-10.5
-10.5
-10.5
-10.5
-10.5
-11
-11
-11
-11
-11
-11
-11
-11
-11
-11
-11
-11
-11
-11
-11
-11
-11
-11
-11
-11.5
-11.5
-11.5
-11.5
-11.5
-11.5
-11.5
-11.5
-11.5
-11.5
-12
-12
-12
-12
-12
-12
-12
-12
-12
-12
-12
-12
-12
-12
-12
-12
-12
-12
-12
-12.5
-12.5
-12.5
-12.5
-12.5
-12.5
-12.5
-12.5
-12.5
-12.5
-13
-13
-13
-13
-13
-13
-13
-13
-13
-13
-13
-13
-13
-13
-13
-13
-13
-13
-13
-13.5
-13.5
-13.5
-13.5
-13.5
-13.5
-13.5
-13.5
-13.5
-13.5
-14
-14
-14
-14
-14
-14
-14
-14
-14
-14
-14
-14
-14
-14
-14
-14
-14
-14
-14
-14.5
-14.5
-14.5
-14.5
-14.5
-14.5
-14.5
-14.5
-14.5
-14.5
-15
-15
-15
-15
-15
-15
-15
-15
-15
-15
-15
-15
-15
-15
-15
-15
-15
-15
-15
-16.5
-16.5
-16.5
-16.5
-16.5
-16.5
-16.5
-16.5
-16.5
-16.5
-18
-18
-18
-18
-18
-18
-18
-18
-18
-18
-18
-18
-18
-18
-18
-18
-18
-18
-18
-19.5
-19.5
-19.5
-19.5
-19.5
-19.5
-19.5
-19.5
-19.5
-19.5
-21
-21
-21
-21
-21
-21
-21
-21
-21
-21
-21
-21
-21
-21
-21
-21
-21
-21
-21
-22.5
-22.5
-22.5
-22.5
-22.5
-22.5
-22.5
-22.5
-22.5
-22.5
-24
-24
-24
-24
-24
-24
-24
-24
-24
-24
-24
-24
-24
-24
-24
-24
-24
-24
-24
-25.5
-25.5
-25.5
-25.5
-25.5
-25.5
-25.5
-25.5
-25.5
-25.5
-27
-27
-27
-27
-27
-27
-27
-27
-27
-27
-27
-27
-27
-27
-27
-27
-27
-27
-27
-28.5
-28.5
-28.5
-28.5
-28.5
-28.5
-28.5
-28.5
-28.5
-28.5
-30
-30
-30
-30
-30
-30
-30
-30
-30
-30
-30
-30
-30
-30
-30
-30
-30
-30
-30
-31.5
-31.5
-31.5
-31.5
-31.5
-31.5
-31.5
-31.5
-31.5
-31.5
-33
-33
-33
-33
-33
-33
-33
-33
-33
-33
-33
-33
-33
-33
-33
-33
-33
-33
-33
-34.5
-34.5
-34.5
-34.5
-34.5
-34.5
-34.5
-34.5
-34.5
-34.5
-36
-36
-36
-36
-36
-36
-36
-36
-36
-36
-36
-36
-36
-36
-36
-36
-36
-36
-36
-37.5
-37.5
-37.5
-37.5
-37.5
-37.5
-37.5
-37.5
-37.5
-37.5
-39
-39
-39
-39
-39
-39
-39
-39
-39
-39
-39
-39
-39
-39
-39
-39
-39
-39
-39
-40.5
-40.5
-40.5
-40.5
-40.5
-40.5
-40.5
-40.5
-40.5
-40.5
-42
-42
-42
-42
-42
-42
-42
-42
-42
-42
-42
-42
-42
-42
-42
-42
-42
-42
-42
-43.5
-43.5
-43.5
-43.5
-43.5
-43.5
-43.5
-43.5
-43.5
-43.5
-45
-45
-45
-45
-45
-45
-45
-45
-45
-45
-45
-45
-45
-45
-45
-45
-45
-45
-45
-50.5
-50.5
-50.5
-50.5
-50.5
-50.5
-50.5
-50.5
-50.5
-50.5
-56
-56
-56
-56
-56
-56
-56
-56
-56
-56
-56
-56
-56
-56
-56
-56
-56
-56
-56
-61.5
-61.5
-61.5
-61.5
-61.5
-61.5
-61.5
-61.5
-61.5
-61.5
-67
-67
-67
-67
-67
-67
-67
-67
-67
-67
-67
-67
-67
-67
-67
-67
-67
-67
-67
-72.5
-72.5
-72.5
-72.5
-72.5
-72.5
-72.5
-72.5
-72.5
-72.5
-78
-78
-78
-78
-78
-78
-78
-78
-78
-78
-78
-78
-78
-78
-78
-78
-78
-78
-78
-83.5
-83.5
-83.5
-83.5
-83.5
-83.5
-83.5
-83.5
-83.5
-83.5
-89
-89
-89
-89
-89
-89
-89
-89
-89
-89
-89
-89
-89
-89
-89
-89
-89
-89
-89
-94.5
-94.5
-94.5
-94.5
-94.5
-94.5
-94.5
-94.5
-94.5
-94.5
-100
-100
-100
-100
-100
-100
-100
-100
-100
-100
-100
-100
-100
-100
-100
-100
-100
-100
-100
