# vtk DataFile Version 2.0
./vtk
ASCII

DATASET UNSTRUCTURED_GRID
POINTS 40 double
0 0 0.0
3 0 0.0
6 0 0.0
9 0 0.0
12 0 0.0
15 0 0.0
18 0 0.0
0 3 0.0
6 3 0.0
12 3 0.0
18 3 0.0
0 6 0.0
3 6 0.0
6 6 0.0
9 6 0.0
12 6 0.0
15 6 0.0
18 6 0.0
0 9 0.0
6 9 0.0
12 9 0.0
18 9 0.0
0 12 0.0
3 12 0.0
6 12 0.0
9 12 0.0
12 12 0.0
15 12 0.0
18 12 0.0
0 15 0.0
6 15 0.0
12 15 0.0
18 15 0.0
0 18 0.0
3 18 0.0
6 18 0.0
9 18 0.0
12 18 0.0
15 18 0.0
18 18 0.0

CELLS 9 81
8  0  2 13 11  1  8 12  7
8  2  4 15 13  3  9 14  8
8  4  6 17 15  5 10 16  9
8 11 13 24 22 12 19 23 18
8 13 15 26 24 14 20 25 19
8 15 17 28 26 16 21 27 20
8 22 24 35 33 23 30 34 29
8 24 26 37 35 25 31 36 30
8 26 28 39 37 27 32 38 31

CELL_TYPES 9
23
23
23
23
23
23
23
23
23

POINT_DATA 40
SCALARS Displacement_R double 1
LOOKUP_TABLE default
0
0
0
0
0
0
0
0
0.000103133
8.50934e-05
0
0
0.000106742
0.000174777
0.000181968
0.000135314
7.10179e-05
0
0
0.000254969
0.000172425
0
0
0.000229424
0.000311743
0.000265947
0.000165291
6.986e-05
0
0
0.00027435
3.6874e-05
0
0
-0.000292924
-0.000536998
-0.000393983
-0.000189775
-9.20732e-05
0
SCALARS Displacement_Z double 1
LOOKUP_TABLE default
0
0
0
0
0
0
0
-0.000284453
-0.000221133
-0.000110136
-6.72099e-05
-0.000693147
-0.000633483
-0.000497657
-0.000338818
-0.000203788
-0.000126916
-0.000102073
-0.00126327
-0.000844806
-0.000282897
-0.000110771
-0.0021432
-0.00177886
-0.00124427
-0.000702527
-0.000318262
-0.000151558
-0.000107126
-0.00300959
-0.00174849
-0.000330598
-9.15108e-05
-0.00403876
-0.00378941
-0.00218242
-0.000807959
-0.000342237
-0.000156884
-0.00010931
SCALARS Stress_R double 1
LOOKUP_TABLE default
-1.28269
-1.30918
-1.1154
-0.865899
-0.681929
-0.507557
-0.480167
-0.635608
-0.801429
-0.971826
-0.912346
-0.130925
-0.510251
-0.741724
-0.973124
-1.24783
-1.05855
-1.09602
0.0554442
-1.1002
-1.36939
-1.04703
0.576986
-1.51883
-1.93947
-1.28563
-1.4109
-0.94828
-0.642407
-1.88522
-2.17462
-1.00036
-0.121206
-12.51
-11.3709
-4.52694
1.44024
1.94342
1.05967
1.00299
SCALARS Stress_Z double 1
LOOKUP_TABLE default
-1.28269
-1.30918
-1.11463
-0.866929
-0.680563
-0.508349
-0.47898
-0.635608
-0.59844
-0.520612
-0.559098
-0.130925
-0.361376
-0.387488
-0.355319
-0.470207
-0.429756
-0.521163
0.0554442
-0.306563
-0.302885
-0.454707
0.576986
-0.953038
-0.69088
-0.0670393
-0.161902
-0.206685
-0.197573
-1.88522
-1.03177
-0.396068
-0.0573478
-12.51
-11.5587
-6.12055
-0.958546
0.322522
0.185891
0.317046
SCALARS Stress_Theta double 1
LOOKUP_TABLE default
-2.99293
-3.05476
-2.60338
-2.0194
-1.59253
-1.18351
-1.12158
-3.8471
-2.90825
-1.46667
-0.951798
-4.5087
-4.25241
-3.46483
-2.2307
-1.44737
-0.843527
-0.652949
-7.21701
-4.15507
-1.07405
-0.475789
-8.75295
-9.30544
-5.61403
-1.77754
-0.60272
-0.199397
-0.0413011
-10.6089
-5.6527
-0.538802
-0.0644852
-18.6118
-17.3941
-7.1821
-0.0277023
0.566873
0.183445
0.0509416
SCALARS Stress_Shear double 1
LOOKUP_TABLE default
2.73657e-16
0.265831
0.457224
0.477559
0.394346
0.203636
8.55177e-17
-0.0246964
0.599849
0.435356
-0.017506
0.0830106
0.588782
0.947022
0.822104
0.611597
0.271791
-0.00450779
0.33085
1.61731
0.756739
-0.00418322
1.07389
2.0661
3.14394
2.00056
0.816943
0.301121
-0.0642487
-0.51308
3.43809
0.135274
-0.0403151
-1.6518
1.077
3.30383
0.592437
-0.549877
-0.0523816
-0.0819802
