# vtk DataFile Version 2.0
./vtk
ASCII

DATASET UNSTRUCTURED_GRID
POINTS 95 double
0 0 0.0
0.5 0 0.0
1 0 0.0
1.5 0 0.0
2 0 0.0
2.5 0 0.0
3 0 0.0
0 -0.75 0.0
1 -0.75 0.0
2 -0.75 0.0
3 -0.75 0.0
0 -1.5 0.0
0.5 -1.5 0.0
1 -1.5 0.0
1.5 -1.5 0.0
2 -1.5 0.0
2.5 -1.5 0.0
3 -1.5 0.0
0 -2.25 0.0
1 -2.25 0.0
2 -2.25 0.0
3 -2.25 0.0
0 -3 0.0
0.5 -3 0.0
1 -3 0.0
1.5 -3 0.0
2 -3 0.0
2.5 -3 0.0
3 -3 0.0
0 -3.75 0.0
1 -3.75 0.0
2 -3.75 0.0
3 -3.75 0.0
0 -4.5 0.0
0.5 -4.5 0.0
1 -4.5 0.0
1.5 -4.5 0.0
2 -4.5 0.0
2.5 -4.5 0.0
3 -4.5 0.0
0 -5.25 0.0
1 -5.25 0.0
2 -5.25 0.0
3 -5.25 0.0
0 -6 0.0
0.5 -6 0.0
1 -6 0.0
1.5 -6 0.0
2 -6 0.0
2.5 -6 0.0
3 -6 0.0
0 -6.75 0.0
1 -6.75 0.0
2 -6.75 0.0
3 -6.75 0.0
0 -7.5 0.0
0.5 -7.5 0.0
1 -7.5 0.0
1.5 -7.5 0.0
2 -7.5 0.0
2.5 -7.5 0.0
3 -7.5 0.0
0 -8.25 0.0
1 -8.25 0.0
2 -8.25 0.0
3 -8.25 0.0
0 -9 0.0
0.5 -9 0.0
1 -9 0.0
1.5 -9 0.0
2 -9 0.0
2.5 -9 0.0
3 -9 0.0
0 -9.75 0.0
1 -9.75 0.0
2 -9.75 0.0
3 -9.75 0.0
0 -10.5 0.0
0.5 -10.5 0.0
1 -10.5 0.0
1.5 -10.5 0.0
2 -10.5 0.0
2.5 -10.5 0.0
3 -10.5 0.0
0 -11.25 0.0
1 -11.25 0.0
2 -11.25 0.0
3 -11.25 0.0
0 -12 0.0
0.5 -12 0.0
1 -12 0.0
1.5 -12 0.0
2 -12 0.0
2.5 -12 0.0
3 -12 0.0

CELLS 24 216
8 11 13  2  0 12  8  1  7
8 13 15  4  2 14  9  3  8
8 15 17  6  4 16 10  5  9
8 22 24 13 11 23 19 12 18
8 24 26 15 13 25 20 14 19
8 26 28 17 15 27 21 16 20
8 33 35 24 22 34 30 23 29
8 35 37 26 24 36 31 25 30
8 37 39 28 26 38 32 27 31
8 44 46 35 33 45 41 34 40
8 46 48 37 35 47 42 36 41
8 48 50 39 37 49 43 38 42
8 55 57 46 44 56 52 45 51
8 57 59 48 46 58 53 47 52
8 59 61 50 48 60 54 49 53
8 66 68 57 55 67 63 56 62
8 68 70 59 57 69 64 58 63
8 70 72 61 59 71 65 60 64
8 77 79 68 66 78 74 67 73
8 79 81 70 68 80 75 69 74
8 81 83 72 70 82 76 71 75
8 88 90 79 77 89 85 78 84
8 90 92 81 79 91 86 80 85
8 92 94 83 81 93 87 82 86

CELL_TYPES 24
23
23
23
23
23
23
23
23
23
23
23
23
23
23
23
23
23
23
23
23
23
23
23
23

POINT_DATA 95
SCALARS Displacement_R double 1
LOOKUP_TABLE default
0
0.00014753
0.000295062
0.000442613
0.000590188
0.000737783
0.000885375
0
0.000295424
0.000590881
0.000886392
0
0.000147874
0.000295764
0.000443654
0.000591548
0.000739458
0.000887394
0
0.000296157
0.000592272
0.000888452
0
0.000148348
0.00029664
0.000444883
0.000593133
0.00074136
0.000889602
0
0.000297543
0.000594452
0.000891103
0
0.000149461
0.000298814
0.000447776
0.000596353
0.000744618
0.000893091
0
0.000301266
0.000599808
0.000895831
0
0.000152751
0.000304543
0.00045509
0.00060449
0.000752263
0.000899192
0
0.000310461
0.00061162
0.000903833
0
0.000159697
0.000317638
0.000471107
0.00061974
0.000765067
0.000911007
0
0.000318366
0.000627245
0.000911124
0
0.00015576
0.000311042
0.000469184
0.000622481
0.000771136
0.000898018
0
0.000284954
0.000572137
0.000851742
0
0.000112122
0.000227562
0.00034839
0.000480935
0.000616135
0.00077185
0
0.00012406
0.000272718
0.000490365
0
0
0
0
0
0
0
SCALARS Displacement_Z double 1
LOOKUP_TABLE default
0.00860084
0.00860078
0.00860057
0.00860024
0.00859979
0.00859924
0.00859861
0.00803917
0.00803888
0.00803803
0.00803681
0.00747697
0.00747688
0.00747664
0.00747626
0.00747575
0.00747514
0.00747446
0.0069142
0.00691385
0.00691294
0.00691154
0.00635065
0.00635061
0.00635045
0.00635012
0.00634956
0.00634888
0.00634808
0.00578608
0.00578611
0.00578558
0.00578394
0.00521974
0.00521982
0.00522018
0.00522077
0.005221
0.00522046
0.00521917
0.00465031
0.00465189
0.00465513
0.00465401
0.00407518
0.00407655
0.00407977
0.00408392
0.00408763
0.0040904
0.00408984
0.00349337
0.0035019
0.00351867
0.00352539
0.00289931
0.00290197
0.00291459
0.00293084
0.00294917
0.00296138
0.0029606
0.00229374
0.0023174
0.00237482
0.00240946
0.0016956
0.00170556
0.00172075
0.00175441
0.00179106
0.00183632
0.00188123
0.00112361
0.00114793
0.00122524
0.00136372
0.000616464
0.000616534
0.000634056
0.000655177
0.000702106
0.000747199
0.000831796
0.000224847
0.000232365
0.000256083
0.000321337
-0
-0
-0
-0
-0
-0
-0
SCALARS Stress_R double 1
LOOKUP_TABLE default
20.2517
20.2521
20.2505
20.2436
20.2378
20.2354
20.2332
20.24
20.2375
20.2354
20.233
20.2263
20.2266
20.2283
20.2273
20.2355
20.2347
20.2356
20.2231
20.238
20.2375
20.2395
20.1144
20.1579
20.1643
20.1825
20.2197
20.2131
20.269
20.1569
20.2122
20.2704
20.2611
19.8597
19.9962
19.988
20.072
20.2337
20.185
20.3329
19.8793
20.1462
20.2977
20.3895
18.8559
19.7552
19.634
19.9916
20.2601
19.9093
20.6739
18.986
19.7393
20.6488
20.7849
20.7347
20.627
20.5868
20.5947
20.4602
20.548
19.3479
19.8875
19.7024
19.2192
20.2853
25.9243
26.8759
24.3885
24.1148
20.6083
21.5109
21.7114
19.9879
20.1009
18.7453
13.5008
40.2882
37.954
37.632
35.1447
37.3689
35.8746
26.5328
37.531
35.1006
26.6119
23.2599
62.6564
61.5978
66.5184
64.1807
69.5015
89.6493
135.619
SCALARS Stress_Theta double 1
LOOKUP_TABLE default
20.2517
20.2522
20.251
20.2461
20.2421
20.239
20.2359
20.24
20.2381
20.2376
20.2364
20.2263
20.2273
20.2294
20.228
20.2364
20.2377
20.2405
20.2231
20.2358
20.2374
20.2429
20.1144
20.1552
20.1577
20.1779
20.2153
20.2094
20.2673
20.1569
20.2019
20.2343
20.2531
19.8597
19.9911
19.9706
20.0245
20.155
20.131
20.3064
19.8793
20.0912
20.1487
20.2324
18.8561
19.709
19.5327
19.8245
20.0072
19.6108
20.346
18.9865
19.5918
20.0647
20.3294
20.7347
20.5405
20.3542
20.0115
19.5614
19.8271
18.8151
19.8875
19.6491
18.6654
18.3326
25.9244
26.8537
24.6129
24.0453
20.5885
19.8908
18.5493
19.9869
20.0485
18.7608
13.2166
40.2893
38.1516
37.9185
36.3667
38.9685
38.6281
30.4569
37.5317
35.5427
28.4757
26.7766
62.6573
61.6049
66.5952
64.3028
70.1424
90.8715
137.499
SCALARS Stress_Z double 1
LOOKUP_TABLE default
70.8339
70.835
70.8335
70.8281
70.8248
70.8216
70.817
70.8793
70.8789
70.8826
70.8857
70.9183
70.9229
70.9302
70.928
70.9452
70.9519
70.9607
71.0017
71.0161
71.0165
71.034
70.8891
70.9584
70.9503
70.984
71.0535
71.0391
71.1546
71.1549
71.2052
71.1903
71.2193
70.8174
71.0359
70.9707
70.9942
71.1662
71.0952
71.4291
71.4908
71.6534
71.4094
71.3339
70.0299
71.6117
71.0239
71.3752
71.4738
70.37
71.6889
71.6125
72.2704
71.99
71.777
76.7713
75.9434
75.0928
73.3621
71.398
71.3325
68.988
74.9907
74.0637
70.5953
66.9226
86.1023
87.9831
83.2649
82.1428
74.4173
71.069
65.2984
68.3075
68.8305
66.0332
52.7483
94.3644
91.4449
91.4327
90.0142
96.6683
96.5602
82.3784
68.5437
66.4739
58.0825
61.6454
78.5107
77.1899
83.7799
81.5402
91.4496
120.705
180.85
SCALARS Stress_Shear double 1
LOOKUP_TABLE default
0.000748267
-0.000587869
-0.00156067
-0.00134734
-0.00183918
-0.000889066
0.000792375
0.000268271
-0.00326686
-0.00445223
0.000150696
-0.000719383
-0.00244845
-0.00442134
-0.00528763
-0.00708515
-0.00454618
-0.00128118
-0.00175848
-0.000197177
-0.00466395
-0.00229646
0.00133671
0.00585082
0.00940153
0.00582261
0.000294902
-0.000832496
-0.00172305
-0.00292152
0.0381236
0.0293238
-0.00476515
-0.00293569
0.0425462
0.0869609
0.0931519
0.0789435
0.037446
-0.00607234
-0.0138108
0.187072
0.19751
-0.0278055
0.0204281
0.189418
0.349528
0.376717
0.384689
0.203877
0.00666142
-0.0822706
0.64229
0.752258
-0.039019
-0.112413
0.479081
1.01546
1.14547
1.28086
0.666775
-0.107402
0.207821
1.00328
1.36897
0.300315
0.380516
0.44573
0.886536
1.19231
1.36284
1.36233
1.37802
0.0440668
-0.191302
0.171013
1.94495
-0.522025
-1.17028
-2.39164
-2.70318
-3.92583
-3.23546
-1.23975
-0.315711
-3.96163
-7.01634
-10.1839
-0.0533849
-3.25701
-6.863
-10.5779
-15.2308
-25.778
-42.7695
SCALARS Radial_Distance double 1
LOOKUP_TABLE default
0
0.5
1
1.5
2
2.5
3
0
1
2
3
0
0.5
1
1.5
2
2.5
3
0
1
2
3
0
0.5
1
1.5
2
2.5
3
0
1
2
3
0
0.5
1
1.5
2
2.5
3
0
1
2
3
0
0.5
1
1.5
2
2.5
3
0
1
2
3
0
0.5
1
1.5
2
2.5
3
0
1
2
3
0
0.5
1
1.5
2
2.5
3
0
1
2
3
0
0.5
1
1.5
2
2.5
3
0
1
2
3
0
0.5
1
1.5
2
2.5
3
SCALARS Depth double 1
LOOKUP_TABLE default
0
0
0
0
0
0
0
-0.75
-0.75
-0.75
-0.75
-1.5
-1.5
-1.5
-1.5
-1.5
-1.5
-1.5
-2.25
-2.25
-2.25
-2.25
-3
-3
-3
-3
-3
-3
-3
-3.75
-3.75
-3.75
-3.75
-4.5
-4.5
-4.5
-4.5
-4.5
-4.5
-4.5
-5.25
-5.25
-5.25
-5.25
-6
-6
-6
-6
-6
-6
-6
-6.75
-6.75
-6.75
-6.75
-7.5
-7.5
-7.5
-7.5
-7.5
-7.5
-7.5
-8.25
-8.25
-8.25
-8.25
-9
-9
-9
-9
-9
-9
-9
-9.75
-9.75
-9.75
-9.75
-10.5
-10.5
-10.5
-10.5
-10.5
-10.5
-10.5
-11.25
-11.25
-11.25
-11.25
-12
-12
-12
-12
-12
-12
-12
