# vtk DataFile Version 2.0
./vtk
ASCII

DATASET UNSTRUCTURED_GRID
POINTS 1881 double
0 0 0.0
0.5595 0 0.0
1.119 0 0.0
1.3804 0 0.0
1.6417 0 0.0
1.7638 0 0.0
1.8859 0 0.0
1.943 0 0.0
2 0 0.0
2.1158 0 0.0
2.2317 0 0.0
2.6158 0 0.0
3 0 0.0
3.3842 0 0.0
3.7683 0 0.0
3.8842 0 0.0
4 0 0.0
4.0184 0 0.0
4.0369 0 0.0
4.0621 0 0.0
4.0873 0 0.0
4.1219 0 0.0
4.1564 0 0.0
4.2037 0 0.0
4.251 0 0.0
4.3157 0 0.0
4.3804 0 0.0
4.469 0 0.0
4.5575 0 0.0
4.6788 0 0.0
4.8 0 0.0
4.9659 0 0.0
5.1319 0 0.0
5.359 0 0.0
5.5861 0 0.0
5.897 0 0.0
6.2078 0 0.0
6.6333 0 0.0
7.0588 0 0.0
7.6412 0 0.0
8.2236 0 0.0
9.0207 0 0.0
9.8179 0 0.0
10.9089 0 0.0
12 0 0.0
0 0.3333 0.0
1.119 0.3333 0.0
1.6417 0.3333 0.0
1.8859 0.3333 0.0
2 0.3333 0.0
2.2317 0.3333 0.0
3 0.3333 0.0
3.7683 0.3333 0.0
4 0.3333 0.0
4.0369 0.3333 0.0
4.0873 0.3333 0.0
4.1564 0.3333 0.0
4.251 0.3333 0.0
4.3804 0.3333 0.0
4.5575 0.3333 0.0
4.8 0.3333 0.0
5.1319 0.3333 0.0
5.5861 0.3333 0.0
6.2078 0.3333 0.0
7.0588 0.3333 0.0
8.2236 0.3333 0.0
9.8179 0.3333 0.0
12 0.3333 0.0
0 0.6667 0.0
0.5595 0.6667 0.0
1.119 0.6667 0.0
1.3804 0.6667 0.0
1.6417 0.6667 0.0
1.7638 0.6667 0.0
1.8859 0.6667 0.0
1.943 0.6667 0.0
2 0.6667 0.0
2.1158 0.6667 0.0
2.2317 0.6667 0.0
2.6158 0.6667 0.0
3 0.6667 0.0
3.3842 0.6667 0.0
3.7683 0.6667 0.0
3.8842 0.6667 0.0
4 0.6667 0.0
4.0184 0.6667 0.0
4.0369 0.6667 0.0
4.0621 0.6667 0.0
4.0873 0.6667 0.0
4.1219 0.6667 0.0
4.1564 0.6667 0.0
4.2037 0.6667 0.0
4.251 0.6667 0.0
4.3157 0.6667 0.0
4.3804 0.6667 0.0
4.469 0.6667 0.0
4.5575 0.6667 0.0
4.6788 0.6667 0.0
4.8 0.6667 0.0
4.9659 0.6667 0.0
5.1319 0.6667 0.0
5.359 0.6667 0.0
5.5861 0.6667 0.0
5.897 0.6667 0.0
6.2078 0.6667 0.0
6.6333 0.6667 0.0
7.0588 0.6667 0.0
7.6412 0.6667 0.0
8.2236 0.6667 0.0
9.0207 0.6667 0.0
9.8179 0.6667 0.0
10.9089 0.6667 0.0
12 0.6667 0.0
0 1 0.0
1.119 1 0.0
1.6417 1 0.0
1.8859 1 0.0
2 1 0.0
2.2317 1 0.0
3 1 0.0
3.7683 1 0.0
4 1 0.0
4.0369 1 0.0
4.0873 1 0.0
4.1564 1 0.0
4.251 1 0.0
4.3804 1 0.0
4.5575 1 0.0
4.8 1 0.0
5.1319 1 0.0
5.5861 1 0.0
6.2078 1 0.0
7.0588 1 0.0
8.2236 1 0.0
9.8179 1 0.0
12 1 0.0
0 1.3333 0.0
0.5595 1.3333 0.0
1.119 1.3333 0.0
1.3804 1.3333 0.0
1.6417 1.3333 0.0
1.7638 1.3333 0.0
1.8859 1.3333 0.0
1.943 1.3333 0.0
2 1.3333 0.0
2.1158 1.3333 0.0
2.2317 1.3333 0.0
2.6158 1.3333 0.0
3 1.3333 0.0
3.3842 1.3333 0.0
3.7683 1.3333 0.0
3.8842 1.3333 0.0
4 1.3333 0.0
4.0184 1.3333 0.0
4.0369 1.3333 0.0
4.0621 1.3333 0.0
4.0873 1.3333 0.0
4.1219 1.3333 0.0
4.1564 1.3333 0.0
4.2037 1.3333 0.0
4.251 1.3333 0.0
4.3157 1.3333 0.0
4.3804 1.3333 0.0
4.469 1.3333 0.0
4.5575 1.3333 0.0
4.6788 1.3333 0.0
4.8 1.3333 0.0
4.9659 1.3333 0.0
5.1319 1.3333 0.0
5.359 1.3333 0.0
5.5861 1.3333 0.0
5.897 1.3333 0.0
6.2078 1.3333 0.0
6.6333 1.3333 0.0
7.0588 1.3333 0.0
7.6412 1.3333 0.0
8.2236 1.3333 0.0
9.0207 1.3333 0.0
9.8179 1.3333 0.0
10.9089 1.3333 0.0
12 1.3333 0.0
0 1.6667 0.0
1.119 1.6667 0.0
1.6417 1.6667 0.0
1.8859 1.6667 0.0
2 1.6667 0.0
2.2317 1.6667 0.0
3 1.6667 0.0
3.7683 1.6667 0.0
4 1.6667 0.0
4.0369 1.6667 0.0
4.0873 1.6667 0.0
4.1564 1.6667 0.0
4.251 1.6667 0.0
4.3804 1.6667 0.0
4.5575 1.6667 0.0
4.8 1.6667 0.0
5.1319 1.6667 0.0
5.5861 1.6667 0.0
6.2078 1.6667 0.0
7.0588 1.6667 0.0
8.2236 1.6667 0.0
9.8179 1.6667 0.0
12 1.6667 0.0
0 2 0.0
0.5595 2 0.0
1.119 2 0.0
1.3804 2 0.0
1.6417 2 0.0
1.7638 2 0.0
1.8859 2 0.0
1.943 2 0.0
2 2 0.0
2.1158 2 0.0
2.2317 2 0.0
2.6158 2 0.0
3 2 0.0
3.3842 2 0.0
3.7683 2 0.0
3.8842 2 0.0
4 2 0.0
4.0184 2 0.0
4.0369 2 0.0
4.0621 2 0.0
4.0873 2 0.0
4.1219 2 0.0
4.1564 2 0.0
4.2037 2 0.0
4.251 2 0.0
4.3157 2 0.0
4.3804 2 0.0
4.469 2 0.0
4.5575 2 0.0
4.6788 2 0.0
4.8 2 0.0
4.9659 2 0.0
5.1319 2 0.0
5.359 2 0.0
5.5861 2 0.0
5.897 2 0.0
6.2078 2 0.0
6.6333 2 0.0
7.0588 2 0.0
7.6412 2 0.0
8.2236 2 0.0
9.0207 2 0.0
9.8179 2 0.0
10.9089 2 0.0
12 2 0.0
0 2.3333 0.0
1.119 2.3333 0.0
1.6417 2.3333 0.0
1.8859 2.3333 0.0
2 2.3333 0.0
2.2317 2.3333 0.0
3 2.3333 0.0
3.7683 2.3333 0.0
4 2.3333 0.0
4.0369 2.3333 0.0
4.0873 2.3333 0.0
4.1564 2.3333 0.0
4.251 2.3333 0.0
4.3804 2.3333 0.0
4.5575 2.3333 0.0
4.8 2.3333 0.0
5.1319 2.3333 0.0
5.5861 2.3333 0.0
6.2078 2.3333 0.0
7.0588 2.3333 0.0
8.2236 2.3333 0.0
9.8179 2.3333 0.0
12 2.3333 0.0
0 2.6667 0.0
0.5595 2.6667 0.0
1.119 2.6667 0.0
1.3804 2.6667 0.0
1.6417 2.6667 0.0
1.7638 2.6667 0.0
1.8859 2.6667 0.0
1.943 2.6667 0.0
2 2.6667 0.0
2.1158 2.6667 0.0
2.2317 2.6667 0.0
2.6158 2.6667 0.0
3 2.6667 0.0
3.3842 2.6667 0.0
3.7683 2.6667 0.0
3.8842 2.6667 0.0
4 2.6667 0.0
4.0184 2.6667 0.0
4.0369 2.6667 0.0
4.0621 2.6667 0.0
4.0873 2.6667 0.0
4.1219 2.6667 0.0
4.1564 2.6667 0.0
4.2037 2.6667 0.0
4.251 2.6667 0.0
4.3157 2.6667 0.0
4.3804 2.6667 0.0
4.469 2.6667 0.0
4.5575 2.6667 0.0
4.6788 2.6667 0.0
4.8 2.6667 0.0
4.9659 2.6667 0.0
5.1319 2.6667 0.0
5.359 2.6667 0.0
5.5861 2.6667 0.0
5.897 2.6667 0.0
6.2078 2.6667 0.0
6.6333 2.6667 0.0
7.0588 2.6667 0.0
7.6412 2.6667 0.0
8.2236 2.6667 0.0
9.0207 2.6667 0.0
9.8179 2.6667 0.0
10.9089 2.6667 0.0
12 2.6667 0.0
0 3 0.0
1.119 3 0.0
1.6417 3 0.0
1.8859 3 0.0
2 3 0.0
2.2317 3 0.0
3 3 0.0
3.7683 3 0.0
4 3 0.0
4.0369 3 0.0
4.0873 3 0.0
4.1564 3 0.0
4.251 3 0.0
4.3804 3 0.0
4.5575 3 0.0
4.8 3 0.0
5.1319 3 0.0
5.5861 3 0.0
6.2078 3 0.0
7.0588 3 0.0
8.2236 3 0.0
9.8179 3 0.0
12 3 0.0
0 3.3333 0.0
0.5595 3.3333 0.0
1.119 3.3333 0.0
1.3804 3.3333 0.0
1.6417 3.3333 0.0
1.7638 3.3333 0.0
1.8859 3.3333 0.0
1.943 3.3333 0.0
2 3.3333 0.0
2.1158 3.3333 0.0
2.2317 3.3333 0.0
2.6158 3.3333 0.0
3 3.3333 0.0
3.3842 3.3333 0.0
3.7683 3.3333 0.0
3.8842 3.3333 0.0
4 3.3333 0.0
4.0184 3.3333 0.0
4.0369 3.3333 0.0
4.0621 3.3333 0.0
4.0873 3.3333 0.0
4.1219 3.3333 0.0
4.1564 3.3333 0.0
4.2037 3.3333 0.0
4.251 3.3333 0.0
4.3157 3.3333 0.0
4.3804 3.3333 0.0
4.469 3.3333 0.0
4.5575 3.3333 0.0
4.6788 3.3333 0.0
4.8 3.3333 0.0
4.9659 3.3333 0.0
5.1319 3.3333 0.0
5.359 3.3333 0.0
5.5861 3.3333 0.0
5.897 3.3333 0.0
6.2078 3.3333 0.0
6.6333 3.3333 0.0
7.0588 3.3333 0.0
7.6412 3.3333 0.0
8.2236 3.3333 0.0
9.0207 3.3333 0.0
9.8179 3.3333 0.0
10.9089 3.3333 0.0
12 3.3333 0.0
0 3.6667 0.0
1.119 3.6667 0.0
1.6417 3.6667 0.0
1.8859 3.6667 0.0
2 3.6667 0.0
2.2317 3.6667 0.0
3 3.6667 0.0
3.7683 3.6667 0.0
4 3.6667 0.0
4.0369 3.6667 0.0
4.0873 3.6667 0.0
4.1564 3.6667 0.0
4.251 3.6667 0.0
4.3804 3.6667 0.0
4.5575 3.6667 0.0
4.8 3.6667 0.0
5.1319 3.6667 0.0
5.5861 3.6667 0.0
6.2078 3.6667 0.0
7.0588 3.6667 0.0
8.2236 3.6667 0.0
9.8179 3.6667 0.0
12 3.6667 0.0
0 4 0.0
0.5595 4 0.0
1.119 4 0.0
1.3804 4 0.0
1.6417 4 0.0
1.7638 4 0.0
1.8859 4 0.0
1.943 4 0.0
2 4 0.0
2.1158 4 0.0
2.2317 4 0.0
2.6158 4 0.0
3 4 0.0
3.3842 4 0.0
3.7683 4 0.0
3.8842 4 0.0
4 4 0.0
4.0184 4 0.0
4.0369 4 0.0
4.0621 4 0.0
4.0873 4 0.0
4.1219 4 0.0
4.1564 4 0.0
4.2037 4 0.0
4.251 4 0.0
4.3157 4 0.0
4.3804 4 0.0
4.469 4 0.0
4.5575 4 0.0
4.6788 4 0.0
4.8 4 0.0
4.9659 4 0.0
5.1319 4 0.0
5.359 4 0.0
5.5861 4 0.0
5.897 4 0.0
6.2078 4 0.0
6.6333 4 0.0
7.0588 4 0.0
7.6412 4 0.0
8.2236 4 0.0
9.0207 4 0.0
9.8179 4 0.0
10.9089 4 0.0
12 4 0.0
0 4.3323 0.0
1.119 4.3323 0.0
1.6417 4.3323 0.0
1.8859 4.3323 0.0
2 4.3323 0.0
2.2317 4.3323 0.0
3 4.3323 0.0
3.7683 4.3323 0.0
4 4.3323 0.0
4.0369 4.3323 0.0
4.0873 4.3323 0.0
4.1564 4.3323 0.0
4.251 4.3323 0.0
4.3804 4.3323 0.0
4.5575 4.3323 0.0
4.8 4.3323 0.0
5.1319 4.3323 0.0
5.5861 4.3323 0.0
6.2078 4.3323 0.0
7.0588 4.3323 0.0
8.2236 4.3323 0.0
9.8179 4.3323 0.0
12 4.3323 0.0
0 4.6645 0.0
0.5595 4.6645 0.0
1.119 4.6645 0.0
1.3804 4.6645 0.0
1.6417 4.6645 0.0
1.7638 4.6645 0.0
1.8859 4.6645 0.0
1.943 4.6645 0.0
2 4.6645 0.0
2.1158 4.6645 0.0
2.2317 4.6645 0.0
2.6158 4.6645 0.0
3 4.6645 0.0
3.3842 4.6645 0.0
3.7683 4.6645 0.0
3.8842 4.6645 0.0
4 4.6645 0.0
4.0184 4.6645 0.0
4.0369 4.6645 0.0
4.0621 4.6645 0.0
4.0873 4.6645 0.0
4.1219 4.6645 0.0
4.1564 4.6645 0.0
4.2037 4.6645 0.0
4.251 4.6645 0.0
4.3157 4.6645 0.0
4.3804 4.6645 0.0
4.469 4.6645 0.0
4.5575 4.6645 0.0
4.6788 4.6645 0.0
4.8 4.6645 0.0
4.9659 4.6645 0.0
5.1319 4.6645 0.0
5.359 4.6645 0.0
5.5861 4.6645 0.0
5.897 4.6645 0.0
6.2078 4.6645 0.0
6.6333 4.6645 0.0
7.0588 4.6645 0.0
7.6412 4.6645 0.0
8.2236 4.6645 0.0
9.0207 4.6645 0.0
9.8179 4.6645 0.0
10.9089 4.6645 0.0
12 4.6645 0.0
0 4.943 0.0
1.119 4.943 0.0
1.6417 4.943 0.0
1.8859 4.943 0.0
2 4.943 0.0
2.2317 4.943 0.0
3 4.943 0.0
3.7683 4.943 0.0
4 4.943 0.0
4.0369 4.943 0.0
4.0873 4.943 0.0
4.1564 4.943 0.0
4.251 4.943 0.0
4.3804 4.943 0.0
4.5575 4.943 0.0
4.8 4.943 0.0
5.1319 4.943 0.0
5.5861 4.943 0.0
6.2078 4.943 0.0
7.0588 4.943 0.0
8.2236 4.943 0.0
9.8179 4.943 0.0
12 4.943 0.0
0 5.2214 0.0
0.5595 5.2214 0.0
1.119 5.2214 0.0
1.3804 5.2214 0.0
1.6417 5.2214 0.0
1.7638 5.2214 0.0
1.8859 5.2214 0.0
1.943 5.2214 0.0
2 5.2214 0.0
2.1158 5.2214 0.0
2.2317 5.2214 0.0
2.6158 5.2214 0.0
3 5.2214 0.0
3.3842 5.2214 0.0
3.7683 5.2214 0.0
3.8842 5.2214 0.0
4 5.2214 0.0
4.0184 5.2214 0.0
4.0369 5.2214 0.0
4.0621 5.2214 0.0
4.0873 5.2214 0.0
4.1219 5.2214 0.0
4.1564 5.2214 0.0
4.2037 5.2214 0.0
4.251 5.2214 0.0
4.3157 5.2214 0.0
4.3804 5.2214 0.0
4.469 5.2214 0.0
4.5575 5.2214 0.0
4.6788 5.2214 0.0
4.8 5.2214 0.0
4.9659 5.2214 0.0
5.1319 5.2214 0.0
5.359 5.2214 0.0
5.5861 5.2214 0.0
5.897 5.2214 0.0
6.2078 5.2214 0.0
6.6333 5.2214 0.0
7.0588 5.2214 0.0
7.6412 5.2214 0.0
8.2236 5.2214 0.0
9.0207 5.2214 0.0
9.8179 5.2214 0.0
10.9089 5.2214 0.0
12 5.2214 0.0
0 5.4547 0.0
1.119 5.4547 0.0
1.6417 5.4547 0.0
1.8859 5.4547 0.0
2 5.4547 0.0
2.2317 5.4547 0.0
3 5.4547 0.0
3.7683 5.4547 0.0
4 5.4547 0.0
4.0369 5.4547 0.0
4.0873 5.4547 0.0
4.1564 5.4547 0.0
4.251 5.4547 0.0
4.3804 5.4547 0.0
4.5575 5.4547 0.0
4.8 5.4547 0.0
5.1319 5.4547 0.0
5.5861 5.4547 0.0
6.2078 5.4547 0.0
7.0588 5.4547 0.0
8.2236 5.4547 0.0
9.8179 5.4547 0.0
12 5.4547 0.0
0 5.688 0.0
0.5595 5.688 0.0
1.119 5.688 0.0
1.3804 5.688 0.0
1.6417 5.688 0.0
1.7638 5.688 0.0
1.8859 5.688 0.0
1.943 5.688 0.0
2 5.688 0.0
2.1158 5.688 0.0
2.2317 5.688 0.0
2.6158 5.688 0.0
3 5.688 0.0
3.3842 5.688 0.0
3.7683 5.688 0.0
3.8842 5.688 0.0
4 5.688 0.0
4.0184 5.688 0.0
4.0369 5.688 0.0
4.0621 5.688 0.0
4.0873 5.688 0.0
4.1219 5.688 0.0
4.1564 5.688 0.0
4.2037 5.688 0.0
4.251 5.688 0.0
4.3157 5.688 0.0
4.3804 5.688 0.0
4.469 5.688 0.0
4.5575 5.688 0.0
4.6788 5.688 0.0
4.8 5.688 0.0
4.9659 5.688 0.0
5.1319 5.688 0.0
5.359 5.688 0.0
5.5861 5.688 0.0
5.897 5.688 0.0
6.2078 5.688 0.0
6.6333 5.688 0.0
7.0588 5.688 0.0
7.6412 5.688 0.0
8.2236 5.688 0.0
9.0207 5.688 0.0
9.8179 5.688 0.0
10.9089 5.688 0.0
12 5.688 0.0
0 5.8834 0.0
1.119 5.8834 0.0
1.6417 5.8834 0.0
1.8859 5.8834 0.0
2 5.8834 0.0
2.2317 5.8834 0.0
3 5.8834 0.0
3.7683 5.8834 0.0
4 5.8834 0.0
4.0369 5.8834 0.0
4.0873 5.8834 0.0
4.1564 5.8834 0.0
4.251 5.8834 0.0
4.3804 5.8834 0.0
4.5575 5.8834 0.0
4.8 5.8834 0.0
5.1319 5.8834 0.0
5.5861 5.8834 0.0
6.2078 5.8834 0.0
7.0588 5.8834 0.0
8.2236 5.8834 0.0
9.8179 5.8834 0.0
12 5.8834 0.0
0 6.0789 0.0
0.5595 6.0789 0.0
1.119 6.0789 0.0
1.3804 6.0789 0.0
1.6417 6.0789 0.0
1.7638 6.0789 0.0
1.8859 6.0789 0.0
1.943 6.0789 0.0
2 6.0789 0.0
2.1158 6.0789 0.0
2.2317 6.0789 0.0
2.6158 6.0789 0.0
3 6.0789 0.0
3.3842 6.0789 0.0
3.7683 6.0789 0.0
3.8842 6.0789 0.0
4 6.0789 0.0
4.0184 6.0789 0.0
4.0369 6.0789 0.0
4.0621 6.0789 0.0
4.0873 6.0789 0.0
4.1219 6.0789 0.0
4.1564 6.0789 0.0
4.2037 6.0789 0.0
4.251 6.0789 0.0
4.3157 6.0789 0.0
4.3804 6.0789 0.0
4.469 6.0789 0.0
4.5575 6.0789 0.0
4.6788 6.0789 0.0
4.8 6.0789 0.0
4.9659 6.0789 0.0
5.1319 6.0789 0.0
5.359 6.0789 0.0
5.5861 6.0789 0.0
5.897 6.0789 0.0
6.2078 6.0789 0.0
6.6333 6.0789 0.0
7.0588 6.0789 0.0
7.6412 6.0789 0.0
8.2236 6.0789 0.0
9.0207 6.0789 0.0
9.8179 6.0789 0.0
10.9089 6.0789 0.0
12 6.0789 0.0
0 6.2427 0.0
1.119 6.2427 0.0
1.6417 6.2427 0.0
1.8859 6.2427 0.0
2 6.2427 0.0
2.2317 6.2427 0.0
3 6.2427 0.0
3.7683 6.2427 0.0
4 6.2427 0.0
4.0369 6.2427 0.0
4.0873 6.2427 0.0
4.1564 6.2427 0.0
4.251 6.2427 0.0
4.3804 6.2427 0.0
4.5575 6.2427 0.0
4.8 6.2427 0.0
5.1319 6.2427 0.0
5.5861 6.2427 0.0
6.2078 6.2427 0.0
7.0588 6.2427 0.0
8.2236 6.2427 0.0
9.8179 6.2427 0.0
12 6.2427 0.0
0 6.4065 0.0
0.5595 6.4065 0.0
1.119 6.4065 0.0
1.3804 6.4065 0.0
1.6417 6.4065 0.0
1.7638 6.4065 0.0
1.8859 6.4065 0.0
1.943 6.4065 0.0
2 6.4065 0.0
2.1158 6.4065 0.0
2.2317 6.4065 0.0
2.6158 6.4065 0.0
3 6.4065 0.0
3.3842 6.4065 0.0
3.7683 6.4065 0.0
3.8842 6.4065 0.0
4 6.4065 0.0
4.0184 6.4065 0.0
4.0369 6.4065 0.0
4.0621 6.4065 0.0
4.0873 6.4065 0.0
4.1219 6.4065 0.0
4.1564 6.4065 0.0
4.2037 6.4065 0.0
4.251 6.4065 0.0
4.3157 6.4065 0.0
4.3804 6.4065 0.0
4.469 6.4065 0.0
4.5575 6.4065 0.0
4.6788 6.4065 0.0
4.8 6.4065 0.0
4.9659 6.4065 0.0
5.1319 6.4065 0.0
5.359 6.4065 0.0
5.5861 6.4065 0.0
5.897 6.4065 0.0
6.2078 6.4065 0.0
6.6333 6.4065 0.0
7.0588 6.4065 0.0
7.6412 6.4065 0.0
8.2236 6.4065 0.0
9.0207 6.4065 0.0
9.8179 6.4065 0.0
10.9089 6.4065 0.0
12 6.4065 0.0
0 6.5437 0.0
1.119 6.5437 0.0
1.6417 6.5437 0.0
1.8859 6.5437 0.0
2 6.5437 0.0
2.2317 6.5437 0.0
3 6.5437 0.0
3.7683 6.5437 0.0
4 6.5437 0.0
4.0369 6.5437 0.0
4.0873 6.5437 0.0
4.1564 6.5437 0.0
4.251 6.5437 0.0
4.3804 6.5437 0.0
4.5575 6.5437 0.0
4.8 6.5437 0.0
5.1319 6.5437 0.0
5.5861 6.5437 0.0
6.2078 6.5437 0.0
7.0588 6.5437 0.0
8.2236 6.5437 0.0
9.8179 6.5437 0.0
12 6.5437 0.0
0 6.681 0.0
0.5595 6.681 0.0
1.119 6.681 0.0
1.3804 6.681 0.0
1.6417 6.681 0.0
1.7638 6.681 0.0
1.8859 6.681 0.0
1.943 6.681 0.0
2 6.681 0.0
2.1158 6.681 0.0
2.2317 6.681 0.0
2.6158 6.681 0.0
3 6.681 0.0
3.3842 6.681 0.0
3.7683 6.681 0.0
3.8842 6.681 0.0
4 6.681 0.0
4.0184 6.681 0.0
4.0369 6.681 0.0
4.0621 6.681 0.0
4.0873 6.681 0.0
4.1219 6.681 0.0
4.1564 6.681 0.0
4.2037 6.681 0.0
4.251 6.681 0.0
4.3157 6.681 0.0
4.3804 6.681 0.0
4.469 6.681 0.0
4.5575 6.681 0.0
4.6788 6.681 0.0
4.8 6.681 0.0
4.9659 6.681 0.0
5.1319 6.681 0.0
5.359 6.681 0.0
5.5861 6.681 0.0
5.897 6.681 0.0
6.2078 6.681 0.0
6.6333 6.681 0.0
7.0588 6.681 0.0
7.6412 6.681 0.0
8.2236 6.681 0.0
9.0207 6.681 0.0
9.8179 6.681 0.0
10.9089 6.681 0.0
12 6.681 0.0
0 6.796 0.0
1.119 6.796 0.0
1.6417 6.796 0.0
1.8859 6.796 0.0
2 6.796 0.0
2.2317 6.796 0.0
3 6.796 0.0
3.7683 6.796 0.0
4 6.796 0.0
4.0369 6.796 0.0
4.0873 6.796 0.0
4.1564 6.796 0.0
4.251 6.796 0.0
4.3804 6.796 0.0
4.5575 6.796 0.0
4.8 6.796 0.0
5.1319 6.796 0.0
5.5861 6.796 0.0
6.2078 6.796 0.0
7.0588 6.796 0.0
8.2236 6.796 0.0
9.8179 6.796 0.0
12 6.796 0.0
0 6.911 0.0
0.5595 6.911 0.0
1.119 6.911 0.0
1.3804 6.911 0.0
1.6417 6.911 0.0
1.7638 6.911 0.0
1.8859 6.911 0.0
1.943 6.911 0.0
2 6.911 0.0
2.1158 6.911 0.0
2.2317 6.911 0.0
2.6158 6.911 0.0
3 6.911 0.0
3.3842 6.911 0.0
3.7683 6.911 0.0
3.8842 6.911 0.0
4 6.911 0.0
4.0184 6.911 0.0
4.0369 6.911 0.0
4.0621 6.911 0.0
4.0873 6.911 0.0
4.1219 6.911 0.0
4.1564 6.911 0.0
4.2037 6.911 0.0
4.251 6.911 0.0
4.3157 6.911 0.0
4.3804 6.911 0.0
4.469 6.911 0.0
4.5575 6.911 0.0
4.6788 6.911 0.0
4.8 6.911 0.0
4.9659 6.911 0.0
5.1319 6.911 0.0
5.359 6.911 0.0
5.5861 6.911 0.0
5.897 6.911 0.0
6.2078 6.911 0.0
6.6333 6.911 0.0
7.0588 6.911 0.0
7.6412 6.911 0.0
8.2236 6.911 0.0
9.0207 6.911 0.0
9.8179 6.911 0.0
10.9089 6.911 0.0
12 6.911 0.0
0 7.0073 0.0
1.119 7.0073 0.0
1.6417 7.0073 0.0
1.8859 7.0073 0.0
2 7.0073 0.0
2.2317 7.0073 0.0
3 7.0073 0.0
3.7683 7.0073 0.0
4 7.0073 0.0
4.0369 7.0073 0.0
4.0873 7.0073 0.0
4.1564 7.0073 0.0
4.251 7.0073 0.0
4.3804 7.0073 0.0
4.5575 7.0073 0.0
4.8 7.0073 0.0
5.1319 7.0073 0.0
5.5861 7.0073 0.0
6.2078 7.0073 0.0
7.0588 7.0073 0.0
8.2236 7.0073 0.0
9.8179 7.0073 0.0
12 7.0073 0.0
0 7.1037 0.0
0.5595 7.1037 0.0
1.119 7.1037 0.0
1.3804 7.1037 0.0
1.6417 7.1037 0.0
1.7638 7.1037 0.0
1.8859 7.1037 0.0
1.943 7.1037 0.0
2 7.1037 0.0
2.1158 7.1037 0.0
2.2317 7.1037 0.0
2.6158 7.1037 0.0
3 7.1037 0.0
3.3842 7.1037 0.0
3.7683 7.1037 0.0
3.8842 7.1037 0.0
4 7.1037 0.0
4.0184 7.1037 0.0
4.0369 7.1037 0.0
4.0621 7.1037 0.0
4.0873 7.1037 0.0
4.1219 7.1037 0.0
4.1564 7.1037 0.0
4.2037 7.1037 0.0
4.251 7.1037 0.0
4.3157 7.1037 0.0
4.3804 7.1037 0.0
4.469 7.1037 0.0
4.5575 7.1037 0.0
4.6788 7.1037 0.0
4.8 7.1037 0.0
4.9659 7.1037 0.0
5.1319 7.1037 0.0
5.359 7.1037 0.0
5.5861 7.1037 0.0
5.897 7.1037 0.0
6.2078 7.1037 0.0
6.6333 7.1037 0.0
7.0588 7.1037 0.0
7.6412 7.1037 0.0
8.2236 7.1037 0.0
9.0207 7.1037 0.0
9.8179 7.1037 0.0
10.9089 7.1037 0.0
12 7.1037 0.0
0 7.1844 0.0
1.119 7.1844 0.0
1.6417 7.1844 0.0
1.8859 7.1844 0.0
2 7.1844 0.0
2.2317 7.1844 0.0
3 7.1844 0.0
3.7683 7.1844 0.0
4 7.1844 0.0
4.0369 7.1844 0.0
4.0873 7.1844 0.0
4.1564 7.1844 0.0
4.251 7.1844 0.0
4.3804 7.1844 0.0
4.5575 7.1844 0.0
4.8 7.1844 0.0
5.1319 7.1844 0.0
5.5861 7.1844 0.0
6.2078 7.1844 0.0
7.0588 7.1844 0.0
8.2236 7.1844 0.0
9.8179 7.1844 0.0
12 7.1844 0.0
0 7.2652 0.0
0.5595 7.2652 0.0
1.119 7.2652 0.0
1.3804 7.2652 0.0
1.6417 7.2652 0.0
1.7638 7.2652 0.0
1.8859 7.2652 0.0
1.943 7.2652 0.0
2 7.2652 0.0
2.1158 7.2652 0.0
2.2317 7.2652 0.0
2.6158 7.2652 0.0
3 7.2652 0.0
3.3842 7.2652 0.0
3.7683 7.2652 0.0
3.8842 7.2652 0.0
4 7.2652 0.0
4.0184 7.2652 0.0
4.0369 7.2652 0.0
4.0621 7.2652 0.0
4.0873 7.2652 0.0
4.1219 7.2652 0.0
4.1564 7.2652 0.0
4.2037 7.2652 0.0
4.251 7.2652 0.0
4.3157 7.2652 0.0
4.3804 7.2652 0.0
4.469 7.2652 0.0
4.5575 7.2652 0.0
4.6788 7.2652 0.0
4.8 7.2652 0.0
4.9659 7.2652 0.0
5.1319 7.2652 0.0
5.359 7.2652 0.0
5.5861 7.2652 0.0
5.897 7.2652 0.0
6.2078 7.2652 0.0
6.6333 7.2652 0.0
7.0588 7.2652 0.0
7.6412 7.2652 0.0
8.2236 7.2652 0.0
9.0207 7.2652 0.0
9.8179 7.2652 0.0
10.9089 7.2652 0.0
12 7.2652 0.0
0 7.3328 0.0
1.119 7.3328 0.0
1.6417 7.3328 0.0
1.8859 7.3328 0.0
2 7.3328 0.0
2.2317 7.3328 0.0
3 7.3328 0.0
3.7683 7.3328 0.0
4 7.3328 0.0
4.0369 7.3328 0.0
4.0873 7.3328 0.0
4.1564 7.3328 0.0
4.251 7.3328 0.0
4.3804 7.3328 0.0
4.5575 7.3328 0.0
4.8 7.3328 0.0
5.1319 7.3328 0.0
5.5861 7.3328 0.0
6.2078 7.3328 0.0
7.0588 7.3328 0.0
8.2236 7.3328 0.0
9.8179 7.3328 0.0
12 7.3328 0.0
0 7.4005 0.0
0.5595 7.4005 0.0
1.119 7.4005 0.0
1.3804 7.4005 0.0
1.6417 7.4005 0.0
1.7638 7.4005 0.0
1.8859 7.4005 0.0
1.943 7.4005 0.0
2 7.4005 0.0
2.1158 7.4005 0.0
2.2317 7.4005 0.0
2.6158 7.4005 0.0
3 7.4005 0.0
3.3842 7.4005 0.0
3.7683 7.4005 0.0
3.8842 7.4005 0.0
4 7.4005 0.0
4.0184 7.4005 0.0
4.0369 7.4005 0.0
4.0621 7.4005 0.0
4.0873 7.4005 0.0
4.1219 7.4005 0.0
4.1564 7.4005 0.0
4.2037 7.4005 0.0
4.251 7.4005 0.0
4.3157 7.4005 0.0
4.3804 7.4005 0.0
4.469 7.4005 0.0
4.5575 7.4005 0.0
4.6788 7.4005 0.0
4.8 7.4005 0.0
4.9659 7.4005 0.0
5.1319 7.4005 0.0
5.359 7.4005 0.0
5.5861 7.4005 0.0
5.897 7.4005 0.0
6.2078 7.4005 0.0
6.6333 7.4005 0.0
7.0588 7.4005 0.0
7.6412 7.4005 0.0
8.2236 7.4005 0.0
9.0207 7.4005 0.0
9.8179 7.4005 0.0
10.9089 7.4005 0.0
12 7.4005 0.0
0 7.4572 0.0
1.119 7.4572 0.0
1.6417 7.4572 0.0
1.8859 7.4572 0.0
2 7.4572 0.0
2.2317 7.4572 0.0
3 7.4572 0.0
3.7683 7.4572 0.0
4 7.4572 0.0
4.0369 7.4572 0.0
4.0873 7.4572 0.0
4.1564 7.4572 0.0
4.251 7.4572 0.0
4.3804 7.4572 0.0
4.5575 7.4572 0.0
4.8 7.4572 0.0
5.1319 7.4572 0.0
5.5861 7.4572 0.0
6.2078 7.4572 0.0
7.0588 7.4572 0.0
8.2236 7.4572 0.0
9.8179 7.4572 0.0
12 7.4572 0.0
0 7.5139 0.0
0.5595 7.5139 0.0
1.119 7.5139 0.0
1.3804 7.5139 0.0
1.6417 7.5139 0.0
1.7638 7.5139 0.0
1.8859 7.5139 0.0
1.943 7.5139 0.0
2 7.5139 0.0
2.1158 7.5139 0.0
2.2317 7.5139 0.0
2.6158 7.5139 0.0
3 7.5139 0.0
3.3842 7.5139 0.0
3.7683 7.5139 0.0
3.8842 7.5139 0.0
4 7.5139 0.0
4.0184 7.5139 0.0
4.0369 7.5139 0.0
4.0621 7.5139 0.0
4.0873 7.5139 0.0
4.1219 7.5139 0.0
4.1564 7.5139 0.0
4.2037 7.5139 0.0
4.251 7.5139 0.0
4.3157 7.5139 0.0
4.3804 7.5139 0.0
4.469 7.5139 0.0
4.5575 7.5139 0.0
4.6788 7.5139 0.0
4.8 7.5139 0.0
4.9659 7.5139 0.0
5.1319 7.5139 0.0
5.359 7.5139 0.0
5.5861 7.5139 0.0
5.897 7.5139 0.0
6.2078 7.5139 0.0
6.6333 7.5139 0.0
7.0588 7.5139 0.0
7.6412 7.5139 0.0
8.2236 7.5139 0.0
9.0207 7.5139 0.0
9.8179 7.5139 0.0
10.9089 7.5139 0.0
12 7.5139 0.0
0 7.5614 0.0
1.119 7.5614 0.0
1.6417 7.5614 0.0
1.8859 7.5614 0.0
2 7.5614 0.0
2.2317 7.5614 0.0
3 7.5614 0.0
3.7683 7.5614 0.0
4 7.5614 0.0
4.0369 7.5614 0.0
4.0873 7.5614 0.0
4.1564 7.5614 0.0
4.251 7.5614 0.0
4.3804 7.5614 0.0
4.5575 7.5614 0.0
4.8 7.5614 0.0
5.1319 7.5614 0.0
5.5861 7.5614 0.0
6.2078 7.5614 0.0
7.0588 7.5614 0.0
8.2236 7.5614 0.0
9.8179 7.5614 0.0
12 7.5614 0.0
0 7.6089 0.0
0.5595 7.6089 0.0
1.119 7.6089 0.0
1.3804 7.6089 0.0
1.6417 7.6089 0.0
1.7638 7.6089 0.0
1.8859 7.6089 0.0
1.943 7.6089 0.0
2 7.6089 0.0
2.1158 7.6089 0.0
2.2317 7.6089 0.0
2.6158 7.6089 0.0
3 7.6089 0.0
3.3842 7.6089 0.0
3.7683 7.6089 0.0
3.8842 7.6089 0.0
4 7.6089 0.0
4.0184 7.6089 0.0
4.0369 7.6089 0.0
4.0621 7.6089 0.0
4.0873 7.6089 0.0
4.1219 7.6089 0.0
4.1564 7.6089 0.0
4.2037 7.6089 0.0
4.251 7.6089 0.0
4.3157 7.6089 0.0
4.3804 7.6089 0.0
4.469 7.6089 0.0
4.5575 7.6089 0.0
4.6788 7.6089 0.0
4.8 7.6089 0.0
4.9659 7.6089 0.0
5.1319 7.6089 0.0
5.359 7.6089 0.0
5.5861 7.6089 0.0
5.897 7.6089 0.0
6.2078 7.6089 0.0
6.6333 7.6089 0.0
7.0588 7.6089 0.0
7.6412 7.6089 0.0
8.2236 7.6089 0.0
9.0207 7.6089 0.0
9.8179 7.6089 0.0
10.9089 7.6089 0.0
12 7.6089 0.0
0 7.6487 0.0
1.119 7.6487 0.0
1.6417 7.6487 0.0
1.8859 7.6487 0.0
2 7.6487 0.0
2.2317 7.6487 0.0
3 7.6487 0.0
3.7683 7.6487 0.0
4 7.6487 0.0
4.0369 7.6487 0.0
4.0873 7.6487 0.0
4.1564 7.6487 0.0
4.251 7.6487 0.0
4.3804 7.6487 0.0
4.5575 7.6487 0.0
4.8 7.6487 0.0
5.1319 7.6487 0.0
5.5861 7.6487 0.0
6.2078 7.6487 0.0
7.0588 7.6487 0.0
8.2236 7.6487 0.0
9.8179 7.6487 0.0
12 7.6487 0.0
0 7.6885 0.0
0.5595 7.6885 0.0
1.119 7.6885 0.0
1.3804 7.6885 0.0
1.6417 7.6885 0.0
1.7638 7.6885 0.0
1.8859 7.6885 0.0
1.943 7.6885 0.0
2 7.6885 0.0
2.1158 7.6885 0.0
2.2317 7.6885 0.0
2.6158 7.6885 0.0
3 7.6885 0.0
3.3842 7.6885 0.0
3.7683 7.6885 0.0
3.8842 7.6885 0.0
4 7.6885 0.0
4.0184 7.6885 0.0
4.0369 7.6885 0.0
4.0621 7.6885 0.0
4.0873 7.6885 0.0
4.1219 7.6885 0.0
4.1564 7.6885 0.0
4.2037 7.6885 0.0
4.251 7.6885 0.0
4.3157 7.6885 0.0
4.3804 7.6885 0.0
4.469 7.6885 0.0
4.5575 7.6885 0.0
4.6788 7.6885 0.0
4.8 7.6885 0.0
4.9659 7.6885 0.0
5.1319 7.6885 0.0
5.359 7.6885 0.0
5.5861 7.6885 0.0
5.897 7.6885 0.0
6.2078 7.6885 0.0
6.6333 7.6885 0.0
7.0588 7.6885 0.0
7.6412 7.6885 0.0
8.2236 7.6885 0.0
9.0207 7.6885 0.0
9.8179 7.6885 0.0
10.9089 7.6885 0.0
12 7.6885 0.0
0 7.7218 0.0
1.119 7.7218 0.0
1.6417 7.7218 0.0
1.8859 7.7218 0.0
2 7.7218 0.0
2.2317 7.7218 0.0
3 7.7218 0.0
3.7683 7.7218 0.0
4 7.7218 0.0
4.0369 7.7218 0.0
4.0873 7.7218 0.0
4.1564 7.7218 0.0
4.251 7.7218 0.0
4.3804 7.7218 0.0
4.5575 7.7218 0.0
4.8 7.7218 0.0
5.1319 7.7218 0.0
5.5861 7.7218 0.0
6.2078 7.7218 0.0
7.0588 7.7218 0.0
8.2236 7.7218 0.0
9.8179 7.7218 0.0
12 7.7218 0.0
0 7.7552 0.0
0.5595 7.7552 0.0
1.119 7.7552 0.0
1.3804 7.7552 0.0
1.6417 7.7552 0.0
1.7638 7.7552 0.0
1.8859 7.7552 0.0
1.943 7.7552 0.0
2 7.7552 0.0
2.1158 7.7552 0.0
2.2317 7.7552 0.0
2.6158 7.7552 0.0
3 7.7552 0.0
3.3842 7.7552 0.0
3.7683 7.7552 0.0
3.8842 7.7552 0.0
4 7.7552 0.0
4.0184 7.7552 0.0
4.0369 7.7552 0.0
4.0621 7.7552 0.0
4.0873 7.7552 0.0
4.1219 7.7552 0.0
4.1564 7.7552 0.0
4.2037 7.7552 0.0
4.251 7.7552 0.0
4.3157 7.7552 0.0
4.3804 7.7552 0.0
4.469 7.7552 0.0
4.5575 7.7552 0.0
4.6788 7.7552 0.0
4.8 7.7552 0.0
4.9659 7.7552 0.0
5.1319 7.7552 0.0
5.359 7.7552 0.0
5.5861 7.7552 0.0
5.897 7.7552 0.0
6.2078 7.7552 0.0
6.6333 7.7552 0.0
7.0588 7.7552 0.0
7.6412 7.7552 0.0
8.2236 7.7552 0.0
9.0207 7.7552 0.0
9.8179 7.7552 0.0
10.9089 7.7552 0.0
12 7.7552 0.0
0 7.7831 0.0
1.119 7.7831 0.0
1.6417 7.7831 0.0
1.8859 7.7831 0.0
2 7.7831 0.0
2.2317 7.7831 0.0
3 7.7831 0.0
3.7683 7.7831 0.0
4 7.7831 0.0
4.0369 7.7831 0.0
4.0873 7.7831 0.0
4.1564 7.7831 0.0
4.251 7.7831 0.0
4.3804 7.7831 0.0
4.5575 7.7831 0.0
4.8 7.7831 0.0
5.1319 7.7831 0.0
5.5861 7.7831 0.0
6.2078 7.7831 0.0
7.0588 7.7831 0.0
8.2236 7.7831 0.0
9.8179 7.7831 0.0
12 7.7831 0.0
0 7.8111 0.0
0.5595 7.8111 0.0
1.119 7.8111 0.0
1.3804 7.8111 0.0
1.6417 7.8111 0.0
1.7638 7.8111 0.0
1.8859 7.8111 0.0
1.943 7.8111 0.0
2 7.8111 0.0
2.1158 7.8111 0.0
2.2317 7.8111 0.0
2.6158 7.8111 0.0
3 7.8111 0.0
3.3842 7.8111 0.0
3.7683 7.8111 0.0
3.8842 7.8111 0.0
4 7.8111 0.0
4.0184 7.8111 0.0
4.0369 7.8111 0.0
4.0621 7.8111 0.0
4.0873 7.8111 0.0
4.1219 7.8111 0.0
4.1564 7.8111 0.0
4.2037 7.8111 0.0
4.251 7.8111 0.0
4.3157 7.8111 0.0
4.3804 7.8111 0.0
4.469 7.8111 0.0
4.5575 7.8111 0.0
4.6788 7.8111 0.0
4.8 7.8111 0.0
4.9659 7.8111 0.0
5.1319 7.8111 0.0
5.359 7.8111 0.0
5.5861 7.8111 0.0
5.897 7.8111 0.0
6.2078 7.8111 0.0
6.6333 7.8111 0.0
7.0588 7.8111 0.0
7.6412 7.8111 0.0
8.2236 7.8111 0.0
9.0207 7.8111 0.0
9.8179 7.8111 0.0
10.9089 7.8111 0.0
12 7.8111 0.0
0 7.8345 0.0
1.119 7.8345 0.0
1.6417 7.8345 0.0
1.8859 7.8345 0.0
2 7.8345 0.0
2.2317 7.8345 0.0
3 7.8345 0.0
3.7683 7.8345 0.0
4 7.8345 0.0
4.0369 7.8345 0.0
4.0873 7.8345 0.0
4.1564 7.8345 0.0
4.251 7.8345 0.0
4.3804 7.8345 0.0
4.5575 7.8345 0.0
4.8 7.8345 0.0
5.1319 7.8345 0.0
5.5861 7.8345 0.0
6.2078 7.8345 0.0
7.0588 7.8345 0.0
8.2236 7.8345 0.0
9.8179 7.8345 0.0
12 7.8345 0.0
0 7.8579 0.0
0.5595 7.8579 0.0
1.119 7.8579 0.0
1.3804 7.8579 0.0
1.6417 7.8579 0.0
1.7638 7.8579 0.0
1.8859 7.8579 0.0
1.943 7.8579 0.0
2 7.8579 0.0
2.1158 7.8579 0.0
2.2317 7.8579 0.0
2.6158 7.8579 0.0
3 7.8579 0.0
3.3842 7.8579 0.0
3.7683 7.8579 0.0
3.8842 7.8579 0.0
4 7.8579 0.0
4.0184 7.8579 0.0
4.0369 7.8579 0.0
4.0621 7.8579 0.0
4.0873 7.8579 0.0
4.1219 7.8579 0.0
4.1564 7.8579 0.0
4.2037 7.8579 0.0
4.251 7.8579 0.0
4.3157 7.8579 0.0
4.3804 7.8579 0.0
4.469 7.8579 0.0
4.5575 7.8579 0.0
4.6788 7.8579 0.0
4.8 7.8579 0.0
4.9659 7.8579 0.0
5.1319 7.8579 0.0
5.359 7.8579 0.0
5.5861 7.8579 0.0
5.897 7.8579 0.0
6.2078 7.8579 0.0
6.6333 7.8579 0.0
7.0588 7.8579 0.0
7.6412 7.8579 0.0
8.2236 7.8579 0.0
9.0207 7.8579 0.0
9.8179 7.8579 0.0
10.9089 7.8579 0.0
12 7.8579 0.0
0 7.8775 0.0
1.119 7.8775 0.0
1.6417 7.8775 0.0
1.8859 7.8775 0.0
2 7.8775 0.0
2.2317 7.8775 0.0
3 7.8775 0.0
3.7683 7.8775 0.0
4 7.8775 0.0
4.0369 7.8775 0.0
4.0873 7.8775 0.0
4.1564 7.8775 0.0
4.251 7.8775 0.0
4.3804 7.8775 0.0
4.5575 7.8775 0.0
4.8 7.8775 0.0
5.1319 7.8775 0.0
5.5861 7.8775 0.0
6.2078 7.8775 0.0
7.0588 7.8775 0.0
8.2236 7.8775 0.0
9.8179 7.8775 0.0
12 7.8775 0.0
0 7.8971 0.0
0.5595 7.8971 0.0
1.119 7.8971 0.0
1.3804 7.8971 0.0
1.6417 7.8971 0.0
1.7638 7.8971 0.0
1.8859 7.8971 0.0
1.943 7.8971 0.0
2 7.8971 0.0
2.1158 7.8971 0.0
2.2317 7.8971 0.0
2.6158 7.8971 0.0
3 7.8971 0.0
3.3842 7.8971 0.0
3.7683 7.8971 0.0
3.8842 7.8971 0.0
4 7.8971 0.0
4.0184 7.8971 0.0
4.0369 7.8971 0.0
4.0621 7.8971 0.0
4.0873 7.8971 0.0
4.1219 7.8971 0.0
4.1564 7.8971 0.0
4.2037 7.8971 0.0
4.251 7.8971 0.0
4.3157 7.8971 0.0
4.3804 7.8971 0.0
4.469 7.8971 0.0
4.5575 7.8971 0.0
4.6788 7.8971 0.0
4.8 7.8971 0.0
4.9659 7.8971 0.0
5.1319 7.8971 0.0
5.359 7.8971 0.0
5.5861 7.8971 0.0
5.897 7.8971 0.0
6.2078 7.8971 0.0
6.6333 7.8971 0.0
7.0588 7.8971 0.0
7.6412 7.8971 0.0
8.2236 7.8971 0.0
9.0207 7.8971 0.0
9.8179 7.8971 0.0
10.9089 7.8971 0.0
12 7.8971 0.0
0 7.9136 0.0
1.119 7.9136 0.0
1.6417 7.9136 0.0
1.8859 7.9136 0.0
2 7.9136 0.0
2.2317 7.9136 0.0
3 7.9136 0.0
3.7683 7.9136 0.0
4 7.9136 0.0
4.0369 7.9136 0.0
4.0873 7.9136 0.0
4.1564 7.9136 0.0
4.251 7.9136 0.0
4.3804 7.9136 0.0
4.5575 7.9136 0.0
4.8 7.9136 0.0
5.1319 7.9136 0.0
5.5861 7.9136 0.0
6.2078 7.9136 0.0
7.0588 7.9136 0.0
8.2236 7.9136 0.0
9.8179 7.9136 0.0
12 7.9136 0.0
0 7.93 0.0
0.5595 7.93 0.0
1.119 7.93 0.0
1.3804 7.93 0.0
1.6417 7.93 0.0
1.7638 7.93 0.0
1.8859 7.93 0.0
1.943 7.93 0.0
2 7.93 0.0
2.1158 7.93 0.0
2.2317 7.93 0.0
2.6158 7.93 0.0
3 7.93 0.0
3.3842 7.93 0.0
3.7683 7.93 0.0
3.8842 7.93 0.0
4 7.93 0.0
4.0184 7.93 0.0
4.0369 7.93 0.0
4.0621 7.93 0.0
4.0873 7.93 0.0
4.1219 7.93 0.0
4.1564 7.93 0.0
4.2037 7.93 0.0
4.251 7.93 0.0
4.3157 7.93 0.0
4.3804 7.93 0.0
4.469 7.93 0.0
4.5575 7.93 0.0
4.6788 7.93 0.0
4.8 7.93 0.0
4.9659 7.93 0.0
5.1319 7.93 0.0
5.359 7.93 0.0
5.5861 7.93 0.0
5.897 7.93 0.0
6.2078 7.93 0.0
6.6333 7.93 0.0
7.0588 7.93 0.0
7.6412 7.93 0.0
8.2236 7.93 0.0
9.0207 7.93 0.0
9.8179 7.93 0.0
10.9089 7.93 0.0
12 7.93 0.0
0 7.9438 0.0
1.119 7.9438 0.0
1.6417 7.9438 0.0
1.8859 7.9438 0.0
2 7.9438 0.0
2.2317 7.9438 0.0
3 7.9438 0.0
3.7683 7.9438 0.0
4 7.9438 0.0
4.0369 7.9438 0.0
4.0873 7.9438 0.0
4.1564 7.9438 0.0
4.251 7.9438 0.0
4.3804 7.9438 0.0
4.5575 7.9438 0.0
4.8 7.9438 0.0
5.1319 7.9438 0.0
5.5861 7.9438 0.0
6.2078 7.9438 0.0
7.0588 7.9438 0.0
8.2236 7.9438 0.0
9.8179 7.9438 0.0
12 7.9438 0.0
0 7.9576 0.0
0.5595 7.9576 0.0
1.119 7.9576 0.0
1.3804 7.9576 0.0
1.6417 7.9576 0.0
1.7638 7.9576 0.0
1.8859 7.9576 0.0
1.943 7.9576 0.0
2 7.9576 0.0
2.1158 7.9576 0.0
2.2317 7.9576 0.0
2.6158 7.9576 0.0
3 7.9576 0.0
3.3842 7.9576 0.0
3.7683 7.9576 0.0
3.8842 7.9576 0.0
4 7.9576 0.0
4.0184 7.9576 0.0
4.0369 7.9576 0.0
4.0621 7.9576 0.0
4.0873 7.9576 0.0
4.1219 7.9576 0.0
4.1564 7.9576 0.0
4.2037 7.9576 0.0
4.251 7.9576 0.0
4.3157 7.9576 0.0
4.3804 7.9576 0.0
4.469 7.9576 0.0
4.5575 7.9576 0.0
4.6788 7.9576 0.0
4.8 7.9576 0.0
4.9659 7.9576 0.0
5.1319 7.9576 0.0
5.359 7.9576 0.0
5.5861 7.9576 0.0
5.897 7.9576 0.0
6.2078 7.9576 0.0
6.6333 7.9576 0.0
7.0588 7.9576 0.0
7.6412 7.9576 0.0
8.2236 7.9576 0.0
9.0207 7.9576 0.0
9.8179 7.9576 0.0
10.9089 7.9576 0.0
12 7.9576 0.0
0 7.9691 0.0
1.119 7.9691 0.0
1.6417 7.9691 0.0
1.8859 7.9691 0.0
2 7.9691 0.0
2.2317 7.9691 0.0
3 7.9691 0.0
3.7683 7.9691 0.0
4 7.9691 0.0
4.0369 7.9691 0.0
4.0873 7.9691 0.0
4.1564 7.9691 0.0
4.251 7.9691 0.0
4.3804 7.9691 0.0
4.5575 7.9691 0.0
4.8 7.9691 0.0
5.1319 7.9691 0.0
5.5861 7.9691 0.0
6.2078 7.9691 0.0
7.0588 7.9691 0.0
8.2236 7.9691 0.0
9.8179 7.9691 0.0
12 7.9691 0.0
0 7.9807 0.0
0.5595 7.9807 0.0
1.119 7.9807 0.0
1.3804 7.9807 0.0
1.6417 7.9807 0.0
1.7638 7.9807 0.0
1.8859 7.9807 0.0
1.943 7.9807 0.0
2 7.9807 0.0
2.1158 7.9807 0.0
2.2317 7.9807 0.0
2.6158 7.9807 0.0
3 7.9807 0.0
3.3842 7.9807 0.0
3.7683 7.9807 0.0
3.8842 7.9807 0.0
4 7.9807 0.0
4.0184 7.9807 0.0
4.0369 7.9807 0.0
4.0621 7.9807 0.0
4.0873 7.9807 0.0
4.1219 7.9807 0.0
4.1564 7.9807 0.0
4.2037 7.9807 0.0
4.251 7.9807 0.0
4.3157 7.9807 0.0
4.3804 7.9807 0.0
4.469 7.9807 0.0
4.5575 7.9807 0.0
4.6788 7.9807 0.0
4.8 7.9807 0.0
4.9659 7.9807 0.0
5.1319 7.9807 0.0
5.359 7.9807 0.0
5.5861 7.9807 0.0
5.897 7.9807 0.0
6.2078 7.9807 0.0
6.6333 7.9807 0.0
7.0588 7.9807 0.0
7.6412 7.9807 0.0
8.2236 7.9807 0.0
9.0207 7.9807 0.0
9.8179 7.9807 0.0
10.9089 7.9807 0.0
12 7.9807 0.0
0 7.9903 0.0
1.119 7.9903 0.0
1.6417 7.9903 0.0
1.8859 7.9903 0.0
2 7.9903 0.0
2.2317 7.9903 0.0
3 7.9903 0.0
3.7683 7.9903 0.0
4 7.9903 0.0
4.0369 7.9903 0.0
4.0873 7.9903 0.0
4.1564 7.9903 0.0
4.251 7.9903 0.0
4.3804 7.9903 0.0
4.5575 7.9903 0.0
4.8 7.9903 0.0
5.1319 7.9903 0.0
5.5861 7.9903 0.0
6.2078 7.9903 0.0
7.0588 7.9903 0.0
8.2236 7.9903 0.0
9.8179 7.9903 0.0
12 7.9903 0.0
0 8 0.0
0.5595 8 0.0
1.119 8 0.0
1.3804 8 0.0
1.6417 8 0.0
1.7638 8 0.0
1.8859 8 0.0
1.943 8 0.0
2 8 0.0
2.1158 8 0.0
2.2317 8 0.0
2.6158 8 0.0
3 8 0.0
3.3842 8 0.0
3.7683 8 0.0
3.8842 8 0.0
4 8 0.0
4.0184 8 0.0
4.0369 8 0.0
4.0621 8 0.0
4.0873 8 0.0
4.1219 8 0.0
4.1564 8 0.0
4.2037 8 0.0
4.251 8 0.0
4.3157 8 0.0
4.3804 8 0.0
4.469 8 0.0
4.5575 8 0.0
4.6788 8 0.0
4.8 8 0.0
4.9659 8 0.0
5.1319 8 0.0
5.359 8 0.0
5.5861 8 0.0
5.897 8 0.0
6.2078 8 0.0
6.6333 8 0.0
7.0588 8 0.0
7.6412 8 0.0
8.2236 8 0.0
9.0207 8 0.0
9.8179 8 0.0
10.9089 8 0.0
12 8 0.0

CELLS 594 5346
8  0  2 70 68  1 46 69 45
8  2  4 72 70  3 47 71 46
8  4  6 74 72  5 48 73 47
8  6  8 76 74  7 49 75 48
8  8 10 78 76  9 50 77 49
8 10 12 80 78 11 51 79 50
8 12 14 82 80 13 52 81 51
8 14 16 84 82 15 53 83 52
8 16 18 86 84 17 54 85 53
8 18 20 88 86 19 55 87 54
8 20 22 90 88 21 56 89 55
8 22 24 92 90 23 57 91 56
8 24 26 94 92 25 58 93 57
8 26 28 96 94 27 59 95 58
8 28 30 98 96 29 60 97 59
8  30  32 100  98  31  61  99  60
8  32  34 102 100  33  62 101  61
8  34  36 104 102  35  63 103  62
8  36  38 106 104  37  64 105  63
8  38  40 108 106  39  65 107  64
8  40  42 110 108  41  66 109  65
8  42  44 112 110  43  67 111  66
8  68  70 138 136  69 114 137 113
8  70  72 140 138  71 115 139 114
8  72  74 142 140  73 116 141 115
8  74  76 144 142  75 117 143 116
8  76  78 146 144  77 118 145 117
8  78  80 148 146  79 119 147 118
8  80  82 150 148  81 120 149 119
8  82  84 152 150  83 121 151 120
8  84  86 154 152  85 122 153 121
8  86  88 156 154  87 123 155 122
8  88  90 158 156  89 124 157 123
8  90  92 160 158  91 125 159 124
8  92  94 162 160  93 126 161 125
8  94  96 164 162  95 127 163 126
8  96  98 166 164  97 128 165 127
8  98 100 168 166  99 129 167 128
8 100 102 170 168 101 130 169 129
8 102 104 172 170 103 131 171 130
8 104 106 174 172 105 132 173 131
8 106 108 176 174 107 133 175 132
8 108 110 178 176 109 134 177 133
8 110 112 180 178 111 135 179 134
8 136 138 206 204 137 182 205 181
8 138 140 208 206 139 183 207 182
8 140 142 210 208 141 184 209 183
8 142 144 212 210 143 185 211 184
8 144 146 214 212 145 186 213 185
8 146 148 216 214 147 187 215 186
8 148 150 218 216 149 188 217 187
8 150 152 220 218 151 189 219 188
8 152 154 222 220 153 190 221 189
8 154 156 224 222 155 191 223 190
8 156 158 226 224 157 192 225 191
8 158 160 228 226 159 193 227 192
8 160 162 230 228 161 194 229 193
8 162 164 232 230 163 195 231 194
8 164 166 234 232 165 196 233 195
8 166 168 236 234 167 197 235 196
8 168 170 238 236 169 198 237 197
8 170 172 240 238 171 199 239 198
8 172 174 242 240 173 200 241 199
8 174 176 244 242 175 201 243 200
8 176 178 246 244 177 202 245 201
8 178 180 248 246 179 203 247 202
8 204 206 274 272 205 250 273 249
8 206 208 276 274 207 251 275 250
8 208 210 278 276 209 252 277 251
8 210 212 280 278 211 253 279 252
8 212 214 282 280 213 254 281 253
8 214 216 284 282 215 255 283 254
8 216 218 286 284 217 256 285 255
8 218 220 288 286 219 257 287 256
8 220 222 290 288 221 258 289 257
8 222 224 292 290 223 259 291 258
8 224 226 294 292 225 260 293 259
8 226 228 296 294 227 261 295 260
8 228 230 298 296 229 262 297 261
8 230 232 300 298 231 263 299 262
8 232 234 302 300 233 264 301 263
8 234 236 304 302 235 265 303 264
8 236 238 306 304 237 266 305 265
8 238 240 308 306 239 267 307 266
8 240 242 310 308 241 268 309 267
8 242 244 312 310 243 269 311 268
8 244 246 314 312 245 270 313 269
8 246 248 316 314 247 271 315 270
8 272 274 342 340 273 318 341 317
8 274 276 344 342 275 319 343 318
8 276 278 346 344 277 320 345 319
8 278 280 348 346 279 321 347 320
8 280 282 350 348 281 322 349 321
8 282 284 352 350 283 323 351 322
8 284 286 354 352 285 324 353 323
8 286 288 356 354 287 325 355 324
8 288 290 358 356 289 326 357 325
8 290 292 360 358 291 327 359 326
8 292 294 362 360 293 328 361 327
8 294 296 364 362 295 329 363 328
8 296 298 366 364 297 330 365 329
8 298 300 368 366 299 331 367 330
8 300 302 370 368 301 332 369 331
8 302 304 372 370 303 333 371 332
8 304 306 374 372 305 334 373 333
8 306 308 376 374 307 335 375 334
8 308 310 378 376 309 336 377 335
8 310 312 380 378 311 337 379 336
8 312 314 382 380 313 338 381 337
8 314 316 384 382 315 339 383 338
8 340 342 410 408 341 386 409 385
8 342 344 412 410 343 387 411 386
8 344 346 414 412 345 388 413 387
8 346 348 416 414 347 389 415 388
8 348 350 418 416 349 390 417 389
8 350 352 420 418 351 391 419 390
8 352 354 422 420 353 392 421 391
8 354 356 424 422 355 393 423 392
8 356 358 426 424 357 394 425 393
8 358 360 428 426 359 395 427 394
8 360 362 430 428 361 396 429 395
8 362 364 432 430 363 397 431 396
8 364 366 434 432 365 398 433 397
8 366 368 436 434 367 399 435 398
8 368 370 438 436 369 400 437 399
8 370 372 440 438 371 401 439 400
8 372 374 442 440 373 402 441 401
8 374 376 444 442 375 403 443 402
8 376 378 446 444 377 404 445 403
8 378 380 448 446 379 405 447 404
8 380 382 450 448 381 406 449 405
8 382 384 452 450 383 407 451 406
8 408 410 478 476 409 454 477 453
8 410 412 480 478 411 455 479 454
8 412 414 482 480 413 456 481 455
8 414 416 484 482 415 457 483 456
8 416 418 486 484 417 458 485 457
8 418 420 488 486 419 459 487 458
8 420 422 490 488 421 460 489 459
8 422 424 492 490 423 461 491 460
8 424 426 494 492 425 462 493 461
8 426 428 496 494 427 463 495 462
8 428 430 498 496 429 464 497 463
8 430 432 500 498 431 465 499 464
8 432 434 502 500 433 466 501 465
8 434 436 504 502 435 467 503 466
8 436 438 506 504 437 468 505 467
8 438 440 508 506 439 469 507 468
8 440 442 510 508 441 470 509 469
8 442 444 512 510 443 471 511 470
8 444 446 514 512 445 472 513 471
8 446 448 516 514 447 473 515 472
8 448 450 518 516 449 474 517 473
8 450 452 520 518 451 475 519 474
8 476 478 546 544 477 522 545 521
8 478 480 548 546 479 523 547 522
8 480 482 550 548 481 524 549 523
8 482 484 552 550 483 525 551 524
8 484 486 554 552 485 526 553 525
8 486 488 556 554 487 527 555 526
8 488 490 558 556 489 528 557 527
8 490 492 560 558 491 529 559 528
8 492 494 562 560 493 530 561 529
8 494 496 564 562 495 531 563 530
8 496 498 566 564 497 532 565 531
8 498 500 568 566 499 533 567 532
8 500 502 570 568 501 534 569 533
8 502 504 572 570 503 535 571 534
8 504 506 574 572 505 536 573 535
8 506 508 576 574 507 537 575 536
8 508 510 578 576 509 538 577 537
8 510 512 580 578 511 539 579 538
8 512 514 582 580 513 540 581 539
8 514 516 584 582 515 541 583 540
8 516 518 586 584 517 542 585 541
8 518 520 588 586 519 543 587 542
8 544 546 614 612 545 590 613 589
8 546 548 616 614 547 591 615 590
8 548 550 618 616 549 592 617 591
8 550 552 620 618 551 593 619 592
8 552 554 622 620 553 594 621 593
8 554 556 624 622 555 595 623 594
8 556 558 626 624 557 596 625 595
8 558 560 628 626 559 597 627 596
8 560 562 630 628 561 598 629 597
8 562 564 632 630 563 599 631 598
8 564 566 634 632 565 600 633 599
8 566 568 636 634 567 601 635 600
8 568 570 638 636 569 602 637 601
8 570 572 640 638 571 603 639 602
8 572 574 642 640 573 604 641 603
8 574 576 644 642 575 605 643 604
8 576 578 646 644 577 606 645 605
8 578 580 648 646 579 607 647 606
8 580 582 650 648 581 608 649 607
8 582 584 652 650 583 609 651 608
8 584 586 654 652 585 610 653 609
8 586 588 656 654 587 611 655 610
8 612 614 682 680 613 658 681 657
8 614 616 684 682 615 659 683 658
8 616 618 686 684 617 660 685 659
8 618 620 688 686 619 661 687 660
8 620 622 690 688 621 662 689 661
8 622 624 692 690 623 663 691 662
8 624 626 694 692 625 664 693 663
8 626 628 696 694 627 665 695 664
8 628 630 698 696 629 666 697 665
8 630 632 700 698 631 667 699 666
8 632 634 702 700 633 668 701 667
8 634 636 704 702 635 669 703 668
8 636 638 706 704 637 670 705 669
8 638 640 708 706 639 671 707 670
8 640 642 710 708 641 672 709 671
8 642 644 712 710 643 673 711 672
8 644 646 714 712 645 674 713 673
8 646 648 716 714 647 675 715 674
8 648 650 718 716 649 676 717 675
8 650 652 720 718 651 677 719 676
8 652 654 722 720 653 678 721 677
8 654 656 724 722 655 679 723 678
8 680 682 750 748 681 726 749 725
8 682 684 752 750 683 727 751 726
8 684 686 754 752 685 728 753 727
8 686 688 756 754 687 729 755 728
8 688 690 758 756 689 730 757 729
8 690 692 760 758 691 731 759 730
8 692 694 762 760 693 732 761 731
8 694 696 764 762 695 733 763 732
8 696 698 766 764 697 734 765 733
8 698 700 768 766 699 735 767 734
8 700 702 770 768 701 736 769 735
8 702 704 772 770 703 737 771 736
8 704 706 774 772 705 738 773 737
8 706 708 776 774 707 739 775 738
8 708 710 778 776 709 740 777 739
8 710 712 780 778 711 741 779 740
8 712 714 782 780 713 742 781 741
8 714 716 784 782 715 743 783 742
8 716 718 786 784 717 744 785 743
8 718 720 788 786 719 745 787 744
8 720 722 790 788 721 746 789 745
8 722 724 792 790 723 747 791 746
8 748 750 818 816 749 794 817 793
8 750 752 820 818 751 795 819 794
8 752 754 822 820 753 796 821 795
8 754 756 824 822 755 797 823 796
8 756 758 826 824 757 798 825 797
8 758 760 828 826 759 799 827 798
8 760 762 830 828 761 800 829 799
8 762 764 832 830 763 801 831 800
8 764 766 834 832 765 802 833 801
8 766 768 836 834 767 803 835 802
8 768 770 838 836 769 804 837 803
8 770 772 840 838 771 805 839 804
8 772 774 842 840 773 806 841 805
8 774 776 844 842 775 807 843 806
8 776 778 846 844 777 808 845 807
8 778 780 848 846 779 809 847 808
8 780 782 850 848 781 810 849 809
8 782 784 852 850 783 811 851 810
8 784 786 854 852 785 812 853 811
8 786 788 856 854 787 813 855 812
8 788 790 858 856 789 814 857 813
8 790 792 860 858 791 815 859 814
8 816 818 886 884 817 862 885 861
8 818 820 888 886 819 863 887 862
8 820 822 890 888 821 864 889 863
8 822 824 892 890 823 865 891 864
8 824 826 894 892 825 866 893 865
8 826 828 896 894 827 867 895 866
8 828 830 898 896 829 868 897 867
8 830 832 900 898 831 869 899 868
8 832 834 902 900 833 870 901 869
8 834 836 904 902 835 871 903 870
8 836 838 906 904 837 872 905 871
8 838 840 908 906 839 873 907 872
8 840 842 910 908 841 874 909 873
8 842 844 912 910 843 875 911 874
8 844 846 914 912 845 876 913 875
8 846 848 916 914 847 877 915 876
8 848 850 918 916 849 878 917 877
8 850 852 920 918 851 879 919 878
8 852 854 922 920 853 880 921 879
8 854 856 924 922 855 881 923 880
8 856 858 926 924 857 882 925 881
8 858 860 928 926 859 883 927 882
8 884 886 954 952 885 930 953 929
8 886 888 956 954 887 931 955 930
8 888 890 958 956 889 932 957 931
8 890 892 960 958 891 933 959 932
8 892 894 962 960 893 934 961 933
8 894 896 964 962 895 935 963 934
8 896 898 966 964 897 936 965 935
8 898 900 968 966 899 937 967 936
8 900 902 970 968 901 938 969 937
8 902 904 972 970 903 939 971 938
8 904 906 974 972 905 940 973 939
8 906 908 976 974 907 941 975 940
8 908 910 978 976 909 942 977 941
8 910 912 980 978 911 943 979 942
8 912 914 982 980 913 944 981 943
8 914 916 984 982 915 945 983 944
8 916 918 986 984 917 946 985 945
8 918 920 988 986 919 947 987 946
8 920 922 990 988 921 948 989 947
8 922 924 992 990 923 949 991 948
8 924 926 994 992 925 950 993 949
8 926 928 996 994 927 951 995 950
8  952  954 1022 1020  953  998 1021  997
8  954  956 1024 1022  955  999 1023  998
8  956  958 1026 1024  957 1000 1025  999
8  958  960 1028 1026  959 1001 1027 1000
8  960  962 1030 1028  961 1002 1029 1001
8  962  964 1032 1030  963 1003 1031 1002
8  964  966 1034 1032  965 1004 1033 1003
8  966  968 1036 1034  967 1005 1035 1004
8  968  970 1038 1036  969 1006 1037 1005
8  970  972 1040 1038  971 1007 1039 1006
8  972  974 1042 1040  973 1008 1041 1007
8  974  976 1044 1042  975 1009 1043 1008
8  976  978 1046 1044  977 1010 1045 1009
8  978  980 1048 1046  979 1011 1047 1010
8  980  982 1050 1048  981 1012 1049 1011
8  982  984 1052 1050  983 1013 1051 1012
8  984  986 1054 1052  985 1014 1053 1013
8  986  988 1056 1054  987 1015 1055 1014
8  988  990 1058 1056  989 1016 1057 1015
8  990  992 1060 1058  991 1017 1059 1016
8  992  994 1062 1060  993 1018 1061 1017
8  994  996 1064 1062  995 1019 1063 1018
8 1020 1022 1090 1088 1021 1066 1089 1065
8 1022 1024 1092 1090 1023 1067 1091 1066
8 1024 1026 1094 1092 1025 1068 1093 1067
8 1026 1028 1096 1094 1027 1069 1095 1068
8 1028 1030 1098 1096 1029 1070 1097 1069
8 1030 1032 1100 1098 1031 1071 1099 1070
8 1032 1034 1102 1100 1033 1072 1101 1071
8 1034 1036 1104 1102 1035 1073 1103 1072
8 1036 1038 1106 1104 1037 1074 1105 1073
8 1038 1040 1108 1106 1039 1075 1107 1074
8 1040 1042 1110 1108 1041 1076 1109 1075
8 1042 1044 1112 1110 1043 1077 1111 1076
8 1044 1046 1114 1112 1045 1078 1113 1077
8 1046 1048 1116 1114 1047 1079 1115 1078
8 1048 1050 1118 1116 1049 1080 1117 1079
8 1050 1052 1120 1118 1051 1081 1119 1080
8 1052 1054 1122 1120 1053 1082 1121 1081
8 1054 1056 1124 1122 1055 1083 1123 1082
8 1056 1058 1126 1124 1057 1084 1125 1083
8 1058 1060 1128 1126 1059 1085 1127 1084
8 1060 1062 1130 1128 1061 1086 1129 1085
8 1062 1064 1132 1130 1063 1087 1131 1086
8 1088 1090 1158 1156 1089 1134 1157 1133
8 1090 1092 1160 1158 1091 1135 1159 1134
8 1092 1094 1162 1160 1093 1136 1161 1135
8 1094 1096 1164 1162 1095 1137 1163 1136
8 1096 1098 1166 1164 1097 1138 1165 1137
8 1098 1100 1168 1166 1099 1139 1167 1138
8 1100 1102 1170 1168 1101 1140 1169 1139
8 1102 1104 1172 1170 1103 1141 1171 1140
8 1104 1106 1174 1172 1105 1142 1173 1141
8 1106 1108 1176 1174 1107 1143 1175 1142
8 1108 1110 1178 1176 1109 1144 1177 1143
8 1110 1112 1180 1178 1111 1145 1179 1144
8 1112 1114 1182 1180 1113 1146 1181 1145
8 1114 1116 1184 1182 1115 1147 1183 1146
8 1116 1118 1186 1184 1117 1148 1185 1147
8 1118 1120 1188 1186 1119 1149 1187 1148
8 1120 1122 1190 1188 1121 1150 1189 1149
8 1122 1124 1192 1190 1123 1151 1191 1150
8 1124 1126 1194 1192 1125 1152 1193 1151
8 1126 1128 1196 1194 1127 1153 1195 1152
8 1128 1130 1198 1196 1129 1154 1197 1153
8 1130 1132 1200 1198 1131 1155 1199 1154
8 1156 1158 1226 1224 1157 1202 1225 1201
8 1158 1160 1228 1226 1159 1203 1227 1202
8 1160 1162 1230 1228 1161 1204 1229 1203
8 1162 1164 1232 1230 1163 1205 1231 1204
8 1164 1166 1234 1232 1165 1206 1233 1205
8 1166 1168 1236 1234 1167 1207 1235 1206
8 1168 1170 1238 1236 1169 1208 1237 1207
8 1170 1172 1240 1238 1171 1209 1239 1208
8 1172 1174 1242 1240 1173 1210 1241 1209
8 1174 1176 1244 1242 1175 1211 1243 1210
8 1176 1178 1246 1244 1177 1212 1245 1211
8 1178 1180 1248 1246 1179 1213 1247 1212
8 1180 1182 1250 1248 1181 1214 1249 1213
8 1182 1184 1252 1250 1183 1215 1251 1214
8 1184 1186 1254 1252 1185 1216 1253 1215
8 1186 1188 1256 1254 1187 1217 1255 1216
8 1188 1190 1258 1256 1189 1218 1257 1217
8 1190 1192 1260 1258 1191 1219 1259 1218
8 1192 1194 1262 1260 1193 1220 1261 1219
8 1194 1196 1264 1262 1195 1221 1263 1220
8 1196 1198 1266 1264 1197 1222 1265 1221
8 1198 1200 1268 1266 1199 1223 1267 1222
8 1224 1226 1294 1292 1225 1270 1293 1269
8 1226 1228 1296 1294 1227 1271 1295 1270
8 1228 1230 1298 1296 1229 1272 1297 1271
8 1230 1232 1300 1298 1231 1273 1299 1272
8 1232 1234 1302 1300 1233 1274 1301 1273
8 1234 1236 1304 1302 1235 1275 1303 1274
8 1236 1238 1306 1304 1237 1276 1305 1275
8 1238 1240 1308 1306 1239 1277 1307 1276
8 1240 1242 1310 1308 1241 1278 1309 1277
8 1242 1244 1312 1310 1243 1279 1311 1278
8 1244 1246 1314 1312 1245 1280 1313 1279
8 1246 1248 1316 1314 1247 1281 1315 1280
8 1248 1250 1318 1316 1249 1282 1317 1281
8 1250 1252 1320 1318 1251 1283 1319 1282
8 1252 1254 1322 1320 1253 1284 1321 1283
8 1254 1256 1324 1322 1255 1285 1323 1284
8 1256 1258 1326 1324 1257 1286 1325 1285
8 1258 1260 1328 1326 1259 1287 1327 1286
8 1260 1262 1330 1328 1261 1288 1329 1287
8 1262 1264 1332 1330 1263 1289 1331 1288
8 1264 1266 1334 1332 1265 1290 1333 1289
8 1266 1268 1336 1334 1267 1291 1335 1290
8 1292 1294 1362 1360 1293 1338 1361 1337
8 1294 1296 1364 1362 1295 1339 1363 1338
8 1296 1298 1366 1364 1297 1340 1365 1339
8 1298 1300 1368 1366 1299 1341 1367 1340
8 1300 1302 1370 1368 1301 1342 1369 1341
8 1302 1304 1372 1370 1303 1343 1371 1342
8 1304 1306 1374 1372 1305 1344 1373 1343
8 1306 1308 1376 1374 1307 1345 1375 1344
8 1308 1310 1378 1376 1309 1346 1377 1345
8 1310 1312 1380 1378 1311 1347 1379 1346
8 1312 1314 1382 1380 1313 1348 1381 1347
8 1314 1316 1384 1382 1315 1349 1383 1348
8 1316 1318 1386 1384 1317 1350 1385 1349
8 1318 1320 1388 1386 1319 1351 1387 1350
8 1320 1322 1390 1388 1321 1352 1389 1351
8 1322 1324 1392 1390 1323 1353 1391 1352
8 1324 1326 1394 1392 1325 1354 1393 1353
8 1326 1328 1396 1394 1327 1355 1395 1354
8 1328 1330 1398 1396 1329 1356 1397 1355
8 1330 1332 1400 1398 1331 1357 1399 1356
8 1332 1334 1402 1400 1333 1358 1401 1357
8 1334 1336 1404 1402 1335 1359 1403 1358
8 1360 1362 1430 1428 1361 1406 1429 1405
8 1362 1364 1432 1430 1363 1407 1431 1406
8 1364 1366 1434 1432 1365 1408 1433 1407
8 1366 1368 1436 1434 1367 1409 1435 1408
8 1368 1370 1438 1436 1369 1410 1437 1409
8 1370 1372 1440 1438 1371 1411 1439 1410
8 1372 1374 1442 1440 1373 1412 1441 1411
8 1374 1376 1444 1442 1375 1413 1443 1412
8 1376 1378 1446 1444 1377 1414 1445 1413
8 1378 1380 1448 1446 1379 1415 1447 1414
8 1380 1382 1450 1448 1381 1416 1449 1415
8 1382 1384 1452 1450 1383 1417 1451 1416
8 1384 1386 1454 1452 1385 1418 1453 1417
8 1386 1388 1456 1454 1387 1419 1455 1418
8 1388 1390 1458 1456 1389 1420 1457 1419
8 1390 1392 1460 1458 1391 1421 1459 1420
8 1392 1394 1462 1460 1393 1422 1461 1421
8 1394 1396 1464 1462 1395 1423 1463 1422
8 1396 1398 1466 1464 1397 1424 1465 1423
8 1398 1400 1468 1466 1399 1425 1467 1424
8 1400 1402 1470 1468 1401 1426 1469 1425
8 1402 1404 1472 1470 1403 1427 1471 1426
8 1428 1430 1498 1496 1429 1474 1497 1473
8 1430 1432 1500 1498 1431 1475 1499 1474
8 1432 1434 1502 1500 1433 1476 1501 1475
8 1434 1436 1504 1502 1435 1477 1503 1476
8 1436 1438 1506 1504 1437 1478 1505 1477
8 1438 1440 1508 1506 1439 1479 1507 1478
8 1440 1442 1510 1508 1441 1480 1509 1479
8 1442 1444 1512 1510 1443 1481 1511 1480
8 1444 1446 1514 1512 1445 1482 1513 1481
8 1446 1448 1516 1514 1447 1483 1515 1482
8 1448 1450 1518 1516 1449 1484 1517 1483
8 1450 1452 1520 1518 1451 1485 1519 1484
8 1452 1454 1522 1520 1453 1486 1521 1485
8 1454 1456 1524 1522 1455 1487 1523 1486
8 1456 1458 1526 1524 1457 1488 1525 1487
8 1458 1460 1528 1526 1459 1489 1527 1488
8 1460 1462 1530 1528 1461 1490 1529 1489
8 1462 1464 1532 1530 1463 1491 1531 1490
8 1464 1466 1534 1532 1465 1492 1533 1491
8 1466 1468 1536 1534 1467 1493 1535 1492
8 1468 1470 1538 1536 1469 1494 1537 1493
8 1470 1472 1540 1538 1471 1495 1539 1494
8 1496 1498 1566 1564 1497 1542 1565 1541
8 1498 1500 1568 1566 1499 1543 1567 1542
8 1500 1502 1570 1568 1501 1544 1569 1543
8 1502 1504 1572 1570 1503 1545 1571 1544
8 1504 1506 1574 1572 1505 1546 1573 1545
8 1506 1508 1576 1574 1507 1547 1575 1546
8 1508 1510 1578 1576 1509 1548 1577 1547
8 1510 1512 1580 1578 1511 1549 1579 1548
8 1512 1514 1582 1580 1513 1550 1581 1549
8 1514 1516 1584 1582 1515 1551 1583 1550
8 1516 1518 1586 1584 1517 1552 1585 1551
8 1518 1520 1588 1586 1519 1553 1587 1552
8 1520 1522 1590 1588 1521 1554 1589 1553
8 1522 1524 1592 1590 1523 1555 1591 1554
8 1524 1526 1594 1592 1525 1556 1593 1555
8 1526 1528 1596 1594 1527 1557 1595 1556
8 1528 1530 1598 1596 1529 1558 1597 1557
8 1530 1532 1600 1598 1531 1559 1599 1558
8 1532 1534 1602 1600 1533 1560 1601 1559
8 1534 1536 1604 1602 1535 1561 1603 1560
8 1536 1538 1606 1604 1537 1562 1605 1561
8 1538 1540 1608 1606 1539 1563 1607 1562
8 1564 1566 1634 1632 1565 1610 1633 1609
8 1566 1568 1636 1634 1567 1611 1635 1610
8 1568 1570 1638 1636 1569 1612 1637 1611
8 1570 1572 1640 1638 1571 1613 1639 1612
8 1572 1574 1642 1640 1573 1614 1641 1613
8 1574 1576 1644 1642 1575 1615 1643 1614
8 1576 1578 1646 1644 1577 1616 1645 1615
8 1578 1580 1648 1646 1579 1617 1647 1616
8 1580 1582 1650 1648 1581 1618 1649 1617
8 1582 1584 1652 1650 1583 1619 1651 1618
8 1584 1586 1654 1652 1585 1620 1653 1619
8 1586 1588 1656 1654 1587 1621 1655 1620
8 1588 1590 1658 1656 1589 1622 1657 1621
8 1590 1592 1660 1658 1591 1623 1659 1622
8 1592 1594 1662 1660 1593 1624 1661 1623
8 1594 1596 1664 1662 1595 1625 1663 1624
8 1596 1598 1666 1664 1597 1626 1665 1625
8 1598 1600 1668 1666 1599 1627 1667 1626
8 1600 1602 1670 1668 1601 1628 1669 1627
8 1602 1604 1672 1670 1603 1629 1671 1628
8 1604 1606 1674 1672 1605 1630 1673 1629
8 1606 1608 1676 1674 1607 1631 1675 1630
8 1632 1634 1702 1700 1633 1678 1701 1677
8 1634 1636 1704 1702 1635 1679 1703 1678
8 1636 1638 1706 1704 1637 1680 1705 1679
8 1638 1640 1708 1706 1639 1681 1707 1680
8 1640 1642 1710 1708 1641 1682 1709 1681
8 1642 1644 1712 1710 1643 1683 1711 1682
8 1644 1646 1714 1712 1645 1684 1713 1683
8 1646 1648 1716 1714 1647 1685 1715 1684
8 1648 1650 1718 1716 1649 1686 1717 1685
8 1650 1652 1720 1718 1651 1687 1719 1686
8 1652 1654 1722 1720 1653 1688 1721 1687
8 1654 1656 1724 1722 1655 1689 1723 1688
8 1656 1658 1726 1724 1657 1690 1725 1689
8 1658 1660 1728 1726 1659 1691 1727 1690
8 1660 1662 1730 1728 1661 1692 1729 1691
8 1662 1664 1732 1730 1663 1693 1731 1692
8 1664 1666 1734 1732 1665 1694 1733 1693
8 1666 1668 1736 1734 1667 1695 1735 1694
8 1668 1670 1738 1736 1669 1696 1737 1695
8 1670 1672 1740 1738 1671 1697 1739 1696
8 1672 1674 1742 1740 1673 1698 1741 1697
8 1674 1676 1744 1742 1675 1699 1743 1698
8 1700 1702 1770 1768 1701 1746 1769 1745
8 1702 1704 1772 1770 1703 1747 1771 1746
8 1704 1706 1774 1772 1705 1748 1773 1747
8 1706 1708 1776 1774 1707 1749 1775 1748
8 1708 1710 1778 1776 1709 1750 1777 1749
8 1710 1712 1780 1778 1711 1751 1779 1750
8 1712 1714 1782 1780 1713 1752 1781 1751
8 1714 1716 1784 1782 1715 1753 1783 1752
8 1716 1718 1786 1784 1717 1754 1785 1753
8 1718 1720 1788 1786 1719 1755 1787 1754
8 1720 1722 1790 1788 1721 1756 1789 1755
8 1722 1724 1792 1790 1723 1757 1791 1756
8 1724 1726 1794 1792 1725 1758 1793 1757
8 1726 1728 1796 1794 1727 1759 1795 1758
8 1728 1730 1798 1796 1729 1760 1797 1759
8 1730 1732 1800 1798 1731 1761 1799 1760
8 1732 1734 1802 1800 1733 1762 1801 1761
8 1734 1736 1804 1802 1735 1763 1803 1762
8 1736 1738 1806 1804 1737 1764 1805 1763
8 1738 1740 1808 1806 1739 1765 1807 1764
8 1740 1742 1810 1808 1741 1766 1809 1765
8 1742 1744 1812 1810 1743 1767 1811 1766
8 1768 1770 1838 1836 1769 1814 1837 1813
8 1770 1772 1840 1838 1771 1815 1839 1814
8 1772 1774 1842 1840 1773 1816 1841 1815
8 1774 1776 1844 1842 1775 1817 1843 1816
8 1776 1778 1846 1844 1777 1818 1845 1817
8 1778 1780 1848 1846 1779 1819 1847 1818
8 1780 1782 1850 1848 1781 1820 1849 1819
8 1782 1784 1852 1850 1783 1821 1851 1820
8 1784 1786 1854 1852 1785 1822 1853 1821
8 1786 1788 1856 1854 1787 1823 1855 1822
8 1788 1790 1858 1856 1789 1824 1857 1823
8 1790 1792 1860 1858 1791 1825 1859 1824
8 1792 1794 1862 1860 1793 1826 1861 1825
8 1794 1796 1864 1862 1795 1827 1863 1826
8 1796 1798 1866 1864 1797 1828 1865 1827
8 1798 1800 1868 1866 1799 1829 1867 1828
8 1800 1802 1870 1868 1801 1830 1869 1829
8 1802 1804 1872 1870 1803 1831 1871 1830
8 1804 1806 1874 1872 1805 1832 1873 1831
8 1806 1808 1876 1874 1807 1833 1875 1832
8 1808 1810 1878 1876 1809 1834 1877 1833
8 1810 1812 1880 1878 1811 1835 1879 1834

CELL_TYPES 594
23
23
23
23
23
23
23
23
23
23
23
23
23
23
23
23
23
23
23
23
23
23
23
23
23
23
23
23
23
23
23
23
23
23
23
23
23
23
23
23
23
23
23
23
23
23
23
23
23
23
23
23
23
23
23
23
23
23
23
23
23
23
23
23
23
23
23
23
23
23
23
23
23
23
23
23
23
23
23
23
23
23
23
23
23
23
23
23
23
23
23
23
23
23
23
23
23
23
23
23
23
23
23
23
23
23
23
23
23
23
23
23
23
23
23
23
23
23
23
23
23
23
23
23
23
23
23
23
23
23
23
23
23
23
23
23
23
23
23
23
23
23
23
23
23
23
23
23
23
23
23
23
23
23
23
23
23
23
23
23
23
23
23
23
23
23
23
23
23
23
23
23
23
23
23
23
23
23
23
23
23
23
23
23
23
23
23
23
23
23
23
23
23
23
23
23
23
23
23
23
23
23
23
23
23
23
23
23
23
23
23
23
23
23
23
23
23
23
23
23
23
23
23
23
23
23
23
23
23
23
23
23
23
23
23
23
23
23
23
23
23
23
23
23
23
23
23
23
23
23
23
23
23
23
23
23
23
23
23
23
23
23
23
23
23
23
23
23
23
23
23
23
23
23
23
23
23
23
23
23
23
23
23
23
23
23
23
23
23
23
23
23
23
23
23
23
23
23
23
23
23
23
23
23
23
23
23
23
23
23
23
23
23
23
23
23
23
23
23
23
23
23
23
23
23
23
23
23
23
23
23
23
23
23
23
23
23
23
23
23
23
23
23
23
23
23
23
23
23
23
23
23
23
23
23
23
23
23
23
23
23
23
23
23
23
23
23
23
23
23
23
23
23
23
23
23
23
23
23
23
23
23
23
23
23
23
23
23
23
23
23
23
23
23
23
23
23
23
23
23
23
23
23
23
23
23
23
23
23
23
23
23
23
23
23
23
23
23
23
23
23
23
23
23
23
23
23
23
23
23
23
23
23
23
23
23
23
23
23
23
23
23
23
23
23
23
23
23
23
23
23
23
23
23
23
23
23
23
23
23
23
23
23
23
23
23
23
23
23
23
23
23
23
23
23
23
23
23
23
23
23
23
23
23
23
23
23
23
23
23
23
23
23
23
23
23
23
23
23
23
23
23
23
23
23
23
23
23
23
23
23
23
23
23
23
23
23
23
23
23
23
23
23
23
23
23
23
23
23
23
23
23
23
23
23
23
23
23
23
23
23
23
23
23
23
23
23
23
23
23
23
23
23
23
23
23
23
23
23
23
23
23
23
23
23
23
23
23
23
23
23
23
23
23
23
23
23
23
23
23
23
23
23
23
23
23
23
23
23
23
23
23
23
23

POINT_DATA 1881
SCALARS Displacement_R double 1
LOOKUP_TABLE default
5.16528e-07
0.000175342
0.000355416
0.000442218
0.000531295
0.000573817
0.000616961
0.000637361
0.000657872
0.000700008
0.000742827
0.000889695
0.00104479
0.00120877
0.00138193
0.00143604
0.00149097
0.00149978
0.00150865
0.00152078
0.00153295
0.00154972
0.00156653
0.00158969
0.00161299
0.0016451
0.00167748
0.00172224
0.00176746
0.00183023
0.00189386
0.00198241
0.00207267
0.00219875
0.00232771
0.00250871
0.00269442
0.00295565
0.0032239
0.00360039
0.00398514
0.00452057
0.00506217
0.00580734
0.00655491
5.23765e-07
0.000355363
0.000531245
0.000616925
0.000657847
0.000742832
0.00104497
0.00138238
0.00149153
0.00150923
0.00153356
0.00156717
0.00161369
0.00167824
0.00176833
0.00189488
0.00207392
0.00232929
0.00269646
0.00322654
0.00398843
0.00506595
0.00655872
5.23739e-07
0.000175212
0.000355217
0.000442021
0.000531132
0.000573682
0.000616862
0.000637282
0.000657815
0.000700002
0.000742881
0.000890019
0.00104551
0.00120999
0.00138379
0.00143812
0.00149328
0.00150213
0.00151104
0.00152322
0.00153544
0.00155229
0.00156917
0.00159243
0.00161584
0.0016481
0.00168062
0.0017256
0.00177103
0.0018341
0.00189804
0.00198703
0.00207774
0.00220447
0.00233409
0.00251601
0.00270264
0.00296511
0.00323454
0.00361249
0.00399848
0.00453515
0.00507749
0.00582294
0.00657032
5.36316e-07
0.000355033
0.000531012
0.00061683
0.000657841
0.000743057
0.00104653
0.00138626
0.00149631
0.00151416
0.0015387
0.00157261
0.00161954
0.00168469
0.00177563
0.00190341
0.00208424
0.00234221
0.00271307
0.00324798
0.00401524
0.00509668
0.00658966
5.44809e-07
0.000174969
0.000354901
0.000441766
0.000531026
0.00057368
0.000616989
0.000637478
0.000658086
0.000700443
0.00074352
0.000891513
0.0010482
0.00121425
0.00139
0.00144499
0.00150084
0.0015098
0.00151883
0.00153117
0.00154355
0.00156062
0.00157772
0.00160129
0.00162502
0.00165772
0.00169069
0.0017363
0.00178237
0.00184636
0.00191124
0.00200156
0.00209364
0.00222229
0.0023539
0.00253858
0.00272797
0.00299415
0.00326711
0.0036494
0.00403901
0.00457932
0.00512379
0.00587001
0.00661692
5.58126e-07
0.000354956
0.000531345
0.000617524
0.000658747
0.000744493
0.0010508
0.00139528
0.00150715
0.00152531
0.00155027
0.00158477
0.00163255
0.00169889
0.00179154
0.00192181
0.00210624
0.00236944
0.00274766
0.00329218
0.00406992
0.00515882
0.00665211
5.75925e-07
0.000175102
0.000355396
0.000442561
0.000532249
0.000575152
0.000618747
0.000639383
0.000660146
0.000702848
0.000746309
0.000895885
0.00105469
0.00122345
0.00140252
0.00145863
0.00151566
0.00152481
0.00153404
0.00154664
0.00155929
0.00157673
0.00159421
0.00161831
0.00164257
0.00167601
0.00170974
0.00175641
0.00180358
0.0018691
0.00193555
0.0020281
0.00212248
0.00225437
0.00238928
0.00257856
0.00277255
0.00304487
0.00332361
0.00371293
0.00410835
0.00465434
0.00520205
0.00594934
0.00669539
5.81487e-07
0.000356477
0.000534078
0.00062103
0.000662671
0.00074939
0.00106038
0.00141223
0.00152689
0.00154551
0.00157112
0.00160653
0.00165559
0.00172374
0.00181899
0.001953
0.00214288
0.00241394
0.00280315
0.00336182
0.00415455
0.00525356
0.00674678
6.09348e-07
0.000176596
0.000358569
0.000446624
0.000537331
0.000580761
0.000624922
0.000645837
0.00066689
0.000710211
0.000754339
0.000906491
0.00106854
0.00124129
0.00142515
0.00148287
0.00154157
0.00155099
0.0015605
0.00157348
0.00158651
0.00160449
0.0016225
0.00164734
0.00167236
0.00170685
0.00174166
0.00178983
0.00183853
0.00190621
0.0019749
0.00207058
0.00216818
0.0023046
0.00244415
0.00263982
0.00284018
0.00312092
0.0034075
0.00380616
0.00420909
0.00476214
0.00531363
0.00606185
0.00680641
5.88736e-07
0.000362113
0.000542611
0.000631083
0.000673487
0.00076188
0.00108001
0.00144213
0.00156057
0.00157983
0.00160631
0.00164295
0.00169373
0.00176432
0.00186305
0.00200208
0.00219922
0.00248071
0.00288439
0.00346123
0.00427226
0.00538235
0.00687425
6.2825e-07
0.000181245
0.000367767
0.000457912
0.000550759
0.000595214
0.000640431
0.000661849
0.000683412
0.000727797
0.000773033
0.000929192
0.00109593
0.00127416
0.00146439
0.00152421
0.0015851
0.00159488
0.00160474
0.00161821
0.00163174
0.0016504
0.00166911
0.00169492
0.00172091
0.00175676
0.00179295
0.00184306
0.00189374
0.00196419
0.00203572
0.00213541
0.00223714
0.00237933
0.00252474
0.0027285
0.00293683
0.00322794
0.00352397
0.00393351
0.00434474
0.00490506
0.00545988
0.00620816
0.00695027
5.49295e-07
0.000376284
0.000562811
0.000654088
0.000697825
0.000789005
0.00111769
0.00149335
0.00161659
0.00163664
0.00166423
0.0017024
0.00175532
0.00182895
0.00193198
0.0020772
0.00228327
0.00257753
0.00299866
0.0035966
0.00442701
0.00554639
0.00703444
6.23775e-07
0.000192212
0.000388797
0.000483191
0.000580124
0.000626449
0.000673527
0.000695815
0.000718248
0.000764406
0.000811436
0.000973757
0.00114717
0.00133269
0.001531
0.00159341
0.00165697
0.00166719
0.00167748
0.00169156
0.00170569
0.00172518
0.00174473
0.0017717
0.00179886
0.00183634
0.00187419
0.00192661
0.00197964
0.0020534
0.00212831
0.00223275
0.00233935
0.00248836
0.00264069
0.00285388
0.00307137
0.00337413
0.00368036
0.00410086
0.00451966
0.00508547
0.00564169
0.0063881
0.00712639
3.61674e-07
0.00040648
0.000604316
0.000700458
0.000746431
0.000842141
0.00118645
0.00157949
0.00170843
0.00172942
0.00175828
0.00179824
0.00185365
0.00193076
0.00203872
0.00219098
0.00240718
0.00271588
0.00315636
0.0037761
0.00462297
0.00574561
0.00722569
5.13238e-07
0.000215031
0.000431306
0.000533474
0.000637529
0.000687018
0.00073719
0.000760908
0.000784759
0.000833781
0.000883663
0.00105554
0.00123864
0.0014339
0.00164214
0.00170756
0.00177417
0.00178487
0.00179566
0.0018104
0.00182521
0.00184563
0.00186611
0.00189436
0.00192282
0.00196209
0.00200174
0.00205667
0.00211224
0.00218957
0.00226813
0.00237769
0.00248955
0.00264593
0.0028057
0.00302894
0.00325596
0.0035702
0.00388566
0.00431464
0.00473765
0.00530421
0.00585783
0.00659904
0.00733181
-3.39469e-08
0.000459067
0.000674228
0.000777478
0.000826683
0.000928905
0.00129483
0.0017083
0.00184307
0.00186498
0.00189511
0.0019368
0.00199458
0.00207498
0.00218755
0.00234636
0.00257205
0.00289432
0.00335243
0.00398925
0.00484305
0.00595836
0.00742589
2.32129e-07
0.000250533
0.000495248
0.00060774
0.000720872
0.00077435
0.000828412
0.000853934
0.000879579
0.000932245
0.000985778
0.00117005
0.00136536
0.00157192
0.0017902
0.00185836
0.00192763
0.00193874
0.00194995
0.00196526
0.00198063
0.00200183
0.00202307
0.00205236
0.00208187
0.00212256
0.00216364
0.00222053
0.00227809
0.00235819
0.0024396
0.0025532
0.00266925
0.00283155
0.0029973
0.00322848
0.00346264
0.00378451
0.00410474
0.00453575
0.00495686
0.00551744
0.00606399
0.00679715
0.00752379
-7.15586e-07
0.000533255
0.000769192
0.000880785
0.000933859
0.00104409
0.00143762
0.00187339
0.00201313
0.00203578
0.00206688
0.00210989
0.00216943
0.00225218
0.00236797
0.00253139
0.00276397
0.00309641
0.00356692
0.00421145
0.00505904
0.00615649
0.00760868
-2.96361e-07
0.000299714
0.000580301
0.00070437
0.000827276
0.000885076
0.000943441
0.000971001
0.000998702
0.00105564
0.00111358
0.00131358
0.00152454
0.00174458
0.00197296
0.00204343
0.00211474
0.00212616
0.00213767
0.00215338
0.00216914
0.00219086
0.00221262
0.00224259
0.00227276
0.00231432
0.00235626
0.00241432
0.00247305
0.00255479
0.00263791
0.00275406
0.00287285
0.00303919
0.00320907
0.00344545
0.00368366
0.00400826
0.00432793
0.00475388
0.00516707
0.00571582
0.00625187
0.0069751
0.0076955
-1.68067e-06
0.000627448
0.000884577
0.00100479
0.0010621
0.00118164
0.00161028
0.00207092
0.00221447
0.00223759
0.0022693
0.00231306
0.00237353
0.00245741
0.00257464
0.00274022
0.00297657
0.00331527
0.00379201
0.00443351
0.00526228
0.00633401
0.00776964
-1.16613e-06
0.000362138
0.00068346
0.000818655
0.000950545
0.00101248
0.00107516
0.00110486
0.00113477
0.00119649
0.00125959
0.00147915
0.0017101
0.00194638
0.00218497
0.00225722
0.00232984
0.00234144
0.00235311
0.00236903
0.00238498
0.00240694
0.0024289
0.00245912
0.0024895
0.0025313
0.00257344
0.00263172
0.00269068
0.00277278
0.00285637
0.00297342
0.00309344
0.00326185
0.00343388
0.00367247
0.00391126
0.00423317
0.00454671
0.00496096
0.00536129
0.00589407
0.00641763
0.00713013
0.00784461
-2.85672e-06
0.000737488
0.00101322
0.00114159
0.00120333
0.00133342
0.00180574
0.00229428
0.00244034
0.00246367
0.00249559
0.00253951
0.00260002
0.00268372
0.00280052
0.00296574
0.00320277
0.00354387
0.0040202
0.00464772
0.00544733
0.00648883
0.00790803
-2.44486e-06
0.000435352
0.000799256
0.000943713
0.00108285
0.00114847
0.00121537
0.00124725
0.00127951
0.00134651
0.00141556
0.00165872
0.00191416
0.0021695
0.00241837
0.00249192
0.00256516
0.0025768
0.0025885
0.00260444
0.00262039
0.00264231
0.00266419
0.00269425
0.00272441
0.00276585
0.00280756
0.00286519
0.00292348
0.00300471
0.0030876
0.00320404
0.00332388
0.00349255
0.00366486
0.00390257
0.00413824
0.00445195
0.00475425
0.00515146
0.00553559
0.00605016
0.00656061
0.00726252
0.00797167
-4.20045e-06
0.000856771
0.001147
0.00128311
0.00134954
0.00149149
0.00201561
0.00253458
0.00268208
0.00270538
0.00273717
0.00278077
0.00284058
0.00292301
0.00303779
0.00320044
0.00343546
0.00377549
0.00424455
0.00484796
0.00561138
0.0066212
0.00802514
-4.24307e-06
0.000514417
0.000920116
0.00107147
0.00121633
0.00128547
0.00135674
0.00139098
0.00142581
0.00149871
0.00157453
0.00184479
0.00212824
0.00240459
0.00266368
0.00273818
0.00281156
0.00282315
0.00283479
0.00285063
0.00286645
0.00288814
0.00290975
0.00293938
0.00296903
0.00300968
0.00305052
0.00310686
0.0031638
0.00324321
0.00332442
0.00343901
0.00355751
0.00372493
0.00389577
0.00412946
0.00435821
0.00465859
0.0049455
0.00532213
0.00568839
0.00618422
0.00668193
0.00737406
0.00807861
-5.88633e-06
0.000977153
0.00127869
0.00142314
0.00149485
0.00165011
0.00223165
0.00278219
0.00293052
0.00295368
0.00298519
0.00302821
0.00308697
0.00316752
0.00327927
0.00343774
0.00366863
0.00400448
0.00445933
0.0050303
0.00575393
0.0067329
0.00812337
-6.91877e-06
0.000592277
0.00103743
0.00119391
0.00134456
0.00141786
0.00149434
0.00153134
0.00156914
0.00164868
0.00173197
0.00203143
0.00234431
0.00264207
0.00291108
0.00298638
0.00305979
0.00307132
0.00308289
0.0030986
0.00311426
0.0031357
0.00315701
0.00318615
0.00321524
0.003255
0.00329483
0.00334961
0.00340486
0.00348185
0.00356072
0.00367252
0.00378879
0.00395366
0.00412137
0.00434782
0.00456598
0.00484874
0.0051175
0.00547184
0.00581999
0.00629774
0.00678374
0.00746725
0.008168
-8.61414e-06
0.00108987
0.00140273
0.00155792
0.0016359
0.00180585
0.00244609
0.00302729
0.0031765
0.00319957
0.00323086
0.00327344
0.00333129
0.0034101
0.00351861
0.00367194
0.00389709
0.00422594
0.00465978
0.00519253
0.00587582
0.00682622
0.00820527
-1.13301e-05
0.000660904
0.00114289
0.00130424
0.00146326
0.0015425
0.00162583
0.00166624
0.00170756
0.00179454
0.0018857
0.00221434
0.00255539
0.00287311
0.00315149
0.0032277
0.00330143
0.00331298
0.00332454
0.00334022
0.00335584
0.00337718
0.00339836
0.00342724
0.00345599
0.00349514
0.00353417
0.00358759
0.0036412
0.00371555
0.00379166
0.0039
0.00401334
0.00417456
0.00433744
0.00455338
0.00475767
0.00501977
0.00526907
0.00560104
0.00593186
0.00639291
0.00686852
0.00754475
0.00824245
-1.36848e-05
0.00118734
0.00151608
0.00168629
0.00177188
0.00195747
0.00265281
0.00326174
0.0034125
0.0034357
0.00346712
0.00350974
0.00356739
0.00364529
0.00375117
0.00389903
0.00411724
0.00443631
0.00484287
0.00533438
0.00597897
0.00690377
0.00827346
-1.89115e-05
0.000712897
0.00122987
0.0013977
0.00157054
0.00165846
0.00175089
0.00179552
0.00184099
0.00193608
0.00203505
0.00239061
0.00275602
0.00309059
0.00337767
0.00345507
0.0035298
0.00354149
0.00355319
0.00356906
0.00358486
0.00360643
0.0036278
0.0036569
0.00368578
0.00372493
0.00376373
0.00381641
0.00386876
0.00394064
0.00401379
0.00411815
0.00422804
0.0043846
0.00454084
0.00474304
0.00493086
0.00517075
0.00540056
0.0057112
0.0060261
0.00647222
0.00693881
0.00760906
0.00830441
-2.28222e-05
0.0012639
0.00161778
0.00180841
0.00190308
0.00210459
0.00284694
0.00347922
0.00363266
0.00365633
0.00368838
0.00373182
0.00379038
0.00386877
0.00397336
0.00411596
0.00432633
0.00463275
0.00500674
0.00545663
0.00606555
0.00696794
0.00833021
-3.12521e-05
0.000742856
0.00129404
0.00147202
0.00166641
0.0017661
0.00186997
0.00191966
0.00196989
0.00207351
0.00217977
0.00255817
0.00294216
0.00328935
0.0035845
0.00366347
0.00374008
0.00375209
0.00376413
0.00378047
0.00379674
0.00381895
0.00384096
0.00387087
0.00390048
0.00394045
0.0039798
0.00403265
0.00408444
0.00415433
0.00422453
0.00432457
0.00443061
0.00458149
0.00472911
0.00491467
0.00508443
0.00530192
0.00551319
0.00580428
0.00610495
0.006538
0.00699688
0.00766237
0.00835598
-3.74504e-05
0.00131647
0.00170863
0.00192489
0.00202999
0.00224704
0.00302532
0.00367586
0.00383336
0.0038579
0.00389117
0.0039363
0.003997
0.00407755
0.00418266
0.00432076
0.00452267
0.00481331
0.005151
0.00556094
0.00613789
0.00702094
0.00837749
-4.92346e-05
0.000748299
0.00133364
0.00152747
0.00175229
0.00186631
0.00198351
0.00203898
0.0020945
0.00220696
0.00231959
0.00271573
0.0031114
0.00346653
0.00376933
0.00385027
0.00392976
0.0039423
0.00395488
0.00397198
0.00398902
0.0040123
0.00403535
0.00406667
0.00409761
0.00413921
0.00417989
0.00423397
0.00428612
0.00435486
0.00442234
0.00451786
0.00461976
0.00476384
0.00490073
0.00506736
0.00521856
0.0054146
0.00560886
0.00588249
0.00617069
0.00659248
0.00704481
0.00770658
0.00839895
-5.76113e-05
0.00134425
0.00179029
0.0020358
0.00215238
0.00238427
0.00318597
0.0038498
0.00401281
0.00403861
0.00407367
0.00412125
0.00418514
0.00426933
0.00437698
0.00451196
0.00470511
0.00497657
0.00527611
0.00564917
0.00619807
0.00706464
0.00841688
-7.18576e-05
0.000729737
0.00134887
0.00156634
0.00183008
0.0019597
0.00209133
0.00215304
0.00221423
0.00233582
0.00245384
0.00286235
0.0032625
0.00362102
0.00393131
0.00401462
0.00409808
0.00411134
0.00412465
0.00414276
0.00416081
0.00418546
0.00420988
0.00424302
0.00427572
0.00431957
0.00436224
0.00441852
0.00447202
0.00454083
0.00460617
0.00469718
0.00479476
0.00493067
0.00505467
0.00520107
0.00533421
0.00551047
0.00568955
0.00594792
0.00622532
0.00663754
0.00708431
0.00774326
0.00843478
-8.09558e-05
0.00134831
0.00186472
0.0021408
0.00226937
0.00251555
0.00332833
0.00400106
0.00417114
0.00419855
0.00423578
0.00428628
0.00435401
0.00444287
0.00455492
0.00468892
0.00487331
0.00512197
0.00538348
0.00572343
0.00624805
0.00710065
0.00844974
-9.54187e-05
0.00069016
0.00134152
0.00159233
0.00190154
0.00204645
0.00219291
0.00226092
0.00232784
0.00245904
0.00258167
0.00299755
0.00339539
0.0037533
0.00407115
0.0041573
0.00424588
0.00425999
0.00427416
0.00429341
0.00431259
0.00433877
0.00436468
0.00439985
0.00443452
0.00448095
0.00452603
0.00458521
0.004641
0.00471143
0.00477559
0.00486239
0.00495554
0.00508154
0.00519074
0.0053167
0.00543302
0.00559154
0.00575731
0.00600254
0.00627066
0.00667483
0.00711686
0.00777371
0.0084647
-0.00010222
0.00133106
0.00193334
0.00223924
0.00237941
0.00263992
0.00345261
0.00413075
0.00430961
0.0043388
0.00437831
0.00443184
0.0045036
0.00459761
0.00471544
0.00485127
0.00502731
0.00524951
0.0054748
0.00578565
0.00628948
0.00713031
0.00847718
-0.000113363
0.000634104
0.00131446
0.00160966
0.0019677
0.00212639
0.00228777
0.00236152
0.0024337
0.00257522
0.00270222
0.00312117
0.00351074
0.00386487
0.00419045
0.00428005
0.0043749
0.00438992
0.00440494
0.00442534
0.00444561
0.00447327
0.00450065
0.00453783
0.00457448
0.00462356
0.00467119
0.00473366
0.00479236
0.00486614
0.00493052
0.00501376
0.00510241
0.00521637
0.00530933
0.00541571
0.00551683
0.0056598
0.00581405
0.00604808
0.00630826
0.0067057
0.0071437
0.00779902
0.0084897
-0.00011387
0.0012958
0.00199687
0.00233088
0.00248101
0.00275672
0.00355997
0.00424091
0.00443041
0.00446131
0.0045029
0.00455926
0.00463492
0.00473402
0.00485834
0.00499931
0.00516774
0.00536009
0.0055521
0.00583773
0.00632385
0.00715478
0.00850014
-0.000117293
0.000566636
0.00127137
0.00162225
0.00202872
0.00219933
0.00237575
0.00245396
0.00253024
0.00268289
0.00281475
0.00323334
0.00360976
0.00395785
0.00429125
0.00438516
0.00448733
0.00450313
0.00451887
0.00454021
0.0045614
0.00459038
0.00461912
0.00465818
0.0046967
0.00474827
0.00479833
0.00486422
0.00492601
0.00500471
0.00507118
0.0051519
0.00523592
0.00533544
0.00541146
0.00549988
0.00558757
0.00571712
0.00586146
0.00608605
0.00633942
0.00673131
0.00716584
0.0078201
0.00851061
-0.000107332
0.0012465
0.00205509
0.00241562
0.00257278
0.00286532
0.00365174
0.00433364
0.00453567
0.00456786
0.00461105
0.00466996
0.00474919
0.00485292
0.00498379
0.0051333
0.00529515
0.00545492
0.00561724
0.00588123
0.00635234
0.00717499
0.00851935
-9.86735e-05
0.000492666
0.00121653
0.00163322
0.00208395
0.00226529
0.00245678
0.00253761
0.00261636
0.0027806
0.00291865
0.00333425
0.00369389
0.00403451
0.00437565
0.00447508
0.00458514
0.0046014
0.00461752
0.00463948
0.00466141
0.00469155
0.00472156
0.00476232
0.00480246
0.00485626
0.00490838
0.00497771
0.0050424
0.00512702
0.00519777
0.00527745
0.00535652
0.00543919
0.0054985
0.005571
0.00564695
0.00576512
0.00590096
0.00611768
0.00636521
0.00675255
0.00718409
0.00783764
0.00852809
-7.46919e-05
0.00118763
0.00210701
0.00249313
0.00265407
0.00296512
0.00372934
0.00441091
0.00462706
0.00465974
0.00470409
0.00476537
0.00484765
0.00495528
0.00509243
0.00525331
0.00540977
0.00553536
0.0056718
0.00591743
0.00637592
0.00719165
0.0085354
-5.07095e-05
0.000416273
0.00115428
0.00164463
0.00213234
0.002325
0.0025305
0.00261237
0.00269233
0.00286729
0.00301384
0.00342444
0.00376482
0.0040973
0.00444577
0.00455244
0.00467005
0.0046862
0.00470226
0.00472461
0.00474728
0.0047786
0.00480977
0.00485201
0.00489336
0.00494918
0.00500279
0.00507558
0.00514286
0.0052335
0.00531077
0.00539144
0.00546476
0.00552863
0.00557219
0.00563091
0.00569669
0.00580531
0.00593387
0.00614406
0.00638658
0.0067702
0.00719916
0.00785226
0.00854271
-1.0791e-05
0.0011232
0.0021516
0.00256279
0.00272619
0.00305653
0.00379471
0.00447495
0.00470622
0.0047384
0.00478399
0.00484756
0.00493219
0.00504304
0.0051862
0.0053601
0.00551239
0.00560344
0.00571755
0.00594764
0.00639549
0.00720544
0.00854886
3.0258e-05
0.00034046
0.00108852
0.00165767
0.00217267
0.00237999
0.00259559
0.00267853
0.00276018
0.00294216
0.00310073
0.00350465
0.00382438
0.00414859
0.00450362
0.0046199
0.00474311
0.00475844
0.00477421
0.0047972
0.00482098
0.00485356
0.00488558
0.00492913
0.00497112
0.00502888
0.00508345
0.00515945
0.00522942
0.00532508
0.00541065
0.00549517
0.00556112
0.00560514
0.00563437
0.00568139
0.00573832
0.00583902
0.00596129
0.00616611
0.00640431
0.00678492
0.00721164
0.00786448
0.00855497
8.63163e-05
0.00105716
0.00218721
0.00262219
0.00279157
0.00313964
0.00384928
0.00452725
0.00477318
0.00480447
0.00485234
0.00491782
0.00500411
0.00511777
0.00526676
0.00545341
0.00560281
0.00566055
0.00575569
0.00597273
0.00641168
0.00721682
0.0085601
0.000144021
0.000267559
0.00102261
0.00167276
0.00220349
0.00243234
0.0026491
0.00273647
0.00282333
0.00300434
0.00317991
0.00357547
0.00387412
0.00419039
0.00455062
0.00467986
0.00480391
0.00481816
0.00483453
0.00485945
0.00488431
0.00491821
0.00495039
0.00499519
0.00503731
0.00509681
0.00515236
0.00523058
0.00530411
0.00540289
0.00549735
0.00558978
0.0056456
0.00567012
0.00568656
0.00572384
0.00577308
0.00586729
0.00598413
0.00618457
0.00641902
0.0067972
0.00722198
0.0078747
0.00856524
0.000214239
0.000992336
0.00221263
0.00266797
0.00285404
0.0032153
0.00389469
0.00456917
0.00482677
0.00486008
0.00491117
0.00497777
0.00506546
0.00518196
0.00533631
0.00553329
0.00568118
0.00570826
0.00578746
0.00599358
0.00642509
0.00722625
0.00856951
0.000286341
0.000199289
0.000959143
0.00168986
0.00222349
0.00248429
0.00268689
0.0027871
0.00288554
0.00305325
0.003252
0.00363742
0.00391536
0.00422443
0.00458775
0.00473467
0.0048499
0.00486574
0.00488669
0.00491416
0.0049387
0.00497375
0.0050056
0.0050512
0.00509399
0.00515385
0.00521199
0.00528992
0.00536875
0.00546843
0.00557045
0.0056763
0.00571795
0.00572504
0.00572998
0.00575948
0.00580197
0.00589095
0.00600309
0.00619998
0.00643121
0.00680744
0.00723053
0.00788324
0.00857382
0.000367281
0.000930658
0.00222685
0.00269577
0.00291679
0.00328427
0.00393225
0.00460142
0.00486187
0.00490971
0.00496331
0.00503039
0.00511961
0.00523869
0.00539673
0.00559953
0.00574754
0.00574783
0.00581385
0.0060109
0.00643622
0.00723405
0.00857739
0.000450205
0.000136711
0.000899732
0.00170873
0.00223174
0.00253811
0.00270424
0.00283265
0.00294911
0.00308916
0.00331758
0.00369119
0.0039492
0.00425236
0.00461532
0.00478723
0.00487302
0.00491098
0.00493621
0.00496165
0.00498798
0.00501955
0.00505563
0.00509671
0.00514554
0.00519998
0.00526578
0.00533826
0.00542494
0.00552361
0.00562958
0.00575579
0.00577812
0.00577144
0.00576571
0.00578939
0.00582587
0.00591074
0.00601878
0.00621284
0.00644128
0.00681597
0.0072376
0.00789035
0.00858099
SCALARS Displacement_Z double 1
LOOKUP_TABLE default
0
0
0
0
0
0
0
0
0
0
0
0
0
0
0
0
0
0
0
0
0
0
0
0
0
0
0
0
0
0
0
0
0
0
0
0
0
0
0
0
0
0
0
0
0
0.000624101
0.000612204
0.000598907
0.000591163
0.000587233
0.000578674
0.000545461
0.000506703
0.000494322
0.00049233
0.000489603
0.000485851
0.000480695
0.000473612
0.000463882
0.000450541
0.000432373
0.000407959
0.000375988
0.000336004
0.000289422
0.000239008
0.000183811
0.00125041
0.00124428
0.00122646
0.00121425
0.00119972
0.00119217
0.00118415
0.00118025
0.00117625
0.00116784
0.00115905
0.00112737
0.00109228
0.00105437
0.00101437
0.00100198
0.000989485
0.000987491
0.000985484
0.000982746
0.000980004
0.000976232
0.000972465
0.00096729
0.000962105
0.000954997
0.000947874
0.000938103
0.000928328
0.000914922
0.000901533
0.000883253
0.00086505
0.000840377
0.000816048
0.000783477
0.000751922
0.000710654
0.000671818
0.000622865
0.000578643
0.000525127
0.000478034
0.000420546
0.000367781
0.00188025
0.00184407
0.00180365
0.0017801
0.00176815
0.00174212
0.00164113
0.00152333
0.00148572
0.00147967
0.00147139
0.00146
0.00144434
0.00142284
0.00139331
0.00135285
0.00129778
0.00122387
0.00112727
0.00100682
0.000867107
0.000716619
0.000551541
0.00251581
0.00250331
0.00246698
0.00244206
0.00241244
0.00239703
0.00238067
0.00237271
0.00236455
0.0023474
0.00232946
0.00226482
0.00219324
0.00211594
0.00203439
0.00200914
0.00198369
0.00197963
0.00197554
0.00196997
0.00196438
0.0019567
0.00194903
0.0019385
0.00192794
0.00191347
0.00189898
0.0018791
0.00185922
0.00183196
0.00180475
0.00176762
0.00173067
0.00168063
0.00163135
0.00156546
0.00150174
0.0014186
0.00134058
0.00124256
0.00115436
0.00104802
0.000954704
0.000840794
0.000735316
0.00315886
0.00309702
0.00302787
0.00298758
0.00296713
0.0029226
0.00274978
0.00254833
0.00248408
0.00247375
0.00245961
0.00244016
0.00241344
0.00237676
0.00232642
0.0022575
0.00216383
0.00203842
0.00187514
0.00167279
0.00144015
0.00119198
0.00091879
0.00381119
0.00379185
0.00373563
0.00369706
0.00365118
0.00362732
0.00360198
0.00358963
0.003577
0.00355042
0.00352262
0.00342244
0.00331151
0.00319176
0.00306551
0.00302645
0.00298709
0.00298081
0.00297449
0.00296587
0.00295724
0.00294537
0.00293352
0.00291724
0.00290093
0.00287858
0.0028562
0.00282552
0.00279485
0.00275282
0.0027109
0.00265374
0.00259693
0.0025201
0.00244457
0.00234384
0.00224673
0.00212051
0.00200261
0.00185537
0.0017237
0.00156599
0.00142824
0.00126007
0.00110225
0.00447441
0.00438465
0.00428418
0.00422561
0.00419587
0.00413109
0.00387963
0.00358671
0.0034934
0.00347841
0.00345789
0.00342967
0.00339092
0.00333775
0.00326485
0.00316517
0.00303001
0.00284968
0.00261626
0.00232973
0.00200479
0.00166314
0.00128534
0.005151
0.00512421
0.00504613
0.00499253
0.00492871
0.0048955
0.00486023
0.00484304
0.00482545
0.00478843
0.00474971
0.0046101
0.00445547
0.00428857
0.00411276
0.00405841
0.00400366
0.00399493
0.00398614
0.00397415
0.00396215
0.00394565
0.00392918
0.00390656
0.00388391
0.00385288
0.00382182
0.00377925
0.00373672
0.0036785
0.00362047
0.00354145
0.00346304
0.00335722
0.00325346
0.00311558
0.00298321
0.00281215
0.00265348
0.00245696
0.00228282
0.00207614
0.00189677
0.00167777
0.00146872
0.0058418
0.00572127
0.00558602
0.00550705
0.00546694
0.0053795
0.00503972
0.00464398
0.00451808
0.00449786
0.00447019
0.00443216
0.00437996
0.00430839
0.00421035
0.00407654
0.00389561
0.00365536
0.00334691
0.00297322
0.00255736
0.00212857
0.00165195
0.00654916
0.00651426
0.00641206
0.00634177
0.00625794
0.00621426
0.00616784
0.00614521
0.00612204
0.00607327
0.00602222
0.005838
0.00563379
0.00541332
0.0051812
0.00510949
0.0050373
0.00502579
0.0050142
0.0049984
0.00498259
0.00496085
0.00493915
0.00490936
0.00487953
0.00483869
0.00479782
0.00474185
0.00468597
0.00460953
0.00453344
0.00442999
0.00432754
0.00418965
0.00405492
0.0038767
0.00370662
0.00348853
0.00328812
0.00304268
0.0028278
0.0025757
0.00235869
0.00209371
0.00183579
0.00727428
0.0071202
0.00694627
0.00684439
0.00679256
0.00667944
0.00623888
0.00572524
0.00556199
0.00553579
0.00549994
0.00545068
0.0053831
0.0052905
0.00516382
0.00499125
0.00475871
0.00445179
0.00406191
0.0035978
0.00309394
0.00258685
0.00202017
0.00801824
0.00797497
0.0078468
0.00775821
0.00765219
0.00759678
0.00753782
0.00750904
0.00747958
0.00741747
0.0073524
0.00711714
0.0068559
0.00657363
0.00627645
0.00618468
0.00609233
0.0060776
0.00606279
0.00604258
0.00602236
0.00599457
0.00596683
0.00592876
0.00589066
0.0058385
0.00578633
0.00571491
0.00564367
0.00554631
0.00544952
0.00531817
0.00518839
0.0050143
0.00484493
0.00462228
0.00441143
0.00414387
0.00390099
0.00360786
0.00335504
0.00306254
0.00281305
0.00250833
0.00220569
0.00877935
0.00859095
0.0083751
0.0082477
0.00818268
0.00804046
0.00748409
0.00683395
0.00662736
0.00659422
0.00654887
0.00648657
0.00640113
0.00628414
0.00612425
0.00590686
0.00561503
0.00523269
0.00475364
0.00419644
0.00361015
0.00303648
0.002392
0.00955917
0.00950894
0.00935552
0.0092481
0.00911836
0.00905012
0.00897726
0.00894162
0.00890509
0.00882794
0.00874694
0.00845326
0.00812624
0.0077725
0.0073999
0.00728482
0.00716902
0.00715056
0.00713198
0.00710665
0.0070813
0.00704646
0.00701168
0.00696396
0.0069162
0.00685084
0.00678548
0.00669605
0.00660689
0.00648515
0.00636427
0.00620051
0.00603916
0.00582356
0.00561497
0.00534292
0.00508797
0.00476882
0.00448378
0.00414592
0.0038597
0.00353357
0.00325794
0.00292101
0.00258012
0.010227
0.0100128
0.0097581
0.00960526
0.00952678
0.00935442
0.00867599
0.00788146
0.00762877
0.00758822
0.00753274
0.00745651
0.00735196
0.00720882
0.00701327
0.00674775
0.00639248
0.00593075
0.00536174
0.00471819
0.00406449
0.00344216
0.00273967
0.010904
0.0108529
0.0106847
0.0105633
0.0104139
0.0103343
0.0102488
0.0102069
0.0101638
0.0100724
0.0099763
0.00962652
0.00923633
0.00881441
0.00836974
0.00823229
0.00809391
0.00807183
0.00804962
0.00801933
0.00798902
0.00794734
0.00790575
0.00784865
0.0077915
0.00771327
0.00763504
0.00752797
0.00742124
0.00727553
0.00713097
0.00693537
0.0067431
0.00648718
0.00624105
0.00592284
0.00562818
0.00526482
0.00494588
0.00457465
0.00426533
0.00391731
0.00362512
0.00326729
0.00290089
0.0114775
0.011259
0.0109762
0.010801
0.0107101
0.0105092
0.00971425
0.0087845
0.00848829
0.00844071
0.00837558
0.00828605
0.00816317
0.00799479
0.00776459
0.00745198
0.00703465
0.00649655
0.0058456
0.00513149
0.00443051
0.00377766
0.00303775
0.0120506
0.0120093
0.0118434
0.0117154
0.0115515
0.0114623
0.0113655
0.0113177
0.0112685
0.0111637
0.011053
0.0106491
0.0101994
0.00971493
0.00920457
0.00904657
0.00888727
0.00886184
0.00883623
0.00880132
0.00876635
0.00871828
0.00867026
0.00860432
0.00853828
0.00844781
0.00835727
0.00823326
0.00810955
0.00794057
0.00777289
0.00754616
0.00732371
0.00702877
0.00674696
0.00638625
0.00605668
0.00565688
0.00531208
0.00491747
0.00459323
0.00423178
0.00392955
0.00355837
0.00317602
0.012529
0.0123402
0.0120433
0.0118485
0.0117459
0.0115173
0.0106111
0.0095607
0.00922525
0.00917125
0.00909726
0.00899544
0.00885547
0.0086633
0.00839994
0.00804164
0.00756371
0.00695253
0.00622849
0.00545945
0.00472751
0.00405641
0.00329325
0.012998
0.012983
0.0128439
0.0127187
0.0125462
0.0124488
0.0123416
0.0122882
0.012233
0.0121149
0.0119895
0.011532
0.0110268
0.0104877
0.00992103
0.00974511
0.00956733
0.0095389
0.00951027
0.0094712
0.00943205
0.00937818
0.00932433
0.0092503
0.00917607
0.00907424
0.00897218
0.00883214
0.00869222
0.00850079
0.00831064
0.00805349
0.00780156
0.00746895
0.00715349
0.00675437
0.00639513
0.00596675
0.00560344
0.00519361
0.00486044
0.00449116
0.00418302
0.00380327
0.00341157
0.0133825
0.0132707
0.0129756
0.012763
0.0126487
0.0123917
0.0113779
0.0102262
0.00985723
0.0097976
0.0097158
0.00960302
0.00944759
0.00923343
0.00893873
0.00853621
0.007999
0.00731816
0.0065307
0.00572141
0.00497064
0.00428899
0.00351175
0.0137499
0.0137834
0.0137021
0.0135905
0.0134147
0.0133101
0.0131925
0.0131334
0.013072
0.0129397
0.0127989
0.0122864
0.0117299
0.0111458
0.0105344
0.0103439
0.0101506
0.0101196
0.0100884
0.0100457
0.0100029
0.00994402
0.00988504
0.00980383
0.00972226
0.00961011
0.00949744
0.00934244
0.00918716
0.00897416
0.00876215
0.00847517
0.00819438
0.00782542
0.00747857
0.00704559
0.0066622
0.00621278
0.00583721
0.00541822
0.00508009
0.00470642
0.00439485
0.00400946
0.00361263
0.0140445
0.0140668
0.0137894
0.0135592
0.0134324
0.0131447
0.0120255
0.0107951
0.0103991
0.0103348
0.0102464
0.0101242
0.00995514
0.00972107
0.00939702
0.00895178
0.00835643
0.00760969
0.00676924
0.00593252
0.00517115
0.00448351
0.00369781
0.0143172
0.0144239
0.0144354
0.0143482
0.0141733
0.0140615
0.0139328
0.0138675
0.0137992
0.0136515
0.0134938
0.0129239
0.0123203
0.0117017
0.0110582
0.0108565
0.0106509
0.0106179
0.0105845
0.0105389
0.0104931
0.01043
0.0103666
0.0102792
0.0101912
0.0100699
0.0099476
0.00977881
0.00960909
0.00937543
0.00914215
0.00882585
0.00851673
0.0081128
0.00773714
0.00727539
0.00687342
0.00640965
0.00602667
0.00560259
0.00526193
0.00488579
0.00457221
0.00418298
0.00378352
0.0145308
0.0147469
0.0145007
0.0142516
0.0141109
0.0137896
0.0125665
0.0112805
0.0108643
0.0107963
0.0107025
0.0105723
0.0103916
0.0101398
0.00978854
0.00930213
0.00864962
0.0078411
0.00695844
0.00610455
0.00533768
0.00464653
0.00385573
0.0147204
0.0149226
0.0150618
0.0150082
0.0148361
0.0147164
0.0145755
0.0145033
0.0144275
0.0142629
0.0140869
0.0134571
0.0128104
0.012168
0.0115047
0.0112952
0.0110803
0.0110456
0.0110106
0.0109626
0.0109144
0.0108478
0.0107808
0.0106881
0.0105946
0.0104653
0.0103345
0.0101532
0.00997004
0.00971677
0.00946287
0.00911774
0.00878077
0.00834339
0.00794185
0.0074568
0.00704155
0.00656882
0.00618184
0.00575515
0.00541329
0.0050357
0.00472087
0.00432895
0.00392822
0.0148662
0.0153284
0.0151217
0.0148515
0.0146959
0.0143382
0.0130132
0.0116938
0.0112633
0.0111922
0.0110941
0.0109576
0.0107669
0.0104997
0.0101238
0.00959808
0.00888942
0.00802389
0.00710966
0.00624605
0.0054765
0.00478316
0.00398916
0.0149887
0.0153001
0.0155986
0.0155845
0.0154144
0.0152859
0.0151316
0.015052
0.0149682
0.0147857
0.0145904
0.013899
0.0132135
0.0125569
0.0118846
0.0116702
0.0114485
0.0114125
0.0113762
0.0113264
0.0112762
0.0112067
0.0111368
0.0110398
0.0109416
0.0108054
0.0106672
0.0104748
0.0102796
0.010008
0.00973433
0.0093609
0.00899656
0.00852748
0.0081034
0.00760064
0.00717673
0.00669894
0.00631009
0.00588216
0.00553974
0.00516121
0.00484554
0.00445165
0.00405034
0.0150837
0.0158284
0.015663
0.0153697
0.0151984
0.0148033
0.0133795
0.0120455
0.0116051
0.0115318
0.0114303
0.0112885
0.0110896
0.0108092
0.0104116
0.00984905
0.00908524
0.00816809
0.00723198
0.00636348
0.00559266
0.00489778
0.00410167
0.0151578
0.0155777
0.0160617
0.0160882
0.0159172
0.0157786
0.0156105
0.0155234
0.0154316
0.0152313
0.0150166
0.0142629
0.013543
0.0128801
0.0122078
0.0119903
0.0117635
0.0117266
0.0116892
0.0116379
0.0115861
0.0115143
0.0114419
0.0113414
0.0112394
0.0110975
0.0109531
0.0107513
0.0105454
0.0102573
0.00996491
0.00956377
0.0091725
0.00867378
0.00823085
0.00771566
0.00728675
0.00680641
0.00641688
0.00598837
0.00564566
0.00526643
0.00495011
0.00455478
0.00415317
0.0152199
0.0162616
0.0161321
0.0158145
0.015628
0.0151965
0.0136784
0.0123445
0.0118972
0.011822
0.0117176
0.0115715
0.0113659
0.0110747
0.0106587
0.0100625
0.00924462
0.00828197
0.00733207
0.00646149
0.00569002
0.0049939
0.00419631
0.0152646
0.0157755
0.0164649
0.0165275
0.016351
0.0162017
0.0160201
0.0159259
0.0158265
0.0156098
0.0153766
0.0145612
0.0138116
0.0131481
0.0124825
0.0122632
0.0120321
0.0119943
0.011956
0.0119034
0.0118503
0.0117766
0.0117022
0.0115987
0.0114935
0.0113471
0.0111977
0.0109882
0.0107736
0.0104711
0.0101614
0.00973321
0.00931541
0.00878952
0.00833173
0.00780864
0.00737728
0.00689584
0.00650618
0.00607737
0.00573447
0.00535466
0.00503778
0.00464136
0.00423956
0.0153107
0.0166412
0.0165357
0.0161937
0.0159934
0.0155289
0.0139223
0.0125991
0.0121458
0.012069
0.0119621
0.0118123
0.0116011
0.0113014
0.0108708
0.0102449
0.00937387
0.00837247
0.0074149
0.00654363
0.00577173
0.00507453
0.00427581
0.015343
0.0159113
0.0168203
0.0169088
0.0167225
0.0165625
0.0163679
0.0162673
0.0161614
0.0159306
0.0156812
0.0148052
0.0140311
0.0133701
0.0127165
0.0124955
0.0122602
0.0122216
0.0121825
0.0121287
0.0120744
0.011999
0.0119228
0.0118169
0.0117092
0.0115591
0.0114058
0.0111906
0.0109691
0.0106549
0.0103296
0.00987505
0.009431
0.00888092
0.00841229
0.00788477
0.00745251
0.00697069
0.00658111
0.00615209
0.00580901
0.00542869
0.0051113
0.00471406
0.00431208
0.0153863
0.0169777
0.01688
0.0165145
0.0163022
0.0158104
0.014122
0.0128159
0.0123563
0.0122779
0.0121687
0.0120157
0.0118
0.0114938
0.0110522
0.0104013
0.00947804
0.0084451
0.00748392
0.00661256
0.00584027
0.0051421
0.00434247
0.0154193
0.0159998
0.0171376
0.0172367
0.0170383
0.0168676
0.0166611
0.0165549
0.0164436
0.016202
0.0159396
0.0150043
0.0142114
0.0135536
0.0129161
0.0126927
0.0124527
0.0124133
0.0123734
0.0123186
0.0122632
0.0121863
0.0121086
0.0120006
0.0118909
0.0117381
0.0115819
0.0113624
0.011136
0.0108127
0.0104742
0.00999397
0.00952388
0.00895309
0.00847741
0.00794776
0.0075154
0.00703351
0.00664404
0.00621484
0.00587156
0.00549078
0.0051729
0.00477504
0.00437287
0.0154685
0.01728
0.0171723
0.0167839
0.0165618
0.0160499
0.0142868
0.0130014
0.0125335
0.0124535
0.0123423
0.0121865
0.0119671
0.011656
0.0112067
0.0105361
0.00956146
0.00850422
0.00754176
0.00667047
0.0058978
0.00519871
0.00439834
0.0155104
0.016053
0.0174243
0.0175154
0.0173063
0.0171244
0.0169066
0.0167957
0.01668
0.0164308
0.0161604
0.0151665
0.0143611
0.0137051
0.0130872
0.0128595
0.0126143
0.0125742
0.0125336
0.0124778
0.0124214
0.0123432
0.0122643
0.0121546
0.0120433
0.0118883
0.0117301
0.0115076
0.0112778
0.010948
0.0105991
0.0100939
0.00959798
0.00901037
0.00853084
0.00800035
0.0075682
0.00708633
0.00669694
0.00626755
0.00592405
0.00554287
0.00522453
0.00482618
0.00442382
0.0155696
0.0175542
0.0174205
0.0170089
0.0167786
0.0162551
0.0144243
0.0131607
0.0126818
0.0126005
0.0124875
0.0123293
0.0121069
0.0117921
0.0113375
0.0106529
0.00962772
0.00855302
0.00759034
0.00671912
0.00594604
0.00524612
0.00444513
0.0156237
0.0160805
0.017686
0.0177485
0.0175348
0.0173393
0.0171112
0.0169966
0.0168771
0.0166227
0.0163504
0.0152986
0.014487
0.0138299
0.0132349
0.0129998
0.0127492
0.0127086
0.0126675
0.0126108
0.0125537
0.0124744
0.0123943
0.0122832
0.0121705
0.0120139
0.0118542
0.0116297
0.0113976
0.0110635
0.0107077
0.0101779
0.00965668
0.00905626
0.00857526
0.00804451
0.00761262
0.00713078
0.0067414
0.00631184
0.0059681
0.00558656
0.00526779
0.00486905
0.0044665
0.015693
0.0178052
0.0176336
0.0171963
0.0169592
0.0164328
0.014541
0.0132988
0.0128056
0.0127232
0.0126089
0.0124486
0.0122236
0.011906
0.0114481
0.0107547
0.00968011
0.00859383
0.00763127
0.00676004
0.00598654
0.00528588
0.00448435
0.0157591
0.0160898
0.017926
0.0179401
0.0177323
0.0175177
0.0172814
0.0171644
0.0170411
0.0167822
0.0165157
0.0154058
0.0145945
0.0139322
0.0133633
0.0131168
0.0128615
0.0128207
0.0127793
0.0127221
0.0126642
0.0125839
0.0125028
0.0123904
0.0122766
0.0121187
0.0119579
0.0117319
0.0114987
0.0111611
0.0108027
0.0102484
0.00970294
0.00909352
0.00861255
0.00808171
0.00765003
0.0071682
0.00677878
0.00634904
0.00600506
0.00562321
0.00530404
0.004905
0.00450227
0.0158362
0.0180357
0.0178195
0.0173526
0.0171098
0.0165881
0.0146413
0.0134195
0.0129087
0.012826
0.0127104
0.012548
0.0123208
0.0120012
0.0115416
0.0108443
0.00972141
0.0086282
0.00766575
0.00679445
0.00602055
0.00531922
0.00451723
0.0159114
0.016087
0.0181461
0.0180943
0.0179063
0.0176641
0.0174235
0.0173053
0.0171778
0.0169126
0.0166608
0.0154925
0.0146876
0.0140157
0.013476
0.0132129
0.0129551
0.0129144
0.0128729
0.0128152
0.0127566
0.0126751
0.012593
0.0124795
0.0123648
0.012206
0.0120446
0.0118171
0.0115843
0.0112425
0.0108865
0.0103075
0.00973938
0.00912421
0.00864398
0.00811304
0.0076815
0.00719966
0.00681015
0.00638026
0.00603604
0.00565393
0.00533439
0.0049351
0.0045322
0.0159927
0.0182466
0.0179849
0.0174838
0.0172358
0.0167249
0.0147285
0.0135257
0.0129949
0.0129123
0.0127952
0.0126306
0.0124017
0.0120811
0.0116213
0.0109236
0.00975404
0.00865718
0.00769473
0.0068233
0.00604902
0.00534711
0.00454473
0.016073
0.0160763
0.0183475
0.0182159
0.0180632
0.0177819
0.0175438
0.0174244
0.0172932
0.0170172
0.0167894
0.0155624
0.0147691
0.0140835
0.0135757
0.0132903
0.013034
0.0129937
0.0129522
0.0128935
0.0128337
0.012751
0.012668
0.0125536
0.0124385
0.0122786
0.0121176
0.0118875
0.0116581
0.0113091
0.0109611
0.0103566
0.00976837
0.00914985
0.0086705
0.00813946
0.00770798
0.0072261
0.00683648
0.00640646
0.00606201
0.00567967
0.00535982
0.00496031
0.00455726
0.016155
0.0184393
0.0181359
0.017597
0.0173439
0.016847
0.0148054
0.0136202
0.0130685
0.0129858
0.0128661
0.0126994
0.0124698
0.0121494
0.0116912
0.0109947
0.00978029
0.0086817
0.00771917
0.00684758
0.00607295
0.00537052
0.00456781
0.0162367
0.0160613
0.018531
0.01831
0.018208
0.0178742
0.0176495
0.0175247
0.0173937
0.017099
0.0169045
0.0156186
0.0148414
0.0141384
0.0136648
0.0133514
0.0131021
0.0130623
0.0130199
0.0129594
0.0128981
0.0128142
0.0127305
0.0126152
0.0125008
0.0123385
0.0121809
0.0119447
0.0117238
0.0113624
0.0110284
0.0103972
0.00979195
0.00917152
0.00869293
0.00816177
0.0077303
0.00724838
0.00685863
0.00642848
0.00608382
0.00570129
0.00538115
0.00498147
0.0045783
0.0163163
0.0186139
0.0182758
0.0176986
0.01744
0.0169562
0.0148736
0.0137047
0.013133
0.0130485
0.012925
0.0127572
0.0125282
0.0122097
0.0117543
0.0110589
0.00980188
0.00870238
0.00773969
0.00686793
0.00609298
0.0053901
0.00458712
0.0163956
0.0160442
0.0186968
0.0183812
0.0183435
0.0179435
0.0177476
0.0176058
0.0174858
0.0171607
0.017008
0.0156637
0.0149057
0.0141826
0.0137448
0.0133981
0.0131635
0.0131228
0.0130773
0.013014
0.0129515
0.0128664
0.0127838
0.0126658
0.0125556
0.0123867
0.0122385
0.0119898
0.0117846
0.0114039
0.0110895
0.0104304
0.00981173
0.00918992
0.00871189
0.00818059
0.00774909
0.00726711
0.00687724
0.00644698
0.00610213
0.00571944
0.00539905
0.00499922
0.00459594
0.0164702
0.0187707
0.0184071
0.0177964
0.017531
0.0170544
0.0149343
0.0137806
0.0131927
0.0131008
0.0129747
0.0128083
0.0125818
0.0122663
0.0118136
0.0111173
0.00982029
0.00871986
0.00775694
0.006885
0.00610977
0.00540651
0.00460329
0.0165445
0.0160268
0.018845
0.0184338
0.018471
0.0179923
0.0178453
0.017665
0.0175762
0.0172049
0.0171012
0.0156996
0.014963
0.0142179
0.0138167
0.0134323
0.0132221
0.0131751
0.0131239
0.013058
0.012998
0.012908
0.012833
0.0127049
0.0126081
0.0124231
0.0122942
0.0120234
0.0118427
0.0114349
0.0111453
0.0104572
0.0098289
0.00920546
0.00872794
0.00819641
0.00776487
0.00728283
0.00689284
0.00646249
0.00611747
0.00573464
0.00541403
0.00501408
0.0046107
0.0166123
0.0189104
0.0185308
0.0178971
0.0176235
0.017143
0.0149883
0.0138488
0.0132525
0.0131493
0.013024
0.0128605
0.0126365
0.0123231
0.0118711
0.0111706
0.00983658
0.0087347
0.00777147
0.00689933
0.00612385
0.00542026
0.00461684
0.01668
0.0160101
0.0189761
0.0184718
0.0185909
0.018023
0.0179491
0.0176984
0.017671
0.0172339
0.0171851
0.0157281
0.0150138
0.0142461
0.0138812
0.0134558
0.0132833
0.0132084
0.0131739
0.0130872
0.0130503
0.0129355
0.012888
0.0127306
0.012665
0.0124472
0.012352
0.0120461
0.0118997
0.0114572
0.0111961
0.0104784
0.00984436
0.00921849
0.00874156
0.00820965
0.00777813
0.00729598
0.0069059
0.00647545
0.00613029
0.00574734
0.00542655
0.00502649
0.00462303
SCALARS Stress_R double 1
LOOKUP_TABLE default
-9.84286
-9.43071
-9.11154
-8.76114
-8.45468
-8.26421
-8.08701
-7.9948
-7.90706
-7.71236
-7.53517
-6.79314
-6.06584
-5.2278
-4.41514
-4.157
-3.90822
-3.86844
-3.82913
-3.77496
-3.72084
-3.64732
-3.57331
-3.47313
-3.37269
-3.23668
-3.10038
-2.91751
-2.73364
-2.49061
-2.24593
-1.92994
-1.61096
-1.21872
-0.818208
-0.372972
0.0913926
0.508312
0.959851
1.17703
1.43802
1.24914
1.0939
0.523717
0.0254302
-9.79296
-9.061
-8.4043
-8.03657
-7.85674
-7.48616
-6.01697
-4.36641
-3.86105
-3.78196
-3.67373
-3.52635
-3.32585
-3.05381
-2.68756
-2.20063
-1.56684
-0.776116
0.129908
0.992058
1.45974
1.10171
0.0208736
-9.75052
-9.33367
-9.01219
-8.65833
-8.34913
-8.15675
-7.97784
-7.88471
-7.7961
-7.59939
-7.42058
-6.67068
-5.93582
-5.08916
-4.26826
-4.00782
-3.75672
-3.7166
-3.67694
-3.62229
-3.5677
-3.49355
-3.4189
-3.31789
-3.21663
-3.07956
-2.94219
-2.75804
-2.57283
-2.32839
-2.08221
-1.76504
-1.44464
-1.05242
-0.651418
-0.209494
0.252467
0.659054
1.10151
1.29751
1.53827
1.31956
1.13256
0.54204
0.0199467
-9.61294
-8.8678
-8.19924
-7.82454
-7.64128
-7.26363
-5.76453
-4.08104
-3.56659
-3.48617
-3.37609
-3.22624
-3.02251
-2.74633
-2.37501
-1.88244
-1.24375
-0.452419
0.441704
1.26435
1.64876
1.16785
0.00579765
-9.47448
-9.04474
-8.71788
-8.35477
-8.03848
-7.84096
-7.65749
-7.56186
-7.47091
-7.26869
-7.08561
-6.3137
-5.55781
-4.68654
-3.84217
-3.57509
-3.31734
-3.27627
-3.2356
-3.17959
-3.12363
-3.04769
-2.97121
-2.86784
-2.76419
-2.62411
-2.48366
-2.29588
-2.10688
-1.85851
-1.60803
-1.28774
-0.963469
-0.57188
-0.169932
0.261104
0.714985
1.08915
1.50297
1.63412
1.81306
1.50616
1.22455
0.579693
-0.00444721
-9.22504
-8.4596
-7.77215
-7.38582
-7.1968
-6.80725
-5.25508
-3.51089
-2.97947
-2.89655
-2.78303
-2.62862
-2.41891
-2.13507
-1.75444
-1.2517
-0.604725
0.185526
1.05211
1.79001
2.00288
1.28246
-0.0240483
-8.95564
-8.50948
-8.1793
-7.80525
-7.48133
-7.27731
-7.08827
-6.98946
-6.89558
-6.68604
-6.49801
-5.69519
-4.91032
-4.00254
-3.12364
-2.84656
-2.57885
-2.53635
-2.49418
-2.43613
-2.37813
-2.2995
-2.22029
-2.11341
-2.00619
-1.86165
-1.71662
-1.52351
-1.32889
-1.07494
-0.818254
-0.494095
-0.16463
0.223876
0.625539
1.03512
1.47245
1.78761
2.14873
2.16756
2.23942
1.78961
1.35695
0.632863
-0.0417874
-8.54521
-7.76717
-7.06519
-6.66802
-6.4734
-6.07231
-4.45943
-2.63906
-2.08566
-1.99955
-1.88164
-1.72141
-1.50408
-1.21053
-0.818266
-0.303318
0.351963
1.13455
1.94991
2.54532
2.48845
1.42637
-0.0635968
-8.07872
-7.62302
-7.30265
-6.92452
-6.60016
-6.3921
-6.20023
-6.09927
-6.00362
-5.78838
-5.59849
-4.76624
-3.95543
-3.00788
-2.09216
-1.80384
-1.52496
-1.48086
-1.43704
-1.37671
-1.31644
-1.23483
-1.15258
-1.0418
-0.930619
-0.78117
-0.631081
-0.432274
-0.231521
0.0279587
0.291132
0.617618
0.951474
1.3311
1.72818
2.10027
2.50741
2.72863
3.00464
2.85733
2.77061
2.13145
1.50335
0.690609
-0.0874134
-7.42101
-6.6693
-5.97927
-5.58178
-5.38622
-4.9831
-3.32996
-1.44205
-0.867479
-0.778369
-0.656337
-0.490654
-0.266222
0.0362906
0.438985
0.963766
1.62176
2.38209
3.10897
3.48259
3.0431
1.56482
-0.106736
-6.64276
-6.20619
-5.93166
-5.57237
-5.26932
-5.06578
-4.88024
-4.7811
-4.68786
-4.47422
-4.29141
-3.44881
-2.63394
-1.65993
-0.722091
-0.425694
-0.13869
-0.0933049
-0.0483282
0.0136174
0.0755178
0.159248
0.243682
0.357236
0.471251
0.624135
0.777837
0.980352
1.18537
1.44744
1.71454
2.03823
2.3723
2.7321
3.11573
3.4254
3.78048
3.85922
4.004
3.62837
3.32383
2.46541
1.6188
0.733921
-0.133867
-5.59276
-4.97076
-4.359
-3.98764
-3.80258
-3.42044
-1.79253
0.10733
0.690214
0.780258
0.903685
1.07121
1.29805
1.60354
2.00913
2.53404
3.18068
3.89248
4.47224
4.51092
3.55997
1.64234
-0.14437
-4.30878
-3.96601
-3.82191
-3.53478
-3.29899
-3.11761
-2.95699
-2.86731
-2.78502
-2.58794
-2.42757
-1.61881
-0.850751
0.103901
1.01572
1.30659
1.59028
1.63537
1.67966
1.74083
1.80192
1.88464
1.96807
2.08039
2.19314
2.34439
2.49663
2.69662
2.89984
3.1569
3.42094
3.73156
4.05719
4.37913
4.73432
4.94322
5.21112
5.07766
5.02407
4.34972
3.76277
2.68717
1.63587
0.734311
-0.170486
-2.61805
-2.38485
-1.98587
-1.68502
-1.52916
-1.20305
0.275779
2.03341
2.58576
2.67118
2.78813
2.94721
3.16333
3.45567
3.84524
4.34921
4.95995
5.58302
5.92432
5.46241
3.86669
1.58133
-0.162937
-0.506366
-0.450502
-0.636949
-0.52373
-0.443955
-0.307327
-0.199323
-0.128421
-0.0683287
0.0926868
0.218761
0.922183
1.56063
2.37807
3.14348
3.39314
3.64214
3.68311
3.72194
3.77607
3.83009
3.90375
3.978
4.07898
4.18019
4.31765
4.45606
4.63982
4.82749
5.06517
5.31234
5.59418
5.89779
6.15588
6.46095
6.50934
6.63405
6.18702
5.83678
4.80049
3.87366
2.64674
1.46725
0.654585
-0.180443
1.76684
1.10622
1.09393
1.28785
1.4021
1.65938
2.85232
4.15974
4.59541
4.66435
4.75901
4.88929
5.06941
5.31895
5.66095
6.11498
6.66519
7.15956
7.15166
6.01762
3.74974
1.32224
-0.156063
4.54638
3.99875
3.16648
2.99765
2.83323
2.93061
2.97792
3.03373
3.07227
3.20284
3.31997
3.87773
4.33325
4.82179
5.25342
5.40323
5.56624
5.59764
5.6235
5.66086
5.69802
5.75036
5.80297
5.87778
5.95225
6.05918
6.16652
6.31754
6.47256
6.67794
6.89535
7.14016
7.41579
7.59426
7.83776
7.67466
7.60711
6.7827
6.07597
4.72004
3.4993
2.27093
1.11335
0.495452
-0.156477
7.42865
5.09206
4.4848
4.60337
4.6981
4.95792
5.81813
6.2252
6.41611
6.45254
6.50289
6.57665
6.68757
6.85795
7.11887
7.50242
7.98854
8.33284
7.86613
5.95323
3.16151
0.900938
-0.122376
10.8706
9.24428
7.29484
6.75094
6.27287
6.38484
6.40114
6.46637
6.50476
6.65104
6.83975
7.26392
7.53379
7.41981
7.26475
7.23572
7.24382
7.25862
7.26181
7.27008
7.2779
7.29378
7.30917
7.34015
7.36956
7.42765
7.48447
7.5878
7.69379
7.86106
8.04231
8.25375
8.50791
8.59648
8.77093
8.33545
8.01406
6.76835
5.66858
4.09903
2.69131
1.61818
0.631531
0.279941
-0.109096
14.3212
9.23797
7.91496
8.08865
8.23101
8.66739
9.24235
8.16773
7.95327
7.93858
7.9187
7.90397
7.90881
7.96238
8.11369
8.42232
8.86585
9.04091
7.97604
5.24079
2.18974
0.382868
-0.0717793
18.3407
15.0395
11.3883
10.4318
9.62059
9.86009
9.92053
10.0409
10.1231
10.3705
10.7622
11.0976
11.2159
10.1652
9.13018
8.8378
8.6128
8.60331
8.57334
8.53935
8.50437
8.46787
8.42955
8.39882
8.36422
8.35621
8.34336
8.38776
8.431
8.56225
8.7087
8.9003
9.15143
9.13534
9.22768
8.44066
7.78723
6.11652
4.63204
3.00943
1.56763
0.783022
0.0896954
0.0368105
-0.0499105
22.2061
13.1967
11.175
11.6306
11.9225
12.7753
13.1386
9.95628
9.17574
9.09275
8.97751
8.84355
8.70722
8.60924
8.62764
8.8684
9.30618
9.26991
7.43279
3.93894
0.966837
-0.16676
-0.0141724
26.5977
21.041
15.1415
13.8316
12.7537
13.2756
13.4866
13.7137
13.8935
14.3354
15.0713
15.3411
15.3321
13.0195
10.8345
10.2121
9.68526
9.64426
9.57229
9.48504
9.39587
9.29355
9.18738
9.07957
8.96418
8.8747
8.77404
8.74891
8.71501
8.81297
8.92684
9.11299
9.38295
9.23043
9.20704
7.97218
6.89738
4.86191
3.0656
1.57504
0.267718
-0.137552
-0.454311
-0.208218
0.0115635
30.5772
16.7277
14.2389
15.2405
15.776
17.247
17.3883
11.5899
10.1337
9.97147
9.74283
9.46659
9.16051
8.87752
8.7318
8.90011
9.36251
9.02229
6.22693
2.17844
-0.370514
-0.697473
0.0433635
35.0078
26.8351
18.4145
16.9338
15.7773
16.729
17.1888
17.5496
17.8614
18.5441
19.7069
19.8559
19.6856
15.8926
12.3955
11.4206
10.557
10.4801
10.3622
10.2162
10.0673
9.89147
9.70927
9.51312
9.30428
9.11686
8.90886
8.79386
8.65706
8.70942
8.77849
8.96302
9.26498
8.91726
8.71076
6.93104
5.35639
3.09472
1.12718
-0.06052
-1.08284
-1.06393
-0.960739
-0.436128
0.0696438
38.7026
19.7917
17.3314
19.0678
19.8673
21.989
21.7362
13.1007
10.961
10.7194
10.3729
9.9453
9.44978
8.94141
8.56582
8.60982
9.10096
8.29398
4.39626
0.130224
-1.71151
-1.17864
0.0969177
42.7654
32.0017
21.2833
19.9378
19.0367
20.4855
21.2261
21.6892
22.1133
22.9811
24.5296
24.4015
23.9631
18.6577
13.8591
12.5712
11.3925
11.2815
11.1214
10.9202
10.7148
10.4664
10.209
9.91777
9.60823
9.30011
8.95948
8.71017
8.41804
8.37938
8.35885
8.529
8.86017
8.22569
7.72804
5.33575
3.23074
0.948108
-1.00292
-1.76376
-2.39156
-1.94185
-1.40817
-0.635487
0.122313
45.7622
22.5537
20.8818
23.3315
24.2771
26.8195
25.8395
14.5401
11.8417
11.5365
11.0871
10.5183
9.82452
9.03515
8.30174
8.0886
8.58012
7.06568
2.03845
-2.02874
-2.97919
-1.59561
0.14579
49.0854
36.1843
24.0105
23.1908
23.0247
24.8759
25.8135
26.2711
26.7098
27.5788
29.3224
28.6807
27.8162
21.1806
15.2841
13.7853
12.3795
12.2451
12.0562
11.8137
11.5662
11.256
10.9349
10.5467
10.136
9.67518
9.16978
8.70812
8.17134
7.95053
7.74908
7.8779
8.21915
7.17128
6.23288
3.22966
0.647442
-1.42107
-3.16017
-3.42935
-3.60144
-2.74057
-1.78937
-0.80123
0.169797
51.0928
25.3405
25.3946
28.222
29.041
31.5049
29.3698
15.9686
12.9581
12.6221
12.1052
11.4258
10.537
9.39744
8.10979
7.40757
7.84399
5.30801
-0.695182
-4.15309
-4.13198
-1.94644
0.190611
53.4306
39.1471
26.9705
27.0818
28.2162
30.1538
31.0769
31.3636
31.6495
32.2169
33.8425
32.4076
30.9512
23.3531
16.73
15.1616
13.6771
13.5381
13.3421
13.0815
12.8145
12.461
12.0968
11.614
11.1089
10.4589
9.75668
8.97882
8.07885
7.53661
7.01083
7.06116
7.37823
5.75458
4.19649
0.687135
-2.21767
-3.85922
-5.22173
-4.98717
-4.6849
-3.44754
-2.10637
-0.933068
0.213514
54.3464
28.5568
31.2578
33.8002
34.1246
35.8106
32.0781
17.4421
14.4424
14.1192
13.5818
12.8337
11.7631
10.212
8.14504
6.62443
6.92001
3.00197
-3.61622
-6.14094
-5.15213
-2.23573
0.232642
55.6199
40.7862
30.5765
31.9325
34.8779
36.3565
36.9849
36.9346
36.8769
36.7529
37.8833
35.3633
33.1791
25.1106
18.25
16.7554
15.3821
15.2573
15.0779
14.8234
14.56
14.181
13.7945
13.2222
12.6338
11.7686
10.8534
9.6619
8.28731
7.24438
6.20199
6.12228
6.3558
3.96777
1.61168
-2.17977
-5.16702
-6.23553
-7.11109
-6.39729
-5.63362
-4.06134
-2.36596
-1.03356
0.254684
55.5484
32.6334
38.5851
39.9709
39.4668
39.5732
33.8374
19.0125
16.3625
16.0833
15.5627
14.7772
13.5416
11.5596
8.54845
5.80338
5.81161
0.161476
-6.53659
-7.93675
-6.03884
-2.47174
0.272721
55.8476
41.0948
35.247
37.9473
42.9453
43.2628
43.367
42.8745
42.3381
41.0836
41.338
37.4281
34.4389
26.438
19.8949
18.5855
17.5343
17.4201
17.2709
17.0339
16.7837
16.3841
15.984
15.3283
14.6672
13.5886
12.4748
10.8261
8.93127
7.1864
5.39868
5.10397
5.14302
1.79731
-1.48428
-5.23282
-8.02371
-8.45874
-8.79368
-7.645
-6.45238
-4.58771
-2.57707
-1.10698
0.294049
54.9871
37.9912
47.1309
46.5144
45.0085
42.7382
34.6399
20.7291
18.7319
18.4733
17.9675
17.1443
15.7618
13.3963
9.44361
5.03982
4.49132
-3.142
-9.29869
-9.51795
-6.79955
-2.6633
0.311167
54.4648
40.0996
41.3835
45.1726
52.0032
50.4474
49.978
48.9943
47.9831
45.1714
44.2188
38.5781
34.7781
27.3564
21.7148
20.6499
20.1301
19.9622
19.8314
19.597
19.3438
18.9122
18.4899
17.7619
17.0395
15.7841
14.5157
12.4551
10.1203
7.48398
4.71755
4.05446
3.69639
-0.763774
-4.99016
-8.31988
-10.6579
-10.4742
-10.2614
-8.73046
-7.15173
-5.03501
-2.7486
-1.15805
0.331527
53.0261
45.0314
56.3624
53.1777
50.6919
45.387
34.5808
22.6481
21.5275
21.1548
20.6063
19.7215
18.2207
15.5752
10.9102
4.47663
2.8956
-6.77654
-11.8029
-10.8868
-7.44718
-2.81917
0.347624
51.8552
37.7882
49.3712
53.5062
61.4208
57.4444
56.5802
55.0041
53.7322
49.0524
46.6739
38.8626
34.3326
27.9094
23.7707
22.9411
23.1278
22.7323
22.5709
22.3011
22.0062
21.5329
21.0782
20.3011
19.5349
18.1611
16.7935
14.446
11.9017
8.24991
4.32831
3.02507
1.93917
-3.71041
-8.74369
-11.3027
-13.0025
-12.2603
-11.5241
-9.66407
-7.74557
-5.41293
-2.88865
-1.19147
0.366691
49.8924
54.0985
65.6293
59.7241
56.3944
47.7245
33.822
24.8409
24.6748
23.8931
23.2186
22.2787
20.7032
17.9024
12.9393
4.31633
0.935595
-10.5561
-14.0051
-12.0578
-7.99569
-2.94674
0.381493
48.0374
34.11
59.5069
62.69
70.5648
63.9042
62.9738
60.4706
59.411
52.8019
48.956
38.3859
33.2788
28.1497
26.143
25.4404
26.4161
25.4717
25.2004
24.8708
24.5065
24.021
23.553
22.7536
21.9621
20.5251
19.1231
16.624
14.2167
9.5557
4.46388
2.0625
-0.227899
-7.00971
-12.541
-14.0745
-15.0422
-13.8166
-12.6008
-10.4606
-8.24827
-5.73089
-3.00402
-1.21144
0.398844
45.5669
65.4503
74.414
65.9607
61.9096
50.0596
32.5589
27.4118
28.0179
26.3698
25.5696
24.6701
23.0458
20.2181
15.4126
4.82482
-1.49063
-14.2758
-15.9096
-13.0542
-8.46012
-3.0524
0.412092
42.861
28.9629
71.9719
72.3541
79.0089
69.6679
68.9868
64.8636
64.7652
56.4927
51.3983
37.2726
31.8128
28.1293
28.946
28.1025
29.7649
27.8094
27.3626
27.0463
26.6673
26.2523
25.8299
24.9983
24.1868
22.7108
21.391
18.7853
16.8929
11.3944
5.41731
1.19845
-2.90328
-10.5994
-16.1682
-16.5704
-16.7951
-15.1562
-13.5145
-11.1363
-8.67357
-5.99759
-3.10008
-1.22154
0.427442
39.7943
79.1738
82.5009
71.7014
66.9808
52.7678
30.9887
30.5048
31.25
28.2392
27.5815
26.8549
25.1463
22.4403
18.1335
6.32288
-4.4728
-17.7379
-17.5409
-13.8995
-8.85341
-3.14091
0.43893
36.2459
22.2302
86.8106
82.027
86.7259
74.7091
74.4779
67.7774
69.5692
60.1127
54.4147
35.6438
30.1452
27.8881
32.3492
30.8294
32.7636
29.301
28.7543
28.7325
28.5533
28.2515
27.9074
26.9523
26.149
24.5772
23.583
20.747
19.716
13.6382
7.52112
0.441535
-6.16268
-14.3796
-19.4378
-18.7631
-18.2911
-16.2973
-14.288
-11.7062
-9.03348
-6.22048
-3.18093
-1.2247
0.452118
32.1984
95.1435
90.105
76.8085
71.4392
56.3076
29.2936
34.3167
33.8673
29.3229
29.4705
28.8214
26.9809
24.578
20.9399
9.14541
-8.07512
-20.7858
-18.9284
-14.6147
-9.18619
-3.21567
0.461771
27.3744
13.9637
103.733
91.264
94.1726
79.0086
79.4051
69.3227
73.8191
63.4789
58.4831
33.647
28.4105
27.4745
36.5721
33.4622
34.8254
29.6192
29.4043
30.2009
30.5606
30.1043
29.7624
28.5075
27.9152
26.005
25.7783
22.378
22.5821
16.0336
11.0992
-0.22345
-10.0727
-18.225
-22.2377
-20.6601
-19.5643
-17.2632
-14.9436
-12.1857
-9.33881
-6.4065
-3.24972
-1.22314
0.472744
22.4456
113.121
98.0167
81.3528
75.4427
61.3106
27.6254
39.1538
35.144
30.1314
31.6479
30.5314
28.6713
26.7716
23.8894
13.5956
-12.3678
-23.3565
-20.1111
-15.2229
-9.46955
-3.2797
0.480686
16.8386
4.10768
122.659
99.5915
102.497
82.335
84.0221
70.4528
77.9205
66.1188
64.4189
31.3345
26.8206
26.8875
42.0187
35.7236
35.1987
29.0417
30.3798
32.1669
33.0976
31.6629
31.414
29.4819
29.7584
26.8711
28.1988
23.5538
25.7019
18.1849
16.4319
-0.822664
-14.6979
-22.0067
-24.5415
-22.2868
-20.6494
-18.0781
-15.5017
-12.5886
-9.5992
-6.56173
-3.3089
-1.21862
0.489627
10.3826
132.682
107.454
85.7821
79.483
68.5782
26.1125
45.4509
34.3128
32.8062
33.9678
32.051
30.5863
29.3786
27.3469
19.8371
-17.4094
-25.4499
-21.1164
-15.7396
-9.71054
-3.3347
0.495914
3.74929
-6.97961
142.918
106.72
113.089
84.2406
89.0026
72.9069
82.5487
67.3373
73.0572
28.8344
25.423
26.1684
49.1828
37.1947
33.4851
29.4457
35.1207
35.0965
35.5222
32.3272
33.3416
29.57
32.3036
26.9868
31.3568
24.0694
29.6107
19.6494
23.5925
-1.36213
-20.1164
-25.579
-26.4041
-23.6689
-21.5762
-18.7627
-15.9781
-12.9265
-9.82165
-6.69112
-3.36007
-1.21234
0.503022
-3.84572
153.362
120.002
91.299
84.1646
78.992
24.8617
53.9383
32.3779
40.7223
35.9578
34.1936
33.7082
33.2431
32.0359
27.8309
-23.2782
-27.1561
-21.9784
-16.181
-9.91636
-3.38229
0.50786
-11.7261
-18.9201
163.923
112.443
127.503
84.0912
95.8463
78.7833
88.0684
66.3959
85.203
26.2257
24.3032
25.3223
58.9062
37.176
33.2229
36.1644
50.3408
35.2957
38.8326
30.8845
37.4486
28.1744
36.9585
25.9801
36.3238
23.5681
35.1171
20.0077
32.3888
-1.81205
-26.4068
-28.8063
-27.9376
-24.8277
-22.3746
-19.334
-16.3856
-13.2084
-10.0116
-6.79863
-3.40437
-1.2052
0.513346
-19.8218
174.663
137.274
100.417
89.2807
93.138
23.967
66.0489
50.6226
46.7968
42.1838
41.1368
40.8694
40.1455
38.9311
37.2953
-30.0444
-28.6078
-22.7285
-16.5601
-10.0926
-3.42357
0.51701
-31.4283
-30.7889
183.463
118.088
143.521
84.0301
99.4863
96.5659
85.7936
65.1883
99.481
23.9562
22.8036
24.6728
71.906
35.2832
68.0844
71.0526
41.0167
32.8828
40.661
29.9986
41.4622
27.4535
41.5167
25.5177
41.1619
23.1764
40.6629
19.9133
41.1787
-1.76704
-33.9957
-31.5203
-29.3558
-25.7681
-23.0903
-19.8049
-16.7387
-13.4423
-10.1745
-6.88769
-3.44313
-1.19755
0.520517
SCALARS Stress_Z double 1
LOOKUP_TABLE default
-9.60177
-9.59463
-9.51383
-9.46237
-9.40612
-9.3717
-9.33895
-9.32192
-9.3056
-9.26926
-9.23642
-9.09362
-8.94855
-8.7767
-8.60072
-8.5439
-8.48749
-8.47841
-8.46937
-8.45691
-8.44441
-8.42733
-8.41008
-8.38652
-8.36276
-8.33025
-8.29738
-8.25254
-8.20696
-8.14515
-8.08195
-7.99705
-7.90951
-7.7944
-7.674
-7.52204
-7.36036
-7.17019
-6.96566
-6.75146
-6.52738
-6.33416
-6.16519
-6.07348
-6.06257
-9.54892
-9.46444
-9.35903
-9.29307
-9.26034
-9.19255
-8.90966
-8.56735
-8.45601
-8.43814
-8.41353
-8.37968
-8.333
-8.26848
-8.17924
-8.05575
-7.88522
-7.65195
-7.34063
-6.94759
-6.50971
-6.1453
-6.04461
-9.50612
-9.49965
-9.41963
-9.36869
-9.31311
-9.27896
-9.24653
-9.22963
-9.21346
-9.1774
-9.14493
-9.00297
-8.85883
-8.68764
-8.51219
-8.45549
-8.39918
-8.39012
-8.38109
-8.36865
-8.35617
-8.33911
-8.32188
-8.29835
-8.27461
-8.24213
-8.20928
-8.16447
-8.11889
-8.05711
-7.99386
-7.90897
-7.82129
-7.70617
-7.58547
-7.43351
-7.27133
-7.08129
-6.87628
-6.66269
-6.43906
-6.24749
-6.08211
-5.99478
-5.99551
-9.36297
-9.28121
-9.17845
-9.1138
-9.08172
-9.01537
-8.73668
-8.3975
-8.28685
-8.26908
-8.24459
-8.2109
-8.16441
-8.10012
-8.0111
-7.88779
-7.71727
-7.48369
-7.17167
-6.77815
-6.34231
-5.98842
-5.91763
-9.22046
-9.21636
-9.13956
-9.09069
-9.03772
-9.00465
-8.97349
-8.95715
-8.94159
-8.90667
-8.87568
-8.73732
-8.59721
-8.42915
-8.25644
-8.20047
-8.14477
-8.13582
-8.12689
-8.11457
-8.10222
-8.08532
-8.06825
-8.04494
-8.02139
-7.98918
-7.95655
-7.91208
-7.86671
-7.80531
-7.74223
-7.65776
-7.57003
-7.45535
-7.33419
-7.1828
-7.0196
-6.83062
-6.62466
-6.41344
-6.19163
-6.0052
-5.8507
-5.77546
-5.80741
-8.96471
-8.89042
-8.79524
-8.73445
-8.7043
-8.64217
-8.37662
-8.04849
-7.94058
-7.92322
-7.89928
-7.8663
-7.82074
-7.75761
-7.67001
-7.5483
-7.37939
-7.14709
-6.83585
-6.44367
-6.014
-5.68139
-5.66429
-8.68759
-8.68855
-8.62022
-8.57661
-8.53017
-8.5
-8.4721
-8.45726
-8.44326
-8.41139
-8.38409
-8.25573
-8.12665
-7.96796
-7.80405
-7.75049
-7.69702
-7.68843
-7.67985
-7.66801
-7.65611
-7.63985
-7.62338
-7.60091
-7.57815
-7.54703
-7.51538
-7.47231
-7.42814
-7.36849
-7.30672
-7.22436
-7.13788
-7.02571
-6.90533
-6.75696
-6.59381
-6.40878
-6.20313
-5.99776
-5.78076
-5.60361
-5.46726
-5.41026
-5.48791
-8.27357
-8.21641
-8.13891
-8.08745
-8.06193
-8.00985
-7.77712
-7.47888
-7.37893
-7.36281
-7.34049
-7.3097
-7.26705
-7.2077
-7.1249
-7.0091
-6.84701
-6.62198
-6.31795
-5.93412
-5.5194
-5.22005
-5.27299
-7.79605
-7.80728
-7.75836
-7.7267
-7.69471
-7.67125
-7.65066
-7.63921
-7.62876
-7.60389
-7.58466
-7.47987
-7.37644
-7.24083
-7.09934
-7.05208
-7.00463
-6.997
-6.98937
-6.9788
-6.96817
-6.95364
-6.93886
-6.9187
-6.89818
-6.87011
-6.84138
-6.8023
-6.76179
-6.70725
-6.64991
-6.57391
-6.49237
-6.3879
-6.27237
-6.13312
-5.9742
-5.79986
-5.59912
-5.40627
-5.20037
-5.03794
-4.92747
-4.8929
-5.02391
-7.1451
-7.12398
-7.0841
-7.05279
-7.03721
-7.00654
-6.84569
-6.61596
-6.53494
-6.52178
-6.50343
-6.478
-6.44251
-6.39262
-6.3221
-6.22181
-6.07846
-5.87466
-5.59321
-5.23396
-4.85122
-4.60004
-4.72974
-6.35357
-6.38431
-6.37765
-6.37069
-6.36859
-6.3591
-6.35353
-6.34914
-6.34599
-6.33565
-6.33259
-6.27723
-6.22701
-6.14113
-6.04887
-6.01571
-5.98197
-5.97647
-5.97101
-5.96336
-5.95563
-5.94507
-5.93418
-5.91934
-5.90405
-5.88305
-5.86119
-5.83142
-5.79977
-5.75727
-5.71096
-5.6501
-5.58152
-5.4955
-5.39386
-5.27622
-5.13106
-4.98075
-4.79518
-4.62683
-4.44369
-4.30406
-4.22835
-4.21873
-4.40133
-5.33307
-5.38662
-5.42271
-5.43197
-5.43616
-5.44765
-5.42978
-5.34048
-5.29934
-5.29245
-5.28258
-5.26864
-5.24859
-5.21924
-5.17568
-5.10993
-5.00908
-4.8545
-4.62619
-4.32295
-4.00244
-3.81979
-4.02155
-4.02786
-4.10507
-4.18755
-4.23008
-4.28743
-4.30519
-4.32878
-4.33798
-4.34893
-4.36649
-4.39342
-4.43299
-4.48342
-4.49517
-4.50061
-4.4962
-4.49048
-4.48933
-4.4883
-4.48664
-4.48488
-4.48247
-4.47967
-4.47579
-4.47137
-4.46503
-4.4576
-4.44723
-4.43436
-4.41706
-4.39448
-4.36547
-4.32529
-4.27811
-4.20773
-4.13518
-4.022
-3.91987
-3.76881
-3.64502
-3.5047
-3.40045
-3.3706
-3.38794
-3.6089
-2.43978
-2.64166
-2.82706
-2.91377
-2.95518
-3.04472
-3.289
-3.46396
-3.50001
-3.50532
-3.51208
-3.52075
-3.53126
-3.54285
-3.55344
-3.55769
-3.54361
-3.4899
-3.37013
-3.17838
-2.9701
-2.8847
-3.14279
-0.288518
-0.464607
-0.734701
-0.874032
-1.04754
-1.11606
-1.1939
-1.22799
-1.26473
-1.33296
-1.41133
-1.62138
-1.84458
-2.03387
-2.21815
-2.26818
-2.31584
-2.32286
-2.33029
-2.3401
-2.34982
-2.36304
-2.37585
-2.39308
-2.40979
-2.43182
-2.45265
-2.48004
-2.50434
-2.53634
-2.56117
-2.59466
-2.61166
-2.64043
-2.63332
-2.64708
-2.59897
-2.5838
-2.50125
-2.45134
-2.3852
-2.33607
-2.36526
-2.41342
-2.6479
1.76997
1.2667
0.814898
0.59832
0.496172
0.283951
-0.359835
-0.950218
-1.11309
-1.13859
-1.17296
-1.21936
-1.28117
-1.36198
-1.46484
-1.58915
-1.72427
-1.84312
-1.90675
-1.89816
-1.86065
-1.90046
-2.19174
4.61649
4.25924
3.66612
3.37297
3.01466
2.87198
2.7141
2.64442
2.57086
2.43192
2.28683
1.84522
1.40489
0.975057
0.544971
0.41706
0.292168
0.273545
0.253818
0.227311
0.200801
0.164747
0.128958
0.0806953
0.032632
-0.0313806
-0.0945523
-0.178193
-0.25872
-0.364707
-0.461753
-0.589462
-0.693336
-0.836334
-0.923942
-1.06459
-1.11219
-1.21705
-1.23282
-1.27834
-1.30851
-1.32859
-1.41935
-1.50027
-1.72114
7.12687
6.09427
5.23058
4.82905
4.64355
4.27317
3.14041
2.02107
1.68622
1.63321
1.56081
1.46215
1.32871
1.15033
0.916169
0.619835
0.270939
-0.0922777
-0.409718
-0.644536
-0.817845
-0.995697
-1.30123
10.6753
10.014
8.91574
8.39411
7.76285
7.51998
7.25332
7.13684
7.01536
6.78645
6.5648
5.84104
5.17132
4.45706
3.73172
3.50547
3.2813
3.24797
3.21229
3.1641
3.11564
3.04978
2.9837
2.89462
2.80481
2.68508
2.56484
2.40576
2.24854
2.04234
1.84612
1.58995
1.36762
1.06943
0.85539
0.548246
0.37534
0.124652
-0.0168043
-0.173669
-0.315489
-0.41615
-0.566454
-0.684407
-0.875996
13.5819
11.6997
10.2482
9.60322
9.31197
8.7566
7.09413
5.37954
4.83453
4.74767
4.62784
4.46342
4.2389
3.93494
3.52965
3.00702
2.37694
1.69731
1.06126
0.536102
0.127354
-0.193031
-0.506053
17.7271
16.6267
14.8336
14.002
12.9994
12.6303
12.2255
12.0511
11.8715
11.5348
11.2326
10.1886
9.31073
8.29839
7.25628
6.91866
6.57824
6.52788
6.47325
6.39936
6.32463
6.22313
6.12044
5.98202
5.84105
5.65307
5.46171
5.2088
4.95441
4.62162
4.29851
3.87836
3.50589
3.01038
2.64055
2.13249
1.80877
1.39717
1.10949
0.831558
0.572375
0.384057
0.180357
0.0219957
-0.135849
20.9232
17.8627
15.6523
14.7102
14.2931
13.5346
11.3433
9.0294
8.25021
8.12524
7.95097
7.71021
7.37854
6.92438
6.31073
5.50849
4.52991
3.46515
2.45757
1.61444
0.961937
0.502363
0.180239
25.3911
23.7665
21.1715
19.9673
18.5086
17.992
17.4245
17.1817
16.9353
16.4746
16.0902
14.6954
13.6491
12.3589
11.0119
10.5606
10.0953
10.0266
9.95133
9.84934
9.74565
9.60477
9.46114
9.26734
9.0681
8.80202
8.52776
8.16503
7.79457
7.31021
6.8329
6.2132
5.65971
4.92505
4.37401
3.64056
3.14642
2.57015
2.12531
1.72175
1.34852
1.06994
0.821555
0.621744
0.494088
28.6587
24.2945
21.224
19.949
19.3902
18.4138
15.706
12.8537
11.837
11.6726
11.4406
11.1178
10.6689
10.0466
9.19361
8.06207
6.66919
5.15602
3.74206
2.5749
1.68415
1.09469
0.758209
32.9888
30.9215
27.6282
26.043
24.0921
23.4177
22.6748
22.355
22.0354
21.4356
20.9638
19.1839
18.0027
16.4848
14.8779
14.3226
13.7346
13.6476
13.5516
13.4214
13.2883
13.1072
12.9213
12.6696
12.4087
12.0587
11.6939
11.2094
10.7073
10.0495
9.39171
8.53774
7.77281
6.75857
6.00527
5.03666
4.35934
3.62465
3.02214
2.49275
2.01528
1.64807
1.36444
1.12491
1.01965
35.9723
30.6788
26.7838
25.1712
24.461
23.247
20.0068
16.7321
15.4975
15.2954
15.007
14.6025
14.0343
13.2358
12.122
10.617
8.74503
6.72624
4.89364
3.41516
2.30049
1.5938
1.23747
39.5466
37.4446
33.887
31.9953
29.5945
28.7682
27.8561
27.4538
27.0572
26.3055
25.7312
23.5144
22.2051
20.5279
18.7346
18.0951
17.3968
17.293
17.1783
17.022
16.8617
16.6424
16.4165
16.1084
15.7873
15.3527
14.8959
14.2836
13.6392
12.7915
11.928
10.8062
9.79884
8.46647
7.49542
6.29786
5.4335
4.55222
3.80158
3.149
2.58077
2.12986
1.81975
1.54446
1.45283
41.722
36.7031
32.1969
30.2808
29.4162
27.935
24.0889
20.5464
19.1327
18.8976
18.5584
18.0792
17.3989
16.4284
15.0453
13.1304
10.7141
8.14048
5.90258
4.1397
2.82042
2.01072
1.63099
43.8708
42.6505
39.665
37.6208
34.912
33.9541
32.8989
32.414
31.9403
31.0279
30.3236
27.5883
26.1244
24.3593
22.4765
21.7775
20.9881
20.8705
20.7405
20.5619
20.3786
20.126
19.8654
19.5062
19.1316
18.6174
18.0746
17.3362
16.5468
15.5003
14.4072
12.9845
11.7006
10.0157
8.81743
7.41329
6.36679
5.35351
4.47114
3.70048
3.05584
2.52842
2.19903
1.89348
1.80759
44.6452
42.1284
37.3862
35.2345
34.2199
32.4349
27.8438
24.2049
22.6578
22.3962
22.0149
21.4729
20.6963
19.5712
17.9271
15.5761
12.5454
9.37967
6.77267
4.75915
3.2559
2.35734
1.95309
44.7422
45.9389
44.7639
42.7657
39.9883
38.9256
37.7677
37.2081
36.6621
35.5872
34.7186
31.3433
29.6778
27.8802
26.0265
25.2888
24.4287
24.3004
24.1591
23.9629
23.7617
23.4817
23.1941
22.7919
22.3748
21.7918
21.1773
20.3239
19.3966
18.153
16.8088
15.0502
13.4493
11.3849
9.95882
8.3813
7.16719
6.03581
5.04164
4.15991
3.45236
2.85685
2.51363
2.18383
2.09781
43.6001
46.8176
42.3131
40.005
38.8543
36.7367
31.209
27.6442
25.9991
25.7175
25.3037
24.7134
23.862
22.6125
20.7359
17.9379
14.2118
10.4368
7.51436
5.28505
3.61843
2.64435
2.21673
41.2251
46.9014
49.0983
47.3205
44.8028
43.6496
42.4307
41.8142
41.2089
39.9789
38.92
34.7403
32.8294
31.0203
29.3397
28.5684
27.6539
27.5166
27.3672
27.1572
26.9429
26.6412
26.3346
25.8992
25.453
24.8166
24.1514
23.2043
22.1603
20.7334
19.1237
16.9893
15.0187
12.5634
10.9193
9.20704
7.84811
6.61032
5.52433
4.54041
3.78159
3.12687
2.77365
2.42553
2.33553
37.9567
50.7645
46.9774
44.564
43.3061
40.8579
34.1746
30.8393
29.1031
28.8056
28.3674
27.7426
26.8401
25.5055
23.4468
20.2138
15.69
11.3186
8.14334
5.72929
3.91905
2.88146
2.43318
33.092
45.38
52.7158
51.2315
49.369
48.1004
46.8552
46.2061
45.5635
44.1969
42.9583
37.7593
35.5936
33.7419
32.4105
31.5789
30.6226
30.4736
30.3172
30.0963
29.8724
29.5539
29.2349
28.7765
28.3141
27.6426
26.9506
25.9394
24.8145
23.2306
21.3576
18.7977
16.3873
13.5515
11.7113
9.90134
8.42639
7.09064
5.93077
4.8548
4.05406
3.34889
2.98819
2.62703
2.53107
27.9887
54.0843
51.4088
48.8677
47.546
44.8304
36.7677
33.7981
31.9336
31.619
31.1619
30.5139
29.5816
28.2043
26.034
22.4132
16.9563
12.0393
8.67604
6.10254
4.16735
3.07686
2.61149
21.1572
41.4741
55.7777
54.4773
53.7363
52.2401
51.0002
50.342
49.6926
48.2082
46.8744
40.3923
38.0144
36.0295
35.2642
34.2934
33.313
33.141
32.9762
32.7469
32.5155
32.185
31.8582
31.3867
30.9182
30.2295
29.532
28.4918
27.3349
25.628
23.5291
20.4752
17.5341
14.359
12.3521
10.478
8.91761
7.49005
6.27136
5.11423
4.27881
3.53148
3.16483
2.79517
2.69248
15.155
56.9987
55.6795
52.877
51.5386
48.7081
39.0483
36.5634
34.4795
34.1372
33.6644
33.0012
32.0558
30.6729
28.4753
24.5636
17.9927
12.6192
9.12827
6.41491
4.37193
3.2377
2.75903
7.53545
35.4752
58.5515
57.0741
57.9953
56.0123
54.8433
54.1829
53.5563
51.9527
50.734
42.638
40.1622
37.888
37.9573
36.6896
35.726
35.5065
35.3302
35.0974
34.8602
34.5228
34.1904
33.7127
33.2448
32.5544
31.8666
30.8311
29.7024
27.9002
25.6756
22.0242
18.4477
15.0024
12.8638
10.9533
9.33524
7.82127
6.55584
5.32848
4.46377
3.68192
3.31017
2.93565
2.8263
2.13053
59.7991
59.9034
56.5731
55.2456
52.5592
41.0882
39.201
36.7495
36.3557
35.87
35.1962
34.2473
32.8867
30.7544
26.7118
18.7907
13.0797
9.51247
6.67529
4.54008
3.36994
2.88149
-4.69176
27.8237
61.3378
59.0491
62.2836
59.3341
58.3929
57.7059
57.1248
55.3342
54.6068
44.5105
42.1048
39.3383
40.5641
38.7368
37.8821
37.5744
37.3831
37.1567
36.9151
36.5735
36.236
35.7536
35.2889
34.6103
33.9451
32.9312
31.9146
30.0035
27.8577
23.4431
19.1269
15.504
13.2678
11.3435
9.68965
8.0958
6.79272
5.50564
4.6157
3.8061
3.42966
3.05313
2.93759
-7.59365
62.8087
64.2437
59.9904
58.6542
56.4732
42.9654
41.7974
38.779
38.2929
37.7971
37.1117
36.1608
34.8484
32.8864
28.9321
19.3605
13.4441
9.83832
6.89183
4.67818
3.47874
2.98359
-11.7535
18.9907
64.4582
60.4502
66.7577
62.0965
61.7169
60.9037
60.4004
58.2369
58.5765
46.0257
43.9098
40.4118
43.1697
40.3946
39.819
39.3679
39.1607
38.9545
38.7089
38.3552
38.0107
37.5207
37.061
36.3994
35.7936
34.7623
34.0084
31.8746
30.1575
24.7243
19.5902
15.8835
13.5885
11.6645
9.98857
8.32359
6.98935
5.65246
4.74033
3.90885
3.52791
3.15146
3.03042
-10.28
66.3276
68.8835
63.2265
61.8007
60.5386
44.7441
44.4415
40.6204
39.9838
39.4769
38.7648
37.8142
36.6014
34.9401
31.3175
19.7288
13.7345
10.1126
7.0712
4.7914
3.56825
3.06887
-9.73835
9.39801
68.2532
61.3133
71.605
64.1696
64.9786
63.7503
63.4801
60.5279
62.7436
47.1935
45.6496
41.1402
45.8667
41.6103
41.5938
40.9374
40.7161
40.5322
40.2803
39.8887
39.5312
39.0279
38.6008
37.9128
37.5002
36.272
36.09
33.4243
32.6689
25.8519
19.8747
16.1579
13.8504
11.9298
10.2379
8.51275
7.15174
5.77426
4.84221
3.99399
3.60862
3.23367
3.10791
-2.62705
70.5866
73.9996
66.4981
64.8488
64.8387
46.4683
47.2151
42.3427
41.4886
40.9424
40.172
39.2638
38.2714
37.0646
33.9652
19.9347
13.9732
10.3408
7.21887
4.8839
3.64175
3.14004
3.7111
-0.494267
72.8186
61.7071
76.9795
65.4304
68.5064
66.1146
66.6685
62.0696
67.1626
48.0678
47.3302
41.5791
48.7205
42.3352
43.287
42.378
42.1454
41.9308
41.6631
41.1917
40.8356
40.2696
40.0369
39.0973
39.2664
37.3712
38.3496
34.5615
35.4836
26.8085
20.0212
16.3456
14.0742
12.1496
10.4447
8.67039
7.28535
5.8755
4.92551
4.06465
3.67497
3.30249
3.17264
17.4406
75.7258
79.7944
70.2654
68.2473
69.4934
48.1733
50.2081
44.0505
42.9225
42.219
41.3996
40.7023
40.1422
39.5135
36.9704
20.0244
14.1815
10.5298
7.34038
4.95962
3.70233
3.19968
30.898
-10.5215
78.4774
61.6218
83.1877
65.7033
72.9474
67.6737
70.6296
62.6743
72.0536
48.6353
49.0502
41.7484
51.8651
42.4969
45.0617
43.8722
43.571
43.1726
42.8981
42.2132
42.1236
41.1457
41.7174
39.794
41.4792
37.9126
41.0961
35.1758
38.6957
27.5786
20.0772
16.4562
14.2801
12.3321
10.6156
8.80222
7.39512
5.95999
4.99357
4.1236
3.72966
3.36017
3.22693
50.6664
81.7567
86.4292
75.2936
72.7915
74.6209
49.8652
53.4965
45.9237
44.3862
43.3505
42.7536
42.6194
42.6978
42.5916
40.3726
20.0332
14.3762
10.6858
7.43995
5.02143
3.75216
3.2495
70.8382
-20.284
84.9591
61.1796
90.3204
64.8602
79.2226
67.7496
76.3609
62.163
77.4812
48.9784
50.7435
41.7208
55.3425
42.0495
47.2679
45.4955
45.2448
44.1683
44.2437
42.6281
44.1545
41.2862
44.4257
39.6773
44.7401
37.7012
44.6336
35.2103
42.3108
28.1586
20.0684
16.5019
14.4792
12.4817
10.7582
8.9123
7.48531
6.03044
5.0493
4.17273
3.77478
3.40854
3.27241
96.0884
88.5746
94.074
82.7017
79.6073
80.37
51.5453
57.1924
48.6597
45.9953
45.0139
45.3895
46.1023
46.67
46.6181
44.1579
19.9857
14.5686
10.8161
7.52187
5.07201
3.79326
3.29119
121.714
-29.5298
92.0285
60.4985
98.4207
62.8237
88.4392
65.4553
84.9677
60.3723
83.5456
49.1455
52.3873
41.5445
59.2339
40.9826
51.5152
45.4582
50.477
43.0238
48.4667
41.2528
49.1203
39.7947
49.6347
38.2548
49.8124
36.5482
49.1987
34.6618
46.25
28.5628
20.0038
16.4902
14.6797
12.602
10.8789
9.00351
7.55979
6.08903
5.095
4.2136
3.812
3.449
3.31039
151.471
95.9723
102.842
93.8259
89.8166
86.8478
53.2083
61.527
57.2059
52.1169
52.1138
52.8114
53.2058
52.9934
51.8358
48.2422
19.8907
14.7641
10.9278
7.58987
5.11357
3.82722
3.32609
178.413
-37.5851
97.7305
61.1091
103.789
62.4704
93.5948
66.6425
89.7128
59.5264
88.6083
49.5656
53.2255
41.6088
62.6301
40.5125
60.5004
49.7321
50.5165
41.3295
52.2381
40.3773
53.052
38.8459
53.5374
37.5059
53.3772
36.0366
52.3473
34.552
49.1531
29.1678
19.516
16.4921
14.8132
12.7101
10.968
9.08111
7.6188
6.13817
5.13203
4.2476
3.84229
3.48309
3.34149
SCALARS Stress_Theta double 1
LOOKUP_TABLE default
58.0564
57.6707
56.4057
55.5606
54.5362
54.0095
53.4457
53.1722
52.8911
52.3013
51.6795
49.4614
46.9857
44.3233
41.4998
40.6266
39.7442
39.6034
39.4614
39.2679
39.0741
38.8075
38.5412
38.1751
37.8083
37.3052
36.8011
36.1086
35.4162
34.4648
33.5151
32.2148
30.9211
29.1593
27.4254
25.0854
22.8259
19.8314
17.0266
13.4198
10.176
6.14542
2.59819
-1.79691
-5.8391
58.3747
56.7011
54.8102
53.7075
53.1468
51.9226
47.1777
41.6337
39.8601
39.5746
39.1835
38.6453
37.9054
36.8887
35.4911
33.5732
30.9577
27.4364
22.8097
16.9905
10.1386
2.5942
-5.82134
58.6785
58.284
56.9928
56.1297
55.0838
54.546
53.9703
53.691
53.404
52.8018
52.1668
49.902
47.3748
44.6578
41.7782
40.8879
39.9886
39.8451
39.7004
39.5033
39.3059
39.0342
38.7629
38.39
38.0165
37.5041
36.9909
36.2861
35.5816
34.6138
33.6482
32.3268
31.0131
29.2255
27.4682
25.0997
22.817
19.7978
16.9781
13.363
10.1238
6.11405
2.59339
-1.76714
-5.8145
59.5681
57.8256
55.8561
54.7074
54.1232
52.8478
47.9051
42.1373
40.2951
39.9986
39.5927
39.0344
38.267
37.2131
35.7659
33.7826
31.084
27.4632
22.7327
16.835
9.97881
2.53074
-5.81895
60.4473
60.0274
58.6576
57.7411
56.6305
56.0592
55.4477
55.151
54.8462
54.2063
53.5317
51.1257
48.4419
45.559
42.5081
41.566
40.6151
40.4634
40.3106
40.1022
39.8936
39.6067
39.3202
38.9266
38.5324
37.992
37.4509
36.7084
35.9667
34.949
33.9349
32.549
31.1744
29.308
27.4799
25.0249
22.6723
19.5794
16.7159
13.078
9.85525
5.91063
2.47248
-1.78102
-5.83032
61.9201
60.0418
57.916
56.6751
56.0438
54.6652
49.3215
43.0963
41.1132
40.7944
40.3581
39.7582
38.9344
37.8044
36.2551
34.1376
31.2683
27.4444
22.5034
16.4518
9.59685
2.35356
-5.83484
63.3909
62.9296
61.4313
60.4266
59.2086
58.5816
57.9103
57.5844
57.2497
56.5467
55.8053
53.1605
50.2101
47.0434
43.698
42.6667
41.6268
41.461
41.294
41.0664
40.8386
40.5252
40.2126
39.7831
39.3532
38.7643
38.1752
37.3675
36.5618
35.4577
34.3599
32.863
31.3834
29.3817
27.4322
24.8299
22.3598
19.1448
16.2123
12.5443
9.35747
5.53209
2.23974
-1.82359
-5.84247
65.4578
63.3848
61.0294
59.6508
58.9488
57.4147
51.4573
44.5221
42.319
41.9653
41.4814
40.8165
39.9044
38.6548
36.9456
34.6176
31.481
27.3409
22.0782
15.8044
8.97761
2.06929
-5.81618
67.5401
67.0231
65.3547
64.2306
62.8655
62.1615
61.4071
61.0406
60.6639
59.8724
59.0366
56.0521
52.7178
49.139
45.3628
44.2004
43.0298
42.8431
42.6553
42.3993
42.1432
41.791
41.4397
40.9574
40.475
39.8145
39.1545
38.2505
37.3502
36.1186
34.8972
33.2366
31.6022
29.4019
27.2754
24.4605
21.8239
18.4415
15.4213
11.7305
8.61228
4.97765
1.90445
-1.87008
-5.78726
70.1879
67.8865
65.2426
63.6854
62.8905
61.1491
54.3562
46.4327
43.9203
43.5174
42.9664
42.2097
41.1726
39.754
37.8178
35.191
31.6755
27.091
21.3884
14.8398
8.10579
1.69219
-5.69244
72.8879
72.3111
70.455
69.1921
67.6494
66.8512
65.9936
65.5759
65.1462
64.2424
63.2858
59.8591
56.0163
51.8848
47.5247
46.1836
44.834
44.619
44.4026
44.1078
43.8128
43.4073
43.003
42.4482
41.8935
41.1346
40.3768
39.3402
38.3093
36.9017
35.5094
33.6227
31.775
29.3023
26.935
23.8352
20.9822
17.3935
14.2813
10.6003
7.60495
4.25509
1.48552
-1.88969
-5.58657
76.0363
73.5462
70.5962
68.8306
67.9242
65.9282
58.0707
48.8546
45.9318
45.4631
44.8225
43.943
42.7381
41.0917
38.8488
35.8164
31.7862
26.6041
20.3355
13.4917
6.97494
1.24821
-5.38423
79.315
78.7005
76.7072
75.3195
73.5919
72.6927
71.7189
71.2428
70.7513
69.7162
68.6155
64.6444
60.1641
55.3284
50.216
48.6423
47.0586
46.8065
46.5527
46.2068
45.8608
45.3852
44.911
44.2606
43.6102
42.721
41.8333
40.6202
39.4147
37.7717
36.1501
33.9598
31.8262
28.9894
26.3057
22.8372
19.7205
15.9012
12.7187
9.12358
6.3365
3.39062
1.01583
-1.84965
-5.16044
82.6882
80.2692
77.0992
75.1198
74.0896
71.7948
62.6336
51.8188
48.3784
47.826
47.0706
46.0332
44.6116
42.6682
40.0211
36.4483
31.7281
25.755
18.7888
11.6937
5.60763
0.780517
-4.82163
86.2997
85.8011
83.9415
82.5381
80.6819
79.6964
78.6082
78.0701
77.5109
76.3293
75.0636
70.4255
65.1817
59.493
53.4733
51.613
49.7381
49.4398
49.1391
48.7293
48.319
47.755
47.1922
46.42
45.6471
44.5903
43.5341
42.0908
40.6552
38.7002
36.7712
34.1733
31.6534
28.3293
25.2283
21.2962
17.8727
13.8458
10.6614
7.30471
4.85416
2.44391
0.550143
-1.71858
-4.45284
88.7759
87.1921
84.1022
81.9473
80.7921
78.1664
67.541
55.056
51.0612
50.4172
49.5352
48.3219
46.6549
44.3688
41.2439
37.0153
31.4429
24.5085
16.7883
9.60732
4.20147
0.379562
-4.05272
91.5736
91.6079
90.5395
89.3942
87.5643
86.5408
85.3607
84.7648
84.1377
82.806
81.3666
75.9893
69.9903
63.5148
56.6873
54.5631
52.4126
52.0705
51.7248
51.2531
50.78
50.1292
49.4783
48.5841
47.6867
46.4576
45.2247
43.5367
41.851
39.5518
37.2769
34.2145
31.2527
27.3725
23.8138
19.4015
15.7134
11.5924
8.53322
5.5597
3.52293
1.65691
0.211738
-1.5254
-3.6354
92.5522
93.3453
90.864
88.5767
87.2828
84.2611
72.042
58.1966
53.7308
53.0049
52.0076
50.6299
48.7259
46.0944
42.4633
37.5053
30.9556
22.9483
14.5362
7.53697
2.98892
0.107339
-3.23158
93.9387
95.33
96.232
95.7791
94.1729
93.1474
91.8671
91.198
90.4817
88.9478
87.2794
80.9532
74.2065
67.1238
59.7557
57.4378
55.0701
54.6926
54.3096
53.7856
53.2587
52.5321
51.8024
50.7971
49.7825
48.3873
46.9778
45.0385
43.086
40.4094
37.7437
34.1477
30.6754
26.1596
22.1061
17.2284
13.3548
9.30715
6.50843
4.02963
2.43234
1.06232
0.0016467
-1.30804
-2.82334
92.8592
98.615
97.4504
95.0012
93.5004
89.9001
75.786
61.1733
56.4046
55.6181
54.5309
53.0169
50.9018
47.9371
43.776
37.9981
30.3091
21.1108
12.1462
5.63515
2.0262
-0.0496877
-2.45693
92.2591
96.3632
101.054
101.886
100.7
99.6642
98.2125
97.4213
96.5596
94.6945
92.6696
85.0059
77.4945
70.1106
62.6377
60.2431
57.7553
57.3564
56.9486
56.3889
55.8232
55.0401
54.2483
53.1513
52.0342
50.4865
48.905
46.7094
44.4704
41.3732
38.2562
34.0325
29.9595
24.7113
20.1354
14.8526
10.9169
7.14071
4.72368
2.78727
1.60442
0.64573
-0.105189
-1.09266
-2.09579
88.7293
103.138
104.088
101.325
99.4775
94.979
78.4905
63.9651
59.1302
58.3132
57.1718
55.5619
53.2746
49.9984
45.2816
38.5675
29.5293
19.0256
9.74493
4.01212
1.31419
-0.11999
-1.78881
85.7564
94.3586
105.259
108.057
107.417
106.293
104.524
103.524
102.426
100.027
97.4508
87.9247
79.6162
72.3504
65.3311
63.0072
60.5206
60.1169
59.7003
59.1253
58.5401
57.7247
56.8919
55.7279
54.5274
52.845
51.099
48.6424
46.0938
42.5224
38.8767
33.9053
29.119
23.0304
17.9287
12.3679
8.53668
5.22101
3.26387
1.84634
1.01547
0.370884
-0.14083
-0.894455
-1.49253
79.7253
107.217
110.99
107.626
105.238
99.428
79.9954
66.5777
61.9394
61.1248
59.9684
58.3078
55.8935
52.3359
47.0433
39.2615
28.6208
16.7246
7.46822
2.72228
0.818893
-0.134356
-1.25138
74.412
89.2931
109.225
114.614
114.491
113.12
110.833
109.519
108.075
104.913
101.563
89.6212
80.4884
73.8266
67.8517
65.7455
63.3774
62.985
62.5752
62.0053
61.4196
60.5958
59.7439
58.5385
57.2763
55.4807
53.5835
50.8682
47.9933
43.8971
39.6379
33.78
28.1487
21.1133
15.521
9.89142
6.35273
3.63423
2.15158
1.17685
0.61883
0.197985
-0.134681
-0.72013
-1.02252
66.3425
111.245
118.204
113.86
110.735
103.215
80.3039
69.0287
64.8126
64.0267
62.888
61.2164
58.7209
54.9265
49.0696
40.1055
27.5764
14.2561
5.44441
1.76391
0.492082
-0.11863
-0.843039
59.3521
81.4714
113.39
121.729
121.848
120.014
117.015
115.292
113.415
109.315
105.007
90.1605
80.2098
74.6247
70.2245
68.445
66.2708
65.9006
65.5085
64.9574
64.3846
63.5696
62.7161
61.4914
60.1903
58.3097
56.2882
53.3399
50.1474
45.5055
40.5568
33.6631
27.0381
18.9637
12.9758
7.55177
4.48445
2.40959
1.35807
0.724283
0.364044
0.0932515
-0.108993
-0.571356
-0.674691
50.2432
115.67
125.528
119.836
115.852
106.372
79.5771
71.3453
67.6684
66.9209
65.8141
64.1542
61.6183
57.6574
51.3183
41.1193
26.3849
11.6974
3.76678
1.0945
0.286336
-0.0911763
-0.547618
42.8634
71.4201
118.238
129.346
129.17
126.642
122.803
120.636
118.303
113.22
107.866
89.7319
79.0254
74.8887
72.4877
71.0707
69.0886
68.7409
68.368
67.8358
67.2778
66.4752
65.6277
64.3976
63.0804
61.1525
59.0563
55.9426
52.4921
47.3431
41.6569
33.5666
25.772
16.6063
10.3905
5.47445
2.99905
1.52625
0.823314
0.430726
0.207282
0.03213
-0.0785996
-0.446895
-0.429068
34.2035
121
132.561
125.281
120.448
109.034
78.1055
73.5749
70.3855
69.6611
68.5723
66.9209
64.3752
60.35
53.7127
42.3347
25.0299
9.16264
2.47257
0.651985
0.162023
-0.0631298
-0.342915
28.141
59.7167
124.311
137.191
135.993
132.593
127.894
125.324
122.603
116.679
110.333
88.574
77.2852
74.7669
74.7068
73.5907
71.6974
71.3585
70.9926
70.4625
69.906
69.1023
68.2559
67.0239
65.7107
63.7828
61.6847
58.5227
54.9399
49.4062
42.9808
33.5112
24.3248
14.0867
7.89903
3.74953
1.90237
0.926497
0.480184
0.24576
0.114671
-0.00174566
-0.051461
-0.344557
-0.26238
21.6778
127.811
138.855
129.922
124.395
111.427
76.2617
75.7967
72.8299
72.0886
70.9767
69.3059
66.7694
62.8044
56.1518
43.7991
23.4814
6.79524
1.54106
0.373852
0.0896247
-0.0400339
-0.206623
18.6449
46.8879
132.197
144.765
141.916
137.541
132.027
129.165
126.203
119.768
112.682
86.9115
75.3899
74.3662
76.9813
75.9763
73.9705
73.6108
73.2266
72.6686
72.0892
71.2596
70.4006
69.1638
67.8712
65.9921
63.9739
60.913
57.3809
51.6766
44.588
33.522
22.6523
11.4831
5.65329
2.42007
1.14742
0.541144
0.269284
0.132068
0.0620285
-0.0187712
-0.0310304
-0.261714
-0.153733
16.1035
136.723
144.136
133.559
127.578
113.855
74.4587
78.1318
74.878
74.0682
72.8817
71.158
68.6425
64.8563
58.5126
45.5715
21.691
4.74115
0.910951
0.206687
0.0484833
-0.0236869
-0.119195
17.5355
33.3148
142.49
151.439
146.809
141.368
135.075
132.034
129.003
122.534
115.259
84.8951
73.763
73.731
79.4561
78.1863
75.8027
75.3833
74.9495
74.3366
73.7135
72.8386
71.9563
70.7141
69.4545
67.6606
65.7871
62.9672
59.6816
54.0965
46.5471
33.6222
20.702
8.8981
3.79027
1.47097
0.658917
0.30459
0.14439
0.063951
0.0326552
-0.0254438
-0.0175812
-0.195878
-0.0852298
20.1025
148.299
148.518
136.105
129.901
116.67
73.1051
80.7508
76.4247
75.5121
74.2232
72.4334
69.9467
66.4177
60.6533
47.7195
19.602
3.10913
0.507668
0.109955
0.0250652
-0.0137525
-0.0650445
26.6888
19.3097
155.647
156.469
151.044
144.132
137.044
133.919
130.927
124.887
118.428
82.6149
72.7884
72.8468
82.3258
80.1141
77.1159
76.6017
76.0974
75.4303
74.7649
73.8478
72.9424
71.6978
70.4767
68.7803
67.0793
64.5891
61.6978
56.5322
48.9393
33.8179
18.4263
6.46629
2.38427
0.844524
0.358827
0.165074
0.0725811
0.02488
0.0157935
-0.0259276
-0.0102168
-0.14439
-0.0437177
34.9288
162.928
152.633
137.612
131.334
120.258
72.5692
83.8786
77.4063
76.4122
75.0477
73.2033
70.7407
67.4902
62.447
50.3305
17.1808
1.9362
0.262822
0.0549988
0.0108263
-0.00889129
-0.0324928
46.8263
5.07008
171.946
159.171
155.511
145.888
138.109
135.007
131.997
126.556
122.605
80.0736
72.8088
71.655
85.8433
81.5525
77.8875
77.2709
76.7065
76.0333
75.3554
74.4141
73.4872
72.23
71.0403
69.4384
67.9016
65.7599
63.3403
58.7595
51.8738
34.0846
15.8298
4.3177
1.43245
0.459625
0.182668
0.0853756
0.0319236
0.00427876
0.00482612
-0.0228144
-0.00720036
-0.104964
-0.0191208
60.2265
180.708
157.617
138.308
131.999
125.013
73.142
87.7855
77.8525
76.8833
75.5147
73.6062
71.1378
68.1464
63.8712
53.5385
14.4574
1.17826
0.1234
0.0234981
0.000933632
-0.00748858
-0.0132889
76.297
-9.0836
191.215
158.969
161.569
146.464
138.614
135.769
132.458
127.047
128.129
77.28
74.0233
70.0937
90.2839
82.1676
78.2205
77.5397
76.9637
76.3667
75.706
74.7205
73.7455
72.4423
71.2653
69.7649
68.382
66.5102
64.7023
60.4544
55.5272
34.3457
12.9847
2.5741
0.849531
0.236017
0.0848339
0.0418514
0.00847691
-0.0047378
-0.0035053
-0.0178923
-0.00698469
-0.0753011
-0.00490707
94.325
201.42
164.945
138.655
132.269
131.318
75.0198
92.7651
77.9723
77.2053
75.8505
73.7662
71.255
68.5283
65.1593
57.5517
11.5604
0.730717
0.0494071
0.00425083
-0.0071237
-0.00802854
-0.00183085
112.893
-22.8991
213.029
155.603
170.669
145.331
139.208
136.837
132.845
125.746
135.334
74.202
76.5494
68.113
95.919
81.5368
78.4149
77.7675
77.245
76.7507
76.0609
74.8969
73.7994
72.4352
71.2708
69.8746
68.7627
66.8184
66.2088
61.2173
60.138
34.4788
10.077
1.28839
0.522255
0.114177
0.0324646
0.0196715
-0.00570274
-0.00661025
-0.0106307
-0.0122761
-0.00802889
-0.0536027
0.00361785
134.628
224.525
176.103
139.507
132.874
139.484
78.2829
99.0808
78.2445
77.8112
76.217
73.7244
71.217
68.9452
66.9539
62.6519
8.72289
0.47277
0.0116347
-0.00894302
-0.014258
-0.00930127
0.00545951
155.219
-36.3094
237.01
149.034
184.223
141.646
141.136
138.549
134.214
122.005
144.569
70.7567
80.5011
65.6596
103.014
79.1981
79.0966
78.5876
78.0768
77.436
76.4953
74.9397
73.6424
72.2713
71.2816
69.7565
69.5745
66.4561
68.7505
60.5912
65.985
34.3253
7.40032
0.444089
0.345525
0.0556287
0.00184357
0.00959267
-0.015427
-0.00447917
-0.0172783
-0.00665607
-0.00933123
-0.0383385
0.0094041
178.132
249.221
192.26
142.507
135.184
149.694
82.8843
106.907
79.493
79.1722
76.5111
73.4873
71.3261
70.1508
70.3645
69.1455
6.25499
0.312544
-0.00963971
-0.0190359
-0.0204898
-0.0104607
0.010716
197.972
-48.6961
261.761
139.662
203.009
134.468
146.695
139.94
138.556
115.26
155.731
67.0901
85.5904
62.8146
111.596
74.7588
81.2472
80.8388
79.9589
78.3064
76.7034
74.7338
73.41
71.882
71.9611
69.0486
71.9688
64.8533
73.6011
58.1909
73.3233
33.716
5.25932
-0.0224645
0.2405
0.0313749
-0.0175985
0.00670606
-0.0228949
-0.000763221
-0.0227309
-0.00180348
-0.0102441
-0.0278974
0.0137255
222.232
274.712
214.175
150.769
141.818
162.054
88.6883
116.341
83.0057
81.4282
76.3282
73.3697
72.5964
73.7513
76.8836
77.3116
4.484
0.209973
-0.0238691
-0.0271277
-0.0256163
-0.010973
0.015213
243.649
-60.6688
287.793
127.615
228.157
122.567
160.187
137.854
149.558
104.856
169.404
62.9647
92.0603
59.4783
121.979
67.786
86.6182
85.3855
82.5457
78.662
76.3887
73.9228
74.2654
70.6328
75.224
66.6711
78.163
61.0309
82.4609
53.6109
82.4653
32.4864
4.00355
-0.262165
0.20586
0.021995
-0.0284613
0.00653413
-0.0283851
0.00318402
-0.0274429
0.00246779
-0.0104207
-0.0213843
0.0180612
264.569
300.075
242.019
169.379
157.185
176.534
95.4463
127.322
90.747
83.0556
75.9774
75.2417
77.823
82.4954
88.0551
87.2672
3.71643
0.192711
-0.0265356
-0.031475
-0.0289722
-0.0105712
0.0195144
285.343
-71.2994
313.01
113.894
259.152
105.149
187.61
125.966
172.629
90.4311
185.098
58.7281
99.2474
55.8969
133.822
58.1867
97.9762
90.8492
83.9827
77.2621
77.7703
70.7968
80.6791
66.2432
85.5443
60.5309
91.5004
53.8001
96.6729
46.8329
93.3792
30.5416
3.88233
-0.426728
0.280782
0.00171012
-0.0179251
0.00439701
-0.0292006
0.00565299
-0.0298761
0.00543657
-0.00959819
-0.0175794
0.0223248
303.557
324.58
275.569
205.198
187.555
193.115
102.876
139.748
106.46
81.2748
80.2788
85.8646
93.1091
100.228
105.123
98.9553
4.18495
0.33305
-0.00125308
-0.0288054
-0.029916
-0.00912998
0.0239315
320.922
-80.3548
336.337
99.4986
294.978
81.902
235.587
96.1094
214.155
71.7285
202.576
54.5564
106.764
52.2141
146.738
46.3893
122.728
79.9349
99.3368
64.9434
98.1771
58.5789
105.249
53.2542
111.172
47.6483
115.811
42.1895
116.873
38.1481
105.761
27.8788
5.05018
-0.693473
0.558245
-0.0524168
0.0337682
-0.00526706
-0.0203738
0.00581832
-0.0290894
0.0070142
-0.00766397
-0.015735
0.026597
338.188
347.61
314.152
265.405
240.088
211.81
110.7
153.662
142.276
111.914
117.133
124.181
129.059
131.165
128.594
112.11
6.01638
0.72581
0.0759923
-0.0144403
-0.0277054
-0.00662467
0.0285657
336.18
-84.9145
347.53
93.3679
313.349
69.4379
263.347
78.4263
237.525
61.6396
212.205
52.7751
110.102
50.5412
153.919
40.6374
145.854
69.7867
104.837
52.1639
117.473
49.925
123.435
44.0406
128.589
39.5556
130.646
35.5645
128.208
33.5794
112.208
26.5313
5.48831
-0.853174
0.733393
-0.0822321
0.0605187
-0.0114695
-0.0150486
0.00621602
-0.0277459
0.00761346
-0.00707236
-0.0135711
0.0276536
SCALARS Stress_Shear double 1
LOOKUP_TABLE default
0.000708959
-0.000996742
-0.000470333
-0.00137362
-0.00125483
-0.00149692
-0.00145717
-0.00147245
-0.00142166
-0.00136822
-0.00101487
-0.0027346
-0.000620493
-0.00315604
-0.00149879
-0.00203909
-0.00221628
-0.00224099
-0.00224977
-0.00227504
-0.00228343
-0.00230959
-0.00231146
-0.0023471
-0.00232565
-0.00237429
-0.0023201
-0.00239061
-0.00228799
-0.0024026
-0.00222122
-0.0024066
-0.0021187
-0.00236572
-0.00205636
-0.00218672
-0.00216962
-0.00165012
-0.00302943
-0.000469246
-0.00541946
0.00232018
-0.00639025
0.00179449
-0.00517052
-0.00396656
-0.46389
-0.654012
-0.733831
-0.769246
-0.839211
-1.01321
-1.09292
-1.09663
-1.09669
-1.0968
-1.09632
-1.09454
-1.08999
-1.07993
-1.05926
-1.01904
-0.944562
-0.815145
-0.611438
-0.343171
-0.0988818
-0.000392464
-0.0110183
-0.473739
-0.932405
-1.12496
-1.31481
-1.39506
-1.47541
-1.5108
-1.54654
-1.61441
-1.68743
-1.86835
-2.03709
-2.12476
-2.19723
-2.19888
-2.20465
-2.20434
-2.20461
-2.20475
-2.20482
-2.20435
-2.20385
-2.20204
-2.20015
-2.1956
-2.19087
-2.18079
-2.17043
-2.14974
-2.12855
-2.08829
-2.04716
-1.97252
-1.89667
-1.76662
-1.63543
-1.42942
-1.2249
-0.949505
-0.685079
-0.420997
-0.195143
-0.0815107
0.00225214
-0.0121631
-1.4009
-1.97585
-2.21739
-2.3246
-2.53652
-3.06336
-3.30311
-3.31327
-3.31326
-3.31335
-3.31156
-3.30563
-3.29109
-3.25943
-3.19501
-3.07035
-2.84048
-2.44256
-1.8193
-1.00479
-0.271227
0.00629269
-0.0223007
-0.956074
-1.8828
-2.27221
-2.65661
-2.81913
-2.98196
-3.0537
-3.12613
-3.2637
-3.41199
-3.77847
-4.12103
-4.29707
-4.44257
-4.44474
-4.45548
-4.45464
-4.45503
-4.45507
-4.45498
-4.45366
-4.45229
-4.4481
-4.44375
-4.43373
-4.42337
-4.40173
-4.37952
-4.33569
-4.29089
-4.20632
-4.12003
-3.96422
-3.80603
-3.53608
-3.264
-2.83953
-2.41851
-1.85756
-1.31941
-0.792393
-0.338973
-0.13228
0.0161392
-0.0207791
-2.36176
-3.33446
-3.74382
-3.92567
-4.28559
-5.18021
-5.58252
-5.5964
-5.59583
-5.5952
-5.59104
-5.57932
-5.55214
-5.49455
-5.37919
-5.15809
-4.75331
-4.0575
-2.97839
-1.59032
-0.369567
0.0244866
-0.03391
-1.45185
-2.86255
-3.45682
-4.04465
-4.29349
-4.543
-4.65295
-4.76403
-4.97497
-5.20319
-5.7651
-6.29252
-6.55916
-6.77975
-6.78039
-6.79475
-6.79298
-6.7932
-6.79269
-6.79199
-6.78916
-6.78624
-6.77859
-6.77072
-6.75349
-6.73576
-6.69968
-6.66277
-6.59097
-6.51775
-6.38075
-6.24123
-5.99096
-5.73719
-5.30725
-4.87445
-4.20653
-3.54508
-2.67983
-1.85134
-1.06617
-0.385118
-0.127682
0.0440918
-0.0294793
-3.34917
-4.73896
-5.32599
-5.58722
-6.10535
-7.39465
-7.96654
-7.98036
-7.97846
-7.97614
-7.96807
-7.94809
-7.9042
-7.81383
-7.63581
-7.29828
-6.68542
-5.64155
-4.04629
-2.04541
-0.35156
0.0588487
-0.0448707
-1.95571
-3.86529
-4.67444
-5.47765
-5.8187
-6.16106
-6.31203
-6.4647
-6.75468
-7.06999
-7.84336
-8.57414
-8.93666
-9.23799
-9.23457
-9.25119
-9.24798
-9.24769
-9.24612
-9.24429
-9.23909
-9.2338
-9.2213
-9.20854
-9.18175
-9.15436
-9.09981
-9.04423
-8.93745
-8.82888
-8.62728
-8.42245
-8.05728
-7.68757
-7.06642
-6.44212
-5.49311
-4.55568
-3.36266
-2.22396
-1.19645
-0.295366
-0.0480217
0.0915183
-0.0369641
-4.34074
-6.17079
-6.94931
-7.29671
-7.9882
-9.71415
-10.4718
-10.4824
-10.4784
-10.4735
-10.46
-10.4291
-10.3638
-10.2322
-9.97628
-9.49474
-8.62604
-7.16071
-4.96549
-2.31207
-0.187134
0.113208
-0.0511998
-2.44112
-4.84919
-5.88356
-6.91596
-7.35754
-7.80102
-7.99691
-8.19538
-8.57259
-8.98519
-9.99381
-10.9559
-11.4247
-11.8194
-11.81
-11.8287
-11.8237
-11.8227
-11.8197
-11.8164
-11.8081
-11.7998
-11.7812
-11.7624
-11.7237
-11.6844
-11.607
-11.5284
-11.3783
-11.2261
-10.9441
-10.6582
-10.1501
-9.63617
-8.77994
-7.92071
-6.64046
-5.38059
-3.83921
-2.37523
-1.14322
-0.0464154
0.115953
0.161694
-0.0363297
-5.26143
-7.55919
-8.54888
-8.99238
-9.87899
-12.1001
-13.0739
-13.0819
-13.0758
-13.0682
-13.0489
-13.0058
-12.916
-12.7359
-12.386
-11.7273
-10.5392
-8.55137
-5.65099
-2.32725
0.135141
0.188875
-0.0417375
-2.83448
-5.70074
-6.97265
-8.25338
-8.80921
-9.36592
-9.61265
-9.86379
-10.3405
-10.8649
-12.1411
-13.371
-13.9614
-14.4738
-14.4589
-14.4834
-14.477
-14.4757
-14.4715
-14.4672
-14.4563
-14.4455
-14.4209
-14.3962
-14.3449
-14.2932
-14.1901
-14.0861
-13.885
-13.6817
-13.3017
-12.9167
-12.2294
-11.534
-10.3826
-9.22923
-7.55527
-5.91809
-4.02555
-2.24024
-0.87986
0.360441
0.356081
0.252823
-0.00925302
-5.92725
-8.74582
-9.98307
-10.5392
-11.6559
-14.4339
-15.6641
-15.6824
-15.6757
-15.6686
-15.647
-15.5961
-15.4857
-15.2585
-14.8066
-13.9379
-12.3493
-9.70144
-5.97886
-2.03068
0.5965
0.281647
0.0278679
-2.94678
-6.13689
-7.68572
-9.25915
-9.95988
-10.6558
-10.9645
-11.2817
-11.88
-12.5385
-14.1089
-15.6293
-16.3464
-17.0098
-16.9988
-17.0428
-17.0376
-17.0379
-17.0354
-17.033
-17.023
-17.0137
-16.9879
-16.9627
-16.9045
-16.8467
-16.7232
-16.5996
-16.3483
-16.095
-15.6029
-15.1042
-14.1924
-13.2681
-11.7396
-10.2115
-8.07949
-6.01174
-3.81918
-1.76372
-0.407395
0.880716
0.637758
0.35045
0.106986
-5.97053
-9.4285
-10.977
-11.6695
-13.0563
-16.3412
-17.8193
-17.8865
-17.8855
-17.8883
-17.8779
-17.8374
-17.7309
-17.4855
-16.9572
-15.8776
-13.8243
-10.3958
-5.82474
-1.45203
1.09318
0.371371
0.23763
-2.48451
-5.72908
-7.64109
-9.5854
-10.4748
-11.3432
-11.7246
-12.1224
-12.8573
-13.6629
-15.4531
-17.1632
-17.9394
-18.7483
-18.7675
-18.8573
-18.8594
-18.8659
-18.8713
-18.8777
-18.8784
-18.8806
-18.8676
-18.8563
-18.8105
-18.7667
-18.6478
-18.5304
-18.2559
-17.9798
-17.3928
-16.7953
-15.6467
-14.4777
-12.5374
-10.6047
-8.05026
-5.60033
-3.27061
-1.08922
0.115243
1.34108
0.860434
0.422599
0.425196
-5.0563
-9.45768
-11.4353
-12.2992
-13.9958
-17.5085
-19.1101
-19.2972
-19.3146
-19.3454
-19.3721
-19.3793
-19.3285
-19.132
-18.5987
-17.3496
-14.796
-10.5218
-5.22811
-0.748957
1.49956
0.43264
0.735669
-1.2005
-4.2308
-6.75936
-9.28995
-10.4611
-11.5777
-12.0535
-12.5596
-13.4544
-14.4334
-16.2686
-17.9366
-18.6275
-19.5381
-19.6376
-19.8148
-19.8336
-19.8541
-19.8784
-19.9052
-19.9329
-19.9634
-19.9869
-20.0137
-20.0134
-20.0173
-19.9455
-19.8775
-19.6256
-19.3717
-18.7172
-18.0439
-16.6385
-15.1993
-12.8096
-10.4448
-7.54942
-4.80968
-2.52759
-0.366531
0.58711
1.68105
0.998834
0.462143
1.11695
-2.95676
-8.94701
-11.5631
-12.6562
-14.7135
-17.9189
-19.4064
-19.8231
-19.8789
-19.9649
-20.0679
-20.1791
-20.2625
-20.2153
-19.7813
-18.4148
-15.296
-10.1201
-4.32411
-0.0534768
1.77733
0.460125
1.73034
1.1437
-1.44445
-5.05833
-8.55439
-10.1447
-11.6265
-12.2258
-12.8767
-13.9521
-15.1364
-16.713
-17.9591
-18.3522
-19.2833
-19.5395
-19.8606
-19.9086
-19.9537
-20.0125
-20.0755
-20.1531
-20.235
-20.3275
-20.4254
-20.5157
-20.6131
-20.6461
-20.686
-20.5161
-20.3435
-19.6503
-18.9233
-17.2201
-15.4647
-12.5919
-9.78234
-6.68361
-3.78977
-1.72986
0.290045
0.950588
1.88629
1.05358
0.468875
2.38545
0.458824
-8.12396
-11.6465
-13.0339
-15.4878
-17.6056
-18.666
-19.4552
-19.5747
-19.7491
-19.9764
-20.2605
-20.5739
-20.7989
-20.5895
-19.1503
-15.3526
-9.25613
-3.26676
0.541879
1.9256
0.455901
3.42044
4.66138
2.68029
-2.68869
-7.65276
-9.80717
-11.7831
-12.5293
-13.3583
-14.6143
-16.026
-16.939
-17.2849
-17.1488
-18.0023
-18.5107
-19.0381
-19.1282
-19.21
-19.3207
-19.4374
-19.5897
-19.7478
-19.9445
-20.1491
-20.3788
-20.6199
-20.8207
-21.034
-21.0107
-20.9862
-20.2765
-19.5104
-17.4397
-15.2957
-11.9291
-8.69899
-5.58584
-2.69841
-0.990694
0.812616
1.18581
1.97068
1.03989
0.448005
4.37104
5.13895
-7.27692
-11.9348
-13.6587
-16.5037
-16.6396
-16.9699
-18.2831
-18.4909
-18.7847
-19.1809
-19.7019
-20.3359
-20.9556
-21.1038
-19.6217
-14.9788
-8.02721
-2.20326
0.990739
1.96436
0.426767
5.87584
9.21967
7.97726
0.0589444
-6.88535
-9.68503
-12.2392
-13.1336
-14.155
-15.5597
-17.2029
-17.0308
-16.0054
-15.1604
-15.8504
-16.7083
-17.4942
-17.6365
-17.7648
-17.9411
-18.1245
-18.3703
-18.623
-18.9504
-19.2884
-19.6955
-20.12
-20.5423
-20.9891
-21.1757
-21.371
-20.6607
-19.8628
-17.3267
-14.6996
-10.88
-7.3121
-4.40008
-1.67179
-0.381895
1.17778
1.29985
1.95964
0.978012
0.407175
7.02115
10.8193
-6.68821
-12.5331
-14.583
-17.7768
-15.1328
-14.5318
-16.4996
-16.8107
-17.2411
-17.8298
-18.6207
-19.6282
-20.7369
-21.3818
-19.8786
-14.1835
-6.56644
-1.24897
1.28555
1.92051
0.381285
8.88048
14.3943
14.0704
2.78386
-6.50708
-9.88551
-12.9944
-14.0053
-15.2026
-16.703
-18.5811
-16.9969
-14.2514
-12.6238
-13.102
-14.3947
-15.467
-15.6646
-15.842
-16.0875
-16.3404
-16.6829
-17.0326
-17.4944
-17.9691
-18.5627
-19.1823
-19.8557
-20.5778
-21.037
-21.5339
-20.842
-20.0171
-16.8964
-13.6838
-9.52833
-5.771
-3.25848
-0.801368
0.0677437
1.39538
1.31402
1.88096
0.886772
0.355401
9.95834
17.0595
-6.56061
-13.3434
-15.6398
-19.1535
-13.2265
-11.6514
-14.3675
-14.7783
-15.3385
-16.1043
-17.1412
-18.5035
-20.141
-21.4403
-19.9456
-12.9791
-5.02725
-0.470915
1.44407
1.81997
0.327934
11.8622
19.5162
20.4565
5.04168
-6.6622
-10.3509
-13.8483
-14.9132
-16.2357
-17.7878
-19.9464
-16.7983
-12.1803
-9.8266
-10.0845
-11.8876
-13.2476
-13.4927
-13.7122
-14.0152
-14.3256
-14.7455
-15.1716
-15.7378
-16.3186
-17.0648
-17.8482
-18.766
-19.775
-20.5759
-21.4792
-20.84
-19.9937
-16.155
-12.2717
-7.98787
-4.23519
-2.25989
-0.127829
0.362657
1.49103
1.25482
1.75771
0.781446
0.29996
12.4553
23.3469
-6.95793
-14.113
-16.5103
-20.4042
-11.0823
-8.64662
-12.1799
-12.664
-13.3174
-14.1982
-15.3877
-16.9975
-19.1293
-21.2762
-19.8394
-11.4045
-3.55937
0.110547
1.4952
1.68394
0.2737
13.9137
23.8204
26.6081
6.4354
-7.329
-10.8903
-14.4935
-15.5273
-16.8897
-18.4835
-21.0575
-16.3855
-9.95587
-7.04624
-7.09787
-9.49474
-11.123
-11.3941
-11.6381
-11.9713
-12.3124
-12.7668
-13.2255
-13.8322
-14.454
-15.275
-16.1447
-17.2587
-18.525
-19.7455
-21.1924
-20.6653
-19.7997
-15.1055
-10.5171
-6.39089
-2.84143
-1.4564
0.351158
0.526727
1.49588
1.14709
1.60838
0.672588
0.246835
13.5462
29.1668
-7.76034
-14.5543
-16.8409
-21.3094
-8.8596
-5.7826
-10.1997
-10.7057
-11.3883
-12.2817
-13.4753
-15.1497
-17.6536
-20.8715
-19.5628
-9.53521
-2.27755
0.508712
1.46886
1.52825
0.223458
14.0192
26.6086
32.0251
6.70653
-8.29357
-11.2748
-14.672
-15.5659
-16.8409
-18.4895
-21.7253
-15.7255
-7.73191
-4.51671
-4.36655
-7.46756
-9.32231
-9.58
-9.82256
-10.1465
-10.4799
-10.9104
-11.3431
-11.9078
-12.4873
-13.28
-14.1287
-15.3503
-16.7906
-18.4999
-20.6534
-20.328
-19.4309
-13.7605
-8.5197
-4.87278
-1.6804
-0.858654
0.661482
0.590774
1.4375
1.01204
1.44584
0.567287
0.199458
12.3163
34.0447
-8.66835
-14.4931
-16.3822
-21.7182
-6.69884
-3.23947
-8.60464
-9.05684
-9.68486
-10.4736
-11.5123
-13.0436
-15.7093
-20.203
-19.1076
-7.49201
-1.24321
0.75435
1.39066
1.36397
0.179899
11.4217
27.414
36.2588
5.80931
-9.17943
-11.353
-14.3044
-14.9159
-15.9285
-17.6046
-21.8378
-14.8097
-5.63594
-2.39983
-2.02593
-5.97187
-7.95854
-8.14301
-8.35323
-8.62487
-8.90809
-9.25703
-9.60827
-10.059
-10.5229
-11.1918
-11.9155
-13.1292
-14.6031
-16.8175
-19.8366
-19.8365
-18.869
-12.1529
-6.42338
-3.54329
-0.78408
-0.447451
0.839444
0.58454
1.33903
0.865509
1.27952
0.469517
0.159741
8.29293
37.5326
-9.27837
-13.9239
-15.0866
-21.5347
-4.71019
-1.12444
-7.43827
-7.74279
-8.23305
-8.82619
-9.59649
-10.8142
-13.3739
-19.2358
-18.4417
-5.43137
-0.465295
0.882822
1.28008
1.19845
0.143877
6.04073
26.078
38.8941
3.94158
-9.57171
-11.134
-13.4737
-13.6573
-14.2295
-15.7522
-21.3246
-13.6526
-3.76256
-0.784594
-0.156873
-5.0886
-6.99453
-7.03209
-7.18128
-7.37037
-7.57051
-7.80554
-8.04575
-8.34689
-8.65619
-9.14135
-9.66983
-10.7626
-12.0964
-14.7182
-18.7071
-19.1881
-18.0742
-10.3486
-4.39834
-2.46842
-0.139014
-0.188235
0.918582
0.533923
1.21612
0.719771
1.11484
0.381689
0.127465
1.82722
39.2382
-9.24899
-12.9201
-13.1728
-20.6848
-2.97124
0.488332
-6.58701
-6.66218
-6.97284
-7.35079
-7.81251
-8.62438
-10.8324
-17.9294
-17.5144
-3.52031
0.0822529
0.926192
1.15081
1.03638
0.114947
-1.21689
22.7459
39.5947
1.50473
-9.20922
-10.7919
-12.2493
-11.9932
-12.0985
-12.9875
-20.1096
-12.2831
-2.17017
0.309635
1.17381
-4.81921
-6.23106
-6.06514
-6.14383
-6.26152
-6.38063
-6.51693
-6.65848
-6.81028
-6.95962
-7.24418
-7.55339
-8.44843
-9.50734
-12.2727
-17.2198
-18.3644
-16.9874
-8.44739
-2.60238
-1.66176
0.295421
-0.0428362
0.927926
0.458636
1.08059
0.582326
0.955845
0.30452
0.101939
-5.71017
38.8671
-8.48341
-11.4275
-11.1354
-19.0597
-1.52682
1.51545
-5.78326
-5.63616
-5.83
-6.05582
-6.21521
-6.61698
-8.35411
-16.2328
-16.2551
-1.89511
0.439585
0.909555
1.01178
0.880629
0.0919238
-8.52368
17.7846
38.1442
-0.990656
-8.15653
-10.5833
-10.4661
-10.1433
-10.1547
-9.49223
-18.0536
-10.7441
-0.886725
0.920595
1.86582
-5.09174
-5.33518
-4.99631
-5.04941
-5.18667
-5.29123
-5.38357
-5.46608
-5.47295
-5.46705
-5.57242
-5.68876
-6.34125
-7.12951
-9.61552
-15.3195
-17.3247
-15.5373
-6.58033
-1.14341
-1.09414
0.561528
0.0250087
0.886585
0.374109
0.937893
0.458538
0.803698
0.238183
0.0813313
-12.0559
36.3263
-7.24948
-9.13526
-9.6792
-16.5083
-0.393421
1.8428
-4.65728
-4.5237
-4.81775
-4.96173
-4.82224
-4.90709
-6.22395
-14.0974
-14.6052
-0.628408
0.646743
0.850604
0.868504
0.732808
0.073352
-13.3563
11.6504
34.5429
-3.0571
-6.85641
-10.7022
-7.69836
-8.28172
-9.14227
-5.56665
-14.9596
-9.07934
0.0852795
1.11812
1.78136
-5.75236
-3.91275
-3.6363
-3.81646
-4.1645
-4.38786
-4.45614
-4.48205
-4.32825
-4.17484
-4.13775
-4.1708
-4.49459
-5.21817
-6.94484
-12.9504
-16.0075
-13.6761
-4.88157
-0.0584054
-0.716874
0.698917
0.0443504
0.809329
0.2901
0.792869
0.350137
0.659864
0.181899
0.0644619
-14.4593
31.7592
-6.17499
-5.62971
-9.4479
-12.8345
0.43472
1.31973
-2.82865
-3.38206
-4.07635
-4.05451
-3.63899
-3.60308
-4.61957
-11.4889
-12.5497
0.279132
0.737758
0.761209
0.72446
0.593928
0.0578705
-12.7527
4.79937
29.0773
-4.26404
-6.14582
-11.1438
-3.62493
-6.54512
-9.53008
-1.66822
-10.6261
-7.34
0.762431
0.980345
0.763498
-6.54589
-1.64887
-2.03676
-2.67141
-3.43928
-3.8765
-3.78246
-3.65476
-3.32543
-3.10655
-2.89406
-3.10003
-2.88077
-3.86357
-4.52435
-10.1192
-14.3387
-11.448
-3.47322
0.678847
-0.481344
0.740945
0.0365724
0.70768
0.212702
0.649994
0.257343
0.526119
0.134796
0.0504462
-10.2654
25.5262
-6.17964
-0.980372
-10.4488
-7.80417
0.981806
-0.231874
-0.0713012
-2.65314
-3.74485
-3.26509
-2.72882
-2.78914
-3.47753
-8.4398
-10.1722
0.875735
0.740269
0.649656
0.582118
0.464649
0.0444307
-4.78448
-2.32184
22.147
-4.40342
-7.03962
-11.4792
1.19025
-5.07388
-10.7995
1.59038
-4.76871
-5.60326
1.17508
0.622424
-1.40551
-7.09986
1.52263
-0.706016
-2.32368
-3.3997
-3.81926
-3.25204
-2.89262
-2.35027
-2.37029
-1.73558
-2.50215
-1.46317
-2.86237
-2.60444
-6.92799
-12.1995
-9.0104
-2.41146
1.11975
-0.337255
0.705138
0.0194977
0.585416
0.146867
0.508665
0.180662
0.401471
0.0961169
0.03775
2.43253
18.1204
-8.39929
3.44996
-11.341
-1.14254
1.28816
-3.01387
3.42743
-3.22782
-3.66704
-2.60388
-2.22886
-2.38568
-2.4315
-5.14555
-7.71322
1.21709
0.673402
0.521451
0.442988
0.345071
0.0322317
12.9666
-9.54994
14.3198
-3.17473
-10.947
-10.8509
4.51284
-3.96127
-10.7471
3.33517
2.86843
-3.90137
1.37506
0.108394
-4.92731
-6.83701
4.97163
-0.968012
-3.95818
-4.09455
-3.82272
-2.51498
-2.30611
-1.25303
-2.06854
-0.587626
-2.12446
-0.317493
-1.70279
-1.36293
-3.72463
-9.37077
-6.70116
-1.68753
1.32212
-0.245096
0.609076
0.00137254
0.451256
0.09277
0.373289
0.117229
0.287651
0.0644106
0.0264116
24.4937
9.99934
-14.1195
4.30741
-8.97207
7.50121
1.39357
-7.28968
6.45019
-6.05021
-3.50092
-2.27698
-2.07299
-1.85728
-0.883747
-2.06001
-5.58233
1.31797
0.545274
0.380083
0.308467
0.235317
0.0208616
39.848
-16.5239
5.98902
-0.638858
-19.1
-7.80494
1.81324
-3.14567
-5.5112
2.55623
12.648
-2.34222
1.38564
-0.412033
-10.2068
-4.89278
6.53818
-5.13218
-8.15383
-4.42003
-3.28976
-1.10706
-2.11966
-0.0255692
-1.73509
0.355075
-1.06649
0.256039
0.259584
-0.77436
-1.12466
-5.60472
-5.02278
-1.18168
1.26463
-0.161231
0.446263
-0.00662478
0.303406
0.0526278
0.241791
0.0671311
0.183144
0.0390581
0.0153511
55.4623
1.54254
-24.6597
-3.78314
0.990583
18.4206
1.30258
-13.4607
4.57672
-9.11049
-3.42958
-2.01731
-1.14466
0.124594
1.78388
0.0457126
-4.34609
1.13933
0.351676
0.227149
0.179559
0.135386
0.0100582
74.2164
-22.9866
-2.62448
3.11769
-32.6112
-0.654164
-13.3177
-1.73063
9.07194
-1.52351
24.7442
-0.966592
1.14531
-0.764665
-17.9203
0.165314
-2.33002
-10.8392
-11.436
-2.9314
-1.23136
0.283693
-0.161571
0.293917
1.32195
0.112649
2.70266
-0.276496
3.6061
-0.558767
0.0425444
-0.620115
-4.53405
-0.694984
0.87789
-0.052548
0.211697
0.0019367
0.143214
0.0250052
0.115794
0.027974
0.0880962
0.0188078
0.00474232
93.78
-7.04466
-41.2562
-27.8656
22.1761
31.6735
0.875234
-22.4833
-23.1372
-2.94012
1.90197
3.69128
5.12307
6.25378
6.0752
0.197478
-4.61508
0.597339
0.07919
0.0627131
0.0568945
0.045129
-0.000294356
90.4416
-25.6626
-12.6663
3.98488
-42.0073
4.10979
-35.0499
-1.45328
30.0364
-3.21942
37.294
-0.278039
0.730373
-0.601713
-25.127
1.84167
-36.6656
-11.0831
6.39732
3.59312
3.30262
0.571237
5.73358
0.341141
6.73044
-0.377439
7.86877
-0.923513
7.21842
-0.214964
2.99222
2.25763
-2.98184
0.0941205
0.299536
-0.146589
0.128652
0.0120772
0.0205692
-0.0180822
0.0318531
-0.0135556
0.0168687
-0.00146778
0.00284628
