# vtk DataFile Version 2.0
./vtk
ASCII

DATASET UNSTRUCTURED_GRID
POINTS 4064 double
0 0 0.0
0.1667 0 0.0
0.3333 0 0.0
0.5 0 0.0
0.6667 0 0.0
0.8333 0 0.0
1 0 0.0
1.1667 0 0.0
1.3333 0 0.0
1.5 0 0.0
1.6667 0 0.0
1.8333 0 0.0
2 0 0.0
2.1667 0 0.0
2.3333 0 0.0
2.5 0 0.0
2.6667 0 0.0
2.8333 0 0.0
3 0 0.0
3.1667 0 0.0
3.3333 0 0.0
3.5 0 0.0
3.6667 0 0.0
3.8333 0 0.0
4 0 0.0
4.1667 0 0.0
4.3333 0 0.0
4.5 0 0.0
4.6667 0 0.0
4.8333 0 0.0
5 0 0.0
5.4469 0 0.0
5.8938 0 0.0
6.4207 0 0.0
6.9475 0 0.0
7.5685 0 0.0
8.1895 0 0.0
8.9215 0 0.0
9.6535 0 0.0
10.5164 0 0.0
11.3792 0 0.0
12.3964 0 0.0
13.4135 0 0.0
14.6124 0 0.0
15.8114 0 0.0
17.2247 0 0.0
18.638 0 0.0
20.3039 0 0.0
21.9699 0 0.0
23.9336 0 0.0
25.8974 0 0.0
28.2122 0 0.0
30.527 0 0.0
33.2556 0 0.0
35.9843 0 0.0
39.2007 0 0.0
42.4171 0 0.0
46.2086 0 0.0
50 0 0.0
0 -0.1333 0.0
0.3333 -0.1333 0.0
0.6667 -0.1333 0.0
1 -0.1333 0.0
1.3333 -0.1333 0.0
1.6667 -0.1333 0.0
2 -0.1333 0.0
2.3333 -0.1333 0.0
2.6667 -0.1333 0.0
3 -0.1333 0.0
3.3333 -0.1333 0.0
3.6667 -0.1333 0.0
4 -0.1333 0.0
4.3333 -0.1333 0.0
4.6667 -0.1333 0.0
5 -0.1333 0.0
5.8938 -0.1333 0.0
6.9475 -0.1333 0.0
8.1895 -0.1333 0.0
9.6535 -0.1333 0.0
11.3792 -0.1333 0.0
13.4135 -0.1333 0.0
15.8114 -0.1333 0.0
18.638 -0.1333 0.0
21.9699 -0.1333 0.0
25.8974 -0.1333 0.0
30.527 -0.1333 0.0
35.9843 -0.1333 0.0
42.4171 -0.1333 0.0
50 -0.1333 0.0
0 -0.2667 0.0
0.1667 -0.2667 0.0
0.3333 -0.2667 0.0
0.5 -0.2667 0.0
0.6667 -0.2667 0.0
0.8333 -0.2667 0.0
1 -0.2667 0.0
1.1667 -0.2667 0.0
1.3333 -0.2667 0.0
1.5 -0.2667 0.0
1.6667 -0.2667 0.0
1.8333 -0.2667 0.0
2 -0.2667 0.0
2.1667 -0.2667 0.0
2.3333 -0.2667 0.0
2.5 -0.2667 0.0
2.6667 -0.2667 0.0
2.8333 -0.2667 0.0
3 -0.2667 0.0
3.1667 -0.2667 0.0
3.3333 -0.2667 0.0
3.5 -0.2667 0.0
3.6667 -0.2667 0.0
3.8333 -0.2667 0.0
4 -0.2667 0.0
4.1667 -0.2667 0.0
4.3333 -0.2667 0.0
4.5 -0.2667 0.0
4.6667 -0.2667 0.0
4.8333 -0.2667 0.0
5 -0.2667 0.0
5.4469 -0.2667 0.0
5.8938 -0.2667 0.0
6.4207 -0.2667 0.0
6.9475 -0.2667 0.0
7.5685 -0.2667 0.0
8.1895 -0.2667 0.0
8.9215 -0.2667 0.0
9.6535 -0.2667 0.0
10.5164 -0.2667 0.0
11.3792 -0.2667 0.0
12.3964 -0.2667 0.0
13.4135 -0.2667 0.0
14.6124 -0.2667 0.0
15.8114 -0.2667 0.0
17.2247 -0.2667 0.0
18.638 -0.2667 0.0
20.3039 -0.2667 0.0
21.9699 -0.2667 0.0
23.9336 -0.2667 0.0
25.8974 -0.2667 0.0
28.2122 -0.2667 0.0
30.527 -0.2667 0.0
33.2556 -0.2667 0.0
35.9843 -0.2667 0.0
39.2007 -0.2667 0.0
42.4171 -0.2667 0.0
46.2086 -0.2667 0.0
50 -0.2667 0.0
0 -0.4 0.0
0.3333 -0.4 0.0
0.6667 -0.4 0.0
1 -0.4 0.0
1.3333 -0.4 0.0
1.6667 -0.4 0.0
2 -0.4 0.0
2.3333 -0.4 0.0
2.6667 -0.4 0.0
3 -0.4 0.0
3.3333 -0.4 0.0
3.6667 -0.4 0.0
4 -0.4 0.0
4.3333 -0.4 0.0
4.6667 -0.4 0.0
5 -0.4 0.0
5.8938 -0.4 0.0
6.9475 -0.4 0.0
8.1895 -0.4 0.0
9.6535 -0.4 0.0
11.3792 -0.4 0.0
13.4135 -0.4 0.0
15.8114 -0.4 0.0
18.638 -0.4 0.0
21.9699 -0.4 0.0
25.8974 -0.4 0.0
30.527 -0.4 0.0
35.9843 -0.4 0.0
42.4171 -0.4 0.0
50 -0.4 0.0
0 -0.5333 0.0
0.1667 -0.5333 0.0
0.3333 -0.5333 0.0
0.5 -0.5333 0.0
0.6667 -0.5333 0.0
0.8333 -0.5333 0.0
1 -0.5333 0.0
1.1667 -0.5333 0.0
1.3333 -0.5333 0.0
1.5 -0.5333 0.0
1.6667 -0.5333 0.0
1.8333 -0.5333 0.0
2 -0.5333 0.0
2.1667 -0.5333 0.0
2.3333 -0.5333 0.0
2.5 -0.5333 0.0
2.6667 -0.5333 0.0
2.8333 -0.5333 0.0
3 -0.5333 0.0
3.1667 -0.5333 0.0
3.3333 -0.5333 0.0
3.5 -0.5333 0.0
3.6667 -0.5333 0.0
3.8333 -0.5333 0.0
4 -0.5333 0.0
4.1667 -0.5333 0.0
4.3333 -0.5333 0.0
4.5 -0.5333 0.0
4.6667 -0.5333 0.0
4.8333 -0.5333 0.0
5 -0.5333 0.0
5.4469 -0.5333 0.0
5.8938 -0.5333 0.0
6.4207 -0.5333 0.0
6.9475 -0.5333 0.0
7.5685 -0.5333 0.0
8.1895 -0.5333 0.0
8.9215 -0.5333 0.0
9.6535 -0.5333 0.0
10.5164 -0.5333 0.0
11.3792 -0.5333 0.0
12.3964 -0.5333 0.0
13.4135 -0.5333 0.0
14.6124 -0.5333 0.0
15.8114 -0.5333 0.0
17.2247 -0.5333 0.0
18.638 -0.5333 0.0
20.3039 -0.5333 0.0
21.9699 -0.5333 0.0
23.9336 -0.5333 0.0
25.8974 -0.5333 0.0
28.2122 -0.5333 0.0
30.527 -0.5333 0.0
33.2556 -0.5333 0.0
35.9843 -0.5333 0.0
39.2007 -0.5333 0.0
42.4171 -0.5333 0.0
46.2086 -0.5333 0.0
50 -0.5333 0.0
0 -0.6667 0.0
0.3333 -0.6667 0.0
0.6667 -0.6667 0.0
1 -0.6667 0.0
1.3333 -0.6667 0.0
1.6667 -0.6667 0.0
2 -0.6667 0.0
2.3333 -0.6667 0.0
2.6667 -0.6667 0.0
3 -0.6667 0.0
3.3333 -0.6667 0.0
3.6667 -0.6667 0.0
4 -0.6667 0.0
4.3333 -0.6667 0.0
4.6667 -0.6667 0.0
5 -0.6667 0.0
5.8938 -0.6667 0.0
6.9475 -0.6667 0.0
8.1895 -0.6667 0.0
9.6535 -0.6667 0.0
11.3792 -0.6667 0.0
13.4135 -0.6667 0.0
15.8114 -0.6667 0.0
18.638 -0.6667 0.0
21.9699 -0.6667 0.0
25.8974 -0.6667 0.0
30.527 -0.6667 0.0
35.9843 -0.6667 0.0
42.4171 -0.6667 0.0
50 -0.6667 0.0
0 -0.8 0.0
0.1667 -0.8 0.0
0.3333 -0.8 0.0
0.5 -0.8 0.0
0.6667 -0.8 0.0
0.8333 -0.8 0.0
1 -0.8 0.0
1.1667 -0.8 0.0
1.3333 -0.8 0.0
1.5 -0.8 0.0
1.6667 -0.8 0.0
1.8333 -0.8 0.0
2 -0.8 0.0
2.1667 -0.8 0.0
2.3333 -0.8 0.0
2.5 -0.8 0.0
2.6667 -0.8 0.0
2.8333 -0.8 0.0
3 -0.8 0.0
3.1667 -0.8 0.0
3.3333 -0.8 0.0
3.5 -0.8 0.0
3.6667 -0.8 0.0
3.8333 -0.8 0.0
4 -0.8 0.0
4.1667 -0.8 0.0
4.3333 -0.8 0.0
4.5 -0.8 0.0
4.6667 -0.8 0.0
4.8333 -0.8 0.0
5 -0.8 0.0
5.4469 -0.8 0.0
5.8938 -0.8 0.0
6.4207 -0.8 0.0
6.9475 -0.8 0.0
7.5685 -0.8 0.0
8.1895 -0.8 0.0
8.9215 -0.8 0.0
9.6535 -0.8 0.0
10.5164 -0.8 0.0
11.3792 -0.8 0.0
12.3964 -0.8 0.0
13.4135 -0.8 0.0
14.6124 -0.8 0.0
15.8114 -0.8 0.0
17.2247 -0.8 0.0
18.638 -0.8 0.0
20.3039 -0.8 0.0
21.9699 -0.8 0.0
23.9336 -0.8 0.0
25.8974 -0.8 0.0
28.2122 -0.8 0.0
30.527 -0.8 0.0
33.2556 -0.8 0.0
35.9843 -0.8 0.0
39.2007 -0.8 0.0
42.4171 -0.8 0.0
46.2086 -0.8 0.0
50 -0.8 0.0
0 -0.9333 0.0
0.3333 -0.9333 0.0
0.6667 -0.9333 0.0
1 -0.9333 0.0
1.3333 -0.9333 0.0
1.6667 -0.9333 0.0
2 -0.9333 0.0
2.3333 -0.9333 0.0
2.6667 -0.9333 0.0
3 -0.9333 0.0
3.3333 -0.9333 0.0
3.6667 -0.9333 0.0
4 -0.9333 0.0
4.3333 -0.9333 0.0
4.6667 -0.9333 0.0
5 -0.9333 0.0
5.8938 -0.9333 0.0
6.9475 -0.9333 0.0
8.1895 -0.9333 0.0
9.6535 -0.9333 0.0
11.3792 -0.9333 0.0
13.4135 -0.9333 0.0
15.8114 -0.9333 0.0
18.638 -0.9333 0.0
21.9699 -0.9333 0.0
25.8974 -0.9333 0.0
30.527 -0.9333 0.0
35.9843 -0.9333 0.0
42.4171 -0.9333 0.0
50 -0.9333 0.0
0 -1.0667 0.0
0.1667 -1.0667 0.0
0.3333 -1.0667 0.0
0.5 -1.0667 0.0
0.6667 -1.0667 0.0
0.8333 -1.0667 0.0
1 -1.0667 0.0
1.1667 -1.0667 0.0
1.3333 -1.0667 0.0
1.5 -1.0667 0.0
1.6667 -1.0667 0.0
1.8333 -1.0667 0.0
2 -1.0667 0.0
2.1667 -1.0667 0.0
2.3333 -1.0667 0.0
2.5 -1.0667 0.0
2.6667 -1.0667 0.0
2.8333 -1.0667 0.0
3 -1.0667 0.0
3.1667 -1.0667 0.0
3.3333 -1.0667 0.0
3.5 -1.0667 0.0
3.6667 -1.0667 0.0
3.8333 -1.0667 0.0
4 -1.0667 0.0
4.1667 -1.0667 0.0
4.3333 -1.0667 0.0
4.5 -1.0667 0.0
4.6667 -1.0667 0.0
4.8333 -1.0667 0.0
5 -1.0667 0.0
5.4469 -1.0667 0.0
5.8938 -1.0667 0.0
6.4207 -1.0667 0.0
6.9475 -1.0667 0.0
7.5685 -1.0667 0.0
8.1895 -1.0667 0.0
8.9215 -1.0667 0.0
9.6535 -1.0667 0.0
10.5164 -1.0667 0.0
11.3792 -1.0667 0.0
12.3964 -1.0667 0.0
13.4135 -1.0667 0.0
14.6124 -1.0667 0.0
15.8114 -1.0667 0.0
17.2247 -1.0667 0.0
18.638 -1.0667 0.0
20.3039 -1.0667 0.0
21.9699 -1.0667 0.0
23.9336 -1.0667 0.0
25.8974 -1.0667 0.0
28.2122 -1.0667 0.0
30.527 -1.0667 0.0
33.2556 -1.0667 0.0
35.9843 -1.0667 0.0
39.2007 -1.0667 0.0
42.4171 -1.0667 0.0
46.2086 -1.0667 0.0
50 -1.0667 0.0
0 -1.2 0.0
0.3333 -1.2 0.0
0.6667 -1.2 0.0
1 -1.2 0.0
1.3333 -1.2 0.0
1.6667 -1.2 0.0
2 -1.2 0.0
2.3333 -1.2 0.0
2.6667 -1.2 0.0
3 -1.2 0.0
3.3333 -1.2 0.0
3.6667 -1.2 0.0
4 -1.2 0.0
4.3333 -1.2 0.0
4.6667 -1.2 0.0
5 -1.2 0.0
5.8938 -1.2 0.0
6.9475 -1.2 0.0
8.1895 -1.2 0.0
9.6535 -1.2 0.0
11.3792 -1.2 0.0
13.4135 -1.2 0.0
15.8114 -1.2 0.0
18.638 -1.2 0.0
21.9699 -1.2 0.0
25.8974 -1.2 0.0
30.527 -1.2 0.0
35.9843 -1.2 0.0
42.4171 -1.2 0.0
50 -1.2 0.0
0 -1.3333 0.0
0.1667 -1.3333 0.0
0.3333 -1.3333 0.0
0.5 -1.3333 0.0
0.6667 -1.3333 0.0
0.8333 -1.3333 0.0
1 -1.3333 0.0
1.1667 -1.3333 0.0
1.3333 -1.3333 0.0
1.5 -1.3333 0.0
1.6667 -1.3333 0.0
1.8333 -1.3333 0.0
2 -1.3333 0.0
2.1667 -1.3333 0.0
2.3333 -1.3333 0.0
2.5 -1.3333 0.0
2.6667 -1.3333 0.0
2.8333 -1.3333 0.0
3 -1.3333 0.0
3.1667 -1.3333 0.0
3.3333 -1.3333 0.0
3.5 -1.3333 0.0
3.6667 -1.3333 0.0
3.8333 -1.3333 0.0
4 -1.3333 0.0
4.1667 -1.3333 0.0
4.3333 -1.3333 0.0
4.5 -1.3333 0.0
4.6667 -1.3333 0.0
4.8333 -1.3333 0.0
5 -1.3333 0.0
5.4469 -1.3333 0.0
5.8938 -1.3333 0.0
6.4207 -1.3333 0.0
6.9475 -1.3333 0.0
7.5685 -1.3333 0.0
8.1895 -1.3333 0.0
8.9215 -1.3333 0.0
9.6535 -1.3333 0.0
10.5164 -1.3333 0.0
11.3792 -1.3333 0.0
12.3964 -1.3333 0.0
13.4135 -1.3333 0.0
14.6124 -1.3333 0.0
15.8114 -1.3333 0.0
17.2247 -1.3333 0.0
18.638 -1.3333 0.0
20.3039 -1.3333 0.0
21.9699 -1.3333 0.0
23.9336 -1.3333 0.0
25.8974 -1.3333 0.0
28.2122 -1.3333 0.0
30.527 -1.3333 0.0
33.2556 -1.3333 0.0
35.9843 -1.3333 0.0
39.2007 -1.3333 0.0
42.4171 -1.3333 0.0
46.2086 -1.3333 0.0
50 -1.3333 0.0
0 -1.4667 0.0
0.3333 -1.4667 0.0
0.6667 -1.4667 0.0
1 -1.4667 0.0
1.3333 -1.4667 0.0
1.6667 -1.4667 0.0
2 -1.4667 0.0
2.3333 -1.4667 0.0
2.6667 -1.4667 0.0
3 -1.4667 0.0
3.3333 -1.4667 0.0
3.6667 -1.4667 0.0
4 -1.4667 0.0
4.3333 -1.4667 0.0
4.6667 -1.4667 0.0
5 -1.4667 0.0
5.8938 -1.4667 0.0
6.9475 -1.4667 0.0
8.1895 -1.4667 0.0
9.6535 -1.4667 0.0
11.3792 -1.4667 0.0
13.4135 -1.4667 0.0
15.8114 -1.4667 0.0
18.638 -1.4667 0.0
21.9699 -1.4667 0.0
25.8974 -1.4667 0.0
30.527 -1.4667 0.0
35.9843 -1.4667 0.0
42.4171 -1.4667 0.0
50 -1.4667 0.0
0 -1.6 0.0
0.1667 -1.6 0.0
0.3333 -1.6 0.0
0.5 -1.6 0.0
0.6667 -1.6 0.0
0.8333 -1.6 0.0
1 -1.6 0.0
1.1667 -1.6 0.0
1.3333 -1.6 0.0
1.5 -1.6 0.0
1.6667 -1.6 0.0
1.8333 -1.6 0.0
2 -1.6 0.0
2.1667 -1.6 0.0
2.3333 -1.6 0.0
2.5 -1.6 0.0
2.6667 -1.6 0.0
2.8333 -1.6 0.0
3 -1.6 0.0
3.1667 -1.6 0.0
3.3333 -1.6 0.0
3.5 -1.6 0.0
3.6667 -1.6 0.0
3.8333 -1.6 0.0
4 -1.6 0.0
4.1667 -1.6 0.0
4.3333 -1.6 0.0
4.5 -1.6 0.0
4.6667 -1.6 0.0
4.8333 -1.6 0.0
5 -1.6 0.0
5.4469 -1.6 0.0
5.8938 -1.6 0.0
6.4207 -1.6 0.0
6.9475 -1.6 0.0
7.5685 -1.6 0.0
8.1895 -1.6 0.0
8.9215 -1.6 0.0
9.6535 -1.6 0.0
10.5164 -1.6 0.0
11.3792 -1.6 0.0
12.3964 -1.6 0.0
13.4135 -1.6 0.0
14.6124 -1.6 0.0
15.8114 -1.6 0.0
17.2247 -1.6 0.0
18.638 -1.6 0.0
20.3039 -1.6 0.0
21.9699 -1.6 0.0
23.9336 -1.6 0.0
25.8974 -1.6 0.0
28.2122 -1.6 0.0
30.527 -1.6 0.0
33.2556 -1.6 0.0
35.9843 -1.6 0.0
39.2007 -1.6 0.0
42.4171 -1.6 0.0
46.2086 -1.6 0.0
50 -1.6 0.0
0 -1.7333 0.0
0.3333 -1.7333 0.0
0.6667 -1.7333 0.0
1 -1.7333 0.0
1.3333 -1.7333 0.0
1.6667 -1.7333 0.0
2 -1.7333 0.0
2.3333 -1.7333 0.0
2.6667 -1.7333 0.0
3 -1.7333 0.0
3.3333 -1.7333 0.0
3.6667 -1.7333 0.0
4 -1.7333 0.0
4.3333 -1.7333 0.0
4.6667 -1.7333 0.0
5 -1.7333 0.0
5.8938 -1.7333 0.0
6.9475 -1.7333 0.0
8.1895 -1.7333 0.0
9.6535 -1.7333 0.0
11.3792 -1.7333 0.0
13.4135 -1.7333 0.0
15.8114 -1.7333 0.0
18.638 -1.7333 0.0
21.9699 -1.7333 0.0
25.8974 -1.7333 0.0
30.527 -1.7333 0.0
35.9843 -1.7333 0.0
42.4171 -1.7333 0.0
50 -1.7333 0.0
0 -1.8667 0.0
0.1667 -1.8667 0.0
0.3333 -1.8667 0.0
0.5 -1.8667 0.0
0.6667 -1.8667 0.0
0.8333 -1.8667 0.0
1 -1.8667 0.0
1.1667 -1.8667 0.0
1.3333 -1.8667 0.0
1.5 -1.8667 0.0
1.6667 -1.8667 0.0
1.8333 -1.8667 0.0
2 -1.8667 0.0
2.1667 -1.8667 0.0
2.3333 -1.8667 0.0
2.5 -1.8667 0.0
2.6667 -1.8667 0.0
2.8333 -1.8667 0.0
3 -1.8667 0.0
3.1667 -1.8667 0.0
3.3333 -1.8667 0.0
3.5 -1.8667 0.0
3.6667 -1.8667 0.0
3.8333 -1.8667 0.0
4 -1.8667 0.0
4.1667 -1.8667 0.0
4.3333 -1.8667 0.0
4.5 -1.8667 0.0
4.6667 -1.8667 0.0
4.8333 -1.8667 0.0
5 -1.8667 0.0
5.4469 -1.8667 0.0
5.8938 -1.8667 0.0
6.4207 -1.8667 0.0
6.9475 -1.8667 0.0
7.5685 -1.8667 0.0
8.1895 -1.8667 0.0
8.9215 -1.8667 0.0
9.6535 -1.8667 0.0
10.5164 -1.8667 0.0
11.3792 -1.8667 0.0
12.3964 -1.8667 0.0
13.4135 -1.8667 0.0
14.6124 -1.8667 0.0
15.8114 -1.8667 0.0
17.2247 -1.8667 0.0
18.638 -1.8667 0.0
20.3039 -1.8667 0.0
21.9699 -1.8667 0.0
23.9336 -1.8667 0.0
25.8974 -1.8667 0.0
28.2122 -1.8667 0.0
30.527 -1.8667 0.0
33.2556 -1.8667 0.0
35.9843 -1.8667 0.0
39.2007 -1.8667 0.0
42.4171 -1.8667 0.0
46.2086 -1.8667 0.0
50 -1.8667 0.0
0 -2 0.0
0.3333 -2 0.0
0.6667 -2 0.0
1 -2 0.0
1.3333 -2 0.0
1.6667 -2 0.0
2 -2 0.0
2.3333 -2 0.0
2.6667 -2 0.0
3 -2 0.0
3.3333 -2 0.0
3.6667 -2 0.0
4 -2 0.0
4.3333 -2 0.0
4.6667 -2 0.0
5 -2 0.0
5.8938 -2 0.0
6.9475 -2 0.0
8.1895 -2 0.0
9.6535 -2 0.0
11.3792 -2 0.0
13.4135 -2 0.0
15.8114 -2 0.0
18.638 -2 0.0
21.9699 -2 0.0
25.8974 -2 0.0
30.527 -2 0.0
35.9843 -2 0.0
42.4171 -2 0.0
50 -2 0.0
0 -2.1333 0.0
0.1667 -2.1333 0.0
0.3333 -2.1333 0.0
0.5 -2.1333 0.0
0.6667 -2.1333 0.0
0.8333 -2.1333 0.0
1 -2.1333 0.0
1.1667 -2.1333 0.0
1.3333 -2.1333 0.0
1.5 -2.1333 0.0
1.6667 -2.1333 0.0
1.8333 -2.1333 0.0
2 -2.1333 0.0
2.1667 -2.1333 0.0
2.3333 -2.1333 0.0
2.5 -2.1333 0.0
2.6667 -2.1333 0.0
2.8333 -2.1333 0.0
3 -2.1333 0.0
3.1667 -2.1333 0.0
3.3333 -2.1333 0.0
3.5 -2.1333 0.0
3.6667 -2.1333 0.0
3.8333 -2.1333 0.0
4 -2.1333 0.0
4.1667 -2.1333 0.0
4.3333 -2.1333 0.0
4.5 -2.1333 0.0
4.6667 -2.1333 0.0
4.8333 -2.1333 0.0
5 -2.1333 0.0
5.4469 -2.1333 0.0
5.8938 -2.1333 0.0
6.4207 -2.1333 0.0
6.9475 -2.1333 0.0
7.5685 -2.1333 0.0
8.1895 -2.1333 0.0
8.9215 -2.1333 0.0
9.6535 -2.1333 0.0
10.5164 -2.1333 0.0
11.3792 -2.1333 0.0
12.3964 -2.1333 0.0
13.4135 -2.1333 0.0
14.6124 -2.1333 0.0
15.8114 -2.1333 0.0
17.2247 -2.1333 0.0
18.638 -2.1333 0.0
20.3039 -2.1333 0.0
21.9699 -2.1333 0.0
23.9336 -2.1333 0.0
25.8974 -2.1333 0.0
28.2122 -2.1333 0.0
30.527 -2.1333 0.0
33.2556 -2.1333 0.0
35.9843 -2.1333 0.0
39.2007 -2.1333 0.0
42.4171 -2.1333 0.0
46.2086 -2.1333 0.0
50 -2.1333 0.0
0 -2.2667 0.0
0.3333 -2.2667 0.0
0.6667 -2.2667 0.0
1 -2.2667 0.0
1.3333 -2.2667 0.0
1.6667 -2.2667 0.0
2 -2.2667 0.0
2.3333 -2.2667 0.0
2.6667 -2.2667 0.0
3 -2.2667 0.0
3.3333 -2.2667 0.0
3.6667 -2.2667 0.0
4 -2.2667 0.0
4.3333 -2.2667 0.0
4.6667 -2.2667 0.0
5 -2.2667 0.0
5.8938 -2.2667 0.0
6.9475 -2.2667 0.0
8.1895 -2.2667 0.0
9.6535 -2.2667 0.0
11.3792 -2.2667 0.0
13.4135 -2.2667 0.0
15.8114 -2.2667 0.0
18.638 -2.2667 0.0
21.9699 -2.2667 0.0
25.8974 -2.2667 0.0
30.527 -2.2667 0.0
35.9843 -2.2667 0.0
42.4171 -2.2667 0.0
50 -2.2667 0.0
0 -2.4 0.0
0.1667 -2.4 0.0
0.3333 -2.4 0.0
0.5 -2.4 0.0
0.6667 -2.4 0.0
0.8333 -2.4 0.0
1 -2.4 0.0
1.1667 -2.4 0.0
1.3333 -2.4 0.0
1.5 -2.4 0.0
1.6667 -2.4 0.0
1.8333 -2.4 0.0
2 -2.4 0.0
2.1667 -2.4 0.0
2.3333 -2.4 0.0
2.5 -2.4 0.0
2.6667 -2.4 0.0
2.8333 -2.4 0.0
3 -2.4 0.0
3.1667 -2.4 0.0
3.3333 -2.4 0.0
3.5 -2.4 0.0
3.6667 -2.4 0.0
3.8333 -2.4 0.0
4 -2.4 0.0
4.1667 -2.4 0.0
4.3333 -2.4 0.0
4.5 -2.4 0.0
4.6667 -2.4 0.0
4.8333 -2.4 0.0
5 -2.4 0.0
5.4469 -2.4 0.0
5.8938 -2.4 0.0
6.4207 -2.4 0.0
6.9475 -2.4 0.0
7.5685 -2.4 0.0
8.1895 -2.4 0.0
8.9215 -2.4 0.0
9.6535 -2.4 0.0
10.5164 -2.4 0.0
11.3792 -2.4 0.0
12.3964 -2.4 0.0
13.4135 -2.4 0.0
14.6124 -2.4 0.0
15.8114 -2.4 0.0
17.2247 -2.4 0.0
18.638 -2.4 0.0
20.3039 -2.4 0.0
21.9699 -2.4 0.0
23.9336 -2.4 0.0
25.8974 -2.4 0.0
28.2122 -2.4 0.0
30.527 -2.4 0.0
33.2556 -2.4 0.0
35.9843 -2.4 0.0
39.2007 -2.4 0.0
42.4171 -2.4 0.0
46.2086 -2.4 0.0
50 -2.4 0.0
0 -2.5333 0.0
0.3333 -2.5333 0.0
0.6667 -2.5333 0.0
1 -2.5333 0.0
1.3333 -2.5333 0.0
1.6667 -2.5333 0.0
2 -2.5333 0.0
2.3333 -2.5333 0.0
2.6667 -2.5333 0.0
3 -2.5333 0.0
3.3333 -2.5333 0.0
3.6667 -2.5333 0.0
4 -2.5333 0.0
4.3333 -2.5333 0.0
4.6667 -2.5333 0.0
5 -2.5333 0.0
5.8938 -2.5333 0.0
6.9475 -2.5333 0.0
8.1895 -2.5333 0.0
9.6535 -2.5333 0.0
11.3792 -2.5333 0.0
13.4135 -2.5333 0.0
15.8114 -2.5333 0.0
18.638 -2.5333 0.0
21.9699 -2.5333 0.0
25.8974 -2.5333 0.0
30.527 -2.5333 0.0
35.9843 -2.5333 0.0
42.4171 -2.5333 0.0
50 -2.5333 0.0
0 -2.6667 0.0
0.1667 -2.6667 0.0
0.3333 -2.6667 0.0
0.5 -2.6667 0.0
0.6667 -2.6667 0.0
0.8333 -2.6667 0.0
1 -2.6667 0.0
1.1667 -2.6667 0.0
1.3333 -2.6667 0.0
1.5 -2.6667 0.0
1.6667 -2.6667 0.0
1.8333 -2.6667 0.0
2 -2.6667 0.0
2.1667 -2.6667 0.0
2.3333 -2.6667 0.0
2.5 -2.6667 0.0
2.6667 -2.6667 0.0
2.8333 -2.6667 0.0
3 -2.6667 0.0
3.1667 -2.6667 0.0
3.3333 -2.6667 0.0
3.5 -2.6667 0.0
3.6667 -2.6667 0.0
3.8333 -2.6667 0.0
4 -2.6667 0.0
4.1667 -2.6667 0.0
4.3333 -2.6667 0.0
4.5 -2.6667 0.0
4.6667 -2.6667 0.0
4.8333 -2.6667 0.0
5 -2.6667 0.0
5.4469 -2.6667 0.0
5.8938 -2.6667 0.0
6.4207 -2.6667 0.0
6.9475 -2.6667 0.0
7.5685 -2.6667 0.0
8.1895 -2.6667 0.0
8.9215 -2.6667 0.0
9.6535 -2.6667 0.0
10.5164 -2.6667 0.0
11.3792 -2.6667 0.0
12.3964 -2.6667 0.0
13.4135 -2.6667 0.0
14.6124 -2.6667 0.0
15.8114 -2.6667 0.0
17.2247 -2.6667 0.0
18.638 -2.6667 0.0
20.3039 -2.6667 0.0
21.9699 -2.6667 0.0
23.9336 -2.6667 0.0
25.8974 -2.6667 0.0
28.2122 -2.6667 0.0
30.527 -2.6667 0.0
33.2556 -2.6667 0.0
35.9843 -2.6667 0.0
39.2007 -2.6667 0.0
42.4171 -2.6667 0.0
46.2086 -2.6667 0.0
50 -2.6667 0.0
0 -2.8 0.0
0.3333 -2.8 0.0
0.6667 -2.8 0.0
1 -2.8 0.0
1.3333 -2.8 0.0
1.6667 -2.8 0.0
2 -2.8 0.0
2.3333 -2.8 0.0
2.6667 -2.8 0.0
3 -2.8 0.0
3.3333 -2.8 0.0
3.6667 -2.8 0.0
4 -2.8 0.0
4.3333 -2.8 0.0
4.6667 -2.8 0.0
5 -2.8 0.0
5.8938 -2.8 0.0
6.9475 -2.8 0.0
8.1895 -2.8 0.0
9.6535 -2.8 0.0
11.3792 -2.8 0.0
13.4135 -2.8 0.0
15.8114 -2.8 0.0
18.638 -2.8 0.0
21.9699 -2.8 0.0
25.8974 -2.8 0.0
30.527 -2.8 0.0
35.9843 -2.8 0.0
42.4171 -2.8 0.0
50 -2.8 0.0
0 -2.9333 0.0
0.1667 -2.9333 0.0
0.3333 -2.9333 0.0
0.5 -2.9333 0.0
0.6667 -2.9333 0.0
0.8333 -2.9333 0.0
1 -2.9333 0.0
1.1667 -2.9333 0.0
1.3333 -2.9333 0.0
1.5 -2.9333 0.0
1.6667 -2.9333 0.0
1.8333 -2.9333 0.0
2 -2.9333 0.0
2.1667 -2.9333 0.0
2.3333 -2.9333 0.0
2.5 -2.9333 0.0
2.6667 -2.9333 0.0
2.8333 -2.9333 0.0
3 -2.9333 0.0
3.1667 -2.9333 0.0
3.3333 -2.9333 0.0
3.5 -2.9333 0.0
3.6667 -2.9333 0.0
3.8333 -2.9333 0.0
4 -2.9333 0.0
4.1667 -2.9333 0.0
4.3333 -2.9333 0.0
4.5 -2.9333 0.0
4.6667 -2.9333 0.0
4.8333 -2.9333 0.0
5 -2.9333 0.0
5.4469 -2.9333 0.0
5.8938 -2.9333 0.0
6.4207 -2.9333 0.0
6.9475 -2.9333 0.0
7.5685 -2.9333 0.0
8.1895 -2.9333 0.0
8.9215 -2.9333 0.0
9.6535 -2.9333 0.0
10.5164 -2.9333 0.0
11.3792 -2.9333 0.0
12.3964 -2.9333 0.0
13.4135 -2.9333 0.0
14.6124 -2.9333 0.0
15.8114 -2.9333 0.0
17.2247 -2.9333 0.0
18.638 -2.9333 0.0
20.3039 -2.9333 0.0
21.9699 -2.9333 0.0
23.9336 -2.9333 0.0
25.8974 -2.9333 0.0
28.2122 -2.9333 0.0
30.527 -2.9333 0.0
33.2556 -2.9333 0.0
35.9843 -2.9333 0.0
39.2007 -2.9333 0.0
42.4171 -2.9333 0.0
46.2086 -2.9333 0.0
50 -2.9333 0.0
0 -3.0667 0.0
0.3333 -3.0667 0.0
0.6667 -3.0667 0.0
1 -3.0667 0.0
1.3333 -3.0667 0.0
1.6667 -3.0667 0.0
2 -3.0667 0.0
2.3333 -3.0667 0.0
2.6667 -3.0667 0.0
3 -3.0667 0.0
3.3333 -3.0667 0.0
3.6667 -3.0667 0.0
4 -3.0667 0.0
4.3333 -3.0667 0.0
4.6667 -3.0667 0.0
5 -3.0667 0.0
5.8938 -3.0667 0.0
6.9475 -3.0667 0.0
8.1895 -3.0667 0.0
9.6535 -3.0667 0.0
11.3792 -3.0667 0.0
13.4135 -3.0667 0.0
15.8114 -3.0667 0.0
18.638 -3.0667 0.0
21.9699 -3.0667 0.0
25.8974 -3.0667 0.0
30.527 -3.0667 0.0
35.9843 -3.0667 0.0
42.4171 -3.0667 0.0
50 -3.0667 0.0
0 -3.2 0.0
0.1667 -3.2 0.0
0.3333 -3.2 0.0
0.5 -3.2 0.0
0.6667 -3.2 0.0
0.8333 -3.2 0.0
1 -3.2 0.0
1.1667 -3.2 0.0
1.3333 -3.2 0.0
1.5 -3.2 0.0
1.6667 -3.2 0.0
1.8333 -3.2 0.0
2 -3.2 0.0
2.1667 -3.2 0.0
2.3333 -3.2 0.0
2.5 -3.2 0.0
2.6667 -3.2 0.0
2.8333 -3.2 0.0
3 -3.2 0.0
3.1667 -3.2 0.0
3.3333 -3.2 0.0
3.5 -3.2 0.0
3.6667 -3.2 0.0
3.8333 -3.2 0.0
4 -3.2 0.0
4.1667 -3.2 0.0
4.3333 -3.2 0.0
4.5 -3.2 0.0
4.6667 -3.2 0.0
4.8333 -3.2 0.0
5 -3.2 0.0
5.4469 -3.2 0.0
5.8938 -3.2 0.0
6.4207 -3.2 0.0
6.9475 -3.2 0.0
7.5685 -3.2 0.0
8.1895 -3.2 0.0
8.9215 -3.2 0.0
9.6535 -3.2 0.0
10.5164 -3.2 0.0
11.3792 -3.2 0.0
12.3964 -3.2 0.0
13.4135 -3.2 0.0
14.6124 -3.2 0.0
15.8114 -3.2 0.0
17.2247 -3.2 0.0
18.638 -3.2 0.0
20.3039 -3.2 0.0
21.9699 -3.2 0.0
23.9336 -3.2 0.0
25.8974 -3.2 0.0
28.2122 -3.2 0.0
30.527 -3.2 0.0
33.2556 -3.2 0.0
35.9843 -3.2 0.0
39.2007 -3.2 0.0
42.4171 -3.2 0.0
46.2086 -3.2 0.0
50 -3.2 0.0
0 -3.3333 0.0
0.3333 -3.3333 0.0
0.6667 -3.3333 0.0
1 -3.3333 0.0
1.3333 -3.3333 0.0
1.6667 -3.3333 0.0
2 -3.3333 0.0
2.3333 -3.3333 0.0
2.6667 -3.3333 0.0
3 -3.3333 0.0
3.3333 -3.3333 0.0
3.6667 -3.3333 0.0
4 -3.3333 0.0
4.3333 -3.3333 0.0
4.6667 -3.3333 0.0
5 -3.3333 0.0
5.8938 -3.3333 0.0
6.9475 -3.3333 0.0
8.1895 -3.3333 0.0
9.6535 -3.3333 0.0
11.3792 -3.3333 0.0
13.4135 -3.3333 0.0
15.8114 -3.3333 0.0
18.638 -3.3333 0.0
21.9699 -3.3333 0.0
25.8974 -3.3333 0.0
30.527 -3.3333 0.0
35.9843 -3.3333 0.0
42.4171 -3.3333 0.0
50 -3.3333 0.0
0 -3.4667 0.0
0.1667 -3.4667 0.0
0.3333 -3.4667 0.0
0.5 -3.4667 0.0
0.6667 -3.4667 0.0
0.8333 -3.4667 0.0
1 -3.4667 0.0
1.1667 -3.4667 0.0
1.3333 -3.4667 0.0
1.5 -3.4667 0.0
1.6667 -3.4667 0.0
1.8333 -3.4667 0.0
2 -3.4667 0.0
2.1667 -3.4667 0.0
2.3333 -3.4667 0.0
2.5 -3.4667 0.0
2.6667 -3.4667 0.0
2.8333 -3.4667 0.0
3 -3.4667 0.0
3.1667 -3.4667 0.0
3.3333 -3.4667 0.0
3.5 -3.4667 0.0
3.6667 -3.4667 0.0
3.8333 -3.4667 0.0
4 -3.4667 0.0
4.1667 -3.4667 0.0
4.3333 -3.4667 0.0
4.5 -3.4667 0.0
4.6667 -3.4667 0.0
4.8333 -3.4667 0.0
5 -3.4667 0.0
5.4469 -3.4667 0.0
5.8938 -3.4667 0.0
6.4207 -3.4667 0.0
6.9475 -3.4667 0.0
7.5685 -3.4667 0.0
8.1895 -3.4667 0.0
8.9215 -3.4667 0.0
9.6535 -3.4667 0.0
10.5164 -3.4667 0.0
11.3792 -3.4667 0.0
12.3964 -3.4667 0.0
13.4135 -3.4667 0.0
14.6124 -3.4667 0.0
15.8114 -3.4667 0.0
17.2247 -3.4667 0.0
18.638 -3.4667 0.0
20.3039 -3.4667 0.0
21.9699 -3.4667 0.0
23.9336 -3.4667 0.0
25.8974 -3.4667 0.0
28.2122 -3.4667 0.0
30.527 -3.4667 0.0
33.2556 -3.4667 0.0
35.9843 -3.4667 0.0
39.2007 -3.4667 0.0
42.4171 -3.4667 0.0
46.2086 -3.4667 0.0
50 -3.4667 0.0
0 -3.6 0.0
0.3333 -3.6 0.0
0.6667 -3.6 0.0
1 -3.6 0.0
1.3333 -3.6 0.0
1.6667 -3.6 0.0
2 -3.6 0.0
2.3333 -3.6 0.0
2.6667 -3.6 0.0
3 -3.6 0.0
3.3333 -3.6 0.0
3.6667 -3.6 0.0
4 -3.6 0.0
4.3333 -3.6 0.0
4.6667 -3.6 0.0
5 -3.6 0.0
5.8938 -3.6 0.0
6.9475 -3.6 0.0
8.1895 -3.6 0.0
9.6535 -3.6 0.0
11.3792 -3.6 0.0
13.4135 -3.6 0.0
15.8114 -3.6 0.0
18.638 -3.6 0.0
21.9699 -3.6 0.0
25.8974 -3.6 0.0
30.527 -3.6 0.0
35.9843 -3.6 0.0
42.4171 -3.6 0.0
50 -3.6 0.0
0 -3.7333 0.0
0.1667 -3.7333 0.0
0.3333 -3.7333 0.0
0.5 -3.7333 0.0
0.6667 -3.7333 0.0
0.8333 -3.7333 0.0
1 -3.7333 0.0
1.1667 -3.7333 0.0
1.3333 -3.7333 0.0
1.5 -3.7333 0.0
1.6667 -3.7333 0.0
1.8333 -3.7333 0.0
2 -3.7333 0.0
2.1667 -3.7333 0.0
2.3333 -3.7333 0.0
2.5 -3.7333 0.0
2.6667 -3.7333 0.0
2.8333 -3.7333 0.0
3 -3.7333 0.0
3.1667 -3.7333 0.0
3.3333 -3.7333 0.0
3.5 -3.7333 0.0
3.6667 -3.7333 0.0
3.8333 -3.7333 0.0
4 -3.7333 0.0
4.1667 -3.7333 0.0
4.3333 -3.7333 0.0
4.5 -3.7333 0.0
4.6667 -3.7333 0.0
4.8333 -3.7333 0.0
5 -3.7333 0.0
5.4469 -3.7333 0.0
5.8938 -3.7333 0.0
6.4207 -3.7333 0.0
6.9475 -3.7333 0.0
7.5685 -3.7333 0.0
8.1895 -3.7333 0.0
8.9215 -3.7333 0.0
9.6535 -3.7333 0.0
10.5164 -3.7333 0.0
11.3792 -3.7333 0.0
12.3964 -3.7333 0.0
13.4135 -3.7333 0.0
14.6124 -3.7333 0.0
15.8114 -3.7333 0.0
17.2247 -3.7333 0.0
18.638 -3.7333 0.0
20.3039 -3.7333 0.0
21.9699 -3.7333 0.0
23.9336 -3.7333 0.0
25.8974 -3.7333 0.0
28.2122 -3.7333 0.0
30.527 -3.7333 0.0
33.2556 -3.7333 0.0
35.9843 -3.7333 0.0
39.2007 -3.7333 0.0
42.4171 -3.7333 0.0
46.2086 -3.7333 0.0
50 -3.7333 0.0
0 -3.8667 0.0
0.3333 -3.8667 0.0
0.6667 -3.8667 0.0
1 -3.8667 0.0
1.3333 -3.8667 0.0
1.6667 -3.8667 0.0
2 -3.8667 0.0
2.3333 -3.8667 0.0
2.6667 -3.8667 0.0
3 -3.8667 0.0
3.3333 -3.8667 0.0
3.6667 -3.8667 0.0
4 -3.8667 0.0
4.3333 -3.8667 0.0
4.6667 -3.8667 0.0
5 -3.8667 0.0
5.8938 -3.8667 0.0
6.9475 -3.8667 0.0
8.1895 -3.8667 0.0
9.6535 -3.8667 0.0
11.3792 -3.8667 0.0
13.4135 -3.8667 0.0
15.8114 -3.8667 0.0
18.638 -3.8667 0.0
21.9699 -3.8667 0.0
25.8974 -3.8667 0.0
30.527 -3.8667 0.0
35.9843 -3.8667 0.0
42.4171 -3.8667 0.0
50 -3.8667 0.0
0 -4 0.0
0.1667 -4 0.0
0.3333 -4 0.0
0.5 -4 0.0
0.6667 -4 0.0
0.8333 -4 0.0
1 -4 0.0
1.1667 -4 0.0
1.3333 -4 0.0
1.5 -4 0.0
1.6667 -4 0.0
1.8333 -4 0.0
2 -4 0.0
2.1667 -4 0.0
2.3333 -4 0.0
2.5 -4 0.0
2.6667 -4 0.0
2.8333 -4 0.0
3 -4 0.0
3.1667 -4 0.0
3.3333 -4 0.0
3.5 -4 0.0
3.6667 -4 0.0
3.8333 -4 0.0
4 -4 0.0
4.1667 -4 0.0
4.3333 -4 0.0
4.5 -4 0.0
4.6667 -4 0.0
4.8333 -4 0.0
5 -4 0.0
5.4469 -4 0.0
5.8938 -4 0.0
6.4207 -4 0.0
6.9475 -4 0.0
7.5685 -4 0.0
8.1895 -4 0.0
8.9215 -4 0.0
9.6535 -4 0.0
10.5164 -4 0.0
11.3792 -4 0.0
12.3964 -4 0.0
13.4135 -4 0.0
14.6124 -4 0.0
15.8114 -4 0.0
17.2247 -4 0.0
18.638 -4 0.0
20.3039 -4 0.0
21.9699 -4 0.0
23.9336 -4 0.0
25.8974 -4 0.0
28.2122 -4 0.0
30.527 -4 0.0
33.2556 -4 0.0
35.9843 -4 0.0
39.2007 -4 0.0
42.4171 -4 0.0
46.2086 -4 0.0
50 -4 0.0
0 -4.3667 0.0
0.3333 -4.3667 0.0
0.6667 -4.3667 0.0
1 -4.3667 0.0
1.3333 -4.3667 0.0
1.6667 -4.3667 0.0
2 -4.3667 0.0
2.3333 -4.3667 0.0
2.6667 -4.3667 0.0
3 -4.3667 0.0
3.3333 -4.3667 0.0
3.6667 -4.3667 0.0
4 -4.3667 0.0
4.3333 -4.3667 0.0
4.6667 -4.3667 0.0
5 -4.3667 0.0
5.8938 -4.3667 0.0
6.9475 -4.3667 0.0
8.1895 -4.3667 0.0
9.6535 -4.3667 0.0
11.3792 -4.3667 0.0
13.4135 -4.3667 0.0
15.8114 -4.3667 0.0
18.638 -4.3667 0.0
21.9699 -4.3667 0.0
25.8974 -4.3667 0.0
30.527 -4.3667 0.0
35.9843 -4.3667 0.0
42.4171 -4.3667 0.0
50 -4.3667 0.0
0 -4.7333 0.0
0.1667 -4.7333 0.0
0.3333 -4.7333 0.0
0.5 -4.7333 0.0
0.6667 -4.7333 0.0
0.8333 -4.7333 0.0
1 -4.7333 0.0
1.1667 -4.7333 0.0
1.3333 -4.7333 0.0
1.5 -4.7333 0.0
1.6667 -4.7333 0.0
1.8333 -4.7333 0.0
2 -4.7333 0.0
2.1667 -4.7333 0.0
2.3333 -4.7333 0.0
2.5 -4.7333 0.0
2.6667 -4.7333 0.0
2.8333 -4.7333 0.0
3 -4.7333 0.0
3.1667 -4.7333 0.0
3.3333 -4.7333 0.0
3.5 -4.7333 0.0
3.6667 -4.7333 0.0
3.8333 -4.7333 0.0
4 -4.7333 0.0
4.1667 -4.7333 0.0
4.3333 -4.7333 0.0
4.5 -4.7333 0.0
4.6667 -4.7333 0.0
4.8333 -4.7333 0.0
5 -4.7333 0.0
5.4469 -4.7333 0.0
5.8938 -4.7333 0.0
6.4207 -4.7333 0.0
6.9475 -4.7333 0.0
7.5685 -4.7333 0.0
8.1895 -4.7333 0.0
8.9215 -4.7333 0.0
9.6535 -4.7333 0.0
10.5164 -4.7333 0.0
11.3792 -4.7333 0.0
12.3964 -4.7333 0.0
13.4135 -4.7333 0.0
14.6124 -4.7333 0.0
15.8114 -4.7333 0.0
17.2247 -4.7333 0.0
18.638 -4.7333 0.0
20.3039 -4.7333 0.0
21.9699 -4.7333 0.0
23.9336 -4.7333 0.0
25.8974 -4.7333 0.0
28.2122 -4.7333 0.0
30.527 -4.7333 0.0
33.2556 -4.7333 0.0
35.9843 -4.7333 0.0
39.2007 -4.7333 0.0
42.4171 -4.7333 0.0
46.2086 -4.7333 0.0
50 -4.7333 0.0
0 -5.1 0.0
0.3333 -5.1 0.0
0.6667 -5.1 0.0
1 -5.1 0.0
1.3333 -5.1 0.0
1.6667 -5.1 0.0
2 -5.1 0.0
2.3333 -5.1 0.0
2.6667 -5.1 0.0
3 -5.1 0.0
3.3333 -5.1 0.0
3.6667 -5.1 0.0
4 -5.1 0.0
4.3333 -5.1 0.0
4.6667 -5.1 0.0
5 -5.1 0.0
5.8938 -5.1 0.0
6.9475 -5.1 0.0
8.1895 -5.1 0.0
9.6535 -5.1 0.0
11.3792 -5.1 0.0
13.4135 -5.1 0.0
15.8114 -5.1 0.0
18.638 -5.1 0.0
21.9699 -5.1 0.0
25.8974 -5.1 0.0
30.527 -5.1 0.0
35.9843 -5.1 0.0
42.4171 -5.1 0.0
50 -5.1 0.0
0 -5.4667 0.0
0.1667 -5.4667 0.0
0.3333 -5.4667 0.0
0.5 -5.4667 0.0
0.6667 -5.4667 0.0
0.8333 -5.4667 0.0
1 -5.4667 0.0
1.1667 -5.4667 0.0
1.3333 -5.4667 0.0
1.5 -5.4667 0.0
1.6667 -5.4667 0.0
1.8333 -5.4667 0.0
2 -5.4667 0.0
2.1667 -5.4667 0.0
2.3333 -5.4667 0.0
2.5 -5.4667 0.0
2.6667 -5.4667 0.0
2.8333 -5.4667 0.0
3 -5.4667 0.0
3.1667 -5.4667 0.0
3.3333 -5.4667 0.0
3.5 -5.4667 0.0
3.6667 -5.4667 0.0
3.8333 -5.4667 0.0
4 -5.4667 0.0
4.1667 -5.4667 0.0
4.3333 -5.4667 0.0
4.5 -5.4667 0.0
4.6667 -5.4667 0.0
4.8333 -5.4667 0.0
5 -5.4667 0.0
5.4469 -5.4667 0.0
5.8938 -5.4667 0.0
6.4207 -5.4667 0.0
6.9475 -5.4667 0.0
7.5685 -5.4667 0.0
8.1895 -5.4667 0.0
8.9215 -5.4667 0.0
9.6535 -5.4667 0.0
10.5164 -5.4667 0.0
11.3792 -5.4667 0.0
12.3964 -5.4667 0.0
13.4135 -5.4667 0.0
14.6124 -5.4667 0.0
15.8114 -5.4667 0.0
17.2247 -5.4667 0.0
18.638 -5.4667 0.0
20.3039 -5.4667 0.0
21.9699 -5.4667 0.0
23.9336 -5.4667 0.0
25.8974 -5.4667 0.0
28.2122 -5.4667 0.0
30.527 -5.4667 0.0
33.2556 -5.4667 0.0
35.9843 -5.4667 0.0
39.2007 -5.4667 0.0
42.4171 -5.4667 0.0
46.2086 -5.4667 0.0
50 -5.4667 0.0
0 -5.8333 0.0
0.3333 -5.8333 0.0
0.6667 -5.8333 0.0
1 -5.8333 0.0
1.3333 -5.8333 0.0
1.6667 -5.8333 0.0
2 -5.8333 0.0
2.3333 -5.8333 0.0
2.6667 -5.8333 0.0
3 -5.8333 0.0
3.3333 -5.8333 0.0
3.6667 -5.8333 0.0
4 -5.8333 0.0
4.3333 -5.8333 0.0
4.6667 -5.8333 0.0
5 -5.8333 0.0
5.8938 -5.8333 0.0
6.9475 -5.8333 0.0
8.1895 -5.8333 0.0
9.6535 -5.8333 0.0
11.3792 -5.8333 0.0
13.4135 -5.8333 0.0
15.8114 -5.8333 0.0
18.638 -5.8333 0.0
21.9699 -5.8333 0.0
25.8974 -5.8333 0.0
30.527 -5.8333 0.0
35.9843 -5.8333 0.0
42.4171 -5.8333 0.0
50 -5.8333 0.0
0 -6.2 0.0
0.1667 -6.2 0.0
0.3333 -6.2 0.0
0.5 -6.2 0.0
0.6667 -6.2 0.0
0.8333 -6.2 0.0
1 -6.2 0.0
1.1667 -6.2 0.0
1.3333 -6.2 0.0
1.5 -6.2 0.0
1.6667 -6.2 0.0
1.8333 -6.2 0.0
2 -6.2 0.0
2.1667 -6.2 0.0
2.3333 -6.2 0.0
2.5 -6.2 0.0
2.6667 -6.2 0.0
2.8333 -6.2 0.0
3 -6.2 0.0
3.1667 -6.2 0.0
3.3333 -6.2 0.0
3.5 -6.2 0.0
3.6667 -6.2 0.0
3.8333 -6.2 0.0
4 -6.2 0.0
4.1667 -6.2 0.0
4.3333 -6.2 0.0
4.5 -6.2 0.0
4.6667 -6.2 0.0
4.8333 -6.2 0.0
5 -6.2 0.0
5.4469 -6.2 0.0
5.8938 -6.2 0.0
6.4207 -6.2 0.0
6.9475 -6.2 0.0
7.5685 -6.2 0.0
8.1895 -6.2 0.0
8.9215 -6.2 0.0
9.6535 -6.2 0.0
10.5164 -6.2 0.0
11.3792 -6.2 0.0
12.3964 -6.2 0.0
13.4135 -6.2 0.0
14.6124 -6.2 0.0
15.8114 -6.2 0.0
17.2247 -6.2 0.0
18.638 -6.2 0.0
20.3039 -6.2 0.0
21.9699 -6.2 0.0
23.9336 -6.2 0.0
25.8974 -6.2 0.0
28.2122 -6.2 0.0
30.527 -6.2 0.0
33.2556 -6.2 0.0
35.9843 -6.2 0.0
39.2007 -6.2 0.0
42.4171 -6.2 0.0
46.2086 -6.2 0.0
50 -6.2 0.0
0 -6.5667 0.0
0.3333 -6.5667 0.0
0.6667 -6.5667 0.0
1 -6.5667 0.0
1.3333 -6.5667 0.0
1.6667 -6.5667 0.0
2 -6.5667 0.0
2.3333 -6.5667 0.0
2.6667 -6.5667 0.0
3 -6.5667 0.0
3.3333 -6.5667 0.0
3.6667 -6.5667 0.0
4 -6.5667 0.0
4.3333 -6.5667 0.0
4.6667 -6.5667 0.0
5 -6.5667 0.0
5.8938 -6.5667 0.0
6.9475 -6.5667 0.0
8.1895 -6.5667 0.0
9.6535 -6.5667 0.0
11.3792 -6.5667 0.0
13.4135 -6.5667 0.0
15.8114 -6.5667 0.0
18.638 -6.5667 0.0
21.9699 -6.5667 0.0
25.8974 -6.5667 0.0
30.527 -6.5667 0.0
35.9843 -6.5667 0.0
42.4171 -6.5667 0.0
50 -6.5667 0.0
0 -6.9333 0.0
0.1667 -6.9333 0.0
0.3333 -6.9333 0.0
0.5 -6.9333 0.0
0.6667 -6.9333 0.0
0.8333 -6.9333 0.0
1 -6.9333 0.0
1.1667 -6.9333 0.0
1.3333 -6.9333 0.0
1.5 -6.9333 0.0
1.6667 -6.9333 0.0
1.8333 -6.9333 0.0
2 -6.9333 0.0
2.1667 -6.9333 0.0
2.3333 -6.9333 0.0
2.5 -6.9333 0.0
2.6667 -6.9333 0.0
2.8333 -6.9333 0.0
3 -6.9333 0.0
3.1667 -6.9333 0.0
3.3333 -6.9333 0.0
3.5 -6.9333 0.0
3.6667 -6.9333 0.0
3.8333 -6.9333 0.0
4 -6.9333 0.0
4.1667 -6.9333 0.0
4.3333 -6.9333 0.0
4.5 -6.9333 0.0
4.6667 -6.9333 0.0
4.8333 -6.9333 0.0
5 -6.9333 0.0
5.4469 -6.9333 0.0
5.8938 -6.9333 0.0
6.4207 -6.9333 0.0
6.9475 -6.9333 0.0
7.5685 -6.9333 0.0
8.1895 -6.9333 0.0
8.9215 -6.9333 0.0
9.6535 -6.9333 0.0
10.5164 -6.9333 0.0
11.3792 -6.9333 0.0
12.3964 -6.9333 0.0
13.4135 -6.9333 0.0
14.6124 -6.9333 0.0
15.8114 -6.9333 0.0
17.2247 -6.9333 0.0
18.638 -6.9333 0.0
20.3039 -6.9333 0.0
21.9699 -6.9333 0.0
23.9336 -6.9333 0.0
25.8974 -6.9333 0.0
28.2122 -6.9333 0.0
30.527 -6.9333 0.0
33.2556 -6.9333 0.0
35.9843 -6.9333 0.0
39.2007 -6.9333 0.0
42.4171 -6.9333 0.0
46.2086 -6.9333 0.0
50 -6.9333 0.0
0 -7.3 0.0
0.3333 -7.3 0.0
0.6667 -7.3 0.0
1 -7.3 0.0
1.3333 -7.3 0.0
1.6667 -7.3 0.0
2 -7.3 0.0
2.3333 -7.3 0.0
2.6667 -7.3 0.0
3 -7.3 0.0
3.3333 -7.3 0.0
3.6667 -7.3 0.0
4 -7.3 0.0
4.3333 -7.3 0.0
4.6667 -7.3 0.0
5 -7.3 0.0
5.8938 -7.3 0.0
6.9475 -7.3 0.0
8.1895 -7.3 0.0
9.6535 -7.3 0.0
11.3792 -7.3 0.0
13.4135 -7.3 0.0
15.8114 -7.3 0.0
18.638 -7.3 0.0
21.9699 -7.3 0.0
25.8974 -7.3 0.0
30.527 -7.3 0.0
35.9843 -7.3 0.0
42.4171 -7.3 0.0
50 -7.3 0.0
0 -7.6667 0.0
0.1667 -7.6667 0.0
0.3333 -7.6667 0.0
0.5 -7.6667 0.0
0.6667 -7.6667 0.0
0.8333 -7.6667 0.0
1 -7.6667 0.0
1.1667 -7.6667 0.0
1.3333 -7.6667 0.0
1.5 -7.6667 0.0
1.6667 -7.6667 0.0
1.8333 -7.6667 0.0
2 -7.6667 0.0
2.1667 -7.6667 0.0
2.3333 -7.6667 0.0
2.5 -7.6667 0.0
2.6667 -7.6667 0.0
2.8333 -7.6667 0.0
3 -7.6667 0.0
3.1667 -7.6667 0.0
3.3333 -7.6667 0.0
3.5 -7.6667 0.0
3.6667 -7.6667 0.0
3.8333 -7.6667 0.0
4 -7.6667 0.0
4.1667 -7.6667 0.0
4.3333 -7.6667 0.0
4.5 -7.6667 0.0
4.6667 -7.6667 0.0
4.8333 -7.6667 0.0
5 -7.6667 0.0
5.4469 -7.6667 0.0
5.8938 -7.6667 0.0
6.4207 -7.6667 0.0
6.9475 -7.6667 0.0
7.5685 -7.6667 0.0
8.1895 -7.6667 0.0
8.9215 -7.6667 0.0
9.6535 -7.6667 0.0
10.5164 -7.6667 0.0
11.3792 -7.6667 0.0
12.3964 -7.6667 0.0
13.4135 -7.6667 0.0
14.6124 -7.6667 0.0
15.8114 -7.6667 0.0
17.2247 -7.6667 0.0
18.638 -7.6667 0.0
20.3039 -7.6667 0.0
21.9699 -7.6667 0.0
23.9336 -7.6667 0.0
25.8974 -7.6667 0.0
28.2122 -7.6667 0.0
30.527 -7.6667 0.0
33.2556 -7.6667 0.0
35.9843 -7.6667 0.0
39.2007 -7.6667 0.0
42.4171 -7.6667 0.0
46.2086 -7.6667 0.0
50 -7.6667 0.0
0 -8.0333 0.0
0.3333 -8.0333 0.0
0.6667 -8.0333 0.0
1 -8.0333 0.0
1.3333 -8.0333 0.0
1.6667 -8.0333 0.0
2 -8.0333 0.0
2.3333 -8.0333 0.0
2.6667 -8.0333 0.0
3 -8.0333 0.0
3.3333 -8.0333 0.0
3.6667 -8.0333 0.0
4 -8.0333 0.0
4.3333 -8.0333 0.0
4.6667 -8.0333 0.0
5 -8.0333 0.0
5.8938 -8.0333 0.0
6.9475 -8.0333 0.0
8.1895 -8.0333 0.0
9.6535 -8.0333 0.0
11.3792 -8.0333 0.0
13.4135 -8.0333 0.0
15.8114 -8.0333 0.0
18.638 -8.0333 0.0
21.9699 -8.0333 0.0
25.8974 -8.0333 0.0
30.527 -8.0333 0.0
35.9843 -8.0333 0.0
42.4171 -8.0333 0.0
50 -8.0333 0.0
0 -8.4 0.0
0.1667 -8.4 0.0
0.3333 -8.4 0.0
0.5 -8.4 0.0
0.6667 -8.4 0.0
0.8333 -8.4 0.0
1 -8.4 0.0
1.1667 -8.4 0.0
1.3333 -8.4 0.0
1.5 -8.4 0.0
1.6667 -8.4 0.0
1.8333 -8.4 0.0
2 -8.4 0.0
2.1667 -8.4 0.0
2.3333 -8.4 0.0
2.5 -8.4 0.0
2.6667 -8.4 0.0
2.8333 -8.4 0.0
3 -8.4 0.0
3.1667 -8.4 0.0
3.3333 -8.4 0.0
3.5 -8.4 0.0
3.6667 -8.4 0.0
3.8333 -8.4 0.0
4 -8.4 0.0
4.1667 -8.4 0.0
4.3333 -8.4 0.0
4.5 -8.4 0.0
4.6667 -8.4 0.0
4.8333 -8.4 0.0
5 -8.4 0.0
5.4469 -8.4 0.0
5.8938 -8.4 0.0
6.4207 -8.4 0.0
6.9475 -8.4 0.0
7.5685 -8.4 0.0
8.1895 -8.4 0.0
8.9215 -8.4 0.0
9.6535 -8.4 0.0
10.5164 -8.4 0.0
11.3792 -8.4 0.0
12.3964 -8.4 0.0
13.4135 -8.4 0.0
14.6124 -8.4 0.0
15.8114 -8.4 0.0
17.2247 -8.4 0.0
18.638 -8.4 0.0
20.3039 -8.4 0.0
21.9699 -8.4 0.0
23.9336 -8.4 0.0
25.8974 -8.4 0.0
28.2122 -8.4 0.0
30.527 -8.4 0.0
33.2556 -8.4 0.0
35.9843 -8.4 0.0
39.2007 -8.4 0.0
42.4171 -8.4 0.0
46.2086 -8.4 0.0
50 -8.4 0.0
0 -8.7667 0.0
0.3333 -8.7667 0.0
0.6667 -8.7667 0.0
1 -8.7667 0.0
1.3333 -8.7667 0.0
1.6667 -8.7667 0.0
2 -8.7667 0.0
2.3333 -8.7667 0.0
2.6667 -8.7667 0.0
3 -8.7667 0.0
3.3333 -8.7667 0.0
3.6667 -8.7667 0.0
4 -8.7667 0.0
4.3333 -8.7667 0.0
4.6667 -8.7667 0.0
5 -8.7667 0.0
5.8938 -8.7667 0.0
6.9475 -8.7667 0.0
8.1895 -8.7667 0.0
9.6535 -8.7667 0.0
11.3792 -8.7667 0.0
13.4135 -8.7667 0.0
15.8114 -8.7667 0.0
18.638 -8.7667 0.0
21.9699 -8.7667 0.0
25.8974 -8.7667 0.0
30.527 -8.7667 0.0
35.9843 -8.7667 0.0
42.4171 -8.7667 0.0
50 -8.7667 0.0
0 -9.1333 0.0
0.1667 -9.1333 0.0
0.3333 -9.1333 0.0
0.5 -9.1333 0.0
0.6667 -9.1333 0.0
0.8333 -9.1333 0.0
1 -9.1333 0.0
1.1667 -9.1333 0.0
1.3333 -9.1333 0.0
1.5 -9.1333 0.0
1.6667 -9.1333 0.0
1.8333 -9.1333 0.0
2 -9.1333 0.0
2.1667 -9.1333 0.0
2.3333 -9.1333 0.0
2.5 -9.1333 0.0
2.6667 -9.1333 0.0
2.8333 -9.1333 0.0
3 -9.1333 0.0
3.1667 -9.1333 0.0
3.3333 -9.1333 0.0
3.5 -9.1333 0.0
3.6667 -9.1333 0.0
3.8333 -9.1333 0.0
4 -9.1333 0.0
4.1667 -9.1333 0.0
4.3333 -9.1333 0.0
4.5 -9.1333 0.0
4.6667 -9.1333 0.0
4.8333 -9.1333 0.0
5 -9.1333 0.0
5.4469 -9.1333 0.0
5.8938 -9.1333 0.0
6.4207 -9.1333 0.0
6.9475 -9.1333 0.0
7.5685 -9.1333 0.0
8.1895 -9.1333 0.0
8.9215 -9.1333 0.0
9.6535 -9.1333 0.0
10.5164 -9.1333 0.0
11.3792 -9.1333 0.0
12.3964 -9.1333 0.0
13.4135 -9.1333 0.0
14.6124 -9.1333 0.0
15.8114 -9.1333 0.0
17.2247 -9.1333 0.0
18.638 -9.1333 0.0
20.3039 -9.1333 0.0
21.9699 -9.1333 0.0
23.9336 -9.1333 0.0
25.8974 -9.1333 0.0
28.2122 -9.1333 0.0
30.527 -9.1333 0.0
33.2556 -9.1333 0.0
35.9843 -9.1333 0.0
39.2007 -9.1333 0.0
42.4171 -9.1333 0.0
46.2086 -9.1333 0.0
50 -9.1333 0.0
0 -9.5 0.0
0.3333 -9.5 0.0
0.6667 -9.5 0.0
1 -9.5 0.0
1.3333 -9.5 0.0
1.6667 -9.5 0.0
2 -9.5 0.0
2.3333 -9.5 0.0
2.6667 -9.5 0.0
3 -9.5 0.0
3.3333 -9.5 0.0
3.6667 -9.5 0.0
4 -9.5 0.0
4.3333 -9.5 0.0
4.6667 -9.5 0.0
5 -9.5 0.0
5.8938 -9.5 0.0
6.9475 -9.5 0.0
8.1895 -9.5 0.0
9.6535 -9.5 0.0
11.3792 -9.5 0.0
13.4135 -9.5 0.0
15.8114 -9.5 0.0
18.638 -9.5 0.0
21.9699 -9.5 0.0
25.8974 -9.5 0.0
30.527 -9.5 0.0
35.9843 -9.5 0.0
42.4171 -9.5 0.0
50 -9.5 0.0
0 -9.8667 0.0
0.1667 -9.8667 0.0
0.3333 -9.8667 0.0
0.5 -9.8667 0.0
0.6667 -9.8667 0.0
0.8333 -9.8667 0.0
1 -9.8667 0.0
1.1667 -9.8667 0.0
1.3333 -9.8667 0.0
1.5 -9.8667 0.0
1.6667 -9.8667 0.0
1.8333 -9.8667 0.0
2 -9.8667 0.0
2.1667 -9.8667 0.0
2.3333 -9.8667 0.0
2.5 -9.8667 0.0
2.6667 -9.8667 0.0
2.8333 -9.8667 0.0
3 -9.8667 0.0
3.1667 -9.8667 0.0
3.3333 -9.8667 0.0
3.5 -9.8667 0.0
3.6667 -9.8667 0.0
3.8333 -9.8667 0.0
4 -9.8667 0.0
4.1667 -9.8667 0.0
4.3333 -9.8667 0.0
4.5 -9.8667 0.0
4.6667 -9.8667 0.0
4.8333 -9.8667 0.0
5 -9.8667 0.0
5.4469 -9.8667 0.0
5.8938 -9.8667 0.0
6.4207 -9.8667 0.0
6.9475 -9.8667 0.0
7.5685 -9.8667 0.0
8.1895 -9.8667 0.0
8.9215 -9.8667 0.0
9.6535 -9.8667 0.0
10.5164 -9.8667 0.0
11.3792 -9.8667 0.0
12.3964 -9.8667 0.0
13.4135 -9.8667 0.0
14.6124 -9.8667 0.0
15.8114 -9.8667 0.0
17.2247 -9.8667 0.0
18.638 -9.8667 0.0
20.3039 -9.8667 0.0
21.9699 -9.8667 0.0
23.9336 -9.8667 0.0
25.8974 -9.8667 0.0
28.2122 -9.8667 0.0
30.527 -9.8667 0.0
33.2556 -9.8667 0.0
35.9843 -9.8667 0.0
39.2007 -9.8667 0.0
42.4171 -9.8667 0.0
46.2086 -9.8667 0.0
50 -9.8667 0.0
0 -10.2333 0.0
0.3333 -10.2333 0.0
0.6667 -10.2333 0.0
1 -10.2333 0.0
1.3333 -10.2333 0.0
1.6667 -10.2333 0.0
2 -10.2333 0.0
2.3333 -10.2333 0.0
2.6667 -10.2333 0.0
3 -10.2333 0.0
3.3333 -10.2333 0.0
3.6667 -10.2333 0.0
4 -10.2333 0.0
4.3333 -10.2333 0.0
4.6667 -10.2333 0.0
5 -10.2333 0.0
5.8938 -10.2333 0.0
6.9475 -10.2333 0.0
8.1895 -10.2333 0.0
9.6535 -10.2333 0.0
11.3792 -10.2333 0.0
13.4135 -10.2333 0.0
15.8114 -10.2333 0.0
18.638 -10.2333 0.0
21.9699 -10.2333 0.0
25.8974 -10.2333 0.0
30.527 -10.2333 0.0
35.9843 -10.2333 0.0
42.4171 -10.2333 0.0
50 -10.2333 0.0
0 -10.6 0.0
0.1667 -10.6 0.0
0.3333 -10.6 0.0
0.5 -10.6 0.0
0.6667 -10.6 0.0
0.8333 -10.6 0.0
1 -10.6 0.0
1.1667 -10.6 0.0
1.3333 -10.6 0.0
1.5 -10.6 0.0
1.6667 -10.6 0.0
1.8333 -10.6 0.0
2 -10.6 0.0
2.1667 -10.6 0.0
2.3333 -10.6 0.0
2.5 -10.6 0.0
2.6667 -10.6 0.0
2.8333 -10.6 0.0
3 -10.6 0.0
3.1667 -10.6 0.0
3.3333 -10.6 0.0
3.5 -10.6 0.0
3.6667 -10.6 0.0
3.8333 -10.6 0.0
4 -10.6 0.0
4.1667 -10.6 0.0
4.3333 -10.6 0.0
4.5 -10.6 0.0
4.6667 -10.6 0.0
4.8333 -10.6 0.0
5 -10.6 0.0
5.4469 -10.6 0.0
5.8938 -10.6 0.0
6.4207 -10.6 0.0
6.9475 -10.6 0.0
7.5685 -10.6 0.0
8.1895 -10.6 0.0
8.9215 -10.6 0.0
9.6535 -10.6 0.0
10.5164 -10.6 0.0
11.3792 -10.6 0.0
12.3964 -10.6 0.0
13.4135 -10.6 0.0
14.6124 -10.6 0.0
15.8114 -10.6 0.0
17.2247 -10.6 0.0
18.638 -10.6 0.0
20.3039 -10.6 0.0
21.9699 -10.6 0.0
23.9336 -10.6 0.0
25.8974 -10.6 0.0
28.2122 -10.6 0.0
30.527 -10.6 0.0
33.2556 -10.6 0.0
35.9843 -10.6 0.0
39.2007 -10.6 0.0
42.4171 -10.6 0.0
46.2086 -10.6 0.0
50 -10.6 0.0
0 -10.9667 0.0
0.3333 -10.9667 0.0
0.6667 -10.9667 0.0
1 -10.9667 0.0
1.3333 -10.9667 0.0
1.6667 -10.9667 0.0
2 -10.9667 0.0
2.3333 -10.9667 0.0
2.6667 -10.9667 0.0
3 -10.9667 0.0
3.3333 -10.9667 0.0
3.6667 -10.9667 0.0
4 -10.9667 0.0
4.3333 -10.9667 0.0
4.6667 -10.9667 0.0
5 -10.9667 0.0
5.8938 -10.9667 0.0
6.9475 -10.9667 0.0
8.1895 -10.9667 0.0
9.6535 -10.9667 0.0
11.3792 -10.9667 0.0
13.4135 -10.9667 0.0
15.8114 -10.9667 0.0
18.638 -10.9667 0.0
21.9699 -10.9667 0.0
25.8974 -10.9667 0.0
30.527 -10.9667 0.0
35.9843 -10.9667 0.0
42.4171 -10.9667 0.0
50 -10.9667 0.0
0 -11.3333 0.0
0.1667 -11.3333 0.0
0.3333 -11.3333 0.0
0.5 -11.3333 0.0
0.6667 -11.3333 0.0
0.8333 -11.3333 0.0
1 -11.3333 0.0
1.1667 -11.3333 0.0
1.3333 -11.3333 0.0
1.5 -11.3333 0.0
1.6667 -11.3333 0.0
1.8333 -11.3333 0.0
2 -11.3333 0.0
2.1667 -11.3333 0.0
2.3333 -11.3333 0.0
2.5 -11.3333 0.0
2.6667 -11.3333 0.0
2.8333 -11.3333 0.0
3 -11.3333 0.0
3.1667 -11.3333 0.0
3.3333 -11.3333 0.0
3.5 -11.3333 0.0
3.6667 -11.3333 0.0
3.8333 -11.3333 0.0
4 -11.3333 0.0
4.1667 -11.3333 0.0
4.3333 -11.3333 0.0
4.5 -11.3333 0.0
4.6667 -11.3333 0.0
4.8333 -11.3333 0.0
5 -11.3333 0.0
5.4469 -11.3333 0.0
5.8938 -11.3333 0.0
6.4207 -11.3333 0.0
6.9475 -11.3333 0.0
7.5685 -11.3333 0.0
8.1895 -11.3333 0.0
8.9215 -11.3333 0.0
9.6535 -11.3333 0.0
10.5164 -11.3333 0.0
11.3792 -11.3333 0.0
12.3964 -11.3333 0.0
13.4135 -11.3333 0.0
14.6124 -11.3333 0.0
15.8114 -11.3333 0.0
17.2247 -11.3333 0.0
18.638 -11.3333 0.0
20.3039 -11.3333 0.0
21.9699 -11.3333 0.0
23.9336 -11.3333 0.0
25.8974 -11.3333 0.0
28.2122 -11.3333 0.0
30.527 -11.3333 0.0
33.2556 -11.3333 0.0
35.9843 -11.3333 0.0
39.2007 -11.3333 0.0
42.4171 -11.3333 0.0
46.2086 -11.3333 0.0
50 -11.3333 0.0
0 -11.7 0.0
0.3333 -11.7 0.0
0.6667 -11.7 0.0
1 -11.7 0.0
1.3333 -11.7 0.0
1.6667 -11.7 0.0
2 -11.7 0.0
2.3333 -11.7 0.0
2.6667 -11.7 0.0
3 -11.7 0.0
3.3333 -11.7 0.0
3.6667 -11.7 0.0
4 -11.7 0.0
4.3333 -11.7 0.0
4.6667 -11.7 0.0
5 -11.7 0.0
5.8938 -11.7 0.0
6.9475 -11.7 0.0
8.1895 -11.7 0.0
9.6535 -11.7 0.0
11.3792 -11.7 0.0
13.4135 -11.7 0.0
15.8114 -11.7 0.0
18.638 -11.7 0.0
21.9699 -11.7 0.0
25.8974 -11.7 0.0
30.527 -11.7 0.0
35.9843 -11.7 0.0
42.4171 -11.7 0.0
50 -11.7 0.0
0 -12.0667 0.0
0.1667 -12.0667 0.0
0.3333 -12.0667 0.0
0.5 -12.0667 0.0
0.6667 -12.0667 0.0
0.8333 -12.0667 0.0
1 -12.0667 0.0
1.1667 -12.0667 0.0
1.3333 -12.0667 0.0
1.5 -12.0667 0.0
1.6667 -12.0667 0.0
1.8333 -12.0667 0.0
2 -12.0667 0.0
2.1667 -12.0667 0.0
2.3333 -12.0667 0.0
2.5 -12.0667 0.0
2.6667 -12.0667 0.0
2.8333 -12.0667 0.0
3 -12.0667 0.0
3.1667 -12.0667 0.0
3.3333 -12.0667 0.0
3.5 -12.0667 0.0
3.6667 -12.0667 0.0
3.8333 -12.0667 0.0
4 -12.0667 0.0
4.1667 -12.0667 0.0
4.3333 -12.0667 0.0
4.5 -12.0667 0.0
4.6667 -12.0667 0.0
4.8333 -12.0667 0.0
5 -12.0667 0.0
5.4469 -12.0667 0.0
5.8938 -12.0667 0.0
6.4207 -12.0667 0.0
6.9475 -12.0667 0.0
7.5685 -12.0667 0.0
8.1895 -12.0667 0.0
8.9215 -12.0667 0.0
9.6535 -12.0667 0.0
10.5164 -12.0667 0.0
11.3792 -12.0667 0.0
12.3964 -12.0667 0.0
13.4135 -12.0667 0.0
14.6124 -12.0667 0.0
15.8114 -12.0667 0.0
17.2247 -12.0667 0.0
18.638 -12.0667 0.0
20.3039 -12.0667 0.0
21.9699 -12.0667 0.0
23.9336 -12.0667 0.0
25.8974 -12.0667 0.0
28.2122 -12.0667 0.0
30.527 -12.0667 0.0
33.2556 -12.0667 0.0
35.9843 -12.0667 0.0
39.2007 -12.0667 0.0
42.4171 -12.0667 0.0
46.2086 -12.0667 0.0
50 -12.0667 0.0
0 -12.4333 0.0
0.3333 -12.4333 0.0
0.6667 -12.4333 0.0
1 -12.4333 0.0
1.3333 -12.4333 0.0
1.6667 -12.4333 0.0
2 -12.4333 0.0
2.3333 -12.4333 0.0
2.6667 -12.4333 0.0
3 -12.4333 0.0
3.3333 -12.4333 0.0
3.6667 -12.4333 0.0
4 -12.4333 0.0
4.3333 -12.4333 0.0
4.6667 -12.4333 0.0
5 -12.4333 0.0
5.8938 -12.4333 0.0
6.9475 -12.4333 0.0
8.1895 -12.4333 0.0
9.6535 -12.4333 0.0
11.3792 -12.4333 0.0
13.4135 -12.4333 0.0
15.8114 -12.4333 0.0
18.638 -12.4333 0.0
21.9699 -12.4333 0.0
25.8974 -12.4333 0.0
30.527 -12.4333 0.0
35.9843 -12.4333 0.0
42.4171 -12.4333 0.0
50 -12.4333 0.0
0 -12.8 0.0
0.1667 -12.8 0.0
0.3333 -12.8 0.0
0.5 -12.8 0.0
0.6667 -12.8 0.0
0.8333 -12.8 0.0
1 -12.8 0.0
1.1667 -12.8 0.0
1.3333 -12.8 0.0
1.5 -12.8 0.0
1.6667 -12.8 0.0
1.8333 -12.8 0.0
2 -12.8 0.0
2.1667 -12.8 0.0
2.3333 -12.8 0.0
2.5 -12.8 0.0
2.6667 -12.8 0.0
2.8333 -12.8 0.0
3 -12.8 0.0
3.1667 -12.8 0.0
3.3333 -12.8 0.0
3.5 -12.8 0.0
3.6667 -12.8 0.0
3.8333 -12.8 0.0
4 -12.8 0.0
4.1667 -12.8 0.0
4.3333 -12.8 0.0
4.5 -12.8 0.0
4.6667 -12.8 0.0
4.8333 -12.8 0.0
5 -12.8 0.0
5.4469 -12.8 0.0
5.8938 -12.8 0.0
6.4207 -12.8 0.0
6.9475 -12.8 0.0
7.5685 -12.8 0.0
8.1895 -12.8 0.0
8.9215 -12.8 0.0
9.6535 -12.8 0.0
10.5164 -12.8 0.0
11.3792 -12.8 0.0
12.3964 -12.8 0.0
13.4135 -12.8 0.0
14.6124 -12.8 0.0
15.8114 -12.8 0.0
17.2247 -12.8 0.0
18.638 -12.8 0.0
20.3039 -12.8 0.0
21.9699 -12.8 0.0
23.9336 -12.8 0.0
25.8974 -12.8 0.0
28.2122 -12.8 0.0
30.527 -12.8 0.0
33.2556 -12.8 0.0
35.9843 -12.8 0.0
39.2007 -12.8 0.0
42.4171 -12.8 0.0
46.2086 -12.8 0.0
50 -12.8 0.0
0 -13.1667 0.0
0.3333 -13.1667 0.0
0.6667 -13.1667 0.0
1 -13.1667 0.0
1.3333 -13.1667 0.0
1.6667 -13.1667 0.0
2 -13.1667 0.0
2.3333 -13.1667 0.0
2.6667 -13.1667 0.0
3 -13.1667 0.0
3.3333 -13.1667 0.0
3.6667 -13.1667 0.0
4 -13.1667 0.0
4.3333 -13.1667 0.0
4.6667 -13.1667 0.0
5 -13.1667 0.0
5.8938 -13.1667 0.0
6.9475 -13.1667 0.0
8.1895 -13.1667 0.0
9.6535 -13.1667 0.0
11.3792 -13.1667 0.0
13.4135 -13.1667 0.0
15.8114 -13.1667 0.0
18.638 -13.1667 0.0
21.9699 -13.1667 0.0
25.8974 -13.1667 0.0
30.527 -13.1667 0.0
35.9843 -13.1667 0.0
42.4171 -13.1667 0.0
50 -13.1667 0.0
0 -13.5333 0.0
0.1667 -13.5333 0.0
0.3333 -13.5333 0.0
0.5 -13.5333 0.0
0.6667 -13.5333 0.0
0.8333 -13.5333 0.0
1 -13.5333 0.0
1.1667 -13.5333 0.0
1.3333 -13.5333 0.0
1.5 -13.5333 0.0
1.6667 -13.5333 0.0
1.8333 -13.5333 0.0
2 -13.5333 0.0
2.1667 -13.5333 0.0
2.3333 -13.5333 0.0
2.5 -13.5333 0.0
2.6667 -13.5333 0.0
2.8333 -13.5333 0.0
3 -13.5333 0.0
3.1667 -13.5333 0.0
3.3333 -13.5333 0.0
3.5 -13.5333 0.0
3.6667 -13.5333 0.0
3.8333 -13.5333 0.0
4 -13.5333 0.0
4.1667 -13.5333 0.0
4.3333 -13.5333 0.0
4.5 -13.5333 0.0
4.6667 -13.5333 0.0
4.8333 -13.5333 0.0
5 -13.5333 0.0
5.4469 -13.5333 0.0
5.8938 -13.5333 0.0
6.4207 -13.5333 0.0
6.9475 -13.5333 0.0
7.5685 -13.5333 0.0
8.1895 -13.5333 0.0
8.9215 -13.5333 0.0
9.6535 -13.5333 0.0
10.5164 -13.5333 0.0
11.3792 -13.5333 0.0
12.3964 -13.5333 0.0
13.4135 -13.5333 0.0
14.6124 -13.5333 0.0
15.8114 -13.5333 0.0
17.2247 -13.5333 0.0
18.638 -13.5333 0.0
20.3039 -13.5333 0.0
21.9699 -13.5333 0.0
23.9336 -13.5333 0.0
25.8974 -13.5333 0.0
28.2122 -13.5333 0.0
30.527 -13.5333 0.0
33.2556 -13.5333 0.0
35.9843 -13.5333 0.0
39.2007 -13.5333 0.0
42.4171 -13.5333 0.0
46.2086 -13.5333 0.0
50 -13.5333 0.0
0 -13.9 0.0
0.3333 -13.9 0.0
0.6667 -13.9 0.0
1 -13.9 0.0
1.3333 -13.9 0.0
1.6667 -13.9 0.0
2 -13.9 0.0
2.3333 -13.9 0.0
2.6667 -13.9 0.0
3 -13.9 0.0
3.3333 -13.9 0.0
3.6667 -13.9 0.0
4 -13.9 0.0
4.3333 -13.9 0.0
4.6667 -13.9 0.0
5 -13.9 0.0
5.8938 -13.9 0.0
6.9475 -13.9 0.0
8.1895 -13.9 0.0
9.6535 -13.9 0.0
11.3792 -13.9 0.0
13.4135 -13.9 0.0
15.8114 -13.9 0.0
18.638 -13.9 0.0
21.9699 -13.9 0.0
25.8974 -13.9 0.0
30.527 -13.9 0.0
35.9843 -13.9 0.0
42.4171 -13.9 0.0
50 -13.9 0.0
0 -14.2667 0.0
0.1667 -14.2667 0.0
0.3333 -14.2667 0.0
0.5 -14.2667 0.0
0.6667 -14.2667 0.0
0.8333 -14.2667 0.0
1 -14.2667 0.0
1.1667 -14.2667 0.0
1.3333 -14.2667 0.0
1.5 -14.2667 0.0
1.6667 -14.2667 0.0
1.8333 -14.2667 0.0
2 -14.2667 0.0
2.1667 -14.2667 0.0
2.3333 -14.2667 0.0
2.5 -14.2667 0.0
2.6667 -14.2667 0.0
2.8333 -14.2667 0.0
3 -14.2667 0.0
3.1667 -14.2667 0.0
3.3333 -14.2667 0.0
3.5 -14.2667 0.0
3.6667 -14.2667 0.0
3.8333 -14.2667 0.0
4 -14.2667 0.0
4.1667 -14.2667 0.0
4.3333 -14.2667 0.0
4.5 -14.2667 0.0
4.6667 -14.2667 0.0
4.8333 -14.2667 0.0
5 -14.2667 0.0
5.4469 -14.2667 0.0
5.8938 -14.2667 0.0
6.4207 -14.2667 0.0
6.9475 -14.2667 0.0
7.5685 -14.2667 0.0
8.1895 -14.2667 0.0
8.9215 -14.2667 0.0
9.6535 -14.2667 0.0
10.5164 -14.2667 0.0
11.3792 -14.2667 0.0
12.3964 -14.2667 0.0
13.4135 -14.2667 0.0
14.6124 -14.2667 0.0
15.8114 -14.2667 0.0
17.2247 -14.2667 0.0
18.638 -14.2667 0.0
20.3039 -14.2667 0.0
21.9699 -14.2667 0.0
23.9336 -14.2667 0.0
25.8974 -14.2667 0.0
28.2122 -14.2667 0.0
30.527 -14.2667 0.0
33.2556 -14.2667 0.0
35.9843 -14.2667 0.0
39.2007 -14.2667 0.0
42.4171 -14.2667 0.0
46.2086 -14.2667 0.0
50 -14.2667 0.0
0 -14.6333 0.0
0.3333 -14.6333 0.0
0.6667 -14.6333 0.0
1 -14.6333 0.0
1.3333 -14.6333 0.0
1.6667 -14.6333 0.0
2 -14.6333 0.0
2.3333 -14.6333 0.0
2.6667 -14.6333 0.0
3 -14.6333 0.0
3.3333 -14.6333 0.0
3.6667 -14.6333 0.0
4 -14.6333 0.0
4.3333 -14.6333 0.0
4.6667 -14.6333 0.0
5 -14.6333 0.0
5.8938 -14.6333 0.0
6.9475 -14.6333 0.0
8.1895 -14.6333 0.0
9.6535 -14.6333 0.0
11.3792 -14.6333 0.0
13.4135 -14.6333 0.0
15.8114 -14.6333 0.0
18.638 -14.6333 0.0
21.9699 -14.6333 0.0
25.8974 -14.6333 0.0
30.527 -14.6333 0.0
35.9843 -14.6333 0.0
42.4171 -14.6333 0.0
50 -14.6333 0.0
0 -15 0.0
0.1667 -15 0.0
0.3333 -15 0.0
0.5 -15 0.0
0.6667 -15 0.0
0.8333 -15 0.0
1 -15 0.0
1.1667 -15 0.0
1.3333 -15 0.0
1.5 -15 0.0
1.6667 -15 0.0
1.8333 -15 0.0
2 -15 0.0
2.1667 -15 0.0
2.3333 -15 0.0
2.5 -15 0.0
2.6667 -15 0.0
2.8333 -15 0.0
3 -15 0.0
3.1667 -15 0.0
3.3333 -15 0.0
3.5 -15 0.0
3.6667 -15 0.0
3.8333 -15 0.0
4 -15 0.0
4.1667 -15 0.0
4.3333 -15 0.0
4.5 -15 0.0
4.6667 -15 0.0
4.8333 -15 0.0
5 -15 0.0
5.4469 -15 0.0
5.8938 -15 0.0
6.4207 -15 0.0
6.9475 -15 0.0
7.5685 -15 0.0
8.1895 -15 0.0
8.9215 -15 0.0
9.6535 -15 0.0
10.5164 -15 0.0
11.3792 -15 0.0
12.3964 -15 0.0
13.4135 -15 0.0
14.6124 -15 0.0
15.8114 -15 0.0
17.2247 -15 0.0
18.638 -15 0.0
20.3039 -15 0.0
21.9699 -15 0.0
23.9336 -15 0.0
25.8974 -15 0.0
28.2122 -15 0.0
30.527 -15 0.0
33.2556 -15 0.0
35.9843 -15 0.0
39.2007 -15 0.0
42.4171 -15 0.0
46.2086 -15 0.0
50 -15 0.0
0 -17.8333 0.0
0.3333 -17.8333 0.0
0.6667 -17.8333 0.0
1 -17.8333 0.0
1.3333 -17.8333 0.0
1.6667 -17.8333 0.0
2 -17.8333 0.0
2.3333 -17.8333 0.0
2.6667 -17.8333 0.0
3 -17.8333 0.0
3.3333 -17.8333 0.0
3.6667 -17.8333 0.0
4 -17.8333 0.0
4.3333 -17.8333 0.0
4.6667 -17.8333 0.0
5 -17.8333 0.0
5.8938 -17.8333 0.0
6.9475 -17.8333 0.0
8.1895 -17.8333 0.0
9.6535 -17.8333 0.0
11.3792 -17.8333 0.0
13.4135 -17.8333 0.0
15.8114 -17.8333 0.0
18.638 -17.8333 0.0
21.9699 -17.8333 0.0
25.8974 -17.8333 0.0
30.527 -17.8333 0.0
35.9843 -17.8333 0.0
42.4171 -17.8333 0.0
50 -17.8333 0.0
0 -20.6667 0.0
0.1667 -20.6667 0.0
0.3333 -20.6667 0.0
0.5 -20.6667 0.0
0.6667 -20.6667 0.0
0.8333 -20.6667 0.0
1 -20.6667 0.0
1.1667 -20.6667 0.0
1.3333 -20.6667 0.0
1.5 -20.6667 0.0
1.6667 -20.6667 0.0
1.8333 -20.6667 0.0
2 -20.6667 0.0
2.1667 -20.6667 0.0
2.3333 -20.6667 0.0
2.5 -20.6667 0.0
2.6667 -20.6667 0.0
2.8333 -20.6667 0.0
3 -20.6667 0.0
3.1667 -20.6667 0.0
3.3333 -20.6667 0.0
3.5 -20.6667 0.0
3.6667 -20.6667 0.0
3.8333 -20.6667 0.0
4 -20.6667 0.0
4.1667 -20.6667 0.0
4.3333 -20.6667 0.0
4.5 -20.6667 0.0
4.6667 -20.6667 0.0
4.8333 -20.6667 0.0
5 -20.6667 0.0
5.4469 -20.6667 0.0
5.8938 -20.6667 0.0
6.4207 -20.6667 0.0
6.9475 -20.6667 0.0
7.5685 -20.6667 0.0
8.1895 -20.6667 0.0
8.9215 -20.6667 0.0
9.6535 -20.6667 0.0
10.5164 -20.6667 0.0
11.3792 -20.6667 0.0
12.3964 -20.6667 0.0
13.4135 -20.6667 0.0
14.6124 -20.6667 0.0
15.8114 -20.6667 0.0
17.2247 -20.6667 0.0
18.638 -20.6667 0.0
20.3039 -20.6667 0.0
21.9699 -20.6667 0.0
23.9336 -20.6667 0.0
25.8974 -20.6667 0.0
28.2122 -20.6667 0.0
30.527 -20.6667 0.0
33.2556 -20.6667 0.0
35.9843 -20.6667 0.0
39.2007 -20.6667 0.0
42.4171 -20.6667 0.0
46.2086 -20.6667 0.0
50 -20.6667 0.0
0 -23.5 0.0
0.3333 -23.5 0.0
0.6667 -23.5 0.0
1 -23.5 0.0
1.3333 -23.5 0.0
1.6667 -23.5 0.0
2 -23.5 0.0
2.3333 -23.5 0.0
2.6667 -23.5 0.0
3 -23.5 0.0
3.3333 -23.5 0.0
3.6667 -23.5 0.0
4 -23.5 0.0
4.3333 -23.5 0.0
4.6667 -23.5 0.0
5 -23.5 0.0
5.8938 -23.5 0.0
6.9475 -23.5 0.0
8.1895 -23.5 0.0
9.6535 -23.5 0.0
11.3792 -23.5 0.0
13.4135 -23.5 0.0
15.8114 -23.5 0.0
18.638 -23.5 0.0
21.9699 -23.5 0.0
25.8974 -23.5 0.0
30.527 -23.5 0.0
35.9843 -23.5 0.0
42.4171 -23.5 0.0
50 -23.5 0.0
0 -26.3333 0.0
0.1667 -26.3333 0.0
0.3333 -26.3333 0.0
0.5 -26.3333 0.0
0.6667 -26.3333 0.0
0.8333 -26.3333 0.0
1 -26.3333 0.0
1.1667 -26.3333 0.0
1.3333 -26.3333 0.0
1.5 -26.3333 0.0
1.6667 -26.3333 0.0
1.8333 -26.3333 0.0
2 -26.3333 0.0
2.1667 -26.3333 0.0
2.3333 -26.3333 0.0
2.5 -26.3333 0.0
2.6667 -26.3333 0.0
2.8333 -26.3333 0.0
3 -26.3333 0.0
3.1667 -26.3333 0.0
3.3333 -26.3333 0.0
3.5 -26.3333 0.0
3.6667 -26.3333 0.0
3.8333 -26.3333 0.0
4 -26.3333 0.0
4.1667 -26.3333 0.0
4.3333 -26.3333 0.0
4.5 -26.3333 0.0
4.6667 -26.3333 0.0
4.8333 -26.3333 0.0
5 -26.3333 0.0
5.4469 -26.3333 0.0
5.8938 -26.3333 0.0
6.4207 -26.3333 0.0
6.9475 -26.3333 0.0
7.5685 -26.3333 0.0
8.1895 -26.3333 0.0
8.9215 -26.3333 0.0
9.6535 -26.3333 0.0
10.5164 -26.3333 0.0
11.3792 -26.3333 0.0
12.3964 -26.3333 0.0
13.4135 -26.3333 0.0
14.6124 -26.3333 0.0
15.8114 -26.3333 0.0
17.2247 -26.3333 0.0
18.638 -26.3333 0.0
20.3039 -26.3333 0.0
21.9699 -26.3333 0.0
23.9336 -26.3333 0.0
25.8974 -26.3333 0.0
28.2122 -26.3333 0.0
30.527 -26.3333 0.0
33.2556 -26.3333 0.0
35.9843 -26.3333 0.0
39.2007 -26.3333 0.0
42.4171 -26.3333 0.0
46.2086 -26.3333 0.0
50 -26.3333 0.0
0 -29.1667 0.0
0.3333 -29.1667 0.0
0.6667 -29.1667 0.0
1 -29.1667 0.0
1.3333 -29.1667 0.0
1.6667 -29.1667 0.0
2 -29.1667 0.0
2.3333 -29.1667 0.0
2.6667 -29.1667 0.0
3 -29.1667 0.0
3.3333 -29.1667 0.0
3.6667 -29.1667 0.0
4 -29.1667 0.0
4.3333 -29.1667 0.0
4.6667 -29.1667 0.0
5 -29.1667 0.0
5.8938 -29.1667 0.0
6.9475 -29.1667 0.0
8.1895 -29.1667 0.0
9.6535 -29.1667 0.0
11.3792 -29.1667 0.0
13.4135 -29.1667 0.0
15.8114 -29.1667 0.0
18.638 -29.1667 0.0
21.9699 -29.1667 0.0
25.8974 -29.1667 0.0
30.527 -29.1667 0.0
35.9843 -29.1667 0.0
42.4171 -29.1667 0.0
50 -29.1667 0.0
0 -32 0.0
0.1667 -32 0.0
0.3333 -32 0.0
0.5 -32 0.0
0.6667 -32 0.0
0.8333 -32 0.0
1 -32 0.0
1.1667 -32 0.0
1.3333 -32 0.0
1.5 -32 0.0
1.6667 -32 0.0
1.8333 -32 0.0
2 -32 0.0
2.1667 -32 0.0
2.3333 -32 0.0
2.5 -32 0.0
2.6667 -32 0.0
2.8333 -32 0.0
3 -32 0.0
3.1667 -32 0.0
3.3333 -32 0.0
3.5 -32 0.0
3.6667 -32 0.0
3.8333 -32 0.0
4 -32 0.0
4.1667 -32 0.0
4.3333 -32 0.0
4.5 -32 0.0
4.6667 -32 0.0
4.8333 -32 0.0
5 -32 0.0
5.4469 -32 0.0
5.8938 -32 0.0
6.4207 -32 0.0
6.9475 -32 0.0
7.5685 -32 0.0
8.1895 -32 0.0
8.9215 -32 0.0
9.6535 -32 0.0
10.5164 -32 0.0
11.3792 -32 0.0
12.3964 -32 0.0
13.4135 -32 0.0
14.6124 -32 0.0
15.8114 -32 0.0
17.2247 -32 0.0
18.638 -32 0.0
20.3039 -32 0.0
21.9699 -32 0.0
23.9336 -32 0.0
25.8974 -32 0.0
28.2122 -32 0.0
30.527 -32 0.0
33.2556 -32 0.0
35.9843 -32 0.0
39.2007 -32 0.0
42.4171 -32 0.0
46.2086 -32 0.0
50 -32 0.0
0 -34.8333 0.0
0.3333 -34.8333 0.0
0.6667 -34.8333 0.0
1 -34.8333 0.0
1.3333 -34.8333 0.0
1.6667 -34.8333 0.0
2 -34.8333 0.0
2.3333 -34.8333 0.0
2.6667 -34.8333 0.0
3 -34.8333 0.0
3.3333 -34.8333 0.0
3.6667 -34.8333 0.0
4 -34.8333 0.0
4.3333 -34.8333 0.0
4.6667 -34.8333 0.0
5 -34.8333 0.0
5.8938 -34.8333 0.0
6.9475 -34.8333 0.0
8.1895 -34.8333 0.0
9.6535 -34.8333 0.0
11.3792 -34.8333 0.0
13.4135 -34.8333 0.0
15.8114 -34.8333 0.0
18.638 -34.8333 0.0
21.9699 -34.8333 0.0
25.8974 -34.8333 0.0
30.527 -34.8333 0.0
35.9843 -34.8333 0.0
42.4171 -34.8333 0.0
50 -34.8333 0.0
0 -37.6667 0.0
0.1667 -37.6667 0.0
0.3333 -37.6667 0.0
0.5 -37.6667 0.0
0.6667 -37.6667 0.0
0.8333 -37.6667 0.0
1 -37.6667 0.0
1.1667 -37.6667 0.0
1.3333 -37.6667 0.0
1.5 -37.6667 0.0
1.6667 -37.6667 0.0
1.8333 -37.6667 0.0
2 -37.6667 0.0
2.1667 -37.6667 0.0
2.3333 -37.6667 0.0
2.5 -37.6667 0.0
2.6667 -37.6667 0.0
2.8333 -37.6667 0.0
3 -37.6667 0.0
3.1667 -37.6667 0.0
3.3333 -37.6667 0.0
3.5 -37.6667 0.0
3.6667 -37.6667 0.0
3.8333 -37.6667 0.0
4 -37.6667 0.0
4.1667 -37.6667 0.0
4.3333 -37.6667 0.0
4.5 -37.6667 0.0
4.6667 -37.6667 0.0
4.8333 -37.6667 0.0
5 -37.6667 0.0
5.4469 -37.6667 0.0
5.8938 -37.6667 0.0
6.4207 -37.6667 0.0
6.9475 -37.6667 0.0
7.5685 -37.6667 0.0
8.1895 -37.6667 0.0
8.9215 -37.6667 0.0
9.6535 -37.6667 0.0
10.5164 -37.6667 0.0
11.3792 -37.6667 0.0
12.3964 -37.6667 0.0
13.4135 -37.6667 0.0
14.6124 -37.6667 0.0
15.8114 -37.6667 0.0
17.2247 -37.6667 0.0
18.638 -37.6667 0.0
20.3039 -37.6667 0.0
21.9699 -37.6667 0.0
23.9336 -37.6667 0.0
25.8974 -37.6667 0.0
28.2122 -37.6667 0.0
30.527 -37.6667 0.0
33.2556 -37.6667 0.0
35.9843 -37.6667 0.0
39.2007 -37.6667 0.0
42.4171 -37.6667 0.0
46.2086 -37.6667 0.0
50 -37.6667 0.0
0 -40.5 0.0
0.3333 -40.5 0.0
0.6667 -40.5 0.0
1 -40.5 0.0
1.3333 -40.5 0.0
1.6667 -40.5 0.0
2 -40.5 0.0
2.3333 -40.5 0.0
2.6667 -40.5 0.0
3 -40.5 0.0
3.3333 -40.5 0.0
3.6667 -40.5 0.0
4 -40.5 0.0
4.3333 -40.5 0.0
4.6667 -40.5 0.0
5 -40.5 0.0
5.8938 -40.5 0.0
6.9475 -40.5 0.0
8.1895 -40.5 0.0
9.6535 -40.5 0.0
11.3792 -40.5 0.0
13.4135 -40.5 0.0
15.8114 -40.5 0.0
18.638 -40.5 0.0
21.9699 -40.5 0.0
25.8974 -40.5 0.0
30.527 -40.5 0.0
35.9843 -40.5 0.0
42.4171 -40.5 0.0
50 -40.5 0.0
0 -43.3333 0.0
0.1667 -43.3333 0.0
0.3333 -43.3333 0.0
0.5 -43.3333 0.0
0.6667 -43.3333 0.0
0.8333 -43.3333 0.0
1 -43.3333 0.0
1.1667 -43.3333 0.0
1.3333 -43.3333 0.0
1.5 -43.3333 0.0
1.6667 -43.3333 0.0
1.8333 -43.3333 0.0
2 -43.3333 0.0
2.1667 -43.3333 0.0
2.3333 -43.3333 0.0
2.5 -43.3333 0.0
2.6667 -43.3333 0.0
2.8333 -43.3333 0.0
3 -43.3333 0.0
3.1667 -43.3333 0.0
3.3333 -43.3333 0.0
3.5 -43.3333 0.0
3.6667 -43.3333 0.0
3.8333 -43.3333 0.0
4 -43.3333 0.0
4.1667 -43.3333 0.0
4.3333 -43.3333 0.0
4.5 -43.3333 0.0
4.6667 -43.3333 0.0
4.8333 -43.3333 0.0
5 -43.3333 0.0
5.4469 -43.3333 0.0
5.8938 -43.3333 0.0
6.4207 -43.3333 0.0
6.9475 -43.3333 0.0
7.5685 -43.3333 0.0
8.1895 -43.3333 0.0
8.9215 -43.3333 0.0
9.6535 -43.3333 0.0
10.5164 -43.3333 0.0
11.3792 -43.3333 0.0
12.3964 -43.3333 0.0
13.4135 -43.3333 0.0
14.6124 -43.3333 0.0
15.8114 -43.3333 0.0
17.2247 -43.3333 0.0
18.638 -43.3333 0.0
20.3039 -43.3333 0.0
21.9699 -43.3333 0.0
23.9336 -43.3333 0.0
25.8974 -43.3333 0.0
28.2122 -43.3333 0.0
30.527 -43.3333 0.0
33.2556 -43.3333 0.0
35.9843 -43.3333 0.0
39.2007 -43.3333 0.0
42.4171 -43.3333 0.0
46.2086 -43.3333 0.0
50 -43.3333 0.0
0 -46.1667 0.0
0.3333 -46.1667 0.0
0.6667 -46.1667 0.0
1 -46.1667 0.0
1.3333 -46.1667 0.0
1.6667 -46.1667 0.0
2 -46.1667 0.0
2.3333 -46.1667 0.0
2.6667 -46.1667 0.0
3 -46.1667 0.0
3.3333 -46.1667 0.0
3.6667 -46.1667 0.0
4 -46.1667 0.0
4.3333 -46.1667 0.0
4.6667 -46.1667 0.0
5 -46.1667 0.0
5.8938 -46.1667 0.0
6.9475 -46.1667 0.0
8.1895 -46.1667 0.0
9.6535 -46.1667 0.0
11.3792 -46.1667 0.0
13.4135 -46.1667 0.0
15.8114 -46.1667 0.0
18.638 -46.1667 0.0
21.9699 -46.1667 0.0
25.8974 -46.1667 0.0
30.527 -46.1667 0.0
35.9843 -46.1667 0.0
42.4171 -46.1667 0.0
50 -46.1667 0.0
0 -49 0.0
0.1667 -49 0.0
0.3333 -49 0.0
0.5 -49 0.0
0.6667 -49 0.0
0.8333 -49 0.0
1 -49 0.0
1.1667 -49 0.0
1.3333 -49 0.0
1.5 -49 0.0
1.6667 -49 0.0
1.8333 -49 0.0
2 -49 0.0
2.1667 -49 0.0
2.3333 -49 0.0
2.5 -49 0.0
2.6667 -49 0.0
2.8333 -49 0.0
3 -49 0.0
3.1667 -49 0.0
3.3333 -49 0.0
3.5 -49 0.0
3.6667 -49 0.0
3.8333 -49 0.0
4 -49 0.0
4.1667 -49 0.0
4.3333 -49 0.0
4.5 -49 0.0
4.6667 -49 0.0
4.8333 -49 0.0
5 -49 0.0
5.4469 -49 0.0
5.8938 -49 0.0
6.4207 -49 0.0
6.9475 -49 0.0
7.5685 -49 0.0
8.1895 -49 0.0
8.9215 -49 0.0
9.6535 -49 0.0
10.5164 -49 0.0
11.3792 -49 0.0
12.3964 -49 0.0
13.4135 -49 0.0
14.6124 -49 0.0
15.8114 -49 0.0
17.2247 -49 0.0
18.638 -49 0.0
20.3039 -49 0.0
21.9699 -49 0.0
23.9336 -49 0.0
25.8974 -49 0.0
28.2122 -49 0.0
30.527 -49 0.0
33.2556 -49 0.0
35.9843 -49 0.0
39.2007 -49 0.0
42.4171 -49 0.0
46.2086 -49 0.0
50 -49 0.0
0 -51.8333 0.0
0.3333 -51.8333 0.0
0.6667 -51.8333 0.0
1 -51.8333 0.0
1.3333 -51.8333 0.0
1.6667 -51.8333 0.0
2 -51.8333 0.0
2.3333 -51.8333 0.0
2.6667 -51.8333 0.0
3 -51.8333 0.0
3.3333 -51.8333 0.0
3.6667 -51.8333 0.0
4 -51.8333 0.0
4.3333 -51.8333 0.0
4.6667 -51.8333 0.0
5 -51.8333 0.0
5.8938 -51.8333 0.0
6.9475 -51.8333 0.0
8.1895 -51.8333 0.0
9.6535 -51.8333 0.0
11.3792 -51.8333 0.0
13.4135 -51.8333 0.0
15.8114 -51.8333 0.0
18.638 -51.8333 0.0
21.9699 -51.8333 0.0
25.8974 -51.8333 0.0
30.527 -51.8333 0.0
35.9843 -51.8333 0.0
42.4171 -51.8333 0.0
50 -51.8333 0.0
0 -54.6667 0.0
0.1667 -54.6667 0.0
0.3333 -54.6667 0.0
0.5 -54.6667 0.0
0.6667 -54.6667 0.0
0.8333 -54.6667 0.0
1 -54.6667 0.0
1.1667 -54.6667 0.0
1.3333 -54.6667 0.0
1.5 -54.6667 0.0
1.6667 -54.6667 0.0
1.8333 -54.6667 0.0
2 -54.6667 0.0
2.1667 -54.6667 0.0
2.3333 -54.6667 0.0
2.5 -54.6667 0.0
2.6667 -54.6667 0.0
2.8333 -54.6667 0.0
3 -54.6667 0.0
3.1667 -54.6667 0.0
3.3333 -54.6667 0.0
3.5 -54.6667 0.0
3.6667 -54.6667 0.0
3.8333 -54.6667 0.0
4 -54.6667 0.0
4.1667 -54.6667 0.0
4.3333 -54.6667 0.0
4.5 -54.6667 0.0
4.6667 -54.6667 0.0
4.8333 -54.6667 0.0
5 -54.6667 0.0
5.4469 -54.6667 0.0
5.8938 -54.6667 0.0
6.4207 -54.6667 0.0
6.9475 -54.6667 0.0
7.5685 -54.6667 0.0
8.1895 -54.6667 0.0
8.9215 -54.6667 0.0
9.6535 -54.6667 0.0
10.5164 -54.6667 0.0
11.3792 -54.6667 0.0
12.3964 -54.6667 0.0
13.4135 -54.6667 0.0
14.6124 -54.6667 0.0
15.8114 -54.6667 0.0
17.2247 -54.6667 0.0
18.638 -54.6667 0.0
20.3039 -54.6667 0.0
21.9699 -54.6667 0.0
23.9336 -54.6667 0.0
25.8974 -54.6667 0.0
28.2122 -54.6667 0.0
30.527 -54.6667 0.0
33.2556 -54.6667 0.0
35.9843 -54.6667 0.0
39.2007 -54.6667 0.0
42.4171 -54.6667 0.0
46.2086 -54.6667 0.0
50 -54.6667 0.0
0 -57.5 0.0
0.3333 -57.5 0.0
0.6667 -57.5 0.0
1 -57.5 0.0
1.3333 -57.5 0.0
1.6667 -57.5 0.0
2 -57.5 0.0
2.3333 -57.5 0.0
2.6667 -57.5 0.0
3 -57.5 0.0
3.3333 -57.5 0.0
3.6667 -57.5 0.0
4 -57.5 0.0
4.3333 -57.5 0.0
4.6667 -57.5 0.0
5 -57.5 0.0
5.8938 -57.5 0.0
6.9475 -57.5 0.0
8.1895 -57.5 0.0
9.6535 -57.5 0.0
11.3792 -57.5 0.0
13.4135 -57.5 0.0
15.8114 -57.5 0.0
18.638 -57.5 0.0
21.9699 -57.5 0.0
25.8974 -57.5 0.0
30.527 -57.5 0.0
35.9843 -57.5 0.0
42.4171 -57.5 0.0
50 -57.5 0.0
0 -60.3333 0.0
0.1667 -60.3333 0.0
0.3333 -60.3333 0.0
0.5 -60.3333 0.0
0.6667 -60.3333 0.0
0.8333 -60.3333 0.0
1 -60.3333 0.0
1.1667 -60.3333 0.0
1.3333 -60.3333 0.0
1.5 -60.3333 0.0
1.6667 -60.3333 0.0
1.8333 -60.3333 0.0
2 -60.3333 0.0
2.1667 -60.3333 0.0
2.3333 -60.3333 0.0
2.5 -60.3333 0.0
2.6667 -60.3333 0.0
2.8333 -60.3333 0.0
3 -60.3333 0.0
3.1667 -60.3333 0.0
3.3333 -60.3333 0.0
3.5 -60.3333 0.0
3.6667 -60.3333 0.0
3.8333 -60.3333 0.0
4 -60.3333 0.0
4.1667 -60.3333 0.0
4.3333 -60.3333 0.0
4.5 -60.3333 0.0
4.6667 -60.3333 0.0
4.8333 -60.3333 0.0
5 -60.3333 0.0
5.4469 -60.3333 0.0
5.8938 -60.3333 0.0
6.4207 -60.3333 0.0
6.9475 -60.3333 0.0
7.5685 -60.3333 0.0
8.1895 -60.3333 0.0
8.9215 -60.3333 0.0
9.6535 -60.3333 0.0
10.5164 -60.3333 0.0
11.3792 -60.3333 0.0
12.3964 -60.3333 0.0
13.4135 -60.3333 0.0
14.6124 -60.3333 0.0
15.8114 -60.3333 0.0
17.2247 -60.3333 0.0
18.638 -60.3333 0.0
20.3039 -60.3333 0.0
21.9699 -60.3333 0.0
23.9336 -60.3333 0.0
25.8974 -60.3333 0.0
28.2122 -60.3333 0.0
30.527 -60.3333 0.0
33.2556 -60.3333 0.0
35.9843 -60.3333 0.0
39.2007 -60.3333 0.0
42.4171 -60.3333 0.0
46.2086 -60.3333 0.0
50 -60.3333 0.0
0 -63.1667 0.0
0.3333 -63.1667 0.0
0.6667 -63.1667 0.0
1 -63.1667 0.0
1.3333 -63.1667 0.0
1.6667 -63.1667 0.0
2 -63.1667 0.0
2.3333 -63.1667 0.0
2.6667 -63.1667 0.0
3 -63.1667 0.0
3.3333 -63.1667 0.0
3.6667 -63.1667 0.0
4 -63.1667 0.0
4.3333 -63.1667 0.0
4.6667 -63.1667 0.0
5 -63.1667 0.0
5.8938 -63.1667 0.0
6.9475 -63.1667 0.0
8.1895 -63.1667 0.0
9.6535 -63.1667 0.0
11.3792 -63.1667 0.0
13.4135 -63.1667 0.0
15.8114 -63.1667 0.0
18.638 -63.1667 0.0
21.9699 -63.1667 0.0
25.8974 -63.1667 0.0
30.527 -63.1667 0.0
35.9843 -63.1667 0.0
42.4171 -63.1667 0.0
50 -63.1667 0.0
0 -66 0.0
0.1667 -66 0.0
0.3333 -66 0.0
0.5 -66 0.0
0.6667 -66 0.0
0.8333 -66 0.0
1 -66 0.0
1.1667 -66 0.0
1.3333 -66 0.0
1.5 -66 0.0
1.6667 -66 0.0
1.8333 -66 0.0
2 -66 0.0
2.1667 -66 0.0
2.3333 -66 0.0
2.5 -66 0.0
2.6667 -66 0.0
2.8333 -66 0.0
3 -66 0.0
3.1667 -66 0.0
3.3333 -66 0.0
3.5 -66 0.0
3.6667 -66 0.0
3.8333 -66 0.0
4 -66 0.0
4.1667 -66 0.0
4.3333 -66 0.0
4.5 -66 0.0
4.6667 -66 0.0
4.8333 -66 0.0
5 -66 0.0
5.4469 -66 0.0
5.8938 -66 0.0
6.4207 -66 0.0
6.9475 -66 0.0
7.5685 -66 0.0
8.1895 -66 0.0
8.9215 -66 0.0
9.6535 -66 0.0
10.5164 -66 0.0
11.3792 -66 0.0
12.3964 -66 0.0
13.4135 -66 0.0
14.6124 -66 0.0
15.8114 -66 0.0
17.2247 -66 0.0
18.638 -66 0.0
20.3039 -66 0.0
21.9699 -66 0.0
23.9336 -66 0.0
25.8974 -66 0.0
28.2122 -66 0.0
30.527 -66 0.0
33.2556 -66 0.0
35.9843 -66 0.0
39.2007 -66 0.0
42.4171 -66 0.0
46.2086 -66 0.0
50 -66 0.0
0 -68.8333 0.0
0.3333 -68.8333 0.0
0.6667 -68.8333 0.0
1 -68.8333 0.0
1.3333 -68.8333 0.0
1.6667 -68.8333 0.0
2 -68.8333 0.0
2.3333 -68.8333 0.0
2.6667 -68.8333 0.0
3 -68.8333 0.0
3.3333 -68.8333 0.0
3.6667 -68.8333 0.0
4 -68.8333 0.0
4.3333 -68.8333 0.0
4.6667 -68.8333 0.0
5 -68.8333 0.0
5.8938 -68.8333 0.0
6.9475 -68.8333 0.0
8.1895 -68.8333 0.0
9.6535 -68.8333 0.0
11.3792 -68.8333 0.0
13.4135 -68.8333 0.0
15.8114 -68.8333 0.0
18.638 -68.8333 0.0
21.9699 -68.8333 0.0
25.8974 -68.8333 0.0
30.527 -68.8333 0.0
35.9843 -68.8333 0.0
42.4171 -68.8333 0.0
50 -68.8333 0.0
0 -71.6667 0.0
0.1667 -71.6667 0.0
0.3333 -71.6667 0.0
0.5 -71.6667 0.0
0.6667 -71.6667 0.0
0.8333 -71.6667 0.0
1 -71.6667 0.0
1.1667 -71.6667 0.0
1.3333 -71.6667 0.0
1.5 -71.6667 0.0
1.6667 -71.6667 0.0
1.8333 -71.6667 0.0
2 -71.6667 0.0
2.1667 -71.6667 0.0
2.3333 -71.6667 0.0
2.5 -71.6667 0.0
2.6667 -71.6667 0.0
2.8333 -71.6667 0.0
3 -71.6667 0.0
3.1667 -71.6667 0.0
3.3333 -71.6667 0.0
3.5 -71.6667 0.0
3.6667 -71.6667 0.0
3.8333 -71.6667 0.0
4 -71.6667 0.0
4.1667 -71.6667 0.0
4.3333 -71.6667 0.0
4.5 -71.6667 0.0
4.6667 -71.6667 0.0
4.8333 -71.6667 0.0
5 -71.6667 0.0
5.4469 -71.6667 0.0
5.8938 -71.6667 0.0
6.4207 -71.6667 0.0
6.9475 -71.6667 0.0
7.5685 -71.6667 0.0
8.1895 -71.6667 0.0
8.9215 -71.6667 0.0
9.6535 -71.6667 0.0
10.5164 -71.6667 0.0
11.3792 -71.6667 0.0
12.3964 -71.6667 0.0
13.4135 -71.6667 0.0
14.6124 -71.6667 0.0
15.8114 -71.6667 0.0
17.2247 -71.6667 0.0
18.638 -71.6667 0.0
20.3039 -71.6667 0.0
21.9699 -71.6667 0.0
23.9336 -71.6667 0.0
25.8974 -71.6667 0.0
28.2122 -71.6667 0.0
30.527 -71.6667 0.0
33.2556 -71.6667 0.0
35.9843 -71.6667 0.0
39.2007 -71.6667 0.0
42.4171 -71.6667 0.0
46.2086 -71.6667 0.0
50 -71.6667 0.0
0 -74.5 0.0
0.3333 -74.5 0.0
0.6667 -74.5 0.0
1 -74.5 0.0
1.3333 -74.5 0.0
1.6667 -74.5 0.0
2 -74.5 0.0
2.3333 -74.5 0.0
2.6667 -74.5 0.0
3 -74.5 0.0
3.3333 -74.5 0.0
3.6667 -74.5 0.0
4 -74.5 0.0
4.3333 -74.5 0.0
4.6667 -74.5 0.0
5 -74.5 0.0
5.8938 -74.5 0.0
6.9475 -74.5 0.0
8.1895 -74.5 0.0
9.6535 -74.5 0.0
11.3792 -74.5 0.0
13.4135 -74.5 0.0
15.8114 -74.5 0.0
18.638 -74.5 0.0
21.9699 -74.5 0.0
25.8974 -74.5 0.0
30.527 -74.5 0.0
35.9843 -74.5 0.0
42.4171 -74.5 0.0
50 -74.5 0.0
0 -77.3333 0.0
0.1667 -77.3333 0.0
0.3333 -77.3333 0.0
0.5 -77.3333 0.0
0.6667 -77.3333 0.0
0.8333 -77.3333 0.0
1 -77.3333 0.0
1.1667 -77.3333 0.0
1.3333 -77.3333 0.0
1.5 -77.3333 0.0
1.6667 -77.3333 0.0
1.8333 -77.3333 0.0
2 -77.3333 0.0
2.1667 -77.3333 0.0
2.3333 -77.3333 0.0
2.5 -77.3333 0.0
2.6667 -77.3333 0.0
2.8333 -77.3333 0.0
3 -77.3333 0.0
3.1667 -77.3333 0.0
3.3333 -77.3333 0.0
3.5 -77.3333 0.0
3.6667 -77.3333 0.0
3.8333 -77.3333 0.0
4 -77.3333 0.0
4.1667 -77.3333 0.0
4.3333 -77.3333 0.0
4.5 -77.3333 0.0
4.6667 -77.3333 0.0
4.8333 -77.3333 0.0
5 -77.3333 0.0
5.4469 -77.3333 0.0
5.8938 -77.3333 0.0
6.4207 -77.3333 0.0
6.9475 -77.3333 0.0
7.5685 -77.3333 0.0
8.1895 -77.3333 0.0
8.9215 -77.3333 0.0
9.6535 -77.3333 0.0
10.5164 -77.3333 0.0
11.3792 -77.3333 0.0
12.3964 -77.3333 0.0
13.4135 -77.3333 0.0
14.6124 -77.3333 0.0
15.8114 -77.3333 0.0
17.2247 -77.3333 0.0
18.638 -77.3333 0.0
20.3039 -77.3333 0.0
21.9699 -77.3333 0.0
23.9336 -77.3333 0.0
25.8974 -77.3333 0.0
28.2122 -77.3333 0.0
30.527 -77.3333 0.0
33.2556 -77.3333 0.0
35.9843 -77.3333 0.0
39.2007 -77.3333 0.0
42.4171 -77.3333 0.0
46.2086 -77.3333 0.0
50 -77.3333 0.0
0 -80.1667 0.0
0.3333 -80.1667 0.0
0.6667 -80.1667 0.0
1 -80.1667 0.0
1.3333 -80.1667 0.0
1.6667 -80.1667 0.0
2 -80.1667 0.0
2.3333 -80.1667 0.0
2.6667 -80.1667 0.0
3 -80.1667 0.0
3.3333 -80.1667 0.0
3.6667 -80.1667 0.0
4 -80.1667 0.0
4.3333 -80.1667 0.0
4.6667 -80.1667 0.0
5 -80.1667 0.0
5.8938 -80.1667 0.0
6.9475 -80.1667 0.0
8.1895 -80.1667 0.0
9.6535 -80.1667 0.0
11.3792 -80.1667 0.0
13.4135 -80.1667 0.0
15.8114 -80.1667 0.0
18.638 -80.1667 0.0
21.9699 -80.1667 0.0
25.8974 -80.1667 0.0
30.527 -80.1667 0.0
35.9843 -80.1667 0.0
42.4171 -80.1667 0.0
50 -80.1667 0.0
0 -83 0.0
0.1667 -83 0.0
0.3333 -83 0.0
0.5 -83 0.0
0.6667 -83 0.0
0.8333 -83 0.0
1 -83 0.0
1.1667 -83 0.0
1.3333 -83 0.0
1.5 -83 0.0
1.6667 -83 0.0
1.8333 -83 0.0
2 -83 0.0
2.1667 -83 0.0
2.3333 -83 0.0
2.5 -83 0.0
2.6667 -83 0.0
2.8333 -83 0.0
3 -83 0.0
3.1667 -83 0.0
3.3333 -83 0.0
3.5 -83 0.0
3.6667 -83 0.0
3.8333 -83 0.0
4 -83 0.0
4.1667 -83 0.0
4.3333 -83 0.0
4.5 -83 0.0
4.6667 -83 0.0
4.8333 -83 0.0
5 -83 0.0
5.4469 -83 0.0
5.8938 -83 0.0
6.4207 -83 0.0
6.9475 -83 0.0
7.5685 -83 0.0
8.1895 -83 0.0
8.9215 -83 0.0
9.6535 -83 0.0
10.5164 -83 0.0
11.3792 -83 0.0
12.3964 -83 0.0
13.4135 -83 0.0
14.6124 -83 0.0
15.8114 -83 0.0
17.2247 -83 0.0
18.638 -83 0.0
20.3039 -83 0.0
21.9699 -83 0.0
23.9336 -83 0.0
25.8974 -83 0.0
28.2122 -83 0.0
30.527 -83 0.0
33.2556 -83 0.0
35.9843 -83 0.0
39.2007 -83 0.0
42.4171 -83 0.0
46.2086 -83 0.0
50 -83 0.0
0 -85.8333 0.0
0.3333 -85.8333 0.0
0.6667 -85.8333 0.0
1 -85.8333 0.0
1.3333 -85.8333 0.0
1.6667 -85.8333 0.0
2 -85.8333 0.0
2.3333 -85.8333 0.0
2.6667 -85.8333 0.0
3 -85.8333 0.0
3.3333 -85.8333 0.0
3.6667 -85.8333 0.0
4 -85.8333 0.0
4.3333 -85.8333 0.0
4.6667 -85.8333 0.0
5 -85.8333 0.0
5.8938 -85.8333 0.0
6.9475 -85.8333 0.0
8.1895 -85.8333 0.0
9.6535 -85.8333 0.0
11.3792 -85.8333 0.0
13.4135 -85.8333 0.0
15.8114 -85.8333 0.0
18.638 -85.8333 0.0
21.9699 -85.8333 0.0
25.8974 -85.8333 0.0
30.527 -85.8333 0.0
35.9843 -85.8333 0.0
42.4171 -85.8333 0.0
50 -85.8333 0.0
0 -88.6667 0.0
0.1667 -88.6667 0.0
0.3333 -88.6667 0.0
0.5 -88.6667 0.0
0.6667 -88.6667 0.0
0.8333 -88.6667 0.0
1 -88.6667 0.0
1.1667 -88.6667 0.0
1.3333 -88.6667 0.0
1.5 -88.6667 0.0
1.6667 -88.6667 0.0
1.8333 -88.6667 0.0
2 -88.6667 0.0
2.1667 -88.6667 0.0
2.3333 -88.6667 0.0
2.5 -88.6667 0.0
2.6667 -88.6667 0.0
2.8333 -88.6667 0.0
3 -88.6667 0.0
3.1667 -88.6667 0.0
3.3333 -88.6667 0.0
3.5 -88.6667 0.0
3.6667 -88.6667 0.0
3.8333 -88.6667 0.0
4 -88.6667 0.0
4.1667 -88.6667 0.0
4.3333 -88.6667 0.0
4.5 -88.6667 0.0
4.6667 -88.6667 0.0
4.8333 -88.6667 0.0
5 -88.6667 0.0
5.4469 -88.6667 0.0
5.8938 -88.6667 0.0
6.4207 -88.6667 0.0
6.9475 -88.6667 0.0
7.5685 -88.6667 0.0
8.1895 -88.6667 0.0
8.9215 -88.6667 0.0
9.6535 -88.6667 0.0
10.5164 -88.6667 0.0
11.3792 -88.6667 0.0
12.3964 -88.6667 0.0
13.4135 -88.6667 0.0
14.6124 -88.6667 0.0
15.8114 -88.6667 0.0
17.2247 -88.6667 0.0
18.638 -88.6667 0.0
20.3039 -88.6667 0.0
21.9699 -88.6667 0.0
23.9336 -88.6667 0.0
25.8974 -88.6667 0.0
28.2122 -88.6667 0.0
30.527 -88.6667 0.0
33.2556 -88.6667 0.0
35.9843 -88.6667 0.0
39.2007 -88.6667 0.0
42.4171 -88.6667 0.0
46.2086 -88.6667 0.0
50 -88.6667 0.0
0 -91.5 0.0
0.3333 -91.5 0.0
0.6667 -91.5 0.0
1 -91.5 0.0
1.3333 -91.5 0.0
1.6667 -91.5 0.0
2 -91.5 0.0
2.3333 -91.5 0.0
2.6667 -91.5 0.0
3 -91.5 0.0
3.3333 -91.5 0.0
3.6667 -91.5 0.0
4 -91.5 0.0
4.3333 -91.5 0.0
4.6667 -91.5 0.0
5 -91.5 0.0
5.8938 -91.5 0.0
6.9475 -91.5 0.0
8.1895 -91.5 0.0
9.6535 -91.5 0.0
11.3792 -91.5 0.0
13.4135 -91.5 0.0
15.8114 -91.5 0.0
18.638 -91.5 0.0
21.9699 -91.5 0.0
25.8974 -91.5 0.0
30.527 -91.5 0.0
35.9843 -91.5 0.0
42.4171 -91.5 0.0
50 -91.5 0.0
0 -94.3333 0.0
0.1667 -94.3333 0.0
0.3333 -94.3333 0.0
0.5 -94.3333 0.0
0.6667 -94.3333 0.0
0.8333 -94.3333 0.0
1 -94.3333 0.0
1.1667 -94.3333 0.0
1.3333 -94.3333 0.0
1.5 -94.3333 0.0
1.6667 -94.3333 0.0
1.8333 -94.3333 0.0
2 -94.3333 0.0
2.1667 -94.3333 0.0
2.3333 -94.3333 0.0
2.5 -94.3333 0.0
2.6667 -94.3333 0.0
2.8333 -94.3333 0.0
3 -94.3333 0.0
3.1667 -94.3333 0.0
3.3333 -94.3333 0.0
3.5 -94.3333 0.0
3.6667 -94.3333 0.0
3.8333 -94.3333 0.0
4 -94.3333 0.0
4.1667 -94.3333 0.0
4.3333 -94.3333 0.0
4.5 -94.3333 0.0
4.6667 -94.3333 0.0
4.8333 -94.3333 0.0
5 -94.3333 0.0
5.4469 -94.3333 0.0
5.8938 -94.3333 0.0
6.4207 -94.3333 0.0
6.9475 -94.3333 0.0
7.5685 -94.3333 0.0
8.1895 -94.3333 0.0
8.9215 -94.3333 0.0
9.6535 -94.3333 0.0
10.5164 -94.3333 0.0
11.3792 -94.3333 0.0
12.3964 -94.3333 0.0
13.4135 -94.3333 0.0
14.6124 -94.3333 0.0
15.8114 -94.3333 0.0
17.2247 -94.3333 0.0
18.638 -94.3333 0.0
20.3039 -94.3333 0.0
21.9699 -94.3333 0.0
23.9336 -94.3333 0.0
25.8974 -94.3333 0.0
28.2122 -94.3333 0.0
30.527 -94.3333 0.0
33.2556 -94.3333 0.0
35.9843 -94.3333 0.0
39.2007 -94.3333 0.0
42.4171 -94.3333 0.0
46.2086 -94.3333 0.0
50 -94.3333 0.0
0 -97.1667 0.0
0.3333 -97.1667 0.0
0.6667 -97.1667 0.0
1 -97.1667 0.0
1.3333 -97.1667 0.0
1.6667 -97.1667 0.0
2 -97.1667 0.0
2.3333 -97.1667 0.0
2.6667 -97.1667 0.0
3 -97.1667 0.0
3.3333 -97.1667 0.0
3.6667 -97.1667 0.0
4 -97.1667 0.0
4.3333 -97.1667 0.0
4.6667 -97.1667 0.0
5 -97.1667 0.0
5.8938 -97.1667 0.0
6.9475 -97.1667 0.0
8.1895 -97.1667 0.0
9.6535 -97.1667 0.0
11.3792 -97.1667 0.0
13.4135 -97.1667 0.0
15.8114 -97.1667 0.0
18.638 -97.1667 0.0
21.9699 -97.1667 0.0
25.8974 -97.1667 0.0
30.527 -97.1667 0.0
35.9843 -97.1667 0.0
42.4171 -97.1667 0.0
50 -97.1667 0.0
0 -100 0.0
0.1667 -100 0.0
0.3333 -100 0.0
0.5 -100 0.0
0.6667 -100 0.0
0.8333 -100 0.0
1 -100 0.0
1.1667 -100 0.0
1.3333 -100 0.0
1.5 -100 0.0
1.6667 -100 0.0
1.8333 -100 0.0
2 -100 0.0
2.1667 -100 0.0
2.3333 -100 0.0
2.5 -100 0.0
2.6667 -100 0.0
2.8333 -100 0.0
3 -100 0.0
3.1667 -100 0.0
3.3333 -100 0.0
3.5 -100 0.0
3.6667 -100 0.0
3.8333 -100 0.0
4 -100 0.0
4.1667 -100 0.0
4.3333 -100 0.0
4.5 -100 0.0
4.6667 -100 0.0
4.8333 -100 0.0
5 -100 0.0
5.4469 -100 0.0
5.8938 -100 0.0
6.4207 -100 0.0
6.9475 -100 0.0
7.5685 -100 0.0
8.1895 -100 0.0
8.9215 -100 0.0
9.6535 -100 0.0
10.5164 -100 0.0
11.3792 -100 0.0
12.3964 -100 0.0
13.4135 -100 0.0
14.6124 -100 0.0
15.8114 -100 0.0
17.2247 -100 0.0
18.638 -100 0.0
20.3039 -100 0.0
21.9699 -100 0.0
23.9336 -100 0.0
25.8974 -100 0.0
28.2122 -100 0.0
30.527 -100 0.0
33.2556 -100 0.0
35.9843 -100 0.0
39.2007 -100 0.0
42.4171 -100 0.0
46.2086 -100 0.0
50 -100 0.0

CELLS 1305 11745
8 89 91  2  0 90 60  1 59
8 91 93  4  2 92 61  3 60
8 93 95  6  4 94 62  5 61
8 95 97  8  6 96 63  7 62
8 97 99 10  8 98 64  9 63
8  99 101  12  10 100  65  11  64
8 101 103  14  12 102  66  13  65
8 103 105  16  14 104  67  15  66
8 105 107  18  16 106  68  17  67
8 107 109  20  18 108  69  19  68
8 109 111  22  20 110  70  21  69
8 111 113  24  22 112  71  23  70
8 113 115  26  24 114  72  25  71
8 115 117  28  26 116  73  27  72
8 117 119  30  28 118  74  29  73
8 119 121  32  30 120  75  31  74
8 121 123  34  32 122  76  33  75
8 123 125  36  34 124  77  35  76
8 125 127  38  36 126  78  37  77
8 127 129  40  38 128  79  39  78
8 129 131  42  40 130  80  41  79
8 131 133  44  42 132  81  43  80
8 133 135  46  44 134  82  45  81
8 135 137  48  46 136  83  47  82
8 137 139  50  48 138  84  49  83
8 139 141  52  50 140  85  51  84
8 141 143  54  52 142  86  53  85
8 143 145  56  54 144  87  55  86
8 145 147  58  56 146  88  57  87
8 178 180  91  89 179 149  90 148
8 180 182  93  91 181 150  92 149
8 182 184  95  93 183 151  94 150
8 184 186  97  95 185 152  96 151
8 186 188  99  97 187 153  98 152
8 188 190 101  99 189 154 100 153
8 190 192 103 101 191 155 102 154
8 192 194 105 103 193 156 104 155
8 194 196 107 105 195 157 106 156
8 196 198 109 107 197 158 108 157
8 198 200 111 109 199 159 110 158
8 200 202 113 111 201 160 112 159
8 202 204 115 113 203 161 114 160
8 204 206 117 115 205 162 116 161
8 206 208 119 117 207 163 118 162
8 208 210 121 119 209 164 120 163
8 210 212 123 121 211 165 122 164
8 212 214 125 123 213 166 124 165
8 214 216 127 125 215 167 126 166
8 216 218 129 127 217 168 128 167
8 218 220 131 129 219 169 130 168
8 220 222 133 131 221 170 132 169
8 222 224 135 133 223 171 134 170
8 224 226 137 135 225 172 136 171
8 226 228 139 137 227 173 138 172
8 228 230 141 139 229 174 140 173
8 230 232 143 141 231 175 142 174
8 232 234 145 143 233 176 144 175
8 234 236 147 145 235 177 146 176
8 267 269 180 178 268 238 179 237
8 269 271 182 180 270 239 181 238
8 271 273 184 182 272 240 183 239
8 273 275 186 184 274 241 185 240
8 275 277 188 186 276 242 187 241
8 277 279 190 188 278 243 189 242
8 279 281 192 190 280 244 191 243
8 281 283 194 192 282 245 193 244
8 283 285 196 194 284 246 195 245
8 285 287 198 196 286 247 197 246
8 287 289 200 198 288 248 199 247
8 289 291 202 200 290 249 201 248
8 291 293 204 202 292 250 203 249
8 293 295 206 204 294 251 205 250
8 295 297 208 206 296 252 207 251
8 297 299 210 208 298 253 209 252
8 299 301 212 210 300 254 211 253
8 301 303 214 212 302 255 213 254
8 303 305 216 214 304 256 215 255
8 305 307 218 216 306 257 217 256
8 307 309 220 218 308 258 219 257
8 309 311 222 220 310 259 221 258
8 311 313 224 222 312 260 223 259
8 313 315 226 224 314 261 225 260
8 315 317 228 226 316 262 227 261
8 317 319 230 228 318 263 229 262
8 319 321 232 230 320 264 231 263
8 321 323 234 232 322 265 233 264
8 323 325 236 234 324 266 235 265
8 356 358 269 267 357 327 268 326
8 358 360 271 269 359 328 270 327
8 360 362 273 271 361 329 272 328
8 362 364 275 273 363 330 274 329
8 364 366 277 275 365 331 276 330
8 366 368 279 277 367 332 278 331
8 368 370 281 279 369 333 280 332
8 370 372 283 281 371 334 282 333
8 372 374 285 283 373 335 284 334
8 374 376 287 285 375 336 286 335
8 376 378 289 287 377 337 288 336
8 378 380 291 289 379 338 290 337
8 380 382 293 291 381 339 292 338
8 382 384 295 293 383 340 294 339
8 384 386 297 295 385 341 296 340
8 386 388 299 297 387 342 298 341
8 388 390 301 299 389 343 300 342
8 390 392 303 301 391 344 302 343
8 392 394 305 303 393 345 304 344
8 394 396 307 305 395 346 306 345
8 396 398 309 307 397 347 308 346
8 398 400 311 309 399 348 310 347
8 400 402 313 311 401 349 312 348
8 402 404 315 313 403 350 314 349
8 404 406 317 315 405 351 316 350
8 406 408 319 317 407 352 318 351
8 408 410 321 319 409 353 320 352
8 410 412 323 321 411 354 322 353
8 412 414 325 323 413 355 324 354
8 445 447 358 356 446 416 357 415
8 447 449 360 358 448 417 359 416
8 449 451 362 360 450 418 361 417
8 451 453 364 362 452 419 363 418
8 453 455 366 364 454 420 365 419
8 455 457 368 366 456 421 367 420
8 457 459 370 368 458 422 369 421
8 459 461 372 370 460 423 371 422
8 461 463 374 372 462 424 373 423
8 463 465 376 374 464 425 375 424
8 465 467 378 376 466 426 377 425
8 467 469 380 378 468 427 379 426
8 469 471 382 380 470 428 381 427
8 471 473 384 382 472 429 383 428
8 473 475 386 384 474 430 385 429
8 475 477 388 386 476 431 387 430
8 477 479 390 388 478 432 389 431
8 479 481 392 390 480 433 391 432
8 481 483 394 392 482 434 393 433
8 483 485 396 394 484 435 395 434
8 485 487 398 396 486 436 397 435
8 487 489 400 398 488 437 399 436
8 489 491 402 400 490 438 401 437
8 491 493 404 402 492 439 403 438
8 493 495 406 404 494 440 405 439
8 495 497 408 406 496 441 407 440
8 497 499 410 408 498 442 409 441
8 499 501 412 410 500 443 411 442
8 501 503 414 412 502 444 413 443
8 534 536 447 445 535 505 446 504
8 536 538 449 447 537 506 448 505
8 538 540 451 449 539 507 450 506
8 540 542 453 451 541 508 452 507
8 542 544 455 453 543 509 454 508
8 544 546 457 455 545 510 456 509
8 546 548 459 457 547 511 458 510
8 548 550 461 459 549 512 460 511
8 550 552 463 461 551 513 462 512
8 552 554 465 463 553 514 464 513
8 554 556 467 465 555 515 466 514
8 556 558 469 467 557 516 468 515
8 558 560 471 469 559 517 470 516
8 560 562 473 471 561 518 472 517
8 562 564 475 473 563 519 474 518
8 564 566 477 475 565 520 476 519
8 566 568 479 477 567 521 478 520
8 568 570 481 479 569 522 480 521
8 570 572 483 481 571 523 482 522
8 572 574 485 483 573 524 484 523
8 574 576 487 485 575 525 486 524
8 576 578 489 487 577 526 488 525
8 578 580 491 489 579 527 490 526
8 580 582 493 491 581 528 492 527
8 582 584 495 493 583 529 494 528
8 584 586 497 495 585 530 496 529
8 586 588 499 497 587 531 498 530
8 588 590 501 499 589 532 500 531
8 590 592 503 501 591 533 502 532
8 623 625 536 534 624 594 535 593
8 625 627 538 536 626 595 537 594
8 627 629 540 538 628 596 539 595
8 629 631 542 540 630 597 541 596
8 631 633 544 542 632 598 543 597
8 633 635 546 544 634 599 545 598
8 635 637 548 546 636 600 547 599
8 637 639 550 548 638 601 549 600
8 639 641 552 550 640 602 551 601
8 641 643 554 552 642 603 553 602
8 643 645 556 554 644 604 555 603
8 645 647 558 556 646 605 557 604
8 647 649 560 558 648 606 559 605
8 649 651 562 560 650 607 561 606
8 651 653 564 562 652 608 563 607
8 653 655 566 564 654 609 565 608
8 655 657 568 566 656 610 567 609
8 657 659 570 568 658 611 569 610
8 659 661 572 570 660 612 571 611
8 661 663 574 572 662 613 573 612
8 663 665 576 574 664 614 575 613
8 665 667 578 576 666 615 577 614
8 667 669 580 578 668 616 579 615
8 669 671 582 580 670 617 581 616
8 671 673 584 582 672 618 583 617
8 673 675 586 584 674 619 585 618
8 675 677 588 586 676 620 587 619
8 677 679 590 588 678 621 589 620
8 679 681 592 590 680 622 591 621
8 712 714 625 623 713 683 624 682
8 714 716 627 625 715 684 626 683
8 716 718 629 627 717 685 628 684
8 718 720 631 629 719 686 630 685
8 720 722 633 631 721 687 632 686
8 722 724 635 633 723 688 634 687
8 724 726 637 635 725 689 636 688
8 726 728 639 637 727 690 638 689
8 728 730 641 639 729 691 640 690
8 730 732 643 641 731 692 642 691
8 732 734 645 643 733 693 644 692
8 734 736 647 645 735 694 646 693
8 736 738 649 647 737 695 648 694
8 738 740 651 649 739 696 650 695
8 740 742 653 651 741 697 652 696
8 742 744 655 653 743 698 654 697
8 744 746 657 655 745 699 656 698
8 746 748 659 657 747 700 658 699
8 748 750 661 659 749 701 660 700
8 750 752 663 661 751 702 662 701
8 752 754 665 663 753 703 664 702
8 754 756 667 665 755 704 666 703
8 756 758 669 667 757 705 668 704
8 758 760 671 669 759 706 670 705
8 760 762 673 671 761 707 672 706
8 762 764 675 673 763 708 674 707
8 764 766 677 675 765 709 676 708
8 766 768 679 677 767 710 678 709
8 768 770 681 679 769 711 680 710
8 801 803 714 712 802 772 713 771
8 803 805 716 714 804 773 715 772
8 805 807 718 716 806 774 717 773
8 807 809 720 718 808 775 719 774
8 809 811 722 720 810 776 721 775
8 811 813 724 722 812 777 723 776
8 813 815 726 724 814 778 725 777
8 815 817 728 726 816 779 727 778
8 817 819 730 728 818 780 729 779
8 819 821 732 730 820 781 731 780
8 821 823 734 732 822 782 733 781
8 823 825 736 734 824 783 735 782
8 825 827 738 736 826 784 737 783
8 827 829 740 738 828 785 739 784
8 829 831 742 740 830 786 741 785
8 831 833 744 742 832 787 743 786
8 833 835 746 744 834 788 745 787
8 835 837 748 746 836 789 747 788
8 837 839 750 748 838 790 749 789
8 839 841 752 750 840 791 751 790
8 841 843 754 752 842 792 753 791
8 843 845 756 754 844 793 755 792
8 845 847 758 756 846 794 757 793
8 847 849 760 758 848 795 759 794
8 849 851 762 760 850 796 761 795
8 851 853 764 762 852 797 763 796
8 853 855 766 764 854 798 765 797
8 855 857 768 766 856 799 767 798
8 857 859 770 768 858 800 769 799
8 890 892 803 801 891 861 802 860
8 892 894 805 803 893 862 804 861
8 894 896 807 805 895 863 806 862
8 896 898 809 807 897 864 808 863
8 898 900 811 809 899 865 810 864
8 900 902 813 811 901 866 812 865
8 902 904 815 813 903 867 814 866
8 904 906 817 815 905 868 816 867
8 906 908 819 817 907 869 818 868
8 908 910 821 819 909 870 820 869
8 910 912 823 821 911 871 822 870
8 912 914 825 823 913 872 824 871
8 914 916 827 825 915 873 826 872
8 916 918 829 827 917 874 828 873
8 918 920 831 829 919 875 830 874
8 920 922 833 831 921 876 832 875
8 922 924 835 833 923 877 834 876
8 924 926 837 835 925 878 836 877
8 926 928 839 837 927 879 838 878
8 928 930 841 839 929 880 840 879
8 930 932 843 841 931 881 842 880
8 932 934 845 843 933 882 844 881
8 934 936 847 845 935 883 846 882
8 936 938 849 847 937 884 848 883
8 938 940 851 849 939 885 850 884
8 940 942 853 851 941 886 852 885
8 942 944 855 853 943 887 854 886
8 944 946 857 855 945 888 856 887
8 946 948 859 857 947 889 858 888
8 979 981 892 890 980 950 891 949
8 981 983 894 892 982 951 893 950
8 983 985 896 894 984 952 895 951
8 985 987 898 896 986 953 897 952
8 987 989 900 898 988 954 899 953
8 989 991 902 900 990 955 901 954
8 991 993 904 902 992 956 903 955
8 993 995 906 904 994 957 905 956
8 995 997 908 906 996 958 907 957
8 997 999 910 908 998 959 909 958
8  999 1001  912  910 1000  960  911  959
8 1001 1003  914  912 1002  961  913  960
8 1003 1005  916  914 1004  962  915  961
8 1005 1007  918  916 1006  963  917  962
8 1007 1009  920  918 1008  964  919  963
8 1009 1011  922  920 1010  965  921  964
8 1011 1013  924  922 1012  966  923  965
8 1013 1015  926  924 1014  967  925  966
8 1015 1017  928  926 1016  968  927  967
8 1017 1019  930  928 1018  969  929  968
8 1019 1021  932  930 1020  970  931  969
8 1021 1023  934  932 1022  971  933  970
8 1023 1025  936  934 1024  972  935  971
8 1025 1027  938  936 1026  973  937  972
8 1027 1029  940  938 1028  974  939  973
8 1029 1031  942  940 1030  975  941  974
8 1031 1033  944  942 1032  976  943  975
8 1033 1035  946  944 1034  977  945  976
8 1035 1037  948  946 1036  978  947  977
8 1068 1070  981  979 1069 1039  980 1038
8 1070 1072  983  981 1071 1040  982 1039
8 1072 1074  985  983 1073 1041  984 1040
8 1074 1076  987  985 1075 1042  986 1041
8 1076 1078  989  987 1077 1043  988 1042
8 1078 1080  991  989 1079 1044  990 1043
8 1080 1082  993  991 1081 1045  992 1044
8 1082 1084  995  993 1083 1046  994 1045
8 1084 1086  997  995 1085 1047  996 1046
8 1086 1088  999  997 1087 1048  998 1047
8 1088 1090 1001  999 1089 1049 1000 1048
8 1090 1092 1003 1001 1091 1050 1002 1049
8 1092 1094 1005 1003 1093 1051 1004 1050
8 1094 1096 1007 1005 1095 1052 1006 1051
8 1096 1098 1009 1007 1097 1053 1008 1052
8 1098 1100 1011 1009 1099 1054 1010 1053
8 1100 1102 1013 1011 1101 1055 1012 1054
8 1102 1104 1015 1013 1103 1056 1014 1055
8 1104 1106 1017 1015 1105 1057 1016 1056
8 1106 1108 1019 1017 1107 1058 1018 1057
8 1108 1110 1021 1019 1109 1059 1020 1058
8 1110 1112 1023 1021 1111 1060 1022 1059
8 1112 1114 1025 1023 1113 1061 1024 1060
8 1114 1116 1027 1025 1115 1062 1026 1061
8 1116 1118 1029 1027 1117 1063 1028 1062
8 1118 1120 1031 1029 1119 1064 1030 1063
8 1120 1122 1033 1031 1121 1065 1032 1064
8 1122 1124 1035 1033 1123 1066 1034 1065
8 1124 1126 1037 1035 1125 1067 1036 1066
8 1157 1159 1070 1068 1158 1128 1069 1127
8 1159 1161 1072 1070 1160 1129 1071 1128
8 1161 1163 1074 1072 1162 1130 1073 1129
8 1163 1165 1076 1074 1164 1131 1075 1130
8 1165 1167 1078 1076 1166 1132 1077 1131
8 1167 1169 1080 1078 1168 1133 1079 1132
8 1169 1171 1082 1080 1170 1134 1081 1133
8 1171 1173 1084 1082 1172 1135 1083 1134
8 1173 1175 1086 1084 1174 1136 1085 1135
8 1175 1177 1088 1086 1176 1137 1087 1136
8 1177 1179 1090 1088 1178 1138 1089 1137
8 1179 1181 1092 1090 1180 1139 1091 1138
8 1181 1183 1094 1092 1182 1140 1093 1139
8 1183 1185 1096 1094 1184 1141 1095 1140
8 1185 1187 1098 1096 1186 1142 1097 1141
8 1187 1189 1100 1098 1188 1143 1099 1142
8 1189 1191 1102 1100 1190 1144 1101 1143
8 1191 1193 1104 1102 1192 1145 1103 1144
8 1193 1195 1106 1104 1194 1146 1105 1145
8 1195 1197 1108 1106 1196 1147 1107 1146
8 1197 1199 1110 1108 1198 1148 1109 1147
8 1199 1201 1112 1110 1200 1149 1111 1148
8 1201 1203 1114 1112 1202 1150 1113 1149
8 1203 1205 1116 1114 1204 1151 1115 1150
8 1205 1207 1118 1116 1206 1152 1117 1151
8 1207 1209 1120 1118 1208 1153 1119 1152
8 1209 1211 1122 1120 1210 1154 1121 1153
8 1211 1213 1124 1122 1212 1155 1123 1154
8 1213 1215 1126 1124 1214 1156 1125 1155
8 1246 1248 1159 1157 1247 1217 1158 1216
8 1248 1250 1161 1159 1249 1218 1160 1217
8 1250 1252 1163 1161 1251 1219 1162 1218
8 1252 1254 1165 1163 1253 1220 1164 1219
8 1254 1256 1167 1165 1255 1221 1166 1220
8 1256 1258 1169 1167 1257 1222 1168 1221
8 1258 1260 1171 1169 1259 1223 1170 1222
8 1260 1262 1173 1171 1261 1224 1172 1223
8 1262 1264 1175 1173 1263 1225 1174 1224
8 1264 1266 1177 1175 1265 1226 1176 1225
8 1266 1268 1179 1177 1267 1227 1178 1226
8 1268 1270 1181 1179 1269 1228 1180 1227
8 1270 1272 1183 1181 1271 1229 1182 1228
8 1272 1274 1185 1183 1273 1230 1184 1229
8 1274 1276 1187 1185 1275 1231 1186 1230
8 1276 1278 1189 1187 1277 1232 1188 1231
8 1278 1280 1191 1189 1279 1233 1190 1232
8 1280 1282 1193 1191 1281 1234 1192 1233
8 1282 1284 1195 1193 1283 1235 1194 1234
8 1284 1286 1197 1195 1285 1236 1196 1235
8 1286 1288 1199 1197 1287 1237 1198 1236
8 1288 1290 1201 1199 1289 1238 1200 1237
8 1290 1292 1203 1201 1291 1239 1202 1238
8 1292 1294 1205 1203 1293 1240 1204 1239
8 1294 1296 1207 1205 1295 1241 1206 1240
8 1296 1298 1209 1207 1297 1242 1208 1241
8 1298 1300 1211 1209 1299 1243 1210 1242
8 1300 1302 1213 1211 1301 1244 1212 1243
8 1302 1304 1215 1213 1303 1245 1214 1244
8 1335 1337 1248 1246 1336 1306 1247 1305
8 1337 1339 1250 1248 1338 1307 1249 1306
8 1339 1341 1252 1250 1340 1308 1251 1307
8 1341 1343 1254 1252 1342 1309 1253 1308
8 1343 1345 1256 1254 1344 1310 1255 1309
8 1345 1347 1258 1256 1346 1311 1257 1310
8 1347 1349 1260 1258 1348 1312 1259 1311
8 1349 1351 1262 1260 1350 1313 1261 1312
8 1351 1353 1264 1262 1352 1314 1263 1313
8 1353 1355 1266 1264 1354 1315 1265 1314
8 1355 1357 1268 1266 1356 1316 1267 1315
8 1357 1359 1270 1268 1358 1317 1269 1316
8 1359 1361 1272 1270 1360 1318 1271 1317
8 1361 1363 1274 1272 1362 1319 1273 1318
8 1363 1365 1276 1274 1364 1320 1275 1319
8 1365 1367 1278 1276 1366 1321 1277 1320
8 1367 1369 1280 1278 1368 1322 1279 1321
8 1369 1371 1282 1280 1370 1323 1281 1322
8 1371 1373 1284 1282 1372 1324 1283 1323
8 1373 1375 1286 1284 1374 1325 1285 1324
8 1375 1377 1288 1286 1376 1326 1287 1325
8 1377 1379 1290 1288 1378 1327 1289 1326
8 1379 1381 1292 1290 1380 1328 1291 1327
8 1381 1383 1294 1292 1382 1329 1293 1328
8 1383 1385 1296 1294 1384 1330 1295 1329
8 1385 1387 1298 1296 1386 1331 1297 1330
8 1387 1389 1300 1298 1388 1332 1299 1331
8 1389 1391 1302 1300 1390 1333 1301 1332
8 1391 1393 1304 1302 1392 1334 1303 1333
8 1424 1426 1337 1335 1425 1395 1336 1394
8 1426 1428 1339 1337 1427 1396 1338 1395
8 1428 1430 1341 1339 1429 1397 1340 1396
8 1430 1432 1343 1341 1431 1398 1342 1397
8 1432 1434 1345 1343 1433 1399 1344 1398
8 1434 1436 1347 1345 1435 1400 1346 1399
8 1436 1438 1349 1347 1437 1401 1348 1400
8 1438 1440 1351 1349 1439 1402 1350 1401
8 1440 1442 1353 1351 1441 1403 1352 1402
8 1442 1444 1355 1353 1443 1404 1354 1403
8 1444 1446 1357 1355 1445 1405 1356 1404
8 1446 1448 1359 1357 1447 1406 1358 1405
8 1448 1450 1361 1359 1449 1407 1360 1406
8 1450 1452 1363 1361 1451 1408 1362 1407
8 1452 1454 1365 1363 1453 1409 1364 1408
8 1454 1456 1367 1365 1455 1410 1366 1409
8 1456 1458 1369 1367 1457 1411 1368 1410
8 1458 1460 1371 1369 1459 1412 1370 1411
8 1460 1462 1373 1371 1461 1413 1372 1412
8 1462 1464 1375 1373 1463 1414 1374 1413
8 1464 1466 1377 1375 1465 1415 1376 1414
8 1466 1468 1379 1377 1467 1416 1378 1415
8 1468 1470 1381 1379 1469 1417 1380 1416
8 1470 1472 1383 1381 1471 1418 1382 1417
8 1472 1474 1385 1383 1473 1419 1384 1418
8 1474 1476 1387 1385 1475 1420 1386 1419
8 1476 1478 1389 1387 1477 1421 1388 1420
8 1478 1480 1391 1389 1479 1422 1390 1421
8 1480 1482 1393 1391 1481 1423 1392 1422
8 1513 1515 1426 1424 1514 1484 1425 1483
8 1515 1517 1428 1426 1516 1485 1427 1484
8 1517 1519 1430 1428 1518 1486 1429 1485
8 1519 1521 1432 1430 1520 1487 1431 1486
8 1521 1523 1434 1432 1522 1488 1433 1487
8 1523 1525 1436 1434 1524 1489 1435 1488
8 1525 1527 1438 1436 1526 1490 1437 1489
8 1527 1529 1440 1438 1528 1491 1439 1490
8 1529 1531 1442 1440 1530 1492 1441 1491
8 1531 1533 1444 1442 1532 1493 1443 1492
8 1533 1535 1446 1444 1534 1494 1445 1493
8 1535 1537 1448 1446 1536 1495 1447 1494
8 1537 1539 1450 1448 1538 1496 1449 1495
8 1539 1541 1452 1450 1540 1497 1451 1496
8 1541 1543 1454 1452 1542 1498 1453 1497
8 1543 1545 1456 1454 1544 1499 1455 1498
8 1545 1547 1458 1456 1546 1500 1457 1499
8 1547 1549 1460 1458 1548 1501 1459 1500
8 1549 1551 1462 1460 1550 1502 1461 1501
8 1551 1553 1464 1462 1552 1503 1463 1502
8 1553 1555 1466 1464 1554 1504 1465 1503
8 1555 1557 1468 1466 1556 1505 1467 1504
8 1557 1559 1470 1468 1558 1506 1469 1505
8 1559 1561 1472 1470 1560 1507 1471 1506
8 1561 1563 1474 1472 1562 1508 1473 1507
8 1563 1565 1476 1474 1564 1509 1475 1508
8 1565 1567 1478 1476 1566 1510 1477 1509
8 1567 1569 1480 1478 1568 1511 1479 1510
8 1569 1571 1482 1480 1570 1512 1481 1511
8 1602 1604 1515 1513 1603 1573 1514 1572
8 1604 1606 1517 1515 1605 1574 1516 1573
8 1606 1608 1519 1517 1607 1575 1518 1574
8 1608 1610 1521 1519 1609 1576 1520 1575
8 1610 1612 1523 1521 1611 1577 1522 1576
8 1612 1614 1525 1523 1613 1578 1524 1577
8 1614 1616 1527 1525 1615 1579 1526 1578
8 1616 1618 1529 1527 1617 1580 1528 1579
8 1618 1620 1531 1529 1619 1581 1530 1580
8 1620 1622 1533 1531 1621 1582 1532 1581
8 1622 1624 1535 1533 1623 1583 1534 1582
8 1624 1626 1537 1535 1625 1584 1536 1583
8 1626 1628 1539 1537 1627 1585 1538 1584
8 1628 1630 1541 1539 1629 1586 1540 1585
8 1630 1632 1543 1541 1631 1587 1542 1586
8 1632 1634 1545 1543 1633 1588 1544 1587
8 1634 1636 1547 1545 1635 1589 1546 1588
8 1636 1638 1549 1547 1637 1590 1548 1589
8 1638 1640 1551 1549 1639 1591 1550 1590
8 1640 1642 1553 1551 1641 1592 1552 1591
8 1642 1644 1555 1553 1643 1593 1554 1592
8 1644 1646 1557 1555 1645 1594 1556 1593
8 1646 1648 1559 1557 1647 1595 1558 1594
8 1648 1650 1561 1559 1649 1596 1560 1595
8 1650 1652 1563 1561 1651 1597 1562 1596
8 1652 1654 1565 1563 1653 1598 1564 1597
8 1654 1656 1567 1565 1655 1599 1566 1598
8 1656 1658 1569 1567 1657 1600 1568 1599
8 1658 1660 1571 1569 1659 1601 1570 1600
8 1691 1693 1604 1602 1692 1662 1603 1661
8 1693 1695 1606 1604 1694 1663 1605 1662
8 1695 1697 1608 1606 1696 1664 1607 1663
8 1697 1699 1610 1608 1698 1665 1609 1664
8 1699 1701 1612 1610 1700 1666 1611 1665
8 1701 1703 1614 1612 1702 1667 1613 1666
8 1703 1705 1616 1614 1704 1668 1615 1667
8 1705 1707 1618 1616 1706 1669 1617 1668
8 1707 1709 1620 1618 1708 1670 1619 1669
8 1709 1711 1622 1620 1710 1671 1621 1670
8 1711 1713 1624 1622 1712 1672 1623 1671
8 1713 1715 1626 1624 1714 1673 1625 1672
8 1715 1717 1628 1626 1716 1674 1627 1673
8 1717 1719 1630 1628 1718 1675 1629 1674
8 1719 1721 1632 1630 1720 1676 1631 1675
8 1721 1723 1634 1632 1722 1677 1633 1676
8 1723 1725 1636 1634 1724 1678 1635 1677
8 1725 1727 1638 1636 1726 1679 1637 1678
8 1727 1729 1640 1638 1728 1680 1639 1679
8 1729 1731 1642 1640 1730 1681 1641 1680
8 1731 1733 1644 1642 1732 1682 1643 1681
8 1733 1735 1646 1644 1734 1683 1645 1682
8 1735 1737 1648 1646 1736 1684 1647 1683
8 1737 1739 1650 1648 1738 1685 1649 1684
8 1739 1741 1652 1650 1740 1686 1651 1685
8 1741 1743 1654 1652 1742 1687 1653 1686
8 1743 1745 1656 1654 1744 1688 1655 1687
8 1745 1747 1658 1656 1746 1689 1657 1688
8 1747 1749 1660 1658 1748 1690 1659 1689
8 1780 1782 1693 1691 1781 1751 1692 1750
8 1782 1784 1695 1693 1783 1752 1694 1751
8 1784 1786 1697 1695 1785 1753 1696 1752
8 1786 1788 1699 1697 1787 1754 1698 1753
8 1788 1790 1701 1699 1789 1755 1700 1754
8 1790 1792 1703 1701 1791 1756 1702 1755
8 1792 1794 1705 1703 1793 1757 1704 1756
8 1794 1796 1707 1705 1795 1758 1706 1757
8 1796 1798 1709 1707 1797 1759 1708 1758
8 1798 1800 1711 1709 1799 1760 1710 1759
8 1800 1802 1713 1711 1801 1761 1712 1760
8 1802 1804 1715 1713 1803 1762 1714 1761
8 1804 1806 1717 1715 1805 1763 1716 1762
8 1806 1808 1719 1717 1807 1764 1718 1763
8 1808 1810 1721 1719 1809 1765 1720 1764
8 1810 1812 1723 1721 1811 1766 1722 1765
8 1812 1814 1725 1723 1813 1767 1724 1766
8 1814 1816 1727 1725 1815 1768 1726 1767
8 1816 1818 1729 1727 1817 1769 1728 1768
8 1818 1820 1731 1729 1819 1770 1730 1769
8 1820 1822 1733 1731 1821 1771 1732 1770
8 1822 1824 1735 1733 1823 1772 1734 1771
8 1824 1826 1737 1735 1825 1773 1736 1772
8 1826 1828 1739 1737 1827 1774 1738 1773
8 1828 1830 1741 1739 1829 1775 1740 1774
8 1830 1832 1743 1741 1831 1776 1742 1775
8 1832 1834 1745 1743 1833 1777 1744 1776
8 1834 1836 1747 1745 1835 1778 1746 1777
8 1836 1838 1749 1747 1837 1779 1748 1778
8 1869 1871 1782 1780 1870 1840 1781 1839
8 1871 1873 1784 1782 1872 1841 1783 1840
8 1873 1875 1786 1784 1874 1842 1785 1841
8 1875 1877 1788 1786 1876 1843 1787 1842
8 1877 1879 1790 1788 1878 1844 1789 1843
8 1879 1881 1792 1790 1880 1845 1791 1844
8 1881 1883 1794 1792 1882 1846 1793 1845
8 1883 1885 1796 1794 1884 1847 1795 1846
8 1885 1887 1798 1796 1886 1848 1797 1847
8 1887 1889 1800 1798 1888 1849 1799 1848
8 1889 1891 1802 1800 1890 1850 1801 1849
8 1891 1893 1804 1802 1892 1851 1803 1850
8 1893 1895 1806 1804 1894 1852 1805 1851
8 1895 1897 1808 1806 1896 1853 1807 1852
8 1897 1899 1810 1808 1898 1854 1809 1853
8 1899 1901 1812 1810 1900 1855 1811 1854
8 1901 1903 1814 1812 1902 1856 1813 1855
8 1903 1905 1816 1814 1904 1857 1815 1856
8 1905 1907 1818 1816 1906 1858 1817 1857
8 1907 1909 1820 1818 1908 1859 1819 1858
8 1909 1911 1822 1820 1910 1860 1821 1859
8 1911 1913 1824 1822 1912 1861 1823 1860
8 1913 1915 1826 1824 1914 1862 1825 1861
8 1915 1917 1828 1826 1916 1863 1827 1862
8 1917 1919 1830 1828 1918 1864 1829 1863
8 1919 1921 1832 1830 1920 1865 1831 1864
8 1921 1923 1834 1832 1922 1866 1833 1865
8 1923 1925 1836 1834 1924 1867 1835 1866
8 1925 1927 1838 1836 1926 1868 1837 1867
8 1958 1960 1871 1869 1959 1929 1870 1928
8 1960 1962 1873 1871 1961 1930 1872 1929
8 1962 1964 1875 1873 1963 1931 1874 1930
8 1964 1966 1877 1875 1965 1932 1876 1931
8 1966 1968 1879 1877 1967 1933 1878 1932
8 1968 1970 1881 1879 1969 1934 1880 1933
8 1970 1972 1883 1881 1971 1935 1882 1934
8 1972 1974 1885 1883 1973 1936 1884 1935
8 1974 1976 1887 1885 1975 1937 1886 1936
8 1976 1978 1889 1887 1977 1938 1888 1937
8 1978 1980 1891 1889 1979 1939 1890 1938
8 1980 1982 1893 1891 1981 1940 1892 1939
8 1982 1984 1895 1893 1983 1941 1894 1940
8 1984 1986 1897 1895 1985 1942 1896 1941
8 1986 1988 1899 1897 1987 1943 1898 1942
8 1988 1990 1901 1899 1989 1944 1900 1943
8 1990 1992 1903 1901 1991 1945 1902 1944
8 1992 1994 1905 1903 1993 1946 1904 1945
8 1994 1996 1907 1905 1995 1947 1906 1946
8 1996 1998 1909 1907 1997 1948 1908 1947
8 1998 2000 1911 1909 1999 1949 1910 1948
8 2000 2002 1913 1911 2001 1950 1912 1949
8 2002 2004 1915 1913 2003 1951 1914 1950
8 2004 2006 1917 1915 2005 1952 1916 1951
8 2006 2008 1919 1917 2007 1953 1918 1952
8 2008 2010 1921 1919 2009 1954 1920 1953
8 2010 2012 1923 1921 2011 1955 1922 1954
8 2012 2014 1925 1923 2013 1956 1924 1955
8 2014 2016 1927 1925 2015 1957 1926 1956
8 2047 2049 1960 1958 2048 2018 1959 2017
8 2049 2051 1962 1960 2050 2019 1961 2018
8 2051 2053 1964 1962 2052 2020 1963 2019
8 2053 2055 1966 1964 2054 2021 1965 2020
8 2055 2057 1968 1966 2056 2022 1967 2021
8 2057 2059 1970 1968 2058 2023 1969 2022
8 2059 2061 1972 1970 2060 2024 1971 2023
8 2061 2063 1974 1972 2062 2025 1973 2024
8 2063 2065 1976 1974 2064 2026 1975 2025
8 2065 2067 1978 1976 2066 2027 1977 2026
8 2067 2069 1980 1978 2068 2028 1979 2027
8 2069 2071 1982 1980 2070 2029 1981 2028
8 2071 2073 1984 1982 2072 2030 1983 2029
8 2073 2075 1986 1984 2074 2031 1985 2030
8 2075 2077 1988 1986 2076 2032 1987 2031
8 2077 2079 1990 1988 2078 2033 1989 2032
8 2079 2081 1992 1990 2080 2034 1991 2033
8 2081 2083 1994 1992 2082 2035 1993 2034
8 2083 2085 1996 1994 2084 2036 1995 2035
8 2085 2087 1998 1996 2086 2037 1997 2036
8 2087 2089 2000 1998 2088 2038 1999 2037
8 2089 2091 2002 2000 2090 2039 2001 2038
8 2091 2093 2004 2002 2092 2040 2003 2039
8 2093 2095 2006 2004 2094 2041 2005 2040
8 2095 2097 2008 2006 2096 2042 2007 2041
8 2097 2099 2010 2008 2098 2043 2009 2042
8 2099 2101 2012 2010 2100 2044 2011 2043
8 2101 2103 2014 2012 2102 2045 2013 2044
8 2103 2105 2016 2014 2104 2046 2015 2045
8 2136 2138 2049 2047 2137 2107 2048 2106
8 2138 2140 2051 2049 2139 2108 2050 2107
8 2140 2142 2053 2051 2141 2109 2052 2108
8 2142 2144 2055 2053 2143 2110 2054 2109
8 2144 2146 2057 2055 2145 2111 2056 2110
8 2146 2148 2059 2057 2147 2112 2058 2111
8 2148 2150 2061 2059 2149 2113 2060 2112
8 2150 2152 2063 2061 2151 2114 2062 2113
8 2152 2154 2065 2063 2153 2115 2064 2114
8 2154 2156 2067 2065 2155 2116 2066 2115
8 2156 2158 2069 2067 2157 2117 2068 2116
8 2158 2160 2071 2069 2159 2118 2070 2117
8 2160 2162 2073 2071 2161 2119 2072 2118
8 2162 2164 2075 2073 2163 2120 2074 2119
8 2164 2166 2077 2075 2165 2121 2076 2120
8 2166 2168 2079 2077 2167 2122 2078 2121
8 2168 2170 2081 2079 2169 2123 2080 2122
8 2170 2172 2083 2081 2171 2124 2082 2123
8 2172 2174 2085 2083 2173 2125 2084 2124
8 2174 2176 2087 2085 2175 2126 2086 2125
8 2176 2178 2089 2087 2177 2127 2088 2126
8 2178 2180 2091 2089 2179 2128 2090 2127
8 2180 2182 2093 2091 2181 2129 2092 2128
8 2182 2184 2095 2093 2183 2130 2094 2129
8 2184 2186 2097 2095 2185 2131 2096 2130
8 2186 2188 2099 2097 2187 2132 2098 2131
8 2188 2190 2101 2099 2189 2133 2100 2132
8 2190 2192 2103 2101 2191 2134 2102 2133
8 2192 2194 2105 2103 2193 2135 2104 2134
8 2225 2227 2138 2136 2226 2196 2137 2195
8 2227 2229 2140 2138 2228 2197 2139 2196
8 2229 2231 2142 2140 2230 2198 2141 2197
8 2231 2233 2144 2142 2232 2199 2143 2198
8 2233 2235 2146 2144 2234 2200 2145 2199
8 2235 2237 2148 2146 2236 2201 2147 2200
8 2237 2239 2150 2148 2238 2202 2149 2201
8 2239 2241 2152 2150 2240 2203 2151 2202
8 2241 2243 2154 2152 2242 2204 2153 2203
8 2243 2245 2156 2154 2244 2205 2155 2204
8 2245 2247 2158 2156 2246 2206 2157 2205
8 2247 2249 2160 2158 2248 2207 2159 2206
8 2249 2251 2162 2160 2250 2208 2161 2207
8 2251 2253 2164 2162 2252 2209 2163 2208
8 2253 2255 2166 2164 2254 2210 2165 2209
8 2255 2257 2168 2166 2256 2211 2167 2210
8 2257 2259 2170 2168 2258 2212 2169 2211
8 2259 2261 2172 2170 2260 2213 2171 2212
8 2261 2263 2174 2172 2262 2214 2173 2213
8 2263 2265 2176 2174 2264 2215 2175 2214
8 2265 2267 2178 2176 2266 2216 2177 2215
8 2267 2269 2180 2178 2268 2217 2179 2216
8 2269 2271 2182 2180 2270 2218 2181 2217
8 2271 2273 2184 2182 2272 2219 2183 2218
8 2273 2275 2186 2184 2274 2220 2185 2219
8 2275 2277 2188 2186 2276 2221 2187 2220
8 2277 2279 2190 2188 2278 2222 2189 2221
8 2279 2281 2192 2190 2280 2223 2191 2222
8 2281 2283 2194 2192 2282 2224 2193 2223
8 2314 2316 2227 2225 2315 2285 2226 2284
8 2316 2318 2229 2227 2317 2286 2228 2285
8 2318 2320 2231 2229 2319 2287 2230 2286
8 2320 2322 2233 2231 2321 2288 2232 2287
8 2322 2324 2235 2233 2323 2289 2234 2288
8 2324 2326 2237 2235 2325 2290 2236 2289
8 2326 2328 2239 2237 2327 2291 2238 2290
8 2328 2330 2241 2239 2329 2292 2240 2291
8 2330 2332 2243 2241 2331 2293 2242 2292
8 2332 2334 2245 2243 2333 2294 2244 2293
8 2334 2336 2247 2245 2335 2295 2246 2294
8 2336 2338 2249 2247 2337 2296 2248 2295
8 2338 2340 2251 2249 2339 2297 2250 2296
8 2340 2342 2253 2251 2341 2298 2252 2297
8 2342 2344 2255 2253 2343 2299 2254 2298
8 2344 2346 2257 2255 2345 2300 2256 2299
8 2346 2348 2259 2257 2347 2301 2258 2300
8 2348 2350 2261 2259 2349 2302 2260 2301
8 2350 2352 2263 2261 2351 2303 2262 2302
8 2352 2354 2265 2263 2353 2304 2264 2303
8 2354 2356 2267 2265 2355 2305 2266 2304
8 2356 2358 2269 2267 2357 2306 2268 2305
8 2358 2360 2271 2269 2359 2307 2270 2306
8 2360 2362 2273 2271 2361 2308 2272 2307
8 2362 2364 2275 2273 2363 2309 2274 2308
8 2364 2366 2277 2275 2365 2310 2276 2309
8 2366 2368 2279 2277 2367 2311 2278 2310
8 2368 2370 2281 2279 2369 2312 2280 2311
8 2370 2372 2283 2281 2371 2313 2282 2312
8 2403 2405 2316 2314 2404 2374 2315 2373
8 2405 2407 2318 2316 2406 2375 2317 2374
8 2407 2409 2320 2318 2408 2376 2319 2375
8 2409 2411 2322 2320 2410 2377 2321 2376
8 2411 2413 2324 2322 2412 2378 2323 2377
8 2413 2415 2326 2324 2414 2379 2325 2378
8 2415 2417 2328 2326 2416 2380 2327 2379
8 2417 2419 2330 2328 2418 2381 2329 2380
8 2419 2421 2332 2330 2420 2382 2331 2381
8 2421 2423 2334 2332 2422 2383 2333 2382
8 2423 2425 2336 2334 2424 2384 2335 2383
8 2425 2427 2338 2336 2426 2385 2337 2384
8 2427 2429 2340 2338 2428 2386 2339 2385
8 2429 2431 2342 2340 2430 2387 2341 2386
8 2431 2433 2344 2342 2432 2388 2343 2387
8 2433 2435 2346 2344 2434 2389 2345 2388
8 2435 2437 2348 2346 2436 2390 2347 2389
8 2437 2439 2350 2348 2438 2391 2349 2390
8 2439 2441 2352 2350 2440 2392 2351 2391
8 2441 2443 2354 2352 2442 2393 2353 2392
8 2443 2445 2356 2354 2444 2394 2355 2393
8 2445 2447 2358 2356 2446 2395 2357 2394
8 2447 2449 2360 2358 2448 2396 2359 2395
8 2449 2451 2362 2360 2450 2397 2361 2396
8 2451 2453 2364 2362 2452 2398 2363 2397
8 2453 2455 2366 2364 2454 2399 2365 2398
8 2455 2457 2368 2366 2456 2400 2367 2399
8 2457 2459 2370 2368 2458 2401 2369 2400
8 2459 2461 2372 2370 2460 2402 2371 2401
8 2492 2494 2405 2403 2493 2463 2404 2462
8 2494 2496 2407 2405 2495 2464 2406 2463
8 2496 2498 2409 2407 2497 2465 2408 2464
8 2498 2500 2411 2409 2499 2466 2410 2465
8 2500 2502 2413 2411 2501 2467 2412 2466
8 2502 2504 2415 2413 2503 2468 2414 2467
8 2504 2506 2417 2415 2505 2469 2416 2468
8 2506 2508 2419 2417 2507 2470 2418 2469
8 2508 2510 2421 2419 2509 2471 2420 2470
8 2510 2512 2423 2421 2511 2472 2422 2471
8 2512 2514 2425 2423 2513 2473 2424 2472
8 2514 2516 2427 2425 2515 2474 2426 2473
8 2516 2518 2429 2427 2517 2475 2428 2474
8 2518 2520 2431 2429 2519 2476 2430 2475
8 2520 2522 2433 2431 2521 2477 2432 2476
8 2522 2524 2435 2433 2523 2478 2434 2477
8 2524 2526 2437 2435 2525 2479 2436 2478
8 2526 2528 2439 2437 2527 2480 2438 2479
8 2528 2530 2441 2439 2529 2481 2440 2480
8 2530 2532 2443 2441 2531 2482 2442 2481
8 2532 2534 2445 2443 2533 2483 2444 2482
8 2534 2536 2447 2445 2535 2484 2446 2483
8 2536 2538 2449 2447 2537 2485 2448 2484
8 2538 2540 2451 2449 2539 2486 2450 2485
8 2540 2542 2453 2451 2541 2487 2452 2486
8 2542 2544 2455 2453 2543 2488 2454 2487
8 2544 2546 2457 2455 2545 2489 2456 2488
8 2546 2548 2459 2457 2547 2490 2458 2489
8 2548 2550 2461 2459 2549 2491 2460 2490
8 2581 2583 2494 2492 2582 2552 2493 2551
8 2583 2585 2496 2494 2584 2553 2495 2552
8 2585 2587 2498 2496 2586 2554 2497 2553
8 2587 2589 2500 2498 2588 2555 2499 2554
8 2589 2591 2502 2500 2590 2556 2501 2555
8 2591 2593 2504 2502 2592 2557 2503 2556
8 2593 2595 2506 2504 2594 2558 2505 2557
8 2595 2597 2508 2506 2596 2559 2507 2558
8 2597 2599 2510 2508 2598 2560 2509 2559
8 2599 2601 2512 2510 2600 2561 2511 2560
8 2601 2603 2514 2512 2602 2562 2513 2561
8 2603 2605 2516 2514 2604 2563 2515 2562
8 2605 2607 2518 2516 2606 2564 2517 2563
8 2607 2609 2520 2518 2608 2565 2519 2564
8 2609 2611 2522 2520 2610 2566 2521 2565
8 2611 2613 2524 2522 2612 2567 2523 2566
8 2613 2615 2526 2524 2614 2568 2525 2567
8 2615 2617 2528 2526 2616 2569 2527 2568
8 2617 2619 2530 2528 2618 2570 2529 2569
8 2619 2621 2532 2530 2620 2571 2531 2570
8 2621 2623 2534 2532 2622 2572 2533 2571
8 2623 2625 2536 2534 2624 2573 2535 2572
8 2625 2627 2538 2536 2626 2574 2537 2573
8 2627 2629 2540 2538 2628 2575 2539 2574
8 2629 2631 2542 2540 2630 2576 2541 2575
8 2631 2633 2544 2542 2632 2577 2543 2576
8 2633 2635 2546 2544 2634 2578 2545 2577
8 2635 2637 2548 2546 2636 2579 2547 2578
8 2637 2639 2550 2548 2638 2580 2549 2579
8 2670 2672 2583 2581 2671 2641 2582 2640
8 2672 2674 2585 2583 2673 2642 2584 2641
8 2674 2676 2587 2585 2675 2643 2586 2642
8 2676 2678 2589 2587 2677 2644 2588 2643
8 2678 2680 2591 2589 2679 2645 2590 2644
8 2680 2682 2593 2591 2681 2646 2592 2645
8 2682 2684 2595 2593 2683 2647 2594 2646
8 2684 2686 2597 2595 2685 2648 2596 2647
8 2686 2688 2599 2597 2687 2649 2598 2648
8 2688 2690 2601 2599 2689 2650 2600 2649
8 2690 2692 2603 2601 2691 2651 2602 2650
8 2692 2694 2605 2603 2693 2652 2604 2651
8 2694 2696 2607 2605 2695 2653 2606 2652
8 2696 2698 2609 2607 2697 2654 2608 2653
8 2698 2700 2611 2609 2699 2655 2610 2654
8 2700 2702 2613 2611 2701 2656 2612 2655
8 2702 2704 2615 2613 2703 2657 2614 2656
8 2704 2706 2617 2615 2705 2658 2616 2657
8 2706 2708 2619 2617 2707 2659 2618 2658
8 2708 2710 2621 2619 2709 2660 2620 2659
8 2710 2712 2623 2621 2711 2661 2622 2660
8 2712 2714 2625 2623 2713 2662 2624 2661
8 2714 2716 2627 2625 2715 2663 2626 2662
8 2716 2718 2629 2627 2717 2664 2628 2663
8 2718 2720 2631 2629 2719 2665 2630 2664
8 2720 2722 2633 2631 2721 2666 2632 2665
8 2722 2724 2635 2633 2723 2667 2634 2666
8 2724 2726 2637 2635 2725 2668 2636 2667
8 2726 2728 2639 2637 2727 2669 2638 2668
8 2759 2761 2672 2670 2760 2730 2671 2729
8 2761 2763 2674 2672 2762 2731 2673 2730
8 2763 2765 2676 2674 2764 2732 2675 2731
8 2765 2767 2678 2676 2766 2733 2677 2732
8 2767 2769 2680 2678 2768 2734 2679 2733
8 2769 2771 2682 2680 2770 2735 2681 2734
8 2771 2773 2684 2682 2772 2736 2683 2735
8 2773 2775 2686 2684 2774 2737 2685 2736
8 2775 2777 2688 2686 2776 2738 2687 2737
8 2777 2779 2690 2688 2778 2739 2689 2738
8 2779 2781 2692 2690 2780 2740 2691 2739
8 2781 2783 2694 2692 2782 2741 2693 2740
8 2783 2785 2696 2694 2784 2742 2695 2741
8 2785 2787 2698 2696 2786 2743 2697 2742
8 2787 2789 2700 2698 2788 2744 2699 2743
8 2789 2791 2702 2700 2790 2745 2701 2744
8 2791 2793 2704 2702 2792 2746 2703 2745
8 2793 2795 2706 2704 2794 2747 2705 2746
8 2795 2797 2708 2706 2796 2748 2707 2747
8 2797 2799 2710 2708 2798 2749 2709 2748
8 2799 2801 2712 2710 2800 2750 2711 2749
8 2801 2803 2714 2712 2802 2751 2713 2750
8 2803 2805 2716 2714 2804 2752 2715 2751
8 2805 2807 2718 2716 2806 2753 2717 2752
8 2807 2809 2720 2718 2808 2754 2719 2753
8 2809 2811 2722 2720 2810 2755 2721 2754
8 2811 2813 2724 2722 2812 2756 2723 2755
8 2813 2815 2726 2724 2814 2757 2725 2756
8 2815 2817 2728 2726 2816 2758 2727 2757
8 2848 2850 2761 2759 2849 2819 2760 2818
8 2850 2852 2763 2761 2851 2820 2762 2819
8 2852 2854 2765 2763 2853 2821 2764 2820
8 2854 2856 2767 2765 2855 2822 2766 2821
8 2856 2858 2769 2767 2857 2823 2768 2822
8 2858 2860 2771 2769 2859 2824 2770 2823
8 2860 2862 2773 2771 2861 2825 2772 2824
8 2862 2864 2775 2773 2863 2826 2774 2825
8 2864 2866 2777 2775 2865 2827 2776 2826
8 2866 2868 2779 2777 2867 2828 2778 2827
8 2868 2870 2781 2779 2869 2829 2780 2828
8 2870 2872 2783 2781 2871 2830 2782 2829
8 2872 2874 2785 2783 2873 2831 2784 2830
8 2874 2876 2787 2785 2875 2832 2786 2831
8 2876 2878 2789 2787 2877 2833 2788 2832
8 2878 2880 2791 2789 2879 2834 2790 2833
8 2880 2882 2793 2791 2881 2835 2792 2834
8 2882 2884 2795 2793 2883 2836 2794 2835
8 2884 2886 2797 2795 2885 2837 2796 2836
8 2886 2888 2799 2797 2887 2838 2798 2837
8 2888 2890 2801 2799 2889 2839 2800 2838
8 2890 2892 2803 2801 2891 2840 2802 2839
8 2892 2894 2805 2803 2893 2841 2804 2840
8 2894 2896 2807 2805 2895 2842 2806 2841
8 2896 2898 2809 2807 2897 2843 2808 2842
8 2898 2900 2811 2809 2899 2844 2810 2843
8 2900 2902 2813 2811 2901 2845 2812 2844
8 2902 2904 2815 2813 2903 2846 2814 2845
8 2904 2906 2817 2815 2905 2847 2816 2846
8 2937 2939 2850 2848 2938 2908 2849 2907
8 2939 2941 2852 2850 2940 2909 2851 2908
8 2941 2943 2854 2852 2942 2910 2853 2909
8 2943 2945 2856 2854 2944 2911 2855 2910
8 2945 2947 2858 2856 2946 2912 2857 2911
8 2947 2949 2860 2858 2948 2913 2859 2912
8 2949 2951 2862 2860 2950 2914 2861 2913
8 2951 2953 2864 2862 2952 2915 2863 2914
8 2953 2955 2866 2864 2954 2916 2865 2915
8 2955 2957 2868 2866 2956 2917 2867 2916
8 2957 2959 2870 2868 2958 2918 2869 2917
8 2959 2961 2872 2870 2960 2919 2871 2918
8 2961 2963 2874 2872 2962 2920 2873 2919
8 2963 2965 2876 2874 2964 2921 2875 2920
8 2965 2967 2878 2876 2966 2922 2877 2921
8 2967 2969 2880 2878 2968 2923 2879 2922
8 2969 2971 2882 2880 2970 2924 2881 2923
8 2971 2973 2884 2882 2972 2925 2883 2924
8 2973 2975 2886 2884 2974 2926 2885 2925
8 2975 2977 2888 2886 2976 2927 2887 2926
8 2977 2979 2890 2888 2978 2928 2889 2927
8 2979 2981 2892 2890 2980 2929 2891 2928
8 2981 2983 2894 2892 2982 2930 2893 2929
8 2983 2985 2896 2894 2984 2931 2895 2930
8 2985 2987 2898 2896 2986 2932 2897 2931
8 2987 2989 2900 2898 2988 2933 2899 2932
8 2989 2991 2902 2900 2990 2934 2901 2933
8 2991 2993 2904 2902 2992 2935 2903 2934
8 2993 2995 2906 2904 2994 2936 2905 2935
8 3026 3028 2939 2937 3027 2997 2938 2996
8 3028 3030 2941 2939 3029 2998 2940 2997
8 3030 3032 2943 2941 3031 2999 2942 2998
8 3032 3034 2945 2943 3033 3000 2944 2999
8 3034 3036 2947 2945 3035 3001 2946 3000
8 3036 3038 2949 2947 3037 3002 2948 3001
8 3038 3040 2951 2949 3039 3003 2950 3002
8 3040 3042 2953 2951 3041 3004 2952 3003
8 3042 3044 2955 2953 3043 3005 2954 3004
8 3044 3046 2957 2955 3045 3006 2956 3005
8 3046 3048 2959 2957 3047 3007 2958 3006
8 3048 3050 2961 2959 3049 3008 2960 3007
8 3050 3052 2963 2961 3051 3009 2962 3008
8 3052 3054 2965 2963 3053 3010 2964 3009
8 3054 3056 2967 2965 3055 3011 2966 3010
8 3056 3058 2969 2967 3057 3012 2968 3011
8 3058 3060 2971 2969 3059 3013 2970 3012
8 3060 3062 2973 2971 3061 3014 2972 3013
8 3062 3064 2975 2973 3063 3015 2974 3014
8 3064 3066 2977 2975 3065 3016 2976 3015
8 3066 3068 2979 2977 3067 3017 2978 3016
8 3068 3070 2981 2979 3069 3018 2980 3017
8 3070 3072 2983 2981 3071 3019 2982 3018
8 3072 3074 2985 2983 3073 3020 2984 3019
8 3074 3076 2987 2985 3075 3021 2986 3020
8 3076 3078 2989 2987 3077 3022 2988 3021
8 3078 3080 2991 2989 3079 3023 2990 3022
8 3080 3082 2993 2991 3081 3024 2992 3023
8 3082 3084 2995 2993 3083 3025 2994 3024
8 3115 3117 3028 3026 3116 3086 3027 3085
8 3117 3119 3030 3028 3118 3087 3029 3086
8 3119 3121 3032 3030 3120 3088 3031 3087
8 3121 3123 3034 3032 3122 3089 3033 3088
8 3123 3125 3036 3034 3124 3090 3035 3089
8 3125 3127 3038 3036 3126 3091 3037 3090
8 3127 3129 3040 3038 3128 3092 3039 3091
8 3129 3131 3042 3040 3130 3093 3041 3092
8 3131 3133 3044 3042 3132 3094 3043 3093
8 3133 3135 3046 3044 3134 3095 3045 3094
8 3135 3137 3048 3046 3136 3096 3047 3095
8 3137 3139 3050 3048 3138 3097 3049 3096
8 3139 3141 3052 3050 3140 3098 3051 3097
8 3141 3143 3054 3052 3142 3099 3053 3098
8 3143 3145 3056 3054 3144 3100 3055 3099
8 3145 3147 3058 3056 3146 3101 3057 3100
8 3147 3149 3060 3058 3148 3102 3059 3101
8 3149 3151 3062 3060 3150 3103 3061 3102
8 3151 3153 3064 3062 3152 3104 3063 3103
8 3153 3155 3066 3064 3154 3105 3065 3104
8 3155 3157 3068 3066 3156 3106 3067 3105
8 3157 3159 3070 3068 3158 3107 3069 3106
8 3159 3161 3072 3070 3160 3108 3071 3107
8 3161 3163 3074 3072 3162 3109 3073 3108
8 3163 3165 3076 3074 3164 3110 3075 3109
8 3165 3167 3078 3076 3166 3111 3077 3110
8 3167 3169 3080 3078 3168 3112 3079 3111
8 3169 3171 3082 3080 3170 3113 3081 3112
8 3171 3173 3084 3082 3172 3114 3083 3113
8 3204 3206 3117 3115 3205 3175 3116 3174
8 3206 3208 3119 3117 3207 3176 3118 3175
8 3208 3210 3121 3119 3209 3177 3120 3176
8 3210 3212 3123 3121 3211 3178 3122 3177
8 3212 3214 3125 3123 3213 3179 3124 3178
8 3214 3216 3127 3125 3215 3180 3126 3179
8 3216 3218 3129 3127 3217 3181 3128 3180
8 3218 3220 3131 3129 3219 3182 3130 3181
8 3220 3222 3133 3131 3221 3183 3132 3182
8 3222 3224 3135 3133 3223 3184 3134 3183
8 3224 3226 3137 3135 3225 3185 3136 3184
8 3226 3228 3139 3137 3227 3186 3138 3185
8 3228 3230 3141 3139 3229 3187 3140 3186
8 3230 3232 3143 3141 3231 3188 3142 3187
8 3232 3234 3145 3143 3233 3189 3144 3188
8 3234 3236 3147 3145 3235 3190 3146 3189
8 3236 3238 3149 3147 3237 3191 3148 3190
8 3238 3240 3151 3149 3239 3192 3150 3191
8 3240 3242 3153 3151 3241 3193 3152 3192
8 3242 3244 3155 3153 3243 3194 3154 3193
8 3244 3246 3157 3155 3245 3195 3156 3194
8 3246 3248 3159 3157 3247 3196 3158 3195
8 3248 3250 3161 3159 3249 3197 3160 3196
8 3250 3252 3163 3161 3251 3198 3162 3197
8 3252 3254 3165 3163 3253 3199 3164 3198
8 3254 3256 3167 3165 3255 3200 3166 3199
8 3256 3258 3169 3167 3257 3201 3168 3200
8 3258 3260 3171 3169 3259 3202 3170 3201
8 3260 3262 3173 3171 3261 3203 3172 3202
8 3293 3295 3206 3204 3294 3264 3205 3263
8 3295 3297 3208 3206 3296 3265 3207 3264
8 3297 3299 3210 3208 3298 3266 3209 3265
8 3299 3301 3212 3210 3300 3267 3211 3266
8 3301 3303 3214 3212 3302 3268 3213 3267
8 3303 3305 3216 3214 3304 3269 3215 3268
8 3305 3307 3218 3216 3306 3270 3217 3269
8 3307 3309 3220 3218 3308 3271 3219 3270
8 3309 3311 3222 3220 3310 3272 3221 3271
8 3311 3313 3224 3222 3312 3273 3223 3272
8 3313 3315 3226 3224 3314 3274 3225 3273
8 3315 3317 3228 3226 3316 3275 3227 3274
8 3317 3319 3230 3228 3318 3276 3229 3275
8 3319 3321 3232 3230 3320 3277 3231 3276
8 3321 3323 3234 3232 3322 3278 3233 3277
8 3323 3325 3236 3234 3324 3279 3235 3278
8 3325 3327 3238 3236 3326 3280 3237 3279
8 3327 3329 3240 3238 3328 3281 3239 3280
8 3329 3331 3242 3240 3330 3282 3241 3281
8 3331 3333 3244 3242 3332 3283 3243 3282
8 3333 3335 3246 3244 3334 3284 3245 3283
8 3335 3337 3248 3246 3336 3285 3247 3284
8 3337 3339 3250 3248 3338 3286 3249 3285
8 3339 3341 3252 3250 3340 3287 3251 3286
8 3341 3343 3254 3252 3342 3288 3253 3287
8 3343 3345 3256 3254 3344 3289 3255 3288
8 3345 3347 3258 3256 3346 3290 3257 3289
8 3347 3349 3260 3258 3348 3291 3259 3290
8 3349 3351 3262 3260 3350 3292 3261 3291
8 3382 3384 3295 3293 3383 3353 3294 3352
8 3384 3386 3297 3295 3385 3354 3296 3353
8 3386 3388 3299 3297 3387 3355 3298 3354
8 3388 3390 3301 3299 3389 3356 3300 3355
8 3390 3392 3303 3301 3391 3357 3302 3356
8 3392 3394 3305 3303 3393 3358 3304 3357
8 3394 3396 3307 3305 3395 3359 3306 3358
8 3396 3398 3309 3307 3397 3360 3308 3359
8 3398 3400 3311 3309 3399 3361 3310 3360
8 3400 3402 3313 3311 3401 3362 3312 3361
8 3402 3404 3315 3313 3403 3363 3314 3362
8 3404 3406 3317 3315 3405 3364 3316 3363
8 3406 3408 3319 3317 3407 3365 3318 3364
8 3408 3410 3321 3319 3409 3366 3320 3365
8 3410 3412 3323 3321 3411 3367 3322 3366
8 3412 3414 3325 3323 3413 3368 3324 3367
8 3414 3416 3327 3325 3415 3369 3326 3368
8 3416 3418 3329 3327 3417 3370 3328 3369
8 3418 3420 3331 3329 3419 3371 3330 3370
8 3420 3422 3333 3331 3421 3372 3332 3371
8 3422 3424 3335 3333 3423 3373 3334 3372
8 3424 3426 3337 3335 3425 3374 3336 3373
8 3426 3428 3339 3337 3427 3375 3338 3374
8 3428 3430 3341 3339 3429 3376 3340 3375
8 3430 3432 3343 3341 3431 3377 3342 3376
8 3432 3434 3345 3343 3433 3378 3344 3377
8 3434 3436 3347 3345 3435 3379 3346 3378
8 3436 3438 3349 3347 3437 3380 3348 3379
8 3438 3440 3351 3349 3439 3381 3350 3380
8 3471 3473 3384 3382 3472 3442 3383 3441
8 3473 3475 3386 3384 3474 3443 3385 3442
8 3475 3477 3388 3386 3476 3444 3387 3443
8 3477 3479 3390 3388 3478 3445 3389 3444
8 3479 3481 3392 3390 3480 3446 3391 3445
8 3481 3483 3394 3392 3482 3447 3393 3446
8 3483 3485 3396 3394 3484 3448 3395 3447
8 3485 3487 3398 3396 3486 3449 3397 3448
8 3487 3489 3400 3398 3488 3450 3399 3449
8 3489 3491 3402 3400 3490 3451 3401 3450
8 3491 3493 3404 3402 3492 3452 3403 3451
8 3493 3495 3406 3404 3494 3453 3405 3452
8 3495 3497 3408 3406 3496 3454 3407 3453
8 3497 3499 3410 3408 3498 3455 3409 3454
8 3499 3501 3412 3410 3500 3456 3411 3455
8 3501 3503 3414 3412 3502 3457 3413 3456
8 3503 3505 3416 3414 3504 3458 3415 3457
8 3505 3507 3418 3416 3506 3459 3417 3458
8 3507 3509 3420 3418 3508 3460 3419 3459
8 3509 3511 3422 3420 3510 3461 3421 3460
8 3511 3513 3424 3422 3512 3462 3423 3461
8 3513 3515 3426 3424 3514 3463 3425 3462
8 3515 3517 3428 3426 3516 3464 3427 3463
8 3517 3519 3430 3428 3518 3465 3429 3464
8 3519 3521 3432 3430 3520 3466 3431 3465
8 3521 3523 3434 3432 3522 3467 3433 3466
8 3523 3525 3436 3434 3524 3468 3435 3467
8 3525 3527 3438 3436 3526 3469 3437 3468
8 3527 3529 3440 3438 3528 3470 3439 3469
8 3560 3562 3473 3471 3561 3531 3472 3530
8 3562 3564 3475 3473 3563 3532 3474 3531
8 3564 3566 3477 3475 3565 3533 3476 3532
8 3566 3568 3479 3477 3567 3534 3478 3533
8 3568 3570 3481 3479 3569 3535 3480 3534
8 3570 3572 3483 3481 3571 3536 3482 3535
8 3572 3574 3485 3483 3573 3537 3484 3536
8 3574 3576 3487 3485 3575 3538 3486 3537
8 3576 3578 3489 3487 3577 3539 3488 3538
8 3578 3580 3491 3489 3579 3540 3490 3539
8 3580 3582 3493 3491 3581 3541 3492 3540
8 3582 3584 3495 3493 3583 3542 3494 3541
8 3584 3586 3497 3495 3585 3543 3496 3542
8 3586 3588 3499 3497 3587 3544 3498 3543
8 3588 3590 3501 3499 3589 3545 3500 3544
8 3590 3592 3503 3501 3591 3546 3502 3545
8 3592 3594 3505 3503 3593 3547 3504 3546
8 3594 3596 3507 3505 3595 3548 3506 3547
8 3596 3598 3509 3507 3597 3549 3508 3548
8 3598 3600 3511 3509 3599 3550 3510 3549
8 3600 3602 3513 3511 3601 3551 3512 3550
8 3602 3604 3515 3513 3603 3552 3514 3551
8 3604 3606 3517 3515 3605 3553 3516 3552
8 3606 3608 3519 3517 3607 3554 3518 3553
8 3608 3610 3521 3519 3609 3555 3520 3554
8 3610 3612 3523 3521 3611 3556 3522 3555
8 3612 3614 3525 3523 3613 3557 3524 3556
8 3614 3616 3527 3525 3615 3558 3526 3557
8 3616 3618 3529 3527 3617 3559 3528 3558
8 3649 3651 3562 3560 3650 3620 3561 3619
8 3651 3653 3564 3562 3652 3621 3563 3620
8 3653 3655 3566 3564 3654 3622 3565 3621
8 3655 3657 3568 3566 3656 3623 3567 3622
8 3657 3659 3570 3568 3658 3624 3569 3623
8 3659 3661 3572 3570 3660 3625 3571 3624
8 3661 3663 3574 3572 3662 3626 3573 3625
8 3663 3665 3576 3574 3664 3627 3575 3626
8 3665 3667 3578 3576 3666 3628 3577 3627
8 3667 3669 3580 3578 3668 3629 3579 3628
8 3669 3671 3582 3580 3670 3630 3581 3629
8 3671 3673 3584 3582 3672 3631 3583 3630
8 3673 3675 3586 3584 3674 3632 3585 3631
8 3675 3677 3588 3586 3676 3633 3587 3632
8 3677 3679 3590 3588 3678 3634 3589 3633
8 3679 3681 3592 3590 3680 3635 3591 3634
8 3681 3683 3594 3592 3682 3636 3593 3635
8 3683 3685 3596 3594 3684 3637 3595 3636
8 3685 3687 3598 3596 3686 3638 3597 3637
8 3687 3689 3600 3598 3688 3639 3599 3638
8 3689 3691 3602 3600 3690 3640 3601 3639
8 3691 3693 3604 3602 3692 3641 3603 3640
8 3693 3695 3606 3604 3694 3642 3605 3641
8 3695 3697 3608 3606 3696 3643 3607 3642
8 3697 3699 3610 3608 3698 3644 3609 3643
8 3699 3701 3612 3610 3700 3645 3611 3644
8 3701 3703 3614 3612 3702 3646 3613 3645
8 3703 3705 3616 3614 3704 3647 3615 3646
8 3705 3707 3618 3616 3706 3648 3617 3647
8 3738 3740 3651 3649 3739 3709 3650 3708
8 3740 3742 3653 3651 3741 3710 3652 3709
8 3742 3744 3655 3653 3743 3711 3654 3710
8 3744 3746 3657 3655 3745 3712 3656 3711
8 3746 3748 3659 3657 3747 3713 3658 3712
8 3748 3750 3661 3659 3749 3714 3660 3713
8 3750 3752 3663 3661 3751 3715 3662 3714
8 3752 3754 3665 3663 3753 3716 3664 3715
8 3754 3756 3667 3665 3755 3717 3666 3716
8 3756 3758 3669 3667 3757 3718 3668 3717
8 3758 3760 3671 3669 3759 3719 3670 3718
8 3760 3762 3673 3671 3761 3720 3672 3719
8 3762 3764 3675 3673 3763 3721 3674 3720
8 3764 3766 3677 3675 3765 3722 3676 3721
8 3766 3768 3679 3677 3767 3723 3678 3722
8 3768 3770 3681 3679 3769 3724 3680 3723
8 3770 3772 3683 3681 3771 3725 3682 3724
8 3772 3774 3685 3683 3773 3726 3684 3725
8 3774 3776 3687 3685 3775 3727 3686 3726
8 3776 3778 3689 3687 3777 3728 3688 3727
8 3778 3780 3691 3689 3779 3729 3690 3728
8 3780 3782 3693 3691 3781 3730 3692 3729
8 3782 3784 3695 3693 3783 3731 3694 3730
8 3784 3786 3697 3695 3785 3732 3696 3731
8 3786 3788 3699 3697 3787 3733 3698 3732
8 3788 3790 3701 3699 3789 3734 3700 3733
8 3790 3792 3703 3701 3791 3735 3702 3734
8 3792 3794 3705 3703 3793 3736 3704 3735
8 3794 3796 3707 3705 3795 3737 3706 3736
8 3827 3829 3740 3738 3828 3798 3739 3797
8 3829 3831 3742 3740 3830 3799 3741 3798
8 3831 3833 3744 3742 3832 3800 3743 3799
8 3833 3835 3746 3744 3834 3801 3745 3800
8 3835 3837 3748 3746 3836 3802 3747 3801
8 3837 3839 3750 3748 3838 3803 3749 3802
8 3839 3841 3752 3750 3840 3804 3751 3803
8 3841 3843 3754 3752 3842 3805 3753 3804
8 3843 3845 3756 3754 3844 3806 3755 3805
8 3845 3847 3758 3756 3846 3807 3757 3806
8 3847 3849 3760 3758 3848 3808 3759 3807
8 3849 3851 3762 3760 3850 3809 3761 3808
8 3851 3853 3764 3762 3852 3810 3763 3809
8 3853 3855 3766 3764 3854 3811 3765 3810
8 3855 3857 3768 3766 3856 3812 3767 3811
8 3857 3859 3770 3768 3858 3813 3769 3812
8 3859 3861 3772 3770 3860 3814 3771 3813
8 3861 3863 3774 3772 3862 3815 3773 3814
8 3863 3865 3776 3774 3864 3816 3775 3815
8 3865 3867 3778 3776 3866 3817 3777 3816
8 3867 3869 3780 3778 3868 3818 3779 3817
8 3869 3871 3782 3780 3870 3819 3781 3818
8 3871 3873 3784 3782 3872 3820 3783 3819
8 3873 3875 3786 3784 3874 3821 3785 3820
8 3875 3877 3788 3786 3876 3822 3787 3821
8 3877 3879 3790 3788 3878 3823 3789 3822
8 3879 3881 3792 3790 3880 3824 3791 3823
8 3881 3883 3794 3792 3882 3825 3793 3824
8 3883 3885 3796 3794 3884 3826 3795 3825
8 3916 3918 3829 3827 3917 3887 3828 3886
8 3918 3920 3831 3829 3919 3888 3830 3887
8 3920 3922 3833 3831 3921 3889 3832 3888
8 3922 3924 3835 3833 3923 3890 3834 3889
8 3924 3926 3837 3835 3925 3891 3836 3890
8 3926 3928 3839 3837 3927 3892 3838 3891
8 3928 3930 3841 3839 3929 3893 3840 3892
8 3930 3932 3843 3841 3931 3894 3842 3893
8 3932 3934 3845 3843 3933 3895 3844 3894
8 3934 3936 3847 3845 3935 3896 3846 3895
8 3936 3938 3849 3847 3937 3897 3848 3896
8 3938 3940 3851 3849 3939 3898 3850 3897
8 3940 3942 3853 3851 3941 3899 3852 3898
8 3942 3944 3855 3853 3943 3900 3854 3899
8 3944 3946 3857 3855 3945 3901 3856 3900
8 3946 3948 3859 3857 3947 3902 3858 3901
8 3948 3950 3861 3859 3949 3903 3860 3902
8 3950 3952 3863 3861 3951 3904 3862 3903
8 3952 3954 3865 3863 3953 3905 3864 3904
8 3954 3956 3867 3865 3955 3906 3866 3905
8 3956 3958 3869 3867 3957 3907 3868 3906
8 3958 3960 3871 3869 3959 3908 3870 3907
8 3960 3962 3873 3871 3961 3909 3872 3908
8 3962 3964 3875 3873 3963 3910 3874 3909
8 3964 3966 3877 3875 3965 3911 3876 3910
8 3966 3968 3879 3877 3967 3912 3878 3911
8 3968 3970 3881 3879 3969 3913 3880 3912
8 3970 3972 3883 3881 3971 3914 3882 3913
8 3972 3974 3885 3883 3973 3915 3884 3914
8 4005 4007 3918 3916 4006 3976 3917 3975
8 4007 4009 3920 3918 4008 3977 3919 3976
8 4009 4011 3922 3920 4010 3978 3921 3977
8 4011 4013 3924 3922 4012 3979 3923 3978
8 4013 4015 3926 3924 4014 3980 3925 3979
8 4015 4017 3928 3926 4016 3981 3927 3980
8 4017 4019 3930 3928 4018 3982 3929 3981
8 4019 4021 3932 3930 4020 3983 3931 3982
8 4021 4023 3934 3932 4022 3984 3933 3983
8 4023 4025 3936 3934 4024 3985 3935 3984
8 4025 4027 3938 3936 4026 3986 3937 3985
8 4027 4029 3940 3938 4028 3987 3939 3986
8 4029 4031 3942 3940 4030 3988 3941 3987
8 4031 4033 3944 3942 4032 3989 3943 3988
8 4033 4035 3946 3944 4034 3990 3945 3989
8 4035 4037 3948 3946 4036 3991 3947 3990
8 4037 4039 3950 3948 4038 3992 3949 3991
8 4039 4041 3952 3950 4040 3993 3951 3992
8 4041 4043 3954 3952 4042 3994 3953 3993
8 4043 4045 3956 3954 4044 3995 3955 3994
8 4045 4047 3958 3956 4046 3996 3957 3995
8 4047 4049 3960 3958 4048 3997 3959 3996
8 4049 4051 3962 3960 4050 3998 3961 3997
8 4051 4053 3964 3962 4052 3999 3963 3998
8 4053 4055 3966 3964 4054 4000 3965 3999
8 4055 4057 3968 3966 4056 4001 3967 4000
8 4057 4059 3970 3968 4058 4002 3969 4001
8 4059 4061 3972 3970 4060 4003 3971 4002
8 4061 4063 3974 3972 4062 4004 3973 4003

CELL_TYPES 1305
23
23
23
23
23
23
23
23
23
23
23
23
23
23
23
23
23
23
23
23
23
23
23
23
23
23
23
23
23
23
23
23
23
23
23
23
23
23
23
23
23
23
23
23
23
23
23
23
23
23
23
23
23
23
23
23
23
23
23
23
23
23
23
23
23
23
23
23
23
23
23
23
23
23
23
23
23
23
23
23
23
23
23
23
23
23
23
23
23
23
23
23
23
23
23
23
23
23
23
23
23
23
23
23
23
23
23
23
23
23
23
23
23
23
23
23
23
23
23
23
23
23
23
23
23
23
23
23
23
23
23
23
23
23
23
23
23
23
23
23
23
23
23
23
23
23
23
23
23
23
23
23
23
23
23
23
23
23
23
23
23
23
23
23
23
23
23
23
23
23
23
23
23
23
23
23
23
23
23
23
23
23
23
23
23
23
23
23
23
23
23
23
23
23
23
23
23
23
23
23
23
23
23
23
23
23
23
23
23
23
23
23
23
23
23
23
23
23
23
23
23
23
23
23
23
23
23
23
23
23
23
23
23
23
23
23
23
23
23
23
23
23
23
23
23
23
23
23
23
23
23
23
23
23
23
23
23
23
23
23
23
23
23
23
23
23
23
23
23
23
23
23
23
23
23
23
23
23
23
23
23
23
23
23
23
23
23
23
23
23
23
23
23
23
23
23
23
23
23
23
23
23
23
23
23
23
23
23
23
23
23
23
23
23
23
23
23
23
23
23
23
23
23
23
23
23
23
23
23
23
23
23
23
23
23
23
23
23
23
23
23
23
23
23
23
23
23
23
23
23
23
23
23
23
23
23
23
23
23
23
23
23
23
23
23
23
23
23
23
23
23
23
23
23
23
23
23
23
23
23
23
23
23
23
23
23
23
23
23
23
23
23
23
23
23
23
23
23
23
23
23
23
23
23
23
23
23
23
23
23
23
23
23
23
23
23
23
23
23
23
23
23
23
23
23
23
23
23
23
23
23
23
23
23
23
23
23
23
23
23
23
23
23
23
23
23
23
23
23
23
23
23
23
23
23
23
23
23
23
23
23
23
23
23
23
23
23
23
23
23
23
23
23
23
23
23
23
23
23
23
23
23
23
23
23
23
23
23
23
23
23
23
23
23
23
23
23
23
23
23
23
23
23
23
23
23
23
23
23
23
23
23
23
23
23
23
23
23
23
23
23
23
23
23
23
23
23
23
23
23
23
23
23
23
23
23
23
23
23
23
23
23
23
23
23
23
23
23
23
23
23
23
23
23
23
23
23
23
23
23
23
23
23
23
23
23
23
23
23
23
23
23
23
23
23
23
23
23
23
23
23
23
23
23
23
23
23
23
23
23
23
23
23
23
23
23
23
23
23
23
23
23
23
23
23
23
23
23
23
23
23
23
23
23
23
23
23
23
23
23
23
23
23
23
23
23
23
23
23
23
23
23
23
23
23
23
23
23
23
23
23
23
23
23
23
23
23
23
23
23
23
23
23
23
23
23
23
23
23
23
23
23
23
23
23
23
23
23
23
23
23
23
23
23
23
23
23
23
23
23
23
23
23
23
23
23
23
23
23
23
23
23
23
23
23
23
23
23
23
23
23
23
23
23
23
23
23
23
23
23
23
23
23
23
23
23
23
23
23
23
23
23
23
23
23
23
23
23
23
23
23
23
23
23
23
23
23
23
23
23
23
23
23
23
23
23
23
23
23
23
23
23
23
23
23
23
23
23
23
23
23
23
23
23
23
23
23
23
23
23
23
23
23
23
23
23
23
23
23
23
23
23
23
23
23
23
23
23
23
23
23
23
23
23
23
23
23
23
23
23
23
23
23
23
23
23
23
23
23
23
23
23
23
23
23
23
23
23
23
23
23
23
23
23
23
23
23
23
23
23
23
23
23
23
23
23
23
23
23
23
23
23
23
23
23
23
23
23
23
23
23
23
23
23
23
23
23
23
23
23
23
23
23
23
23
23
23
23
23
23
23
23
23
23
23
23
23
23
23
23
23
23
23
23
23
23
23
23
23
23
23
23
23
23
23
23
23
23
23
23
23
23
23
23
23
23
23
23
23
23
23
23
23
23
23
23
23
23
23
23
23
23
23
23
23
23
23
23
23
23
23
23
23
23
23
23
23
23
23
23
23
23
23
23
23
23
23
23
23
23
23
23
23
23
23
23
23
23
23
23
23
23
23
23
23
23
23
23
23
23
23
23
23
23
23
23
23
23
23
23
23
23
23
23
23
23
23
23
23
23
23
23
23
23
23
23
23
23
23
23
23
23
23
23
23
23
23
23
23
23
23
23
23
23
23
23
23
23
23
23
23
23
23
23
23
23
23
23
23
23
23
23
23
23
23
23
23
23
23
23
23
23
23
23
23
23
23
23
23
23
23
23
23
23
23
23
23
23
23
23
23
23
23
23
23
23
23
23
23
23
23
23
23
23
23
23
23
23
23
23
23
23
23
23
23
23
23
23
23
23
23
23
23
23
23
23
23
23
23
23
23
23
23
23
23
23
23
23
23
23
23
23
23
23
23
23
23
23
23
23
23
23
23
23
23
23
23
23
23
23
23
23
23
23
23
23
23
23
23
23
23
23
23
23
23
23
23
23
23
23
23
23
23
23
23
23
23
23
23
23
23
23
23
23
23
23
23
23
23
23
23
23
23
23
23
23
23
23
23
23
23
23
23
23
23
23
23
23
23
23
23
23
23
23
23
23
23
23
23
23
23
23
23
23
23
23
23
23
23
23
23
23
23
23
23
23
23
23
23
23
23
23
23
23
23
23
23
23
23
23
23
23
23
23
23
23
23
23
23
23
23
23
23
23
23
23
23
23
23
23
23
23
23
23
23
23
23
23
23
23
23
23
23
23
23
23
23
23
23
23
23
23
23
23
23
23
23
23
23
23
23
23
23
23
23
23
23
23
23
23
23
23
23
23
23
23
23
23
23
23
23
23
23
23
23

POINT_DATA 4064
SCALARS Displacement_R double 1
LOOKUP_TABLE default
0
-8.60998e-06
-1.72031e-05
-2.57799e-05
-3.43233e-05
-4.28177e-05
-5.12622e-05
-5.96411e-05
-6.7939e-05
-7.61551e-05
-8.42746e-05
-9.22823e-05
-0.000100179
-0.000107949
-0.000115579
-0.000123071
-0.000130411
-0.000137587
-0.0001446
-0.000151439
-0.000158094
-0.00016457
-0.000170855
-0.000176943
-0.000182829
-0.00018853
-0.000194011
-0.000199408
-0.000204506
-0.000209177
-0.000212923
-0.000217148
-0.000218554
-0.000220137
-0.00022046
-0.000219509
-0.000217304
-0.000213563
-0.000208851
-0.000202582
-0.00019583
-0.000187778
-0.000179744
-0.000170713
-0.00016204
-0.000152549
-0.000143542
-0.000133697
-0.000124281
-0.000113832
-0.000103689
-9.22549e-05
-8.10629e-05
-6.83921e-05
-5.60259e-05
-4.21381e-05
-2.87452e-05
-1.39607e-05
0
0
-1.57708e-05
-3.14618e-05
-4.69792e-05
-6.22443e-05
-7.71797e-05
-9.16962e-05
-0.00010572
-0.000119179
-0.000131991
-0.000144081
-0.000155368
-0.000165733
-0.000174995
-0.00018258
-0.000188002
-0.000200075
-0.000203953
-0.000202524
-0.000195699
-0.000184361
-0.000169923
-0.000153757
-0.00013665
-0.000118646
-9.92192e-05
-7.77169e-05
-5.37946e-05
-2.7631e-05
0
0
-7.19924e-06
-1.43833e-05
-2.1552e-05
-2.86899e-05
-3.57831e-05
-4.28298e-05
-4.98158e-05
-5.67267e-05
-6.35612e-05
-7.03046e-05
-7.69434e-05
-8.34753e-05
-8.98865e-05
-9.6163e-05
-0.000102302
-0.00010829
-0.000114112
-0.000119764
-0.00012523
-0.000130493
-0.000135545
-0.000140362
-0.000144925
-0.000149196
-0.000153149
-0.000156701
-0.000159825
-0.000162353
-0.000164317
-0.000166897
-0.000175461
-0.000181714
-0.000185716
-0.000187897
-0.000188637
-0.000187985
-0.00018587
-0.000182715
-0.000178125
-0.000172983
-0.000166603
-0.000160151
-0.000152695
-0.0001455
-0.000137441
-0.000129775
-0.000121221
-0.000113022
-0.000103764
-9.4758e-05
-8.44648e-05
-7.43766e-05
-6.28333e-05
-5.15663e-05
-3.88085e-05
-2.65179e-05
-1.28715e-05
0
0
-1.30407e-05
-2.60077e-05
-3.88148e-05
-5.1388e-05
-6.36525e-05
-7.55216e-05
-8.69178e-05
-9.77592e-05
-0.000107947
-0.000117376
-0.000125914
-0.000133365
-0.000139451
-0.00014394
-0.00014829
-0.000164117
-0.000172176
-0.000173721
-0.000169903
-0.000161707
-0.000150432
-0.00013727
-0.000122915
-0.000107409
-9.03044e-05
-7.10406e-05
-4.93392e-05
-2.54039e-05
0
0
-5.87679e-06
-1.17401e-05
-1.7589e-05
-2.34094e-05
-2.91894e-05
-3.49258e-05
-4.06063e-05
-4.62175e-05
-5.1757e-05
-5.72113e-05
-6.25678e-05
-6.78223e-05
-7.29619e-05
-7.79723e-05
-8.28493e-05
-8.75771e-05
-9.21422e-05
-9.65344e-05
-0.00010074
-0.000104735
-0.000108512
-0.00011204
-0.000115307
-0.000118279
-0.000120933
-0.000123241
-0.000125256
-0.000127116
-0.000129054
-0.000131392
-0.000139515
-0.000147249
-0.000153202
-0.000156806
-0.000159053
-0.000159707
-0.000159035
-0.000157249
-0.000154206
-0.000150525
-0.000145747
-0.000140766
-0.000134867
-0.000129072
-0.000122455
-0.000116075
-0.000108833
-0.000101811
-9.37618e-05
-8.58623e-05
-7.67234e-05
-6.77125e-05
-5.73073e-05
-4.71167e-05
-3.54982e-05
-2.42919e-05
-1.17892e-05
0
0
-1.04786e-05
-2.08895e-05
-3.11547e-05
-4.1205e-05
-5.09692e-05
-6.03649e-05
-6.93147e-05
-7.77344e-05
-8.55229e-05
-9.25732e-05
-9.8761e-05
-0.000103947
-0.000108078
-0.000111526
-0.000115613
-0.000131119
-0.000141854
-0.000145928
-0.000144745
-0.000139428
-0.000131146
-0.000120898
-0.00010925
-9.62224e-05
-8.14256e-05
-6.43871e-05
-4.48945e-05
-2.31789e-05
0
0
-4.63397e-06
-9.25619e-06
-1.38649e-05
-1.84479e-05
-2.29948e-05
-2.75016e-05
-3.19577e-05
-3.6351e-05
-4.06784e-05
-4.49275e-05
-4.90873e-05
-5.31523e-05
-5.71109e-05
-6.09498e-05
-6.4664e-05
-6.82385e-05
-7.16614e-05
-7.49225e-05
-7.80095e-05
-8.09045e-05
-8.36012e-05
-8.60828e-05
-8.8343e-05
-9.03787e-05
-9.21975e-05
-9.38521e-05
-9.53986e-05
-9.69952e-05
-9.87891e-05
-0.000100898
-0.000108138
-0.000115737
-0.000122603
-0.00012725
-0.000130641
-0.000132388
-0.000132956
-0.000132391
-0.000130754
-0.000128426
-0.000125161
-0.000121584
-0.000117196
-0.000112761
-0.000107568
-0.00010245
-9.65132e-05
-9.06525e-05
-8.38115e-05
-7.70033e-05
-6.90194e-05
-6.10717e-05
-5.18058e-05
-4.26784e-05
-3.22019e-05
-2.20686e-05
-1.07122e-05
0
0
-8.06978e-06
-1.60788e-05
-2.3958e-05
-3.16446e-05
-3.90734e-05
-4.61698e-05
-5.28621e-05
-5.90736e-05
-6.47174e-05
-6.9711e-05
-7.3983e-05
-7.75114e-05
-8.04499e-05
-8.33176e-05
-8.69782e-05
-0.000101034
-0.000113031
-0.000119068
-0.000120179
-0.00011751
-0.000112073
-0.000104654
-9.56696e-05
-8.50969e-05
-7.25911e-05
-5.77627e-05
-4.04655e-05
-2.09589e-05
0
0
-3.46317e-06
-6.9164e-06
-1.03575e-05
-1.3776e-05
-1.71632e-05
-2.05149e-05
-2.3822e-05
-2.70742e-05
-3.0268e-05
-3.33927e-05
-3.64391e-05
-3.94013e-05
-4.22699e-05
-4.50333e-05
-4.76871e-05
-5.02191e-05
-5.26203e-05
-5.48835e-05
-5.70007e-05
-5.89629e-05
-6.07691e-05
-6.2418e-05
-6.39143e-05
-6.52805e-05
-6.65423e-05
-6.77609e-05
-6.90011e-05
-7.03627e-05
-7.19337e-05
-7.37693e-05
-8.00256e-05
-8.69381e-05
-9.39069e-05
-9.91274e-05
-0.000103324
-0.000105939
-0.000107566
-0.000108083
-0.000107727
-0.000106663
-0.00010483
-0.000102601
-9.9678e-05
-9.65705e-05
-9.27787e-05
-8.89043e-05
-8.42635e-05
-7.95515e-05
-7.3913e-05
-6.81862e-05
-6.13525e-05
-5.44585e-05
-4.63287e-05
-3.82551e-05
-2.89193e-05
-1.98503e-05
-9.64008e-06
0
0
-5.79555e-06
-1.15387e-05
-1.71711e-05
-2.26383e-05
-2.7884e-05
-3.28451e-05
-3.74617e-05
-4.16726e-05
-4.54167e-05
-4.86502e-05
-5.13653e-05
-5.36362e-05
-5.57047e-05
-5.80317e-05
-6.11558e-05
-7.33898e-05
-8.55681e-05
-9.30173e-05
-9.61192e-05
-9.59002e-05
-9.31831e-05
-8.85227e-05
-8.21642e-05
-7.40247e-05
-6.37949e-05
-5.11635e-05
-3.60501e-05
-1.87436e-05
0
0
-2.35592e-06
-4.70389e-06
-7.04147e-06
-9.36029e-06
-1.16534e-05
-1.39166e-05
-1.61428e-05
-1.83237e-05
-2.04558e-05
-2.25307e-05
-2.45409e-05
-2.64816e-05
-2.83454e-05
-3.01239e-05
-3.18136e-05
-3.34067e-05
-3.48976e-05
-3.62835e-05
-3.75614e-05
-3.8731e-05
-3.97968e-05
-4.07691e-05
-4.16609e-05
-4.25037e-05
-4.33271e-05
-4.41859e-05
-4.5132e-05
-4.62281e-05
-4.75251e-05
-4.9053e-05
-5.42963e-05
-6.03251e-05
-6.69199e-05
-7.23013e-05
-7.69934e-05
-8.02684e-05
-8.27859e-05
-8.42638e-05
-8.50844e-05
-8.52052e-05
-8.47369e-05
-8.38076e-05
-8.23091e-05
-8.05023e-05
-7.8089e-05
-7.54431e-05
-7.20854e-05
-6.85119e-05
-6.40677e-05
-5.94138e-05
-5.37237e-05
-4.78754e-05
-4.08763e-05
-3.38491e-05
-2.56505e-05
-1.76387e-05
-8.57273e-06
0
0
-3.63811e-06
-7.23406e-06
-1.07417e-05
-1.41174e-05
-1.73166e-05
-2.02911e-05
-2.29967e-05
-2.53932e-05
-2.74495e-05
-2.91611e-05
-3.05711e-05
-3.18061e-05
-3.31153e-05
-3.48567e-05
-3.73682e-05
-4.76564e-05
-5.93034e-05
-6.76792e-05
-7.25038e-05
-7.45684e-05
-7.44676e-05
-7.25038e-05
-6.87364e-05
-6.30091e-05
-5.50396e-05
-4.45915e-05
-3.16503e-05
-1.65344e-05
0
0
-1.30139e-06
-2.59702e-06
-3.88447e-06
-5.15765e-06
-6.4116e-06
-7.6426e-06
-8.84554e-06
-1.00145e-05
-1.11463e-05
-1.22352e-05
-1.32761e-05
-1.42653e-05
-1.5198e-05
-1.60693e-05
-1.68773e-05
-1.76183e-05
-1.82908e-05
-1.88958e-05
-1.9435e-05
-1.99145e-05
-2.03427e-05
-2.07358e-05
-2.11108e-05
-2.14982e-05
-2.19267e-05
-2.24383e-05
-2.30721e-05
-2.38673e-05
-2.48545e-05
-2.605e-05
-3.0275e-05
-3.53568e-05
-4.13175e-05
-4.65595e-05
-5.14854e-05
-5.52419e-05
-5.85043e-05
-6.08424e-05
-6.27537e-05
-6.39978e-05
-6.48407e-05
-6.51728e-05
-6.50661e-05
-6.45372e-05
-6.34838e-05
-6.20531e-05
-5.99675e-05
-5.75239e-05
-5.42663e-05
-5.06784e-05
-4.61256e-05
-4.13167e-05
-3.54434e-05
-2.9457e-05
-2.23921e-05
-1.54326e-05
-7.50895e-06
0
0
-1.57697e-06
-3.12374e-06
-4.60834e-06
-5.99999e-06
-7.26789e-06
-8.38128e-06
-9.31419e-06
-1.00486e-05
-1.0582e-05
-1.09418e-05
-1.12027e-05
-1.15084e-05
-1.20797e-05
-1.31815e-05
-1.50286e-05
-2.33472e-05
-3.4033e-05
-4.29404e-05
-4.92655e-05
-5.34828e-05
-5.59157e-05
-5.65967e-05
-5.53885e-05
-5.20524e-05
-4.6327e-05
-3.80485e-05
-2.72675e-05
-1.43323e-05
0
0
-2.88712e-07
-5.74068e-07
-8.53876e-07
-1.12457e-06
-1.38335e-06
-1.62721e-06
-1.85332e-06
-2.0583e-06
-2.2398e-06
-2.39462e-06
-2.52038e-06
-2.61464e-06
-2.67562e-06
-2.70181e-06
-2.69273e-06
-2.64893e-06
-2.57208e-06
-2.46629e-06
-2.33674e-06
-2.19345e-06
-2.04672e-06
-1.91453e-06
-1.81453e-06
-1.77301e-06
-1.81467e-06
-1.9706e-06
-2.26897e-06
-2.73469e-06
-3.38682e-06
-4.23369e-06
-7.44762e-06
-1.15764e-05
-1.67739e-05
-2.1683e-05
-2.66454e-05
-3.07398e-05
-3.4631e-05
-3.77506e-05
-4.06878e-05
-4.30085e-05
-4.51221e-05
-4.66856e-05
-4.79446e-05
-4.86746e-05
-4.89644e-05
-4.87367e-05
-4.79122e-05
-4.65899e-05
-4.45107e-05
-4.19817e-05
-3.85595e-05
-3.47841e-05
-3.00309e-05
-2.50801e-05
-1.91449e-05
-1.32329e-05
-6.4488e-06
0
0
4.13349e-07
8.43273e-07
1.30602e-06
1.81785e-06
2.39406e-06
3.04682e-06
3.78327e-06
4.6003e-06
5.47614e-06
6.3614e-06
7.16617e-06
7.7505e-06
7.93149e-06
7.51691e-06
6.3689e-06
-1.92021e-09
-9.495e-06
-1.86475e-05
-2.63081e-05
-3.25869e-05
-3.74952e-05
-4.07824e-05
-4.21077e-05
-4.11446e-05
-3.76491e-05
-3.15285e-05
-2.2898e-05
-1.2136e-05
0
0
6.94348e-07
1.38947e-06
2.08714e-06
2.7882e-06
3.49316e-06
4.20405e-06
4.92132e-06
5.64558e-06
6.37835e-06
7.11992e-06
7.87008e-06
8.62975e-06
9.39795e-06
1.0173e-05
1.09539e-05
1.17367e-05
1.25171e-05
1.3289e-05
1.40449e-05
1.47728e-05
1.54621e-05
1.60952e-05
1.66555e-05
1.71219e-05
1.7474e-05
1.76891e-05
1.77473e-05
1.76326e-05
1.73327e-05
1.68442e-05
1.46249e-05
1.14267e-05
7.04051e-06
2.57087e-06
-2.29945e-06
-6.63046e-06
-1.10689e-05
-1.49164e-05
-1.88368e-05
-2.22037e-05
-2.55607e-05
-2.83345e-05
-3.09394e-05
-3.2913e-05
-3.45318e-05
-3.54958e-05
-3.59219e-05
-3.5712e-05
-3.48027e-05
-3.33256e-05
-3.10268e-05
-2.82788e-05
-2.46399e-05
-2.07195e-05
-1.59093e-05
-1.10406e-05
-5.39235e-06
0
0
2.35851e-06
4.71867e-06
7.0797e-06
9.44218e-06
1.18049e-05
1.41611e-05
1.64996e-05
1.87984e-05
2.10166e-05
2.30912e-05
2.49283e-05
2.64006e-05
2.73617e-05
2.76729e-05
2.72451e-05
2.27709e-05
1.45594e-05
5.33521e-06
-3.55866e-06
-1.18466e-05
-1.91947e-05
-2.50597e-05
-2.8896e-05
-3.0288e-05
-2.90077e-05
-2.50327e-05
-1.8543e-05
-9.94608e-06
0
0
1.66232e-06
3.32271e-06
4.98233e-06
6.63921e-06
8.29142e-06
9.9399e-06
1.15826e-05
1.32172e-05
1.48444e-05
1.64615e-05
1.80656e-05
1.96564e-05
2.12301e-05
2.27821e-05
2.43104e-05
2.58082e-05
2.72689e-05
2.86858e-05
3.00494e-05
3.13473e-05
3.25693e-05
3.36994e-05
3.47224e-05
3.56223e-05
3.63822e-05
3.69857e-05
3.74189e-05
3.76713e-05
3.77351e-05
3.76097e-05
3.63618e-05
3.40554e-05
3.04748e-05
2.64827e-05
2.1767e-05
1.72536e-05
1.23102e-05
7.75997e-06
2.87466e-06
-1.52569e-06
-6.11385e-06
-1.0087e-05
-1.40264e-05
-1.72333e-05
-2.01706e-05
-2.23176e-05
-2.39851e-05
-2.48802e-05
-2.51334e-05
-2.47018e-05
-2.35203e-05
-2.17948e-05
-1.92652e-05
-1.63715e-05
-1.26823e-05
-8.85389e-06
-4.33851e-06
0
0
4.28651e-06
8.55879e-06
1.27982e-05
1.69889e-05
2.11128e-05
2.51441e-05
2.90545e-05
3.28056e-05
3.63414e-05
3.95911e-05
4.24625e-05
4.48433e-05
4.66176e-05
4.76852e-05
4.79886e-05
4.53364e-05
3.83866e-05
2.91519e-05
1.9058e-05
8.7724e-06
-1.00212e-06
-9.42699e-06
-1.57553e-05
-1.94846e-05
-2.04044e-05
-1.85625e-05
-1.42034e-05
-7.76346e-06
0
0
2.62964e-06
5.25453e-06
7.87518e-06
1.04867e-05
1.30846e-05
1.56687e-05
1.82342e-05
2.07762e-05
2.32942e-05
2.57828e-05
2.82363e-05
3.06532e-05
3.30271e-05
3.5351e-05
3.76215e-05
3.98301e-05
4.19679e-05
4.40283e-05
4.60005e-05
4.78719e-05
4.96334e-05
5.12706e-05
5.27697e-05
5.4119e-05
5.53044e-05
5.63139e-05
5.71379e-05
5.77696e-05
5.82039e-05
5.8442e-05
5.81341e-05
5.66655e-05
5.38432e-05
5.03102e-05
4.57496e-05
4.10592e-05
3.56114e-05
3.03542e-05
2.44978e-05
1.90597e-05
1.32391e-05
8.06859e-06
2.79966e-06
-1.63418e-06
-5.88194e-06
-9.2038e-06
-1.21042e-05
-1.40966e-05
-1.55046e-05
-1.6112e-05
-1.60415e-05
-1.53333e-05
-1.39079e-05
-1.20369e-05
-9.46459e-06
-6.67367e-06
-3.28739e-06
0
0
6.22922e-06
1.24278e-05
1.85589e-05
2.45897e-05
3.0485e-05
3.62008e-05
4.16922e-05
4.69061e-05
5.17743e-05
5.62207e-05
6.01569e-05
6.34835e-05
6.61083e-05
6.79584e-05
6.89967e-05
6.80699e-05
6.22724e-05
5.29785e-05
4.16434e-05
2.93275e-05
1.71147e-05
6.13469e-06
-2.67259e-06
-8.72445e-06
-1.18311e-05
-1.21119e-05
-9.87555e-06
-5.58654e-06
0
0
3.61146e-06
7.21529e-06
1.08114e-05
1.43918e-05
1.79495e-05
2.14832e-05
2.49855e-05
2.84485e-05
3.18708e-05
3.52441e-05
3.85603e-05
4.18165e-05
4.5004e-05
4.81131e-05
5.114e-05
5.40739e-05
5.69044e-05
5.96247e-05
6.22232e-05
6.46872e-05
6.70086e-05
6.91743e-05
7.11716e-05
7.2992e-05
7.46235e-05
7.60572e-05
7.72864e-05
7.83068e-05
7.91148e-05
7.97133e-05
8.03039e-05
7.96034e-05
7.74557e-05
7.43128e-05
6.98488e-05
6.49369e-05
5.89417e-05
5.29425e-05
4.60835e-05
3.95865e-05
3.25186e-05
2.6144e-05
1.9544e-05
1.38859e-05
8.33346e-06
3.8436e-06
-2.81314e-07
-3.36348e-06
-5.91799e-06
-7.558e-06
-8.59165e-06
-8.89568e-06
-8.56889e-06
-7.71715e-06
-6.25674e-06
-4.50079e-06
-2.23906e-06
0
0
8.21752e-06
1.6388e-05
2.44561e-05
3.23724e-05
4.00847e-05
4.75306e-05
5.46495e-05
6.13744e-05
6.76253e-05
7.33214e-05
7.83764e-05
8.27002e-05
8.6217e-05
8.88725e-05
9.06432e-05
9.13172e-05
8.64775e-05
7.69669e-05
6.42734e-05
4.9852e-05
3.5167e-05
2.16266e-05
1.035e-05
1.99019e-06
-3.28968e-06
-5.6824e-06
-5.56064e-06
-3.41625e-06
0
0
4.62444e-06
9.2384e-06
1.38411e-05
1.84217e-05
2.29707e-05
2.74855e-05
3.19562e-05
3.6372e-05
4.07306e-05
4.50209e-05
4.92321e-05
5.33604e-05
5.73944e-05
6.13221e-05
6.5139e-05
6.88322e-05
7.23895e-05
7.58043e-05
7.90636e-05
8.21546e-05
8.50698e-05
8.77967e-05
9.03231e-05
9.26431e-05
9.47456e-05
9.66236e-05
9.82726e-05
9.96897e-05
0.000100873
0.000101825
0.000103263
0.000103242
0.000101648
9.87789e-05
9.42944e-05
8.90659e-05
8.24342e-05
7.56254e-05
6.77057e-05
6.01106e-05
5.17658e-05
4.41706e-05
3.62301e-05
2.93455e-05
2.24907e-05
1.68373e-05
1.14948e-05
7.3291e-06
3.63547e-06
9.68105e-07
-1.16345e-06
-2.47627e-06
-3.24305e-06
-3.40856e-06
-3.05557e-06
-2.33383e-06
-1.19238e-06
0
0
1.02827e-05
2.05024e-05
3.05858e-05
4.0467e-05
5.00774e-05
5.93362e-05
6.8167e-05
7.64885e-05
8.4208e-05
9.12376e-05
9.74897e-05
0.000102878
0.000107335
0.000110819
0.000113313
0.000115428
0.000111263
0.000101269
8.70221e-05
7.03781e-05
5.31656e-05
3.70498e-05
2.33104e-05
1.26569e-05
5.21791e-06
7.24348e-07
-1.26025e-06
-1.25374e-06
0
0
5.68421e-06
1.13551e-05
1.70116e-05
2.26397e-05
2.82276e-05
3.37716e-05
3.92594e-05
4.46771e-05
5.00219e-05
5.52795e-05
6.04368e-05
6.54887e-05
7.04214e-05
7.52204e-05
7.98801e-05
8.43856e-05
8.87225e-05
9.28841e-05
9.68556e-05
0.000100623
0.00010418
0.000107513
0.000110609
0.000113465
0.000116068
0.000118414
0.000120499
0.000122321
0.000123878
0.000125176
0.000127392
0.000127938
0.000126735
0.000123972
0.000119289
0.000113597
0.000106194
9.84759e-05
8.94122e-05
8.06632e-05
7.09992e-05
6.21586e-05
5.28627e-05
4.47453e-05
3.65888e-05
2.97747e-05
2.32224e-05
1.79783e-05
1.31544e-05
9.46395e-06
6.24217e-06
3.92292e-06
2.06907e-06
8.87023e-07
1.3865e-07
-1.74108e-07
-1.47287e-07
0
0
1.2458e-05
2.48383e-05
3.70501e-05
4.90124e-05
6.06402e-05
7.18346e-05
8.25028e-05
9.25477e-05
0.000101861
0.000110343
0.0001179
0.00012444
0.000129899
0.000134237
0.000137442
0.000140794
0.000136922
0.00012606
0.000109986
9.0959e-05
7.11399e-05
5.24212e-05
3.62196e-05
2.32839e-05
1.36981e-05
7.11288e-06
3.0282e-06
9.01829e-07
0
0
6.8059e-06
1.35959e-05
2.03685e-05
2.71072e-05
3.37976e-05
4.04353e-05
4.70056e-05
5.34918e-05
5.98902e-05
6.6184e-05
7.23573e-05
7.84039e-05
8.43074e-05
9.00502e-05
9.5626e-05
0.000101017
0.000106207
0.000111187
0.00011594
0.000120452
0.000124714
0.000128712
0.000132431
0.000135869
0.000139013
0.000141857
0.000144398
0.000146633
0.000148562
0.000150189
0.000153101
0.000154065
0.000153041
0.000150156
0.000145032
0.000138677
0.000130319
0.000121563
0.000111247
0.000101273
9.02361e-05
8.01161e-05
6.94461e-05
6.00839e-05
5.06277e-05
4.26515e-05
3.49004e-05
2.85797e-05
2.26383e-05
1.79258e-05
1.3625e-05
1.02987e-05
7.36747e-06
5.16691e-06
3.32606e-06
1.97657e-06
8.96388e-07
0
0
1.47733e-05
2.94557e-05
4.39412e-05
5.81344e-05
7.19355e-05
8.52271e-05
9.78993e-05
0.000109837
0.000120911
0.000131006
0.000140009
0.000147818
0.000154357
0.000159583
0.000163484
0.000167811
0.000163725
0.000151484
0.000133228
0.000111616
8.90916e-05
6.77338e-05
4.90689e-05
3.38639e-05
2.21451e-05
1.34786e-05
7.30106e-06
3.04818e-06
0
0
8.00507e-06
1.59918e-05
2.3959e-05
3.18872e-05
3.97603e-05
4.75732e-05
5.5309e-05
6.29482e-05
7.0487e-05
7.79052e-05
8.5185e-05
9.23183e-05
9.92866e-05
0.000106069
0.000112657
0.00011903
0.000125169
0.000131063
0.000136693
0.000142038
0.000147091
0.000151833
0.000156247
0.00016033
0.000164065
0.000167446
0.000170469
0.000173134
0.000175435
0.00017738
0.000180859
0.000182072
0.000180925
0.000177636
0.000171748
0.000164469
0.000154934
0.000144966
0.000133281
0.000121978
0.000109519
9.80585e-05
8.60087e-05
7.53661e-05
6.46277e-05
5.54691e-05
4.65447e-05
3.91347e-05
3.20997e-05
2.63553e-05
2.0995e-05
1.66522e-05
1.26593e-05
9.43133e-06
6.51111e-06
4.11785e-06
1.94024e-06
0
0
1.58257e-05
3.1551e-05
4.70594e-05
6.22471e-05
7.70069e-05
9.12151e-05
0.000104758
0.00011752
0.000129375
0.00014021
0.000149924
0.000158422
0.000165638
0.000171536
0.000176109
0.000182196
0.000179887
0.000168963
0.000151187
0.000129194
0.000105635
8.28639e-05
6.26319e-05
4.58026e-05
3.23426e-05
2.16696e-05
1.31049e-05
6.08435e-06
0
0
7.78518e-06
1.55514e-05
2.32968e-05
3.10012e-05
3.86485e-05
4.62325e-05
5.3737e-05
6.11419e-05
6.84443e-05
7.56239e-05
8.26647e-05
8.95591e-05
9.62911e-05
0.000102841
0.000109204
0.000115362
0.0001213
0.000127009
0.000132477
0.000137686
0.000142633
0.000147305
0.000151691
0.000155788
0.000159587
0.000163084
0.000166276
0.000169164
0.000171745
0.000174027
0.000178687
0.000181355
0.000182211
0.000180979
0.000177446
0.000172233
0.00016472
0.000156316
0.000145955
0.000135568
0.00012374
0.000112643
0.000100691
9.00262e-05
7.90392e-05
6.96214e-05
6.02312e-05
5.23867e-05
4.46825e-05
3.82843e-05
3.19662e-05
2.66559e-05
2.13216e-05
1.67575e-05
1.20972e-05
8.03916e-06
3.82436e-06
0
0
1.51965e-05
3.02925e-05
4.51733e-05
5.97377e-05
7.38842e-05
8.74991e-05
0.000100483
0.000112738
0.000124162
0.00013467
0.000144188
0.000152648
0.000160009
0.000166249
0.000171365
0.000179779
0.000181159
0.000174499
0.000160503
0.000141181
0.000119111
9.68519e-05
7.64248e-05
5.8874e-05
4.41706e-05
3.16025e-05
2.03776e-05
9.97158e-06
0
0
7.40419e-06
1.47902e-05
2.21561e-05
2.94829e-05
3.67548e-05
4.39666e-05
5.11024e-05
5.81443e-05
6.5089e-05
7.19191e-05
7.8619e-05
8.51837e-05
9.1598e-05
9.78459e-05
0.000103924
0.000109817
0.000115511
0.000121003
0.00012628
0.00013133
0.000136152
0.000140735
0.00014507
0.000149157
0.00015299
0.000156563
0.000159879
0.000162935
0.000165729
0.000168268
0.000173818
0.00017764
0.000180092
0.000180609
0.000179152
0.00017593
0.000170508
0.000163882
0.000155218
0.000146131
0.000135437
0.000125111
0.00011375
0.000103395
9.25543e-05
8.30852e-05
7.34915e-05
6.52995e-05
5.7076e-05
5.00297e-05
4.28401e-05
3.65321e-05
2.99229e-05
2.39856e-05
1.76519e-05
1.18971e-05
5.70191e-06
0
0
1.43511e-05
2.86087e-05
4.26664e-05
5.64319e-05
6.9814e-05
8.2712e-05
9.50407e-05
0.000106719
0.000117662
0.000127804
0.000137089
0.000145463
0.000152897
0.000159376
0.000164892
0.000175101
0.000179508
0.000176698
0.000166591
0.000150507
0.000130692
0.000109678
8.96109e-05
7.16679e-05
5.58671e-05
4.14511e-05
2.75853e-05
1.38158e-05
0
0
6.95656e-06
1.38965e-05
2.08182e-05
2.77045e-05
3.45408e-05
4.1323e-05
4.80363e-05
5.4665e-05
6.12064e-05
6.76452e-05
7.39674e-05
8.01696e-05
8.62382e-05
9.21597e-05
9.79317e-05
0.000103542
0.000108977
0.000114238
0.000119312
0.000124189
0.00012887
0.000133346
0.000137609
0.00014166
0.000145494
0.000149106
0.000152498
0.000155668
0.000158613
0.00016134
0.000167568
0.000172287
0.000176026
0.000177994
0.000178346
0.000176939
0.000173538
0.000168744
0.000161939
0.000154394
0.000145143
0.000135913
0.000125478
0.000115742
0.000105324
9.60318e-05
8.64092e-05
7.80005e-05
6.93357e-05
6.16966e-05
5.36548e-05
4.63674e-05
3.84835e-05
3.11816e-05
2.31787e-05
1.57319e-05
7.57163e-06
0
0
1.34387e-05
2.67942e-05
3.99716e-05
5.28896e-05
6.54688e-05
7.76217e-05
8.92761e-05
0.000100365
0.000110816
0.000120577
0.000129603
0.00013785
0.000145294
0.000151921
0.000157724
0.000169316
0.000176202
0.00017679
0.000170459
0.000157879
0.000140826
0.000121613
0.000102358
8.43012e-05
6.7522e-05
5.12852e-05
3.47779e-05
1.76464e-05
0
0
6.50125e-06
1.29877e-05
1.94583e-05
2.58978e-05
3.22932e-05
3.86414e-05
4.49293e-05
5.1143e-05
5.72806e-05
6.33289e-05
6.92752e-05
7.51179e-05
8.08445e-05
8.64437e-05
9.1914e-05
9.72447e-05
0.000102425
0.000107456
0.000112326
0.000117028
0.000121562
0.000125921
0.000130097
0.000134094
0.000137905
0.000141526
0.000144959
0.000148203
0.000151253
0.000154116
0.000160856
0.000166279
0.000171057
0.000174235
0.000176145
0.000176359
0.000174842
0.000171833
0.000166928
0.000161038
0.000153415
0.000145489
0.000136228
0.000127332
0.000117561
0.000108619
9.91187e-05
9.05903e-05
8.15545e-05
7.33554e-05
6.44768e-05
5.62105e-05
4.70476e-05
3.83764e-05
2.87007e-05
1.95607e-05
9.43941e-06
0
0
1.25512e-05
2.50304e-05
3.73547e-05
4.94542e-05
6.1261e-05
7.26997e-05
8.37095e-05
9.4234e-05
0.000104213
0.000113602
0.000122364
0.000130462
0.000137874
0.000144588
0.000150594
0.000163262
0.000172193
0.000175754
0.00017297
0.000163957
0.000149961
0.000132937
0.000114836
9.68806e-05
7.92069e-05
6.11523e-05
4.1984e-05
2.14781e-05
0
0
6.07385e-06
1.21347e-05
1.81821e-05
2.42028e-05
3.01852e-05
3.61274e-05
4.20176e-05
4.78438e-05
5.3605e-05
5.92896e-05
6.48865e-05
7.03949e-05
7.58041e-05
8.1104e-05
8.62941e-05
9.13651e-05
9.63076e-05
0.000101123
0.000105801
0.000110336
0.000114728
0.000118971
0.000123058
0.000126993
0.000130768
0.000134381
0.000137834
0.000141124
0.000144249
0.000147211
0.000154346
0.000160332
0.000165964
0.000170157
0.000173411
0.000175064
0.000175272
0.000173953
0.000170913
0.000166706
0.000160797
0.000154297
0.000146368
0.000138467
0.000129502
0.000121038
0.000111769
0.000103192
9.38299e-05
8.50881e-05
7.53721e-05
6.6116e-05
5.56576e-05
4.56026e-05
3.42405e-05
2.33992e-05
1.13117e-05
0
0
1.17435e-05
2.34258e-05
3.49753e-05
4.63326e-05
5.74403e-05
6.82337e-05
7.86616e-05
8.86765e-05
9.82269e-05
0.000107276
0.000115791
0.00012374
0.000131104
0.000137871
0.000144029
0.00015756
0.000168208
0.000174377
0.000174873
0.000169362
0.000158556
0.00014396
0.000127245
0.000109534
9.10055e-05
7.11069e-05
4.92361e-05
2.5326e-05
0
0
5.69598e-06
1.13806e-05
1.7054e-05
2.27048e-05
2.83225e-05
3.39064e-05
3.9446e-05
4.49309e-05
5.03607e-05
5.57255e-05
6.10153e-05
6.62303e-05
7.13608e-05
7.63983e-05
8.13427e-05
8.61859e-05
9.09197e-05
9.55454e-05
0.000100055
0.000104442
0.000108709
0.000112848
0.000116854
0.00012073
0.00012447
0.000128072
0.000131536
0.00013486
0.000138042
0.000141084
0.000148541
0.000154995
0.000161346
0.000166409
0.000170836
0.000173767
0.000175546
0.000175803
0.000174546
0.000171993
0.000167816
0.000162793
0.000156277
0.000149461
0.000141398
0.000133492
0.00012452
0.000115933
0.000106263
9.69753e-05
8.64042e-05
7.61342e-05
6.4352e-05
5.28892e-05
3.98186e-05
2.72605e-05
1.31943e-05
0
0
1.10496e-05
2.20475e-05
3.29323e-05
4.3654e-05
5.41641e-05
6.44071e-05
7.434e-05
8.39227e-05
9.31106e-05
0.000101872
0.00011018
0.000118004
0.000125329
0.000132141
0.000138428
0.000152696
0.000164829
0.000173311
0.000176824
0.000174674
0.000167068
0.00015501
0.000139802
0.000122401
0.000103005
8.12038e-05
5.65659e-05
2.92049e-05
0
0
5.38124e-06
1.07525e-05
1.61146e-05
2.14575e-05
2.67721e-05
3.20583e-05
3.7307e-05
4.25089e-05
4.76645e-05
5.27649e-05
5.78014e-05
6.27747e-05
6.76764e-05
7.24988e-05
7.72426e-05
8.19004e-05
8.64649e-05
9.09378e-05
9.5312e-05
9.95818e-05
0.000103749
0.000107807
0.000111752
0.000115585
0.000119303
0.0001229
0.000126381
0.00012974
0.000132976
0.000136092
0.000143838
0.000150706
0.000157691
0.000163522
0.000168992
0.000173074
0.000176285
0.000178002
0.000178429
0.000177466
0.000174983
0.000171434
0.00016635
0.000160649
0.000153526
0.000146206
0.000137552
0.000128957
0.000118965
0.000109106
9.76426e-05
8.63201e-05
7.31728e-05
6.02677e-05
4.54571e-05
3.11592e-05
1.50937e-05
0
0
1.04922e-05
2.09409e-05
3.12933e-05
4.15075e-05
5.15425e-05
6.13505e-05
7.08951e-05
8.01424e-05
8.90534e-05
9.76009e-05
0.000105761
0.000113508
0.000120824
0.0001277
0.00013412
0.000149075
0.000162548
0.000173122
0.000179412
0.000180442
0.000175952
0.000166424
0.000152735
0.000135622
0.000115292
9.14938e-05
6.40019e-05
3.31274e-05
0
0
5.13949e-06
1.02702e-05
1.53934e-05
2.05004e-05
2.55829e-05
3.06417e-05
3.56686e-05
4.06555e-05
4.56033e-05
5.05043e-05
5.53505e-05
6.01434e-05
6.48753e-05
6.95394e-05
7.41367e-05
7.86609e-05
8.3105e-05
8.74713e-05
9.17532e-05
9.59455e-05
0.00010005
0.000104061
0.000107974
0.000111792
0.00011551
0.000119125
0.000122638
0.000126046
0.000129347
0.000132543
0.00014058
0.000147845
0.000155421
0.000161959
0.000168384
0.000173519
0.000178048
0.000181119
0.000183121
0.000183663
0.000182801
0.000180676
0.000176986
0.000172377
0.000166173
0.000159419
0.000151053
0.000142416
0.000132055
0.000121573
0.000109158
9.67287e-05
8.21613e-05
6.77694e-05
5.11778e-05
3.51092e-05
1.70165e-05
0
0
1.00894e-05
2.0142e-05
3.01124e-05
3.9965e-05
4.96651e-05
5.91713e-05
6.84524e-05
7.74796e-05
8.62183e-05
9.46451e-05
0.000102739
0.000110475
0.000117839
0.00012482
0.000131403
0.000147065
0.000161812
0.000174326
0.00018319
0.000187197
0.000185664
0.000178553
0.000166288
0.000149355
0.00012796
0.000102032
7.15748e-05
3.71073e-05
0
0
4.97959e-06
9.95128e-06
1.4917e-05
1.98688e-05
2.47993e-05
2.97098e-05
3.4593e-05
3.94417e-05
4.42571e-05
4.90325e-05
5.37605e-05
5.84431e-05
6.30734e-05
6.7645e-05
7.21596e-05
7.66112e-05
8.09935e-05
8.5309e-05
8.95516e-05
9.37165e-05
9.78054e-05
0.000101814
0.000105737
0.000109577
0.00011333
0.000116993
0.000120567
0.000124049
0.000127437
0.000130733
0.000139097
0.000146775
0.000154938
0.000162157
0.000169486
0.000175606
0.000181364
0.000185693
0.000189163
0.000191109
0.000191765
0.000190975
0.000188592
0.000184998
0.000179634
0.000173376
0.000165218
0.000156462
0.000145647
0.000134465
0.000121017
0.00010741
9.13545e-05
7.54215e-05
5.69995e-05
3.91226e-05
1.89681e-05
0
0
9.85911e-06
1.9687e-05
2.94435e-05
3.90985e-05
4.86224e-05
5.79784e-05
6.71397e-05
7.60814e-05
8.47723e-05
9.31917e-05
0.000101321
0.000109137
0.000116626
0.000123777
0.000130576
0.000147028
0.000163054
0.000177423
0.000188695
0.000195467
0.000196667
0.00019176
0.000180714
0.000163758
0.000141102
0.000112872
7.93145e-05
4.1158e-05
0
0
4.91106e-06
9.81491e-06
1.47139e-05
1.96008e-05
2.44688e-05
2.93198e-05
3.41471e-05
3.89439e-05
4.37121e-05
4.84454e-05
5.31371e-05
5.77895e-05
6.23962e-05
6.69513e-05
7.14568e-05
7.59072e-05
8.02966e-05
8.46276e-05
8.88945e-05
9.30927e-05
9.72243e-05
0.000101285
0.00010527
0.000109181
0.000113016
0.000116769
0.000120444
0.000124038
0.000127545
0.000130971
0.000139731
0.000147869
0.000156649
0.000164557
0.000172773
0.000179839
0.000186757
0.000192263
0.000197094
0.000200333
0.000202377
0.000202797
0.000201584
0.000198881
0.000194221
0.000188332
0.000180251
0.000171257
0.000159866
0.000147877
0.000133289
0.000118419
0.000100792
8.32536e-05
6.29426e-05
4.32126e-05
2.09548e-05
0
0
9.82246e-06
1.96178e-05
2.935e-05
3.89927e-05
4.85202e-05
5.78991e-05
6.71059e-05
7.61185e-05
8.49082e-05
9.34563e-05
0.000101746
0.000109754
0.000117469
0.000124879
0.000131969
0.000149356
0.000166731
0.000182925
0.000196471
0.000205782
0.00020943
0.000206414
0.00019627
0.000178989
0.000154809
0.000124063
8.72472e-05
4.52911e-05
0
0
4.94571e-06
9.88465e-06
1.48196e-05
1.97437e-05
2.46506e-05
2.95427e-05
3.44134e-05
3.92566e-05
4.40746e-05
4.88613e-05
5.36103e-05
5.83244e-05
6.29975e-05
6.76239e-05
7.2206e-05
7.67385e-05
8.12155e-05
8.56403e-05
9.00072e-05
9.43115e-05
9.85558e-05
0.000102736
0.000106846
0.00011089
0.000114864
0.000118763
0.000122591
0.000126344
0.000130017
0.000133616
0.000142869
0.000151543
0.000161004
0.000169639
0.000178754
0.000186751
0.000194782
0.000201391
0.000207474
0.000211881
0.000215156
0.000216626
0.000216396
0.000214403
0.000210251
0.000204554
0.000196361
0.000186967
0.000174835
0.000161903
0.000146045
0.000129807
0.000110513
9.12943e-05
6.90268e-05
4.73921e-05
2.29826e-05
0
0
1.00062e-05
1.99879e-05
2.99119e-05
3.97543e-05
4.94918e-05
5.90933e-05
6.85373e-05
7.78034e-05
8.68645e-05
9.57029e-05
0.000104303
0.000112642
0.000120708
0.000128489
0.000135971
0.000154496
0.00017335
0.00019139
0.000207098
0.000218703
0.000224446
0.000222899
0.00021322
0.000195214
0.000169174
0.000135658
9.54007e-05
4.95188e-05
0
0
5.09884e-06
1.01911e-05
1.52799e-05
2.03586e-05
2.54211e-05
3.04699e-05
3.54989e-05
4.05019e-05
4.54816e-05
5.04321e-05
5.5347e-05
6.02297e-05
6.50738e-05
6.9874e-05
7.46329e-05
7.93453e-05
8.40052e-05
8.86162e-05
9.31727e-05
9.76699e-05
0.000102111
0.00010649
0.000110804
0.000115055
0.000119239
0.000123352
0.000127397
0.000131371
0.000135268
0.000139093
0.000148969
0.000158284
0.000168521
0.000177944
0.000187996
0.000196927
0.000206035
0.000213678
0.000220896
0.000226328
0.000230643
0.000232959
0.00023347
0.000231951
0.000228046
0.000222302
0.000213753
0.000203748
0.00019067
0.00017663
0.000159346
0.00014162
0.00012055
9.95679e-05
7.52686e-05
5.16715e-05
2.50566e-05
0
0
1.04455e-05
2.0868e-05
3.12348e-05
4.15235e-05
5.17119e-05
6.17693e-05
7.16753e-05
8.14104e-05
9.09472e-05
0.000100269
0.000109359
0.000118196
0.000126766
0.000135059
0.000143057
0.000162986
0.000183502
0.000203448
0.000221214
0.000234832
0.000242231
0.000241613
0.000231837
0.000212595
0.000184288
0.000147704
0.000103802
5.38532e-05
0
0
5.39082e-06
1.07749e-05
1.61557e-05
2.15267e-05
2.68812e-05
3.22227e-05
3.75445e-05
4.28404e-05
4.81134e-05
5.33576e-05
5.85664e-05
6.37435e-05
6.88823e-05
7.39775e-05
7.90317e-05
8.40398e-05
8.89955e-05
9.39029e-05
9.87558e-05
0.00010355
0.000108287
0.000112964
0.000117574
0.000122122
0.000126603
0.000131012
0.000135353
0.000139622
0.000143814
0.000147933
0.000158593
0.000168683
0.000179816
0.000190116
0.000201163
0.000211045
0.000221198
0.000229799
0.000238016
0.0002443
0.000249421
0.000252328
0.000253274
0.000251929
0.000247939
0.000241849
0.000232636
0.000221763
0.000207491
0.000192147
0.000173258
0.000153907
0.000130938
0.0001081
8.16859e-05
5.60624e-05
2.71825e-05
0
0
1.11871e-05
2.23509e-05
3.34577e-05
4.44847e-05
5.54092e-05
6.61996e-05
7.68349e-05
8.72951e-05
9.75515e-05
0.000107587
0.000117384
0.000126919
0.000136179
0.000145152
0.000153818
0.000175477
0.000197888
0.000219823
0.000239531
0.000254821
0.000263328
0.000262961
0.000252387
0.000231288
0.000200233
0.000160246
0.000112473
5.83036e-05
0
0
5.84839e-06
1.16896e-05
1.75278e-05
2.33553e-05
2.91655e-05
3.49618e-05
4.07374e-05
4.64853e-05
5.22093e-05
5.79024e-05
6.35582e-05
6.91801e-05
7.47618e-05
8.02967e-05
8.57887e-05
9.12312e-05
9.66185e-05
0.000101954
0.000107232
0.000112447
0.000117602
0.000122692
0.000127712
0.000132665
0.000137546
0.000142351
0.000147082
0.000151737
0.000156309
0.000160804
0.000172445
0.000183471
0.000195653
0.000206931
0.00021905
0.000229896
0.000241061
0.000250521
0.000259575
0.000266491
0.000272127
0.000275303
0.000276303
0.000274756
0.00027027
0.000263469
0.000253215
0.000241173
0.00022541
0.000208542
0.00018784
0.000166716
0.00014171
0.000116918
8.82957e-05
6.05752e-05
2.93661e-05
0
0
1.22932e-05
2.45609e-05
3.67659e-05
4.88831e-05
6.08877e-05
7.27448e-05
8.44315e-05
9.59255e-05
0.000107196
0.000118222
0.000128987
0.000139464
0.000149637
0.000159494
0.000169012
0.00019279
0.000217374
0.00024139
0.000262884
0.000279408
0.000288332
0.000287367
0.000275131
0.000251434
0.000217079
0.000173318
0.000121432
6.28755e-05
0
0
6.50805e-06
1.30081e-05
1.95038e-05
2.59878e-05
3.24517e-05
3.89002e-05
4.53243e-05
5.1718e-05
5.80832e-05
6.44145e-05
7.07021e-05
7.69523e-05
8.31553e-05
8.93067e-05
9.54075e-05
0.000101454
0.000107435
0.00011336
0.000119217
0.000125004
0.000130721
0.000136367
0.00014193
0.00014742
0.000152826
0.000158148
0.000163384
0.000168535
0.000173591
0.00017856
0.000191403
0.000203567
0.000216961
0.000229354
0.000242603
0.000254442
0.000266539
0.000276749
0.000286396
0.000293683
0.000299442
0.000302497
0.000303063
0.000300851
0.000295375
0.000287405
0.000275694
0.000262092
0.00024454
0.000225859
0.000203154
0.000180062
0.000152902
0.000126024
9.51179e-05
6.5209e-05
3.16146e-05
0
0
9.94055e-06
1.98652e-05
2.97485e-05
3.95746e-05
4.93278e-05
5.89841e-05
6.85285e-05
7.79468e-05
8.72169e-05
9.63258e-05
0.000105261
0.000114004
0.000122543
0.000130869
0.000138965
0.000159484
0.000181276
0.000203423
0.0002245
0.000242537
0.000255141
0.000259816
0.000254445
0.000237745
0.000209438
0.000170072
0.000120727
6.30632e-05
0
0
3.85041e-06
7.69724e-06
1.15432e-05
1.53852e-05
1.92185e-05
2.30475e-05
2.68669e-05
3.0675e-05
3.44725e-05
3.82584e-05
4.20261e-05
4.5782e-05
4.95189e-05
5.32371e-05
5.69356e-05
6.06152e-05
6.42678e-05
6.79013e-05
7.15072e-05
7.50876e-05
7.86399e-05
8.21665e-05
8.56583e-05
8.91244e-05
9.25554e-05
9.59546e-05
9.93185e-05
0.000102651
0.000105941
0.0001092
0.000117731
0.000125997
0.00013532
0.000144233
0.000154104
0.000163357
0.000173339
0.000182413
0.000191819
0.000199947
0.000207819
0.000213992
0.00021915
0.000222208
0.000223397
0.000222216
0.000218329
0.000212045
0.000202342
0.000190514
0.000174733
0.000157368
0.000135718
0.000113229
8.63939e-05
5.96923e-05
2.90727e-05
0
0
6.14717e-06
1.22881e-05
1.84114e-05
2.4511e-05
3.0581e-05
3.661e-05
4.25925e-05
4.85227e-05
5.43898e-05
6.01888e-05
6.59143e-05
7.15566e-05
7.71108e-05
8.25727e-05
8.79332e-05
0.000101774
0.000116994
0.000133254
0.000149904
0.000165887
0.000179666
0.000189247
0.000192353
0.000186756
0.000170691
0.0001432
0.000104347
5.54885e-05
0
0
2.47148e-06
4.94076e-06
7.41024e-06
9.87767e-06
1.23409e-05
1.48023e-05
1.72596e-05
1.97107e-05
2.21579e-05
2.45991e-05
2.70321e-05
2.94592e-05
3.18783e-05
3.42873e-05
3.66885e-05
3.90798e-05
4.14591e-05
4.38287e-05
4.61865e-05
4.85307e-05
5.08631e-05
5.31822e-05
5.54855e-05
5.77758e-05
6.00507e-05
6.23086e-05
6.45513e-05
6.67774e-05
6.89846e-05
7.11755e-05
7.69553e-05
8.25964e-05
8.90498e-05
9.5285e-05
0.000102328
0.000109038
0.000116479
0.000123419
0.000130905
0.000137659
0.000144626
0.000150565
0.000156207
0.000160476
0.000163766
0.000165334
0.000165112
0.000162897
0.000158048
0.000151112
0.000140782
0.000128542
0.000112352
9.47597e-05
7.30229e-05
5.0804e-05
2.48756e-05
0
0
4.03248e-06
8.06229e-06
1.20831e-05
1.60922e-05
2.00869e-05
2.40611e-05
2.80121e-05
3.19375e-05
3.58311e-05
3.96905e-05
4.35135e-05
4.72942e-05
5.10304e-05
5.472e-05
5.83577e-05
6.78384e-05
7.84438e-05
9.00502e-05
0.000102356
0.000114794
0.000126442
0.000135947
0.000141528
0.000141094
0.000132528
0.000114108
8.50099e-05
4.59241e-05
0
0
1.65211e-06
3.30288e-06
4.95392e-06
6.60393e-06
8.25146e-06
9.89827e-06
1.15428e-05
1.31841e-05
1.48233e-05
1.64595e-05
1.8091e-05
1.97197e-05
2.13441e-05
2.29631e-05
2.45779e-05
2.61877e-05
2.77906e-05
2.93889e-05
3.09806e-05
3.25651e-05
3.41433e-05
3.57146e-05
3.7277e-05
3.88328e-05
4.03801e-05
4.19184e-05
4.34483e-05
4.49696e-05
4.64801e-05
4.79823e-05
5.19574e-05
5.58583e-05
6.03474e-05
6.47176e-05
6.96963e-05
7.44896e-05
7.98717e-05
8.49668e-05
9.05662e-05
9.57307e-05
0.000101217
0.000106065
0.00011092
0.000114874
0.000118361
0.000120639
0.000121814
0.000121473
0.00011927
0.000115322
0.000108727
0.000100347
8.86599e-05
7.54617e-05
5.86385e-05
4.1047e-05
2.01861e-05
0
0
2.72802e-06
5.45469e-06
8.17623e-06
1.08913e-05
1.35986e-05
1.62943e-05
1.89773e-05
2.16461e-05
2.42971e-05
2.69291e-05
2.95409e-05
3.21289e-05
3.4692e-05
3.72291e-05
3.97367e-05
4.63061e-05
5.37249e-05
6.19535e-05
7.0846e-05
8.0088e-05
8.91204e-05
9.70551e-05
0.000102617
0.00010415
9.97488e-05
8.75804e-05
6.6406e-05
3.63469e-05
0
0
1.12886e-06
2.25683e-06
3.38507e-06
4.5127e-06
5.63882e-06
6.7646e-06
7.88912e-06
9.01156e-06
1.0133e-05
1.12526e-05
1.23695e-05
1.34848e-05
1.45977e-05
1.57073e-05
1.68146e-05
1.79189e-05
1.90193e-05
2.0117e-05
2.12109e-05
2.23004e-05
2.33865e-05
2.44685e-05
2.55453e-05
2.66183e-05
2.76864e-05
2.8749e-05
2.9807e-05
3.08597e-05
3.19063e-05
3.29478e-05
3.57103e-05
3.84281e-05
4.15685e-05
4.46371e-05
4.81527e-05
5.15555e-05
5.54065e-05
5.90811e-05
6.31647e-05
6.69767e-05
7.1094e-05
7.48036e-05
7.86197e-05
8.18428e-05
8.48503e-05
8.70287e-05
8.85248e-05
8.89249e-05
8.80388e-05
8.58089e-05
8.16083e-05
7.59278e-05
6.76406e-05
5.79858e-05
4.53589e-05
3.19114e-05
1.57492e-05
0
0
1.87604e-06
3.75135e-06
5.62354e-06
7.49187e-06
9.35564e-06
1.12125e-05
1.30616e-05
1.49024e-05
1.67325e-05
1.85513e-05
2.0358e-05
2.21503e-05
2.39277e-05
2.56895e-05
2.74335e-05
3.20165e-05
3.72214e-05
4.30407e-05
4.94011e-05
5.61208e-05
6.28524e-05
6.9012e-05
7.37123e-05
7.57236e-05
7.35195e-05
6.54786e-05
5.03168e-05
2.78263e-05
0
0
7.80435e-07
1.56028e-06
2.34033e-06
3.12002e-06
3.89872e-06
4.67727e-06
5.45505e-06
6.2315e-06
7.00738e-06
7.78216e-06
8.55519e-06
9.32733e-06
1.00979e-05
1.08665e-05
1.16337e-05
1.23991e-05
1.3162e-05
1.39232e-05
1.46822e-05
1.54385e-05
1.61926e-05
1.69442e-05
1.76926e-05
1.84386e-05
1.91817e-05
1.99213e-05
2.06581e-05
2.13916e-05
2.21213e-05
2.28479e-05
2.47773e-05
2.66791e-05
2.88814e-05
3.10389e-05
3.35185e-05
3.59272e-05
3.86654e-05
4.12916e-05
4.42292e-05
4.69921e-05
5.00057e-05
5.27524e-05
5.56235e-05
5.80977e-05
6.04791e-05
6.22903e-05
6.36767e-05
6.42832e-05
6.40099e-05
6.27401e-05
6.0042e-05
5.61914e-05
5.03658e-05
4.34116e-05
3.41313e-05
2.41074e-05
1.19305e-05
0
0
1.30134e-06
2.60227e-06
3.9012e-06
5.19771e-06
6.4914e-06
7.78068e-06
9.06517e-06
1.03444e-05
1.1617e-05
1.28823e-05
1.41401e-05
1.53889e-05
1.66282e-05
1.78577e-05
1.9076e-05
2.22835e-05
2.59392e-05
3.00468e-05
3.45682e-05
3.9394e-05
4.43027e-05
4.89063e-05
5.25918e-05
5.44726e-05
5.33919e-05
4.80415e-05
3.72845e-05
2.07816e-05
0
0
5.42837e-07
1.08527e-06
1.62786e-06
2.17022e-06
2.71192e-06
3.25355e-06
3.79469e-06
4.33495e-06
4.87488e-06
5.4141e-06
5.95218e-06
6.48971e-06
7.02626e-06
7.56146e-06
8.09585e-06
8.62905e-06
9.16064e-06
9.69121e-06
1.02203e-05
1.07476e-05
1.12736e-05
1.1798e-05
1.23203e-05
1.28411e-05
1.336e-05
1.38766e-05
1.43915e-05
1.49043e-05
1.54145e-05
1.59228e-05
1.72737e-05
1.86066e-05
2.01525e-05
2.16693e-05
2.34162e-05
2.51168e-05
2.70558e-05
2.89214e-05
3.10172e-05
3.29974e-05
3.5171e-05
3.71664e-05
3.92729e-05
4.1111e-05
4.29128e-05
4.43219e-05
4.54611e-05
4.60507e-05
4.60379e-05
4.53024e-05
4.35462e-05
4.09256e-05
3.68462e-05
3.18861e-05
2.51645e-05
1.78273e-05
8.84074e-06
0
0
9.06725e-07
1.8132e-06
2.71836e-06
3.62195e-06
4.52373e-06
5.42263e-06
6.31841e-06
7.21082e-06
8.09883e-06
8.98218e-06
9.86065e-06
1.07332e-05
1.15996e-05
1.24596e-05
1.33123e-05
1.55601e-05
1.81278e-05
2.10222e-05
2.42227e-05
2.76612e-05
3.11933e-05
3.45581e-05
3.73321e-05
3.8885e-05
3.83665e-05
3.47737e-05
2.71821e-05
1.52391e-05
0
0
3.78796e-07
7.57311e-07
1.13595e-06
1.51443e-06
1.89247e-06
2.27047e-06
2.64814e-06
3.02523e-06
3.40212e-06
3.77853e-06
4.15418e-06
4.52949e-06
4.90415e-06
5.27791e-06
5.65115e-06
6.0236e-06
6.39498e-06
6.7657e-06
7.13547e-06
7.50403e-06
7.87175e-06
8.23838e-06
8.60363e-06
8.96792e-06
9.33094e-06
9.69247e-06
1.00528e-05
1.04118e-05
1.07691e-05
1.11252e-05
1.20718e-05
1.30066e-05
1.40918e-05
1.51577e-05
1.63869e-05
1.75853e-05
1.89543e-05
2.02742e-05
2.1761e-05
2.31702e-05
2.47234e-05
2.61559e-05
2.76779e-05
2.90166e-05
3.03442e-05
3.14002e-05
3.22816e-05
3.2777e-05
3.28585e-05
3.24225e-05
3.12629e-05
2.94696e-05
2.66171e-05
2.3101e-05
1.82816e-05
1.298e-05
6.44668e-06
0
0
6.33417e-07
1.26668e-06
1.89905e-06
2.53039e-06
3.16053e-06
3.78874e-06
4.41489e-06
5.0388e-06
5.65977e-06
6.27764e-06
6.89227e-06
7.50295e-06
8.10954e-06
8.71189e-06
9.30932e-06
1.08855e-05
1.26888e-05
1.47258e-05
1.69851e-05
1.9423e-05
2.19435e-05
2.43692e-05
2.64072e-05
2.76122e-05
2.73698e-05
2.49346e-05
1.95918e-05
1.10305e-05
0
0
2.6494e-07
5.29685e-07
7.94518e-07
1.05924e-06
1.32367e-06
1.58808e-06
1.85227e-06
2.11605e-06
2.37971e-06
2.64305e-06
2.90588e-06
3.16847e-06
3.43064e-06
3.69219e-06
3.9534e-06
4.21408e-06
4.47404e-06
4.73356e-06
4.99244e-06
5.2505e-06
5.508e-06
5.76477e-06
6.02061e-06
6.27581e-06
6.53016e-06
6.78349e-06
7.03605e-06
7.28769e-06
7.53819e-06
7.78784e-06
8.45184e-06
9.10785e-06
9.8699e-06
1.06189e-05
1.14834e-05
1.23271e-05
1.32921e-05
1.42239e-05
1.52753e-05
1.6274e-05
1.73776e-05
1.83988e-05
1.94883e-05
2.04516e-05
2.14143e-05
2.21884e-05
2.28474e-05
2.32356e-05
2.33382e-05
2.30727e-05
2.22964e-05
2.10621e-05
1.90667e-05
1.65826e-05
1.31492e-05
9.35105e-06
4.64944e-06
0
0
4.43576e-07
8.87051e-07
1.32992e-06
1.77209e-06
2.21345e-06
2.65351e-06
3.09217e-06
3.52932e-06
3.96448e-06
4.39754e-06
4.82841e-06
5.2566e-06
5.68202e-06
6.10457e-06
6.52378e-06
7.63042e-06
8.89775e-06
1.03314e-05
1.19247e-05
1.3649e-05
1.54395e-05
1.71745e-05
1.86505e-05
1.95538e-05
1.94445e-05
1.77787e-05
1.40208e-05
7.91804e-06
0
0
1.85833e-07
3.71529e-07
5.57289e-07
7.42977e-07
9.28456e-07
1.11392e-06
1.29925e-06
1.48429e-06
1.66925e-06
1.85399e-06
2.03838e-06
2.22262e-06
2.40656e-06
2.59008e-06
2.77337e-06
2.9563e-06
3.13874e-06
3.32088e-06
3.50258e-06
3.68372e-06
3.86448e-06
4.04475e-06
4.22438e-06
4.40357e-06
4.58218e-06
4.76009e-06
4.93749e-06
5.11425e-06
5.29023e-06
5.46564e-06
5.93228e-06
6.39345e-06
6.9294e-06
7.4564e-06
8.06508e-06
8.65948e-06
9.33996e-06
9.9976e-06
1.07407e-05
1.14474e-05
1.22298e-05
1.29553e-05
1.37316e-05
1.44204e-05
1.51123e-05
1.56727e-05
1.61559e-05
1.64488e-05
1.65436e-05
1.63774e-05
1.58507e-05
1.49957e-05
1.3597e-05
1.18431e-05
9.40439e-06
6.69571e-06
3.33181e-06
0
0
3.11718e-07
6.23369e-07
9.34604e-07
1.24536e-06
1.55556e-06
1.86486e-06
2.17321e-06
2.48052e-06
2.78646e-06
3.09097e-06
3.39397e-06
3.69513e-06
3.99439e-06
4.29169e-06
4.58668e-06
5.36571e-06
6.25848e-06
7.26937e-06
8.39439e-06
9.61436e-06
1.08849e-05
1.21219e-05
1.3183e-05
1.38471e-05
1.38006e-05
1.26506e-05
1.00026e-05
5.66121e-06
0
0
1.30884e-07
2.61673e-07
3.92507e-07
5.23291e-07
6.5393e-07
7.84563e-07
9.15095e-07
1.04543e-06
1.17571e-06
1.30585e-06
1.43573e-06
1.56551e-06
1.69509e-06
1.82438e-06
1.95351e-06
2.08239e-06
2.21093e-06
2.33926e-06
2.4673e-06
2.59494e-06
2.72233e-06
2.84937e-06
2.97597e-06
3.10226e-06
3.22816e-06
3.35358e-06
3.47864e-06
3.60326e-06
3.72734e-06
3.85102e-06
4.18011e-06
4.50542e-06
4.8836e-06
5.25557e-06
5.68537e-06
6.10529e-06
6.58629e-06
7.05145e-06
7.57748e-06
8.07826e-06
8.63338e-06
9.14886e-06
9.70151e-06
1.01931e-05
1.06885e-05
1.10917e-05
1.14424e-05
1.16589e-05
1.17371e-05
1.163e-05
1.12682e-05
1.06716e-05
9.68727e-06
8.44651e-06
6.71405e-06
4.7842e-06
2.38197e-06
0
0
2.20038e-07
4.40031e-07
6.59734e-07
8.79102e-07
1.09809e-06
1.31645e-06
1.53415e-06
1.75113e-06
1.96716e-06
2.18219e-06
2.39618e-06
2.60889e-06
2.82028e-06
3.03031e-06
3.23874e-06
3.78929e-06
4.42053e-06
5.13576e-06
5.9325e-06
6.79766e-06
7.7005e-06
8.58228e-06
9.34302e-06
9.8263e-06
9.8086e-06
9.00723e-06
7.13498e-06
4.04443e-06
0
0
9.25473e-08
1.85027e-07
2.7754e-07
3.70017e-07
4.62392e-07
5.54765e-07
6.47066e-07
7.39232e-07
8.31359e-07
9.23382e-07
1.01523e-06
1.10701e-06
1.19865e-06
1.29008e-06
1.38141e-06
1.47256e-06
1.56347e-06
1.65424e-06
1.7448e-06
1.83508e-06
1.92519e-06
2.01506e-06
2.10461e-06
2.19396e-06
2.28303e-06
2.37177e-06
2.46025e-06
2.54843e-06
2.63623e-06
2.72375e-06
2.95666e-06
3.18693e-06
3.45467e-06
3.71807e-06
4.02251e-06
4.32004e-06
4.661e-06
4.99086e-06
5.36411e-06
5.71966e-06
6.11415e-06
6.48081e-06
6.87446e-06
7.22513e-06
7.57942e-06
7.86868e-06
8.12174e-06
8.27986e-06
8.34074e-06
8.26999e-06
8.01875e-06
7.59964e-06
6.90423e-06
6.02428e-06
4.79208e-06
3.41663e-06
1.70174e-06
0
0
1.55551e-07
3.1107e-07
4.66386e-07
6.21469e-07
7.76285e-07
9.30666e-07
1.08458e-06
1.238e-06
1.39075e-06
1.5428e-06
1.69412e-06
1.84455e-06
1.99406e-06
2.14261e-06
2.29004e-06
2.67956e-06
3.12629e-06
3.63269e-06
4.19717e-06
4.81067e-06
5.45177e-06
6.07926e-06
6.62269e-06
6.97134e-06
6.96618e-06
6.40485e-06
5.07993e-06
2.88258e-06
0
0
6.51327e-08
1.30218e-07
1.95326e-07
2.6041e-07
3.25422e-07
3.90433e-07
4.55395e-07
5.20261e-07
5.85101e-07
6.49868e-07
7.14514e-07
7.79111e-07
8.43609e-07
9.07965e-07
9.72244e-07
1.0364e-06
1.10039e-06
1.16429e-06
1.22803e-06
1.29159e-06
1.35502e-06
1.41828e-06
1.48133e-06
1.54423e-06
1.60694e-06
1.66941e-06
1.73171e-06
1.7938e-06
1.85562e-06
1.91725e-06
2.08126e-06
2.24343e-06
2.43201e-06
2.61757e-06
2.83208e-06
3.04175e-06
3.2821e-06
3.51468e-06
3.77799e-06
4.02888e-06
4.30744e-06
4.56648e-06
4.84488e-06
5.09309e-06
5.34433e-06
5.54981e-06
5.73035e-06
5.84391e-06
5.88949e-06
5.84195e-06
5.66743e-06
5.37371e-06
4.88471e-06
4.26413e-06
3.39368e-06
2.42048e-06
1.20591e-06
0
0
1.0803e-07
2.16038e-07
3.23906e-07
4.31613e-07
5.39137e-07
6.4636e-07
7.53261e-07
8.59819e-07
9.65918e-07
1.07153e-06
1.17665e-06
1.28115e-06
1.38501e-06
1.48822e-06
1.59065e-06
1.8613e-06
2.17178e-06
2.52383e-06
2.9164e-06
3.34332e-06
3.78983e-06
4.22746e-06
4.60738e-06
4.85265e-06
4.85238e-06
4.46489e-06
3.54418e-06
2.01251e-06
0
0
4.38868e-08
8.77417e-08
1.31612e-07
1.75466e-07
2.19272e-07
2.63077e-07
3.06849e-07
3.50557e-07
3.94248e-07
4.3789e-07
4.81451e-07
5.24978e-07
5.6844e-07
6.11806e-07
6.55121e-07
6.98356e-07
7.41477e-07
7.84533e-07
8.27491e-07
8.7032e-07
9.13067e-07
9.55702e-07
9.98191e-07
1.04058e-06
1.08284e-06
1.12495e-06
1.16694e-06
1.20878e-06
1.25045e-06
1.29199e-06
1.40254e-06
1.51185e-06
1.63899e-06
1.76408e-06
1.90872e-06
2.05011e-06
2.21222e-06
2.36911e-06
2.54677e-06
2.71609e-06
2.90417e-06
3.07909e-06
3.26725e-06
3.43504e-06
3.60511e-06
3.7443e-06
3.86697e-06
3.94437e-06
3.97625e-06
3.94508e-06
3.82849e-06
3.63102e-06
3.30182e-06
2.88306e-06
2.29536e-06
1.63745e-06
8.15915e-07
0
0
6.82376e-08
1.36462e-07
2.04598e-07
2.72633e-07
3.40553e-07
4.08283e-07
4.75811e-07
5.43123e-07
6.10146e-07
6.76866e-07
7.4327e-07
8.09286e-07
8.74901e-07
9.40103e-07
1.00482e-06
1.17583e-06
1.37201e-06
1.5945e-06
1.84266e-06
2.11261e-06
2.39508e-06
2.67213e-06
2.91295e-06
3.06894e-06
3.06991e-06
2.82599e-06
2.24429e-06
1.27489e-06
0
0
2.40948e-08
4.81715e-08
7.22572e-08
9.63335e-08
1.20384e-07
1.44433e-07
1.68465e-07
1.92461e-07
2.16449e-07
2.40408e-07
2.64324e-07
2.88222e-07
3.12084e-07
3.35892e-07
3.59674e-07
3.8341e-07
4.07086e-07
4.30724e-07
4.5431e-07
4.77825e-07
5.01295e-07
5.24702e-07
5.48032e-07
5.71306e-07
5.94512e-07
6.17627e-07
6.40683e-07
6.63657e-07
6.86537e-07
7.09344e-07
7.70056e-07
8.30067e-07
8.99893e-07
9.68568e-07
1.04802e-06
1.12564e-06
1.21471e-06
1.30084e-06
1.39849e-06
1.49143e-06
1.59486e-06
1.69087e-06
1.79443e-06
1.88649e-06
1.98025e-06
2.05657e-06
2.12446e-06
2.16677e-06
2.18498e-06
2.16754e-06
2.10435e-06
1.99541e-06
1.81545e-06
1.58482e-06
1.26253e-06
9.0048e-07
4.48708e-07
0
0
2.60191e-08
5.2033e-08
7.80133e-08
1.03955e-07
1.29853e-07
1.55678e-07
1.81427e-07
2.07094e-07
2.3265e-07
2.58091e-07
2.83412e-07
3.08586e-07
3.33606e-07
3.58469e-07
3.83148e-07
4.48358e-07
5.23174e-07
6.08025e-07
7.0267e-07
8.0564e-07
9.13401e-07
1.01912e-06
1.11106e-06
1.17068e-06
1.17121e-06
1.07834e-06
8.56545e-07
4.86677e-07
0
0
0
0
0
0
0
0
0
0
0
0
0
0
0
0
0
0
0
0
0
0
0
0
0
0
0
0
0
0
0
0
0
0
0
0
0
0
0
0
0
0
0
0
0
0
0
0
0
0
0
0
0
0
0
0
0
0
0
0
SCALARS Displacement_Z double 1
LOOKUP_TABLE default
0.00283994
0.00283949
0.00283812
0.00283585
0.00283266
0.00282858
0.00282358
0.00281769
0.0028109
0.00280322
0.00279465
0.0027852
0.00277486
0.00276364
0.00275156
0.0027386
0.00272477
0.00271008
0.00269451
0.00267806
0.00266073
0.00264249
0.00262331
0.00260319
0.00258203
0.00255976
0.00253627
0.00251137
0.0024844
0.00245488
0.00241857
0.00233559
0.00226849
0.00219586
0.00212823
0.00205269
0.00198132
0.00190168
0.00182676
0.00174387
0.00166663
0.00158199
0.00150378
0.00141882
0.00134083
0.0012567
0.00117997
0.0010978
0.00102349
0.000944786
0.000874683
0.000801951
0.000739002
0.000676231
0.000624895
0.000577848
0.000544317
0.000520727
0.000513119
0.0028429
0.00284107
0.00283557
0.00282643
0.00281366
0.0027973
0.00277737
0.00275392
0.00272696
0.0026965
0.00266251
0.00262486
0.00258331
0.00253727
0.00248507
0.00242103
0.00227125
0.00213044
0.00198288
0.0018278
0.00166729
0.00150418
0.00134106
0.00118009
0.0010235
0.000874613
0.000738857
0.000624694
0.00054408
0.000512867
0.00284526
0.0028448
0.00284341
0.00284111
0.00283788
0.00283374
0.00282868
0.00282271
0.00281583
0.00280805
0.00279936
0.00278978
0.00277931
0.00276794
0.0027557
0.00274257
0.00272856
0.00271368
0.00269791
0.00268124
0.00266369
0.00264521
0.00262579
0.00260539
0.00258395
0.00256136
0.00253752
0.00251218
0.00248503
0.00245517
0.00242326
0.00234279
0.00227409
0.00220093
0.00213256
0.00205639
0.00198441
0.00190421
0.00182882
0.00174552
0.00166794
0.00158302
0.00150458
0.00141944
0.0013413
0.00125704
0.00118021
0.00109793
0.00102353
0.000944729
0.000874549
0.000801733
0.00073872
0.000675885
0.000624501
0.000577412
0.000543852
0.000520246
0.000512625
0.00284705
0.00284519
0.00283963
0.00283037
0.00281744
0.00280086
0.00278068
0.00275693
0.00272962
0.00269876
0.00266432
0.00262615
0.00258399
0.00253725
0.00248444
0.00242493
0.00227695
0.00213464
0.00198588
0.0018298
0.00166857
0.00150498
0.00134154
0.00118033
0.00102355
0.000874491
0.000738591
0.000624317
0.000543635
0.000512393
0.0028483
0.00284783
0.00284643
0.0028441
0.00284083
0.00283664
0.00283152
0.00282547
0.00281851
0.00281063
0.00280184
0.00279214
0.00278153
0.00277003
0.00275763
0.00274434
0.00273015
0.00271508
0.0026991
0.00268221
0.00266443
0.00264569
0.002626
0.00260531
0.00258356
0.00256065
0.0025365
0.00251097
0.00248393
0.00245545
0.00242612
0.00234902
0.00227969
0.00220575
0.00213665
0.00205983
0.00198729
0.00190659
0.00183076
0.00174709
0.00166919
0.00158403
0.00150538
0.00142006
0.00134178
0.00125739
0.00118046
0.00109807
0.00102359
0.000944695
0.000874441
0.000801546
0.000738469
0.000675573
0.000624143
0.000577014
0.000543427
0.000519803
0.000512172
0.00284904
0.00284716
0.00284153
0.00283216
0.00281908
0.00280231
0.00278189
0.00275785
0.0027302
0.00269895
0.00266406
0.00262539
0.00258271
0.00253553
0.00248332
0.00242706
0.00228234
0.00213856
0.00198865
0.00183168
0.0016698
0.00150577
0.00134203
0.00118059
0.00102363
0.000874396
0.000738355
0.000623977
0.000543228
0.000511961
0.00284929
0.00284882
0.0028474
0.00284504
0.00284174
0.0028375
0.00283232
0.00282621
0.00281917
0.0028112
0.0028023
0.0027925
0.00278177
0.00277013
0.00275759
0.00274414
0.00272978
0.00271453
0.00269836
0.00268127
0.00266327
0.00264431
0.00262439
0.00260349
0.00258153
0.00255849
0.00253435
0.00250906
0.00248269
0.00245543
0.00242764
0.00235365
0.00228474
0.00221014
0.0021404
0.00206299
0.00198993
0.00190878
0.00183256
0.00174856
0.00167039
0.00158499
0.00150616
0.00142067
0.00134227
0.00125776
0.00118072
0.00109823
0.00102367
0.000944686
0.000874359
0.000801387
0.00073825
0.000675294
0.00062382
0.000576652
0.00054304
0.000519399
0.000511759
0.00284908
0.00284718
0.00284149
0.00283202
0.0028188
0.00280185
0.00278121
0.00275691
0.00272895
0.00269736
0.00266209
0.00262305
0.00258009
0.00253302
0.00248194
0.00242805
0.0022869
0.0021421
0.00199115
0.0018334
0.00167096
0.00150654
0.00134251
0.00118086
0.00102372
0.000874327
0.000738151
0.000623671
0.00054286
0.000511568
0.00284843
0.00284795
0.00284652
0.00284414
0.0028408
0.00283652
0.00283129
0.00282512
0.00281801
0.00280996
0.00280098
0.00279107
0.00278023
0.00276848
0.00275581
0.00274222
0.00272772
0.00271231
0.00269599
0.00267874
0.00266057
0.00264147
0.00262141
0.00260041
0.00257843
0.00255547
0.00253156
0.00250673
0.0024811
0.00245484
0.00242817
0.0023568
0.00228878
0.00221393
0.0021437
0.00206579
0.00199229
0.00191074
0.00183419
0.00174991
0.00167151
0.00158591
0.00150691
0.00142128
0.00134276
0.00125813
0.001181
0.00109842
0.00102377
0.000944701
0.000874302
0.000801258
0.000738061
0.00067505
0.000623532
0.000576328
0.00054269
0.000519032
0.000511386
0.00284736
0.00284544
0.0028397
0.00283015
0.00281681
0.0027997
0.00277887
0.00275434
0.00272613
0.00269427
0.00265875
0.00261952
0.00257658
0.00252998
0.00248013
0.00242814
0.00229038
0.00214514
0.00199335
0.00183494
0.00167203
0.00150728
0.001343
0.00118115
0.00102383
0.000874283
0.000737978
0.000623401
0.000542529
0.000511214
0.00284589
0.00284541
0.00284397
0.00284156
0.0028382
0.00283389
0.00282861
0.00282239
0.00281522
0.0028071
0.00279805
0.00278806
0.00277713
0.00276528
0.00275251
0.00273882
0.00272421
0.00270869
0.00269225
0.0026749
0.00265666
0.00263749
0.00261741
0.00259644
0.00257457
0.00255183
0.00252829
0.00250398
0.00247904
0.00245361
0.00242785
0.00235866
0.00229169
0.00221695
0.00214646
0.00206818
0.00199432
0.00191244
0.00183564
0.00175113
0.00167253
0.00158677
0.00150763
0.00142188
0.00134324
0.00125851
0.00118129
0.00109862
0.00102389
0.000944739
0.00087427
0.000801157
0.000737903
0.000674839
0.000623279
0.00057604
0.000542378
0.000518705
0.000511052
0.00284404
0.00284211
0.00283633
0.00282671
0.00281327
0.00279604
0.00277506
0.00275036
0.00272197
0.00268995
0.00265431
0.00261509
0.0025724
0.00252647
0.0024778
0.00242739
0.00229274
0.00214761
0.0019952
0.00183628
0.00167301
0.00150798
0.00134348
0.00118144
0.00102396
0.000874264
0.000737835
0.000623165
0.000542236
0.000510899
0.00284183
0.00284134
0.00283989
0.00283748
0.00283409
0.00282975
0.00282444
0.00281818
0.00281097
0.0028028
0.00279369
0.00278364
0.00277265
0.00276073
0.0027479
0.00273413
0.00271945
0.00270388
0.00268739
0.00267
0.00265175
0.0026326
0.00261259
0.00259176
0.00257009
0.00254766
0.00252453
0.00250075
0.00247643
0.00245172
0.00242671
0.00235937
0.00229351
0.00221915
0.00214861
0.0020701
0.00199599
0.00191388
0.00183687
0.00175219
0.00167346
0.00158757
0.00150832
0.00142245
0.00134373
0.0012589
0.0011816
0.00109883
0.00102403
0.0009448
0.000874264
0.000801084
0.000737775
0.000674661
0.00062306
0.000575789
0.000542103
0.000518415
0.000510756
0.00283927
0.00283733
0.00283151
0.00282184
0.00280834
0.00279102
0.00276994
0.00274514
0.00271667
0.00268459
0.00264898
0.00260993
0.00256765
0.00252247
0.00247492
0.00242585
0.00229402
0.00214944
0.00199668
0.0018374
0.00167388
0.00150864
0.00134396
0.00118175
0.00102411
0.00087427
0.000737722
0.000622964
0.000541979
0.000510623
0.00283637
0.00283588
0.00283443
0.002832
0.0028286
0.00282424
0.00281891
0.00281263
0.00280539
0.00279719
0.00278804
0.00277796
0.00276694
0.00275498
0.00274212
0.00272832
0.00271363
0.00269804
0.00268156
0.00266421
0.00264601
0.00262696
0.0026071
0.00258646
0.00256507
0.00254298
0.00252027
0.002497
0.00247325
0.00244915
0.00242479
0.00235906
0.00229428
0.00222049
0.00215009
0.00207151
0.00199727
0.00191501
0.00183788
0.0017531
0.00167427
0.00158829
0.00150896
0.00142301
0.0013442
0.00125929
0.00118191
0.00109906
0.00102419
0.000944883
0.000874282
0.000801039
0.000737677
0.000674515
0.000622876
0.000575574
0.000541865
0.000518163
0.000510499
0.00283314
0.0028312
0.00282537
0.00281567
0.00280213
0.00278478
0.00276366
0.00273883
0.00271035
0.00267833
0.00264287
0.00260412
0.00256236
0.00251795
0.00247143
0.00242355
0.0022943
0.00215058
0.00199775
0.0018383
0.00167464
0.00150927
0.00134444
0.00118207
0.00102427
0.0008743
0.000737639
0.000622797
0.000541759
0.000510385
0.0028296
0.00282912
0.00282766
0.00282523
0.00282183
0.00281746
0.00281213
0.00280583
0.00279858
0.00279038
0.00278122
0.00277114
0.00276011
0.00274816
0.0027353
0.00272152
0.00270685
0.00269131
0.00267489
0.00265763
0.00263954
0.00262065
0.00260098
0.0025806
0.00255951
0.00253778
0.00251549
0.00249269
0.00246946
0.00244591
0.00242211
0.0023578
0.00229407
0.00222098
0.00215088
0.00207239
0.00199813
0.00191583
0.00183866
0.00175384
0.00167497
0.00158895
0.00150956
0.00142355
0.00134467
0.00125969
0.00118224
0.00109931
0.00102436
0.000944988
0.000874325
0.000801022
0.000737609
0.000674402
0.000622726
0.000575395
0.000541663
0.000517949
0.00051028
0.00282575
0.0028238
0.00281797
0.00280828
0.00279474
0.00277739
0.0027563
0.00273152
0.00270313
0.00267126
0.00263605
0.0025977
0.00255651
0.00251289
0.00246733
0.00242049
0.00229362
0.00215101
0.00199839
0.00183896
0.00167528
0.00150985
0.00134491
0.0011824
0.00102446
0.000874355
0.000737586
0.000622664
0.000541576
0.000510184
0.00282159
0.0028211
0.00281964
0.00281722
0.00281382
0.00280946
0.00280413
0.00279785
0.00279061
0.00278242
0.00277329
0.00276322
0.00275223
0.00274031
0.0027275
0.00271378
0.00269919
0.00268373
0.00266743
0.0026503
0.00263238
0.00261368
0.00259426
0.00257415
0.00255338
0.00253202
0.00251014
0.00248778
0.00246504
0.00244199
0.00241869
0.00235566
0.00229294
0.00222063
0.00215097
0.00207271
0.00199856
0.00191633
0.0018392
0.00175441
0.00167556
0.00158953
0.00151012
0.00142407
0.00134514
0.00126009
0.00118257
0.00109957
0.00102456
0.000945114
0.000874391
0.000801031
0.00073757
0.000674321
0.00062261
0.000575251
0.000541499
0.000517773
0.000510098
0.00281712
0.00281518
0.00280937
0.0027997
0.0027862
0.00276891
0.00274791
0.00272325
0.00269503
0.0026634
0.00262854
0.00259066
0.00255009
0.00250724
0.00246258
0.0024167
0.00229205
0.00215075
0.00199861
0.00183938
0.00167581
0.00151038
0.00134537
0.00118274
0.00102466
0.000874433
0.000737562
0.000622565
0.00054143
0.000510021
0.00281234
0.00281185
0.0028104
0.00280799
0.0028046
0.00280026
0.00279496
0.0027887
0.0027815
0.00277335
0.00276427
0.00275426
0.00274332
0.00273148
0.00271875
0.00270514
0.00269065
0.00267533
0.00265918
0.00264223
0.00262452
0.00260605
0.00258689
0.00256708
0.00254665
0.00252566
0.00250418
0.00248225
0.00245994
0.00243735
0.00241452
0.00235268
0.00229094
0.00221947
0.00215035
0.00207247
0.00199856
0.00191651
0.00183951
0.00175482
0.00167603
0.00159003
0.00151063
0.00142456
0.0013456
0.00126049
0.00118291
0.00109985
0.00102477
0.000945262
0.000874481
0.000801068
0.000737561
0.000674272
0.000622528
0.000575144
0.00054137
0.000517634
0.000509954
0.00280725
0.00280532
0.00279954
0.00278993
0.00277652
0.00275934
0.00273848
0.00271402
0.00268605
0.00265475
0.00262031
0.00258295
0.00254304
0.00250095
0.00245714
0.00241215
0.00228963
0.00214979
0.0019984
0.00183957
0.00167622
0.00151087
0.00134582
0.00118309
0.00102488
0.000874534
0.000737567
0.000622499
0.00054132
0.000509896
0.00280184
0.00280136
0.00279992
0.00279752
0.00279416
0.00278985
0.00278459
0.00277838
0.00277124
0.00276315
0.00275414
0.00274422
0.00273338
0.00272164
0.00270904
0.00269555
0.00268123
0.00266608
0.00265012
0.00263338
0.0026159
0.00259771
0.00257883
0.00255934
0.00253925
0.00251863
0.00249755
0.00247603
0.00245415
0.00243199
0.00240959
0.00234888
0.00228811
0.00221754
0.00214906
0.0020717
0.00199813
0.00191638
0.00183958
0.00175506
0.00167639
0.00159047
0.0015111
0.00142503
0.00134605
0.0012609
0.00118327
0.00110014
0.001025
0.00094543
0.000874594
0.000801131
0.00073758
0.000674255
0.000622479
0.000575072
0.000541278
0.000517533
0.000509848
0.0027961
0.00279419
0.00278846
0.00277893
0.00276565
0.00274864
0.00272799
0.00270379
0.00267615
0.00264525
0.00261129
0.00257452
0.00253528
0.00249395
0.00245097
0.00240684
0.0022864
0.00214818
0.00199777
0.00183954
0.00167653
0.00151132
0.00134627
0.00118345
0.00102512
0.000874658
0.0007376
0.000622466
0.000541245
0.000509809
0.00279002
0.00278955
0.00278812
0.00278575
0.00278243
0.00277816
0.00277295
0.00276681
0.00275974
0.00275175
0.00274283
0.00273302
0.00272231
0.00271072
0.00269827
0.00268496
0.00267082
0.00265588
0.00264015
0.00262366
0.00260646
0.00258855
0.00256999
0.00255084
0.00253111
0.00251086
0.00249017
0.00246906
0.0024476
0.00242587
0.00240389
0.00234428
0.00228449
0.00221488
0.00214713
0.0020704
0.00199731
0.00191595
0.00183944
0.00175516
0.00167665
0.00159084
0.00151154
0.00142549
0.00134649
0.00126131
0.00118363
0.00110044
0.00102524
0.000945619
0.000874729
0.00080122
0.000737627
0.000674269
0.000622463
0.000575035
0.000541222
0.000517469
0.000509779
0.00278359
0.0027817
0.00277604
0.00276663
0.0027535
0.00273671
0.00271633
0.00269246
0.00266522
0.00263479
0.00260138
0.00256525
0.00252672
0.00248618
0.00244403
0.00240074
0.00228239
0.00214594
0.00199675
0.0018393
0.00167674
0.00151174
0.00134671
0.00118381
0.00102537
0.000874805
0.000737661
0.000622467
0.000541207
0.000509759
0.00277678
0.00277631
0.0027749
0.00277256
0.00276928
0.00276508
0.00275994
0.00275388
0.00274691
0.00273903
0.00273024
0.00272057
0.00271002
0.0026986
0.00268634
0.00267324
0.00265932
0.00264463
0.00262916
0.00261295
0.00259605
0.00257847
0.00256025
0.00254146
0.00252211
0.00250225
0.00248197
0.00246127
0.00244024
0.00241893
0.00239737
0.00233888
0.0022801
0.00221152
0.0021446
0.00206863
0.00199611
0.00191524
0.0018391
0.00175512
0.00167681
0.00159115
0.00151193
0.00142592
0.00134693
0.00126172
0.001184
0.00110076
0.00102551
0.000945827
0.000874886
0.000801335
0.000737703
0.000674315
0.000622479
0.000575033
0.000541201
0.000517441
0.000509748
0.00276958
0.00276772
0.00276214
0.00275287
0.00273995
0.00272342
0.00270336
0.00267989
0.00265312
0.00262323
0.00259044
0.002555
0.00251724
0.00247752
0.00243622
0.0023938
0.00227763
0.00214313
0.00199539
0.00183887
0.00167686
0.00151212
0.00134714
0.00118418
0.00102564
0.000874973
0.000737751
0.0006225
0.000541205
0.000509746
0.00276197
0.00276151
0.00276012
0.00275782
0.00275459
0.00275045
0.0027454
0.00273944
0.00273259
0.00272484
0.0027162
0.0027067
0.00269634
0.00268512
0.00267308
0.00266022
0.00264657
0.00263215
0.00261698
0.00260109
0.00258453
0.00256731
0.00254946
0.00253106
0.00251211
0.00249268
0.00247283
0.00245257
0.00243198
0.00241112
0.00239001
0.00233268
0.00227498
0.00220751
0.00214154
0.00206642
0.00199459
0.00191429
0.0018386
0.00175496
0.0016769
0.00159142
0.0015123
0.00142635
0.00134736
0.00126214
0.00118437
0.00110109
0.00102578
0.000946056
0.000875065
0.000801476
0.000737806
0.000674391
0.000622529
0.000575066
0.000541217
0.000517451
0.000509754
0.00275391
0.00275208
0.0027466
0.00273749
0.0027248
0.00270857
0.0026889
0.00266588
0.00263964
0.00261037
0.00257828
0.00254361
0.00250669
0.00246786
0.00242748
0.00238598
0.00227216
0.00213983
0.00199372
0.00183829
0.00167691
0.00151247
0.00134757
0.00118456
0.00102593
0.000875162
0.000737867
0.000622566
0.000541238
0.000509772
0.00274539
0.00274493
0.00274358
0.00274131
0.00273815
0.00273409
0.00272913
0.00272329
0.00271657
0.00270897
0.00270051
0.0026912
0.00268104
0.00267005
0.00265827
0.00264568
0.00263232
0.00261822
0.00260339
0.00258786
0.00257167
0.00255485
0.00253742
0.00251945
0.00250095
0.00248199
0.0024626
0.00244283
0.00242272
0.00240235
0.00238173
0.00232566
0.00226917
0.00220292
0.00213801
0.00206385
0.0019928
0.00191315
0.00183795
0.0017547
0.00167692
0.00159164
0.00151264
0.00142676
0.00134779
0.00126256
0.00118476
0.00110144
0.00102607
0.000946304
0.000875265
0.000801643
0.000737936
0.000674499
0.000622611
0.000575134
0.000541269
0.000517496
0.000509799
0.0027026
0.00270088
0.00269572
0.00268716
0.00267523
0.00265999
0.00264155
0.00262001
0.0025955
0.0025682
0.00253832
0.00250609
0.00247179
0.00243573
0.00239821
0.0023596
0.00225309
0.00212766
0.00198699
0.00183528
0.0016762
0.00151296
0.0013485
0.00118548
0.00102664
0.000875673
0.000738223
0.00062282
0.00054143
0.000509952
0.00266102
0.00266061
0.00265939
0.00265735
0.0026545
0.00265085
0.00264639
0.00264113
0.0026351
0.00262827
0.00262069
0.00261234
0.00260325
0.00259343
0.00258291
0.00257168
0.00255979
0.00254724
0.00253406
0.00252028
0.00250592
0.00249101
0.00247558
0.00245968
0.00244331
0.00242652
0.00240936
0.00239185
0.00237402
0.00235593
0.00233759
0.00228751
0.00223666
0.00217642
0.00211671
0.00204761
0.00198059
0.00190461
0.00183215
0.00175129
0.00167516
0.00159124
0.00151307
0.00142779
0.00134907
0.00126396
0.00118611
0.00110268
0.00102716
0.00094724
0.000876057
0.000802327
0.000738521
0.000675024
0.00062307
0.000575563
0.000541654
0.000517871
0.000510174
0.00262079
0.00261925
0.00261462
0.00260695
0.00259628
0.00258267
0.00256622
0.00254703
0.00252523
0.00250099
0.00247449
0.00244592
0.00241552
0.00238354
0.0023502
0.00231578
0.00222004
0.00210528
0.00197364
0.00182856
0.00167378
0.00151294
0.00134949
0.00118663
0.00102761
0.000876417
0.000738831
0.000623362
0.000541936
0.000510459
0.002582
0.00258163
0.00258054
0.00257872
0.00257618
0.00257291
0.00256893
0.00256425
0.00255886
0.00255278
0.00254602
0.00253859
0.0025305
0.00252176
0.00251241
0.00250243
0.00249186
0.00248072
0.00246902
0.00245679
0.00244405
0.00243082
0.00241712
0.002403
0.00238847
0.00237355
0.00235828
0.00234268
0.00232679
0.00231063
0.00229422
0.00224926
0.00220329
0.0021484
0.00209345
0.0020292
0.0019662
0.00189402
0.00182452
0.00174627
0.00167206
0.00158971
0.00151257
0.00142805
0.00134974
0.00126486
0.00118705
0.0011036
0.001028
0.000948007
0.000876752
0.000802987
0.000739152
0.000675656
0.000623695
0.000576199
0.000542281
0.000518512
0.000510813
0.00254471
0.00254334
0.00253922
0.00253238
0.00252288
0.00251077
0.00249613
0.00247907
0.0024597
0.00243816
0.00241461
0.00238921
0.00236216
0.00233364
0.00230384
0.00227299
0.00218653
0.00208132
0.00195832
0.00182004
0.00166997
0.00151193
0.0013498
0.00118734
0.00102831
0.000877058
0.000739482
0.000624068
0.000542686
0.000511233
0.00250892
0.00250859
0.00250762
0.002506
0.00250373
0.00250083
0.00249729
0.00249311
0.00248832
0.00248291
0.00247689
0.00247028
0.00246308
0.00245531
0.00244699
0.00243811
0.00242871
0.0024188
0.00240839
0.0023975
0.00238616
0.00237437
0.00236216
0.00234957
0.00233659
0.00232326
0.0023096
0.00229563
0.00228138
0.00226686
0.0022521
0.00221151
0.00216977
0.00211958
0.00206893
0.00200917
0.00195003
0.00188161
0.00181514
0.00173966
0.00166753
0.00158693
0.00151102
0.00142742
0.00134967
0.00126515
0.00118751
0.00110415
0.00102856
0.000948587
0.000877338
0.000803619
0.000739823
0.000676395
0.000624483
0.000577042
0.000543152
0.000519414
0.000511721
0.00247461
0.00247339
0.00246972
0.00246363
0.00245517
0.00244438
0.00243134
0.00241615
0.00239888
0.00237968
0.00235867
0.00233598
0.00231177
0.00228619
0.00225941
0.00223159
0.0021531
0.00205636
0.0019414
0.00180985
0.00166472
0.00150981
0.00134933
0.00118754
0.00102872
0.000877587
0.000740174
0.000624937
0.000543677
0.000512274
0.00244177
0.00244148
0.00244061
0.00243916
0.00243714
0.00243455
0.00243139
0.00242767
0.0024234
0.00241857
0.0024132
0.0024073
0.00240088
0.00239395
0.00238652
0.00237859
0.00237019
0.00236134
0.00235203
0.00234229
0.00233214
0.00232158
0.00231064
0.00229934
0.00228768
0.0022757
0.00226341
0.00225082
0.00223795
0.00222484
0.00221148
0.00217462
0.00213654
0.00209047
0.00204365
0.00198799
0.00193245
0.00186765
0.00180418
0.0017315
0.00166156
0.00158286
0.00150831
0.00142581
0.00134878
0.00126477
0.00118743
0.00110428
0.00102881
0.000948962
0.000877808
0.000804219
0.000740536
0.000677241
0.000625433
0.000578091
0.000544264
0.000520576
0.000512896
0.00241031
0.00240922
0.00240594
0.0024005
0.00239294
0.00238329
0.00237164
0.00235804
0.00234258
0.00232537
0.00230651
0.00228611
0.00226431
0.00224123
0.002217
0.00219177
0.00212012
0.00203084
0.00192323
0.00179815
0.00165804
0.00150652
0.001348
0.00118717
0.00102881
0.000877996
0.000740908
0.000625969
0.000544911
0.000513584
0.0023802
0.00237994
0.00237916
0.00237787
0.00237606
0.00237374
0.00237091
0.00236757
0.00236374
0.00235942
0.0023546
0.00234932
0.00234355
0.00233733
0.00233066
0.00232355
0.002316
0.00230804
0.00229966
0.0022909
0.00228175
0.00227224
0.00226237
0.00225216
0.00224163
0.00223078
0.00221965
0.00220823
0.00219655
0.00218462
0.00217245
0.00213879
0.00210386
0.00206138
0.00201795
0.00196599
0.00191376
0.00185237
0.00179178
0.00172189
0.00165417
0.00157747
0.00150442
0.00142315
0.00134699
0.00126366
0.00118675
0.00110396
0.00102873
0.000949117
0.000878155
0.000804787
0.000741292
0.000678197
0.000626547
0.000579348
0.000545619
0.000521999
0.00051434
0.00235136
0.00235038
0.00234743
0.00234255
0.00233575
0.00232707
0.00231658
0.00230434
0.00229041
0.00227488
0.00225784
0.00223938
0.00221962
0.00219865
0.00217658
0.00215354
0.00208777
0.00200503
0.00190407
0.0017851
0.00164996
0.00150201
0.00134574
0.00118618
0.00102855
0.000878282
0.000741686
0.000627166
0.000546387
0.000515162
0.0023237
0.00232347
0.00232277
0.0023216
0.00231997
0.00231788
0.00231533
0.00231232
0.00230886
0.00230496
0.00230062
0.00229585
0.00229064
0.00228502
0.00227899
0.00227256
0.00226573
0.00225852
0.00225094
0.00224299
0.0022347
0.00222606
0.00221709
0.00220781
0.00219822
0.00218834
0.00217819
0.00216776
0.00215708
0.00214616
0.00213501
0.00210408
0.00207186
0.0020325
0.00199206
0.0019434
0.00189417
0.00183595
0.0017781
0.00171092
0.00164541
0.00157076
0.0014993
0.00141941
0.00134426
0.00126176
0.00118545
0.00110315
0.00102829
0.000949045
0.000878379
0.000805325
0.000742094
0.000679266
0.000627828
0.000580816
0.000547217
0.000523683
0.000516053
0.00229715
0.00229626
0.0022936
0.00228918
0.00228302
0.00227517
0.00226567
0.00225456
0.00224191
0.0022278
0.00221229
0.00219547
0.00217742
0.00215824
0.00213801
0.00211684
0.00205611
0.00197907
0.00188409
0.00177081
0.00164053
0.00149629
0.00134253
0.00118455
0.00102794
0.000878444
0.000742513
0.000628533
0.000548108
0.000517012
0.00227163
0.00227142
0.00227078
0.00226972
0.00226824
0.00226634
0.00226402
0.00226129
0.00225815
0.00225461
0.00225066
0.00224632
0.00224158
0.00223647
0.00223098
0.00222512
0.00221889
0.00221232
0.0022054
0.00219814
0.00219057
0.00218266
0.00217446
0.00216596
0.00215717
0.0021481
0.00213877
0.00212918
0.00211935
0.00210929
0.002099
0.00207041
0.00204052
0.00200388
0.00196606
0.00192033
0.00187383
0.00181851
0.00176323
0.00169865
0.00163533
0.00156277
0.00149296
0.00141458
0.00134056
0.00125905
0.00118349
0.00110185
0.0010275
0.000948743
0.000878481
0.000805836
0.000742948
0.000680454
0.000629282
0.0005825
0.000549062
0.000525632
0.000518039
0.00224703
0.00224622
0.00224379
0.00223976
0.00223415
0.00222699
0.00221831
0.00220816
0.00219659
0.00218367
0.00216945
0.002154
0.0021374
0.00211973
0.00210106
0.00208147
0.00202508
0.00195302
0.00186339
0.00175537
0.0016298
0.00148934
0.00133834
0.00118225
0.00102697
0.000878487
0.000743397
0.000630076
0.000550078
0.000519134
0.00222328
0.00222308
0.0022225
0.00222153
0.00222018
0.00221844
0.00221632
0.00221382
0.00221094
0.00220769
0.00220408
0.0022001
0.00219576
0.00219107
0.00218603
0.00218065
0.00217493
0.0021689
0.00216253
0.00215586
0.00214888
0.0021416
0.00213403
0.00212619
0.00211808
0.0021097
0.00210107
0.0020922
0.00208309
0.00207376
0.00206421
0.00203762
0.00200975
0.00197546
0.00193994
0.00189682
0.00185277
0.00180012
0.00174724
0.00168515
0.00162395
0.00155349
0.00148541
0.00140863
0.00133588
0.00125553
0.00118086
0.00110004
0.00102634
0.000948212
0.000878467
0.00080633
0.000743865
0.00068177
0.000630916
0.000584404
0.000551158
0.000527849
0.0005203
0.00220027
0.00219953
0.0021973
0.0021936
0.00218844
0.00218185
0.00217386
0.00216452
0.00215386
0.00214193
0.0021288
0.00211451
0.00209914
0.00208275
0.0020654
0.00204718
0.00199452
0.00192682
0.00184198
0.00173883
0.00161779
0.00148118
0.00133317
0.00117929
0.00102563
0.00087842
0.000744349
0.000631803
0.000552301
0.000521535
0.00217791
0.00217773
0.0021772
0.0021763
0.00217505
0.00217345
0.00217149
0.00216919
0.00216654
0.00216354
0.0021602
0.00215653
0.00215252
0.00214818
0.00214353
0.00213855
0.00213326
0.00212767
0.00212178
0.00211559
0.00210912
0.00210237
0.00209535
0.00208807
0.00208052
0.00207273
0.0020647
0.00205644
0.00204794
0.00203924
0.00203033
0.00200546
0.00197933
0.00194711
0.00191362
0.00187282
0.00183098
0.00178078
0.00173014
0.00167042
0.00161131
0.00154296
0.00147664
0.00140157
0.00133022
0.00125118
0.00117756
0.00109773
0.00102483
0.000947464
0.00087835
0.000806818
0.000744855
0.000683223
0.000632739
0.000586535
0.00055351
0.000530339
0.000522841
0.0021561
0.00215541
0.00215335
0.00214992
0.00214514
0.00213904
0.00213164
0.00212297
0.00211307
0.002102
0.00208978
0.00207648
0.00206216
0.00204687
0.00203066
0.0020136
0.00196417
0.00190032
0.00181979
0.00172117
0.00160452
0.00147181
0.00132703
0.00117567
0.00102395
0.000878258
0.000745381
0.000633723
0.000554784
0.000524219
0.00213473
0.00213456
0.00213407
0.00213324
0.00213208
0.00213059
0.00212877
0.00212663
0.00212416
0.00212138
0.00211827
0.00211486
0.00211113
0.0021071
0.00210276
0.00209813
0.00209321
0.002088
0.00208251
0.00207674
0.0020707
0.0020644
0.00205784
0.00205104
0.00204399
0.0020367
0.00202918
0.00202144
0.00201348
0.00200532
0.00199695
0.00197359
0.00194899
0.00191858
0.0018869
0.00184819
0.00180838
0.00176044
0.00171191
0.00165447
0.0015974
0.00153116
0.00146667
0.00139343
0.00132359
0.00124603
0.00117362
0.00109494
0.00102299
0.000946517
0.000878149
0.000807317
0.000745933
0.000684826
0.000634759
0.000588902
0.000556125
0.000533108
0.000525668
0.00211369
0.00211305
0.00211112
0.00210793
0.00210348
0.00209779
0.00209089
0.0020828
0.00207356
0.00206321
0.00205178
0.00203933
0.00202591
0.00201157
0.00199634
0.00198031
0.00193373
0.00187331
0.00179671
0.00170234
0.00158996
0.00146124
0.00131993
0.00117141
0.00102195
0.000878024
0.00074651
0.000635847
0.000557534
0.000527191
0.00209286
0.0020927
0.00209224
0.00209146
0.00209038
0.00208899
0.00208729
0.00208529
0.00208299
0.00208038
0.00207748
0.00207429
0.0020708
0.00206703
0.00206297
0.00205864
0.00205403
0.00204915
0.002044
0.0020386
0.00203294
0.00202703
0.00202087
0.00201449
0.00200786
0.00200101
0.00199395
0.00198666
0.00197918
0.00197149
0.00196361
0.00194158
0.00191834
0.00188956
0.00185951
0.00182272
0.00178478
0.00173897
0.00169246
0.00163724
0.0015822
0.00151811
0.00145551
0.00138421
0.00131603
0.0012401
0.00116906
0.00109169
0.00102084
0.000945397
0.000877888
0.000807847
0.000747117
0.000686594
0.000636991
0.000591514
0.000559012
0.000536163
0.000528788
0.00207212
0.00207152
0.00206972
0.00206674
0.00206257
0.00205724
0.00205077
0.00204318
0.00203452
0.0020248
0.00201407
0.00200237
0.00198975
0.00197624
0.0019619
0.00194678
0.00190276
0.00184547
0.00177254
0.00168224
0.0015741
0.00144949
0.00131191
0.00116656
0.00101966
0.000877744
0.000747755
0.000638189
0.000560559
0.000530459
0.00205134
0.0020512
0.00205076
0.00205004
0.00204902
0.00204772
0.00204612
0.00204425
0.00204209
0.00203964
0.00203692
0.00203392
0.00203065
0.00202711
0.0020233
0.00201923
0.0020149
0.00201031
0.00200548
0.00200039
0.00199507
0.00198951
0.00198372
0.0019777
0.00197146
0.00196501
0.00195835
0.00195148
0.00194442
0.00193717
0.00192972
0.0019089
0.00188691
0.00185964
0.00183112
0.00179613
0.00175997
0.00171621
0.00167167
0.00161866
0.00156566
0.00150379
0.00144318
0.00137394
0.00130757
0.00123343
0.00116393
0.00108804
0.00101843
0.00094414
0.000877598
0.000808434
0.000748429
0.000688542
0.000639446
0.000594382
0.000562178
0.000539511
0.000532207
0.00203038
0.00202982
0.00202813
0.00202532
0.00202141
0.00201641
0.00201033
0.0020032
0.00199506
0.00198592
0.00197582
0.00196481
0.00195291
0.00194018
0.00192665
0.00191237
0.00187073
0.00181641
0.00174702
0.00166073
0.00155688
0.00143658
0.00130301
0.00116117
0.00101714
0.000877453
0.000749139
0.000640762
0.000563869
0.000534032
0.00200909
0.00200895
0.00200855
0.00200786
0.00200691
0.00200569
0.00200419
0.00200243
0.0020004
0.00199811
0.00199555
0.00199274
0.00198966
0.00198633
0.00198276
0.00197893
0.00197486
0.00197055
0.001966
0.00196122
0.00195621
0.00195097
0.00194552
0.00193986
0.00193398
0.0019279
0.00192162
0.00191514
0.00190848
0.00190164
0.00189461
0.00187494
0.00185414
0.00182832
0.00180128
0.00176805
0.00173364
0.00169194
0.00164938
0.00159862
0.00154774
0.00148819
0.00142969
0.00136267
0.00129826
0.0012261
0.0011583
0.00108403
0.00101581
0.000942789
0.000877316
0.000809106
0.000749891
0.000690689
0.00064214
0.000597519
0.000565634
0.000543162
0.000535936
0.00198729
0.00198677
0.00198518
0.00198255
0.00197888
0.00197419
0.00196849
0.0019618
0.00195415
0.00194556
0.00193608
0.00192572
0.00191453
0.00190254
0.0018898
0.00187634
0.00183705
0.00178565
0.0017198
0.00163761
0.00153824
0.00142252
0.00129332
0.00115532
0.00101444
0.000877193
0.000750686
0.000643581
0.000567475
0.000537919
0.00196482
0.00196469
0.00196431
0.00196367
0.00196277
0.00196163
0.00196023
0.00195858
0.00195668
0.00195454
0.00195215
0.00194951
0.00194663
0.00194352
0.00194017
0.00193658
0.00193277
0.00192873
0.00192447
0.00191998
0.00191529
0.00191038
0.00190527
0.00189995
0.00189443
0.00188872
0.00188283
0.00187675
0.00187048
0.00186405
0.00185744
0.00183894
0.00181935
0.001795
0.00176946
0.00173804
0.00170545
0.00166586
0.00162539
0.00157699
0.00152837
0.00147129
0.00141508
0.00135045
0.0012882
0.00121817
0.00115225
0.00107975
0.00101305
0.000941398
0.000877089
0.000809897
0.00075153
0.000693056
0.000645089
0.000600936
0.000569392
0.000547126
0.000539983
0.00194147
0.00194097
0.0019395
0.00193705
0.00193363
0.00192925
0.00192393
0.0019177
0.00191056
0.00190255
0.00189369
0.00188401
0.00187355
0.00186234
0.00185041
0.0018378
0.00180095
0.00175262
0.00169052
0.00161269
0.00151812
0.00140737
0.00128291
0.0011491
0.00101164
0.000877011
0.000752425
0.000646664
0.000571387
0.00054213
0.00191701
0.00191689
0.00191653
0.00191594
0.00191512
0.00191405
0.00191276
0.00191123
0.00190947
0.00190748
0.00190527
0.00190282
0.00190016
0.00189727
0.00189416
0.00189084
0.0018873
0.00188355
0.0018796
0.00187543
0.00187108
0.00186651
0.00186176
0.00185682
0.00185169
0.00184638
0.0018409
0.00183524
0.00182941
0.00182341
0.00181726
0.0018
0.00178172
0.00175895
0.00173504
0.00170558
0.00167495
0.00163767
0.00159947
0.00155364
0.00150749
0.00145309
0.0013994
0.00133736
0.00127748
0.00120975
0.00114589
0.00107527
0.00101023
0.000940027
0.000876965
0.000810844
0.000753376
0.000695664
0.000648311
0.000604649
0.000573463
0.000551411
0.000544362
0.001666
0.00166569
0.00166474
0.00166316
0.00166095
0.00165812
0.00165468
0.00165063
0.00164599
0.00164077
0.00163498
0.00162864
0.00162176
0.00161436
0.00160646
0.00159807
0.00157337
0.00154052
0.00149752
0.00144236
0.00137339
0.00128984
0.00119235
0.00108339
0.000967259
0.000849895
0.000738647
0.000642631
0.00057356
0.00054659
0.00146824
0.00146817
0.00146801
0.00146772
0.00146734
0.00146683
0.00146622
0.00146549
0.00146466
0.00146371
0.00146266
0.0014615
0.00146023
0.00145885
0.00145736
0.00145577
0.00145408
0.00145227
0.00145037
0.00144836
0.00144625
0.00144404
0.00144174
0.00143933
0.00143683
0.00143423
0.00143154
0.00142875
0.00142588
0.00142291
0.00141985
0.00141122
0.00140202
0.00139042
0.0013781
0.00136269
0.00134643
0.00132629
0.0013052
0.00127941
0.00125269
0.00122051
0.00118764
0.00114876
0.00110976
0.00106455
0.00102021
0.000969987
0.000922008
0.000869093
0.000820095
0.000767819
0.00072133
0.000674078
0.000634664
0.000598086
0.000571638
0.000552956
0.000546893
0.00130762
0.00130746
0.00130697
0.00130615
0.00130502
0.00130356
0.00130178
0.00129968
0.00129727
0.00129456
0.00129154
0.00128822
0.00128461
0.00128072
0.00127654
0.00127209
0.00125886
0.00124101
0.00121719
0.00118585
0.00114538
0.00109437
0.00103203
0.000958668
0.000876206
0.000788559
0.00070182
0.000624441
0.000567525
0.000545035
0.0011745
0.00117447
0.00117438
0.00117422
0.00117401
0.00117374
0.0011734
0.001173
0.00117255
0.00117203
0.00117145
0.00117082
0.00117012
0.00116936
0.00116855
0.00116767
0.00116674
0.00116575
0.0011647
0.00116359
0.00116243
0.0011612
0.00115993
0.00115859
0.00115721
0.00115576
0.00115427
0.00115271
0.00115111
0.00114945
0.00114774
0.0011429
0.00113771
0.00113114
0.00112411
0.00111526
0.00110585
0.00109407
0.00108163
0.00106619
0.00105003
0.00103019
0.00100968
0.000984853
0.000959563
0.000929514
0.000899487
0.0008646
0.00083058
0.00079214
0.000755816
0.00071623
0.000680399
0.000643352
0.000612035
0.000582614
0.00056116
0.000545903
0.000540927
0.00106208
0.00106199
0.00106171
0.00106124
0.00106059
0.00105975
0.00105873
0.00105753
0.00105614
0.00105458
0.00105284
0.00105092
0.00104883
0.00104657
0.00104414
0.00104155
0.00103381
0.00102328
0.00100908
0.00099013
0.000965207
0.000933057
0.000892624
0.000843418
0.000786013
0.000722606
0.000657532
0.000597654
0.000552591
0.000534554
0.000965815
0.000965796
0.000965741
0.00096565
0.000965523
0.00096536
0.000965161
0.000964925
0.000964654
0.000964346
0.000964003
0.000963623
0.000963208
0.000962757
0.000962272
0.00096175
0.000961194
0.000960602
0.000959976
0.000959314
0.000958619
0.000957888
0.000957124
0.000956326
0.000955495
0.000954629
0.000953731
0.000952799
0.000951835
0.000950838
0.000949809
0.00094689
0.000943752
0.000939766
0.000935491
0.000930084
0.000924308
0.000917039
0.000909314
0.000899659
0.000889472
0.000876856
0.000863671
0.000847541
0.000830899
0.000810856
0.000790533
0.000766551
0.000742786
0.000715483
0.000689251
0.000660194
0.000633478
0.000605456
0.000581458
0.00055866
0.00054189
0.000529881
0.000525956
0.000882211
0.000882154
0.000881983
0.000881697
0.000881298
0.000880786
0.00088016
0.000879423
0.000878574
0.000877614
0.000876544
0.000875366
0.00087408
0.000872688
0.00087119
0.000869589
0.000864797
0.000858248
0.000849358
0.000837396
0.000821489
0.000800675
0.000774026
0.000740878
0.000701215
0.000656171
0.000608623
0.000563726
0.000529239
0.00051527
0.000808789
0.000808777
0.000808743
0.000808686
0.000808607
0.000808505
0.00080838
0.000808232
0.000808063
0.00080787
0.000807655
0.000807417
0.000807158
0.000806875
0.000806571
0.000806244
0.000805895
0.000805524
0.000805131
0.000804716
0.000804279
0.000803821
0.000803341
0.000802839
0.000802316
0.000801772
0.000801207
0.00080062
0.000800013
0.000799385
0.000798736
0.000796894
0.00079491
0.000792386
0.000789674
0.000786234
0.00078255
0.000777897
0.000772936
0.000766705
0.000760102
0.000751873
0.000743224
0.00073256
0.000721476
0.000707998
0.000694209
0.000677754
0.000661273
0.000642105
0.000623469
0.000602565
0.000583115
0.00056247
0.000544601
0.000527459
0.000514754
0.000505598
0.000502599
0.000743554
0.000743518
0.000743409
0.000743227
0.000742973
0.000742646
0.000742247
0.000741777
0.000741235
0.000740622
0.000739939
0.000739186
0.000738364
0.000737473
0.000736514
0.000735488
0.000732412
0.000728197
0.000722454
0.000714684
0.000704282
0.000690547
0.000672757
0.000650308
0.000622978
0.000591327
0.000557211
0.000524342
0.000498665
0.000488157
0.000685018
0.000685011
0.000684989
0.000684952
0.000684901
0.000684835
0.000684754
0.000684659
0.000684549
0.000684424
0.000684286
0.000684132
0.000683964
0.000683781
0.000683584
0.000683373
0.000683147
0.000682907
0.000682653
0.000682384
0.000682101
0.000681804
0.000681493
0.000681169
0.00068083
0.000680477
0.00068011
0.00067973
0.000679336
0.000678928
0.000678507
0.00067731
0.00067602
0.000674377
0.000672609
0.000670364
0.000667954
0.000664905
0.000661646
0.000657543
0.00065318
0.000647723
0.000641965
0.00063483
0.000627377
0.000618259
0.000608871
0.000597585
0.000586196
0.000572837
0.000559739
0.000544909
0.000530987
0.000516076
0.000503061
0.000490478
0.000481093
0.000474294
0.000472064
0.000631943
0.00063192
0.000631848
0.000631729
0.000631563
0.00063135
0.000631089
0.000630782
0.000630427
0.000630026
0.000629579
0.000629086
0.000628548
0.000627964
0.000627336
0.000626663
0.000624644
0.000621872
0.000618086
0.000612948
0.000606037
0.000596859
0.000584881
0.00056962
0.000550821
0.000528747
0.000504593
0.000480965
0.000462265
0.000454548
0.000583387
0.000583382
0.000583367
0.000583343
0.000583309
0.000583266
0.000583213
0.00058315
0.000583078
0.000582995
0.000582904
0.000582803
0.000582692
0.000582571
0.000582442
0.000582302
0.000582153
0.000581995
0.000581827
0.00058165
0.000581464
0.000581268
0.000581062
0.000580848
0.000580624
0.000580391
0.000580149
0.000579898
0.000579637
0.000579368
0.00057909
0.000578299
0.000577445
0.000576357
0.000575186
0.000573696
0.000572097
0.000570069
0.000567899
0.000565162
0.000562245
0.000558589
0.00055472
0.000549911
0.000544871
0.00053868
0.000532278
0.000524543
0.000516697
0.000507438
0.000498305
0.000487896
0.000478061
0.000467455
0.00045814
0.00044908
0.000442289
0.000437348
0.000435726
0.000538544
0.000538528
0.000538481
0.000538402
0.000538292
0.00053815
0.000537977
0.000537773
0.000537538
0.000537272
0.000536975
0.000536648
0.00053629
0.000535903
0.000535485
0.000535038
0.000533695
0.000531849
0.000529324
0.000525889
0.000521257
0.000515081
0.000506979
0.00049659
0.000483689
0.000468393
0.000451474
0.00043474
0.000421363
0.000415809
0.000496785
0.000496782
0.000496772
0.000496756
0.000496734
0.000496705
0.000496669
0.000496628
0.000496579
0.000496525
0.000496464
0.000496396
0.000496323
0.000496242
0.000496156
0.000496063
0.000495964
0.000495858
0.000495746
0.000495628
0.000495504
0.000495373
0.000495236
0.000495093
0.000494944
0.000494789
0.000494627
0.00049446
0.000494286
0.000494106
0.00049392
0.000493392
0.000492822
0.000492095
0.000491312
0.000490316
0.000489245
0.000487887
0.000486432
0.000484593
0.000482633
0.00048017
0.00047756
0.000474309
0.000470894
0.000466687
0.000462324
0.000457035
0.00045165
0.000445269
0.000438948
0.00043171
0.000424839
0.000417393
0.000410823
0.000404404
0.000399575
0.000396051
0.000394893
0.000457576
0.000457566
0.000457534
0.000457481
0.000457408
0.000457313
0.000457198
0.000457062
0.000456904
0.000456727
0.000456528
0.00045631
0.000456071
0.000455811
0.000455532
0.000455233
0.000454334
0.000453098
0.000451405
0.0004491
0.000445984
0.000441819
0.000436336
0.000429275
0.000420457
0.000409933
0.000398202
0.000386505
0.000377088
0.000373158
0.000420489
0.000420487
0.00042048
0.00042047
0.000420455
0.000420435
0.000420412
0.000420384
0.000420351
0.000420315
0.000420274
0.000420229
0.00042018
0.000420126
0.000420068
0.000420006
0.00041994
0.000419869
0.000419794
0.000419715
0.000419632
0.000419545
0.000419453
0.000419358
0.000419258
0.000419154
0.000419046
0.000418934
0.000418817
0.000418697
0.000418573
0.000418219
0.000417837
0.000417351
0.000416826
0.000416158
0.00041544
0.000414528
0.000413551
0.000412316
0.000410997
0.000409338
0.000407579
0.000405384
0.000403074
0.000400224
0.000397262
0.000393663
0.00038999
0.000385624
0.000381287
0.000376304
0.000371558
0.000366396
0.000361827
0.000357347
0.000353969
0.000351497
0.000350684
0.000385154
0.000385147
0.000385126
0.000385091
0.000385042
0.000384978
0.000384901
0.00038481
0.000384705
0.000384587
0.000384454
0.000384308
0.000384148
0.000383975
0.000383788
0.000383588
0.000382987
0.00038216
0.000381027
0.000379481
0.00037739
0.00037459
0.000370896
0.000366124
0.000360141
0.000352968
0.000344929
0.000336867
0.000330343
0.000327611
0.000351281
0.000351279
0.000351275
0.000351268
0.000351258
0.000351245
0.000351229
0.000351211
0.000351189
0.000351165
0.000351138
0.000351108
0.000351075
0.000351039
0.000351001
0.000350959
0.000350915
0.000350868
0.000350818
0.000350766
0.00035071
0.000350652
0.000350591
0.000350527
0.000350461
0.000350391
0.000350319
0.000350245
0.000350167
0.000350087
0.000350004
0.000349769
0.000349514
0.000349189
0.000348839
0.000348394
0.000347915
0.000347306
0.000346653
0.000345828
0.000344946
0.000343836
0.000342657
0.000341186
0.000339636
0.000337721
0.000335728
0.000333302
0.000330822
0.000327869
0.000324929
0.000321543
0.00031831
0.000314786
0.000311659
0.000308586
0.000306264
0.000304562
0.000304002
0.000318613
0.000318609
0.000318595
0.000318572
0.000318539
0.000318497
0.000318446
0.000318386
0.000318316
0.000318238
0.00031815
0.000318053
0.000317947
0.000317832
0.000317709
0.000317576
0.000317178
0.000316629
0.000315877
0.000314852
0.000313462
0.0003116
0.000309139
0.000305952
0.000301948
0.000297131
0.000291712
0.000286257
0.000281825
0.000279965
0.000286949
0.000286948
0.000286945
0.00028694
0.000286934
0.000286925
0.000286915
0.000286902
0.000286888
0.000286872
0.000286855
0.000286835
0.000286813
0.00028679
0.000286765
0.000286737
0.000286708
0.000286677
0.000286645
0.00028661
0.000286574
0.000286536
0.000286496
0.000286454
0.00028641
0.000286365
0.000286317
0.000286268
0.000286217
0.000286165
0.00028611
0.000285955
0.000285788
0.000285575
0.000285345
0.000285052
0.000284737
0.000284336
0.000283907
0.000283364
0.000282783
0.000282052
0.000281275
0.000280304
0.000279281
0.000278016
0.000276699
0.000275093
0.000273449
0.000271489
0.000269536
0.000267282
0.000265127
0.000262773
0.000260681
0.000258622
0.000257063
0.00025592
0.000255544
0.000256112
0.000256109
0.0002561
0.000256085
0.000256064
0.000256037
0.000256004
0.000255965
0.00025592
0.000255869
0.000255812
0.000255749
0.00025568
0.000255606
0.000255526
0.00025544
0.000255181
0.000254826
0.000254338
0.000253672
0.000252769
0.000251559
0.000249957
0.000247881
0.000245267
0.000242115
0.000238561
0.000234973
0.00023205
0.000230822
0.000225965
0.000225964
0.000225963
0.00022596
0.000225955
0.00022595
0.000225943
0.000225936
0.000225927
0.000225917
0.000225905
0.000225893
0.000225879
0.000225864
0.000225848
0.000225831
0.000225812
0.000225793
0.000225772
0.00022575
0.000225727
0.000225702
0.000225677
0.00022565
0.000225622
0.000225593
0.000225563
0.000225532
0.0002255
0.000225466
0.000225432
0.000225333
0.000225227
0.000225091
0.000224944
0.000224758
0.000224557
0.000224302
0.000224029
0.000223682
0.000223312
0.000222846
0.000222351
0.000221732
0.000221079
0.00022027
0.000219428
0.000218401
0.000217349
0.000216093
0.00021484
0.000213393
0.000212008
0.000210494
0.000209146
0.000207818
0.000206812
0.000206073
0.00020583
0.000196386
0.000196384
0.000196379
0.000196369
0.000196356
0.00019634
0.000196319
0.000196295
0.000196267
0.000196235
0.0001962
0.000196161
0.000196119
0.000196073
0.000196023
0.00019597
0.00019581
0.000195589
0.000195287
0.000194874
0.000194314
0.000193563
0.000192569
0.000191278
0.000189652
0.000187688
0.00018547
0.000183226
0.000181396
0.000180625
0.000167287
0.000167287
0.000167286
0.000167284
0.000167281
0.000167278
0.000167274
0.00016727
0.000167264
0.000167258
0.000167252
0.000167244
0.000167236
0.000167227
0.000167217
0.000167207
0.000167196
0.000167184
0.000167172
0.000167159
0.000167145
0.000167131
0.000167115
0.0001671
0.000167083
0.000167066
0.000167048
0.000167029
0.00016701
0.00016699
0.000166969
0.000166911
0.000166847
0.000166766
0.000166679
0.000166568
0.000166448
0.000166296
0.000166133
0.000165927
0.000165706
0.000165428
0.000165132
0.000164762
0.000164373
0.00016389
0.000163387
0.000162772
0.000162143
0.000161392
0.000160641
0.000159774
0.000158943
0.000158034
0.000157225
0.000156426
0.000155821
0.000155376
0.00015523
0.000138591
0.00013859
0.000138587
0.000138582
0.000138574
0.000138565
0.000138553
0.00013854
0.000138524
0.000138506
0.000138486
0.000138464
0.000138441
0.000138415
0.000138387
0.000138357
0.000138266
0.000138142
0.000137972
0.00013774
0.000137424
0.000137001
0.00013644
0.000135712
0.000134794
0.000133684
0.000132429
0.000131158
0.00013012
0.000129683
0.000110246
0.000110246
0.000110245
0.000110244
0.000110243
0.000110241
0.000110239
0.000110237
0.000110234
0.000110231
0.000110228
0.000110224
0.000110219
0.000110215
0.00011021
0.000110205
0.000110199
0.000110193
0.000110186
0.00011018
0.000110172
0.000110165
0.000110157
0.000110149
0.00011014
0.000110131
0.000110122
0.000110113
0.000110103
0.000110092
0.000110082
0.000110051
0.000110018
0.000109977
0.000109931
0.000109874
0.000109812
0.000109733
0.000109649
0.000109542
0.000109428
0.000109284
0.000109131
0.00010894
0.000108738
0.000108488
0.000108227
0.000107909
0.000107583
0.000107193
0.000106804
0.000106354
0.000105923
0.000105451
0.00010503
0.000104615
0.000104301
0.000104068
0.000103993
8.22164e-05
8.22159e-05
8.22145e-05
8.22121e-05
8.22088e-05
8.22045e-05
8.21993e-05
8.21932e-05
8.21861e-05
8.2178e-05
8.21691e-05
8.21592e-05
8.21484e-05
8.21366e-05
8.2124e-05
8.21105e-05
8.20697e-05
8.20136e-05
8.19367e-05
8.18316e-05
8.1689e-05
8.14976e-05
8.1244e-05
8.09146e-05
8.0499e-05
7.99965e-05
7.9428e-05
7.88521e-05
7.83816e-05
7.81831e-05
5.44904e-05
5.44903e-05
5.44901e-05
5.44898e-05
5.44893e-05
5.44887e-05
5.4488e-05
5.44872e-05
5.44862e-05
5.4485e-05
5.44838e-05
5.44824e-05
5.44809e-05
5.44793e-05
5.44775e-05
5.44756e-05
5.44736e-05
5.44714e-05
5.44691e-05
5.44667e-05
5.44641e-05
5.44614e-05
5.44586e-05
5.44557e-05
5.44526e-05
5.44494e-05
5.44461e-05
5.44427e-05
5.44391e-05
5.44354e-05
5.44316e-05
5.44207e-05
5.4409e-05
5.4394e-05
5.43779e-05
5.43573e-05
5.43352e-05
5.4307e-05
5.42769e-05
5.42386e-05
5.41978e-05
5.41462e-05
5.40915e-05
5.40229e-05
5.39507e-05
5.38611e-05
5.37678e-05
5.36538e-05
5.3537e-05
5.33973e-05
5.32578e-05
5.30965e-05
5.29418e-05
5.27724e-05
5.26216e-05
5.24723e-05
5.236e-05
5.22757e-05
5.22492e-05
2.70714e-05
2.70713e-05
2.7071e-05
2.70705e-05
2.70698e-05
2.70689e-05
2.70677e-05
2.70664e-05
2.70649e-05
2.70631e-05
2.70612e-05
2.7059e-05
2.70567e-05
2.70541e-05
2.70514e-05
2.70484e-05
2.70396e-05
2.70274e-05
2.70106e-05
2.69878e-05
2.69568e-05
2.69152e-05
2.686e-05
2.67884e-05
2.6698e-05
2.65888e-05
2.64653e-05
2.63403e-05
2.62385e-05
2.61953e-05
-0
-0
-0
-0
-0
-0
-0
-0
-0
-0
-0
-0
-0
-0
-0
-0
-0
-0
-0
-0
-0
-0
-0
-0
-0
-0
-0
-0
-0
-0
-0
-0
-0
-0
-0
-0
-0
-0
-0
-0
-0
-0
-0
-0
-0
-0
-0
-0
-0
-0
-0
-0
-0
-0
-0
-0
-0
-0
-0
SCALARS Stress_R double 1
LOOKUP_TABLE default
31.9551
31.9209
31.8969
31.8196
31.7452
31.6178
31.4933
31.3171
31.144
30.92
30.6996
30.4302
30.1642
29.8523
29.5439
29.1923
28.8452
28.4579
28.0757
27.6581
27.2495
26.8054
26.3722
25.9127
25.4968
24.9729
24.704
24.4368
23.9356
22.1812
13.8084
6.22807
5.33493
4.82192
3.57749
2.57192
1.6383
0.896403
0.171451
-0.276743
-0.685113
-0.890762
-1.06166
-1.12663
-1.16329
-1.17777
-1.1718
-1.18848
-1.19093
-1.22333
-1.24458
-1.2794
-1.3041
-1.32213
-1.33092
-1.32113
-1.30282
-1.26025
-1.22079
29.9321
29.8764
29.7311
29.4897
29.1536
28.7244
28.2041
27.5954
26.9001
26.1184
25.2458
24.2716
23.1416
21.6301
18.5079
13.5171
6.81068
3.82434
1.83435
0.369548
-0.498644
-0.900871
-1.03348
-1.06906
-1.10784
-1.17395
-1.2413
-1.27393
-1.25057
-1.17252
28.0075
27.9747
27.9535
27.8817
27.8142
27.696
27.5824
27.4181
27.2584
27.0483
26.8431
26.5872
26.3365
26.0349
25.7384
25.3897
25.0469
24.6475
24.2557
23.7982
23.3511
22.8175
22.3024
21.65
21.0295
20.1463
19.3183
18.0814
15.6323
15.3692
14.1592
9.59652
7.34091
5.4312
4.0763
3.02506
1.98591
1.26866
0.547269
0.10536
-0.324624
-0.54534
-0.745238
-0.837207
-0.905203
-0.946881
-0.966524
-1.00446
-1.0247
-1.0709
-1.10329
-1.14653
-1.17846
-1.20252
-1.21691
-1.21246
-1.19878
-1.16254
-1.12503
26.0716
26.0192
25.8858
25.6635
25.3518
24.9503
24.4573
23.87
23.1824
22.382
21.4456
20.3219
18.9136
16.9715
14.1731
13.7705
8.10308
4.21018
2.14044
0.715664
-0.152075
-0.591743
-0.778888
-0.865913
-0.943089
-1.03368
-1.11633
-1.16041
-1.14757
-1.07817
24.2275
24.1963
24.1776
24.1113
24.0502
23.9411
23.8375
23.6851
23.5385
23.3421
23.1518
22.9098
22.6744
22.3848
22.102
21.7602
21.4262
21.0246
20.6324
20.1585
19.6939
19.124
18.5667
17.8684
17.1451
16.2958
15.2881
14.4164
13.1925
12.98
12.9362
9.88774
8.48973
6.00737
4.32528
3.35584
2.26289
1.58699
0.867709
0.442469
0.00812652
-0.222811
-0.444398
-0.558488
-0.655355
-0.719873
-0.766291
-0.821722
-0.861841
-0.919135
-0.964317
-1.01434
-1.05441
-1.08349
-1.10403
-1.10418
-1.09624
-1.06445
-1.03106
22.368
22.3205
22.1991
21.996
21.7097
21.3378
20.8763
20.3189
19.6555
18.8689
17.9326
16.8004
15.4222
13.7407
12.251
12.1764
8.52961
4.48103
2.38886
1.01601
0.167212
-0.297389
-0.531873
-0.666849
-0.78085
-0.89518
-0.992643
-1.04775
-1.04511
-0.98424
20.5955
20.5674
20.5506
20.4909
20.4358
20.3371
20.2434
20.1049
19.9716
19.7917
19.6174
19.394
19.1763
18.9062
18.6416
18.3196
18.003
17.6218
17.2447
16.7952
16.3429
15.8151
15.2697
14.6655
13.9796
13.3627
12.557
12.1001
11.4097
11.2394
11.3798
9.36884
8.4689
6.20229
4.54892
3.55362
2.48474
1.8431
1.14708
0.742115
0.316277
0.0797419
-0.155731
-0.28903
-0.410994
-0.496648
-0.568613
-0.640545
-0.700496
-0.768248
-0.826498
-0.882815
-0.93125
-0.964985
-0.991753
-0.996263
-0.994059
-0.966574
-0.937385
18.8111
18.7688
18.6606
18.4789
18.2216
17.8853
17.465
16.9536
16.341
15.6133
14.7535
13.7476
12.6027
11.4418
10.5957
10.5588
8.22247
4.64248
2.57407
1.27576
0.463579
-0.0145897
-0.290263
-0.470461
-0.620263
-0.757936
-0.869945
-0.935808
-0.943141
-0.890751
17.0995
17.0749
17.0602
17.0078
16.9595
16.8727
16.7902
16.668
16.5502
16.3907
16.2358
16.0369
15.8422
15.6009
15.3628
15.0753
14.789
14.4513
14.1099
13.7203
13.3153
12.8791
12.4027
11.9464
11.4038
10.9968
10.4484
10.1922
9.78619
9.66894
9.79698
8.48888
7.92425
6.03552
4.64474
3.63901
2.63761
2.04145
1.38875
1.00964
0.602822
0.364774
0.122258
-0.0278549
-0.171516
-0.276989
-0.373204
-0.460952
-0.540482
-0.618305
-0.68968
-0.752022
-0.808873
-0.847042
-0.880023
-0.888759
-0.892234
-0.86897
-0.844046
15.3799
15.3436
15.2504
15.0936
14.8709
14.5787
14.2124
13.766
13.2329
12.6061
11.8837
11.0778
10.2405
9.49399
9.00688
9.00767
7.53357
4.63763
2.69525
1.50038
0.740468
0.258433
-0.0531023
-0.276146
-0.460882
-0.621587
-0.74793
-0.824329
-0.841465
-0.797545
13.7248
13.7043
13.6919
13.648
13.6074
13.5345
13.4651
13.3622
13.2626
13.1283
12.9969
12.8293
12.6637
12.4609
12.2581
12.0187
11.7754
11.4994
11.2123
10.9046
10.572
10.2473
9.87434
9.5653
9.17535
8.93249
8.58568
8.44887
8.21773
8.15025
8.26656
7.42696
7.11723
5.63014
4.56346
3.61699
2.72881
2.18804
1.59866
1.2497
0.871447
0.634969
0.391024
0.226014
0.0635812
-0.0606828
-0.179933
-0.282987
-0.381757
-0.469375
-0.55383
-0.622004
-0.687252
-0.729699
-0.768839
-0.781704
-0.790789
-0.771677
-0.751076
12.0591
12.0296
11.9539
11.8262
11.6444
11.4056
11.1064
10.7431
10.3133
9.81799
9.26662
8.68634
8.13477
7.69785
7.44734
7.50406
6.64913
4.46625
2.7578
1.69582
1.00124
0.523099
0.180063
-0.0837906
-0.302675
-0.486099
-0.62657
-0.713308
-0.7401
-0.704643
10.4482
10.4325
10.4227
10.3887
10.3568
10.3001
10.2456
10.1656
10.0873
9.98278
9.87933
9.74931
9.61885
9.46288
9.30358
9.12225
8.93279
8.72951
8.5099
8.29343
8.04748
7.83475
7.57451
7.39279
7.1438
7.02304
6.82791
6.77837
6.66794
6.65286
6.77491
6.27621
6.17392
5.06967
4.32485
3.4997
2.76539
2.2906
1.78249
1.46753
1.12584
0.893335
0.652302
0.473899
0.295033
0.15277
0.0115259
-0.106456
-0.224109
-0.321328
-0.418752
-0.492626
-0.566196
-0.612816
-0.658028
-0.674961
-0.689575
-0.674578
-0.65833
8.8308
8.80921
8.75326
8.65886
8.52434
8.34776
8.12711
7.86143
7.5521
7.2055
6.8372
6.47699
6.1718
5.97253
5.9027
6.03302
5.66882
4.16023
2.76912
1.86826
1.24951
0.780929
0.40969
0.106669
-0.14566
-0.351487
-0.505871
-0.602762
-0.639073
-0.612066
7.25104
7.24077
7.23378
7.2109
7.18884
7.15058
7.11293
7.05879
7.00472
6.93416
6.86265
6.77546
6.68542
6.58228
6.47303
6.35613
6.22802
6.10253
5.95804
5.83353
5.67923
5.57076
5.4198
5.34646
5.21976
5.19623
5.12001
5.14363
5.12779
5.16763
5.31137
5.08599
5.16532
4.41321
3.96813
3.30759
2.75564
2.35856
1.94657
1.66866
1.36969
1.14272
0.907652
0.716911
0.523317
0.363641
0.201245
0.068621
-0.0675562
-0.174233
-0.284457
-0.363943
-0.445708
-0.496439
-0.547604
-0.568578
-0.588619
-0.577727
-0.565824
5.66906
5.65623
5.6224
5.56523
5.48369
5.37678
5.24402
5.08646
4.90803
4.71777
4.53213
4.37665
4.28391
4.27979
4.36495
4.58412
4.64551
3.75777
2.73878
2.02424
1.48913
1.03373
0.636513
0.295534
0.010343
-0.217581
-0.385663
-0.492533
-0.538243
-0.519665
4.11197
4.10773
4.10386
4.09325
4.08198
4.06394
4.0449
4.01924
3.99189
3.95856
3.92233
3.88177
3.83628
3.78989
3.73536
3.68615
3.624
3.57748
3.51137
3.47594
3.41291
3.39998
3.35113
3.37234
3.35235
3.41274
3.43591
3.52769
3.59373
3.69194
3.87049
3.88278
4.13401
3.70296
3.53425
3.06414
2.71106
2.40269
2.09787
1.85897
1.60677
1.38605
1.15867
0.956206
0.748914
0.572234
0.389276
0.242243
0.0878543
-0.0281456
-0.150986
-0.235997
-0.325821
-0.380604
-0.437608
-0.46259
-0.487969
-0.481172
-0.473593
2.55158
2.54828
2.53851
2.52184
2.49785
2.46641
2.42821
2.38554
2.3434
2.31106
2.30262
2.33673
2.43308
2.60138
2.83175
3.15397
3.61251
3.29704
2.68014
2.17103
1.72391
1.28312
0.861023
0.482863
0.165292
-0.0844155
-0.265972
-0.382653
-0.437649
-0.427465
1.00204
1.00428
1.00376
1.00633
1.00668
1.01033
1.01132
1.01613
1.01754
1.02386
1.0255
1.03421
1.03627
1.04903
1.05233
1.07228
1.07865
1.11064
1.12385
1.17416
1.20023
1.27634
1.32317
1.4309
1.50737
1.64594
1.7584
1.91825
2.06128
2.2221
2.44679
2.68025
3.10394
2.96898
3.05849
2.79211
2.64551
2.43435
2.24376
2.04455
1.84103
1.62642
1.4072
1.19318
0.972578
0.779093
0.575919
0.414627
0.242295
0.117075
-0.0181782
-0.10865
-0.206372
-0.26517
-0.327889
-0.356864
-0.38749
-0.384794
-0.381493
-0.54608
-0.539265
-0.523523
-0.497292
-0.460426
-0.412386
-0.351684
-0.275554
-0.179087
-0.0543968
0.108751
0.321849
0.594408
0.925868
1.30137
1.74142
2.5922
2.81239
2.60913
2.31641
1.95771
1.53072
1.08373
0.668721
0.319151
0.0479773
-0.146819
-0.273154
-0.337331
-0.335491
-2.10387
-2.09486
-2.09185
-2.07548
-2.06294
-2.0366
-2.01458
-1.97798
-1.94641
-1.8989
-1.85762
-1.79809
-1.74651
-1.67334
-1.61035
-1.52077
-1.44461
-1.33493
-1.24242
-1.10876
-0.995583
-0.833989
-0.695603
-0.504561
-0.336833
-0.12068
0.0774463
0.308577
0.528843
0.757839
1.03942
1.49021
2.0943
2.23778
2.57334
2.51509
2.57572
2.46629
2.39219
2.23181
2.07625
1.86681
1.65484
1.42899
1.19481
0.984522
0.761247
0.585769
0.395739
0.261364
0.113946
0.0180455
-0.087373
-0.150182
-0.21847
-0.251442
-0.287216
-0.288647
-0.289543
-3.65541
-3.63812
-3.59593
-3.52525
-3.42542
-3.29537
-3.13313
-2.93593
-2.69969
-2.41866
-2.08687
-1.69925
-1.25407
-0.758743
-0.230907
0.343678
1.59973
2.33295
2.54253
2.46834
2.19444
1.77835
1.30538
0.853415
0.472097
0.179764
-0.0280388
-0.16388
-0.23715
-0.243595
-5.23224
-5.21632
-5.20969
-5.17923
-5.15418
-5.10468
-5.06112
-4.99209
-4.92962
-4.84018
-4.75836
-4.64725
-4.54515
-4.41098
-4.28737
-4.12793
-3.9814
-3.79429
-3.62254
-3.40617
-3.20675
-2.96007
-2.73149
-2.45619
-2.19806
-1.9009
-1.61583
-1.30733
-1.00564
-0.701145
-0.35117
0.322475
1.12225
1.53266
2.10881
2.25623
2.51993
2.51194
2.55151
2.42723
2.31627
2.11011
1.90321
1.66475
1.41613
1.18881
0.945341
0.755666
0.548157
0.404667
0.245357
0.144045
0.0311534
-0.0356763
-0.109381
-0.146365
-0.187189
-0.192778
-0.197775
-6.80353
-6.77566
-6.70672
-6.59106
-6.42753
-6.21453
-5.94969
-5.63041
-5.25363
-4.81582
-4.31493
-3.75133
-3.12932
-2.46136
-1.76749
-1.03827
0.651692
1.88747
2.49893
2.63525
2.43787
2.02761
1.5265
1.03703
0.624115
0.31093
0.090362
-0.054851
-0.137138
-0.151801
-8.41596
-8.39321
-8.38292
-8.33842
-8.30086
-8.22823
-8.16309
-8.06164
-7.96819
-7.83675
-7.71423
-7.55141
-7.39854
-7.20311
-7.01855
-6.78881
-6.57147
-6.30618
-6.05463
-5.75409
-5.46756
-5.13308
-4.81269
-4.44843
-4.09675
-3.71145
-3.33403
-2.93881
-2.54794
-2.15818
-1.72634
-0.815571
0.202304
0.874707
1.69166
2.03781
2.49629
2.58475
2.72998
2.63732
2.56489
2.35934
2.15411
1.90177
1.63733
1.39246
1.12854
0.924512
0.699754
0.547111
0.376244
0.269482
0.149392
0.0784833
-0.000456097
-0.0414987
-0.0872644
-0.09707
-0.106044
-10.0178
-9.97958
-9.88431
-9.72432
-9.49781
-9.20256
-8.83561
-8.3943
-7.87624
-7.27965
-6.60564
-5.85897
-5.04885
-4.19198
-3.31143
-2.40284
-0.234112
1.50409
2.49726
2.8255
2.69159
2.28002
1.74762
1.2197
0.775232
0.441499
0.208403
0.0539344
-0.0373129
-0.060129
-11.6825
-11.653
-11.6392
-11.5811
-11.5314
-11.4363
-11.3502
-11.2171
-11.0934
-10.9208
-10.7583
-10.5444
-10.3414
-10.085
-9.83985
-9.53937
-9.25102
-8.90593
-8.57347
-8.1855
-7.80941
-7.38166
-6.96509
-6.5038
-6.05189
-5.56773
-5.0883
-4.59396
-4.1009
-3.61412
-3.08433
-1.91218
-0.646645
0.289136
1.34998
1.88443
2.52358
2.69905
2.93575
2.86853
2.82563
2.6172
2.4091
2.14106
1.85895
1.5957
1.31098
1.09227
0.85058
0.688622
0.506647
0.394297
0.267374
0.192252
0.10831
0.0631145
0.0125387
-0.00157401
-0.0143738
-13.3316
-13.2835
-13.163
-12.9606
-12.6734
-12.2984
-11.8314
-11.2692
-10.6093
-9.85038
-8.99572
-8.05332
-7.03648
-5.96682
-4.87022
-3.74822
-1.0388
1.21029
2.55565
3.04698
2.9592
2.53742
1.96966
1.40192
0.925804
0.571772
0.326346
0.162693
0.0624968
0.0315735
-15.0576
-15.0227
-15.0053
-14.9348
-14.8734
-14.7576
-14.6515
-14.4888
-14.3363
-14.1247
-13.9239
-13.6609
-13.4094
-13.0933
-12.7886
-12.4174
-12.0582
-11.6314
-11.2166
-10.7366
-10.2671
-9.73813
-9.21857
-8.64867
-8.08612
-7.48848
-6.89401
-6.28309
-5.6734
-5.06667
-4.42139
-2.95109
-1.40135
-0.195899
1.11567
1.82134
2.62184
2.86866
3.17731
3.1268
3.10216
2.88617
2.66986
2.38351
2.0817
1.79875
1.49296
1.25892
1.00078
0.829136
0.636674
0.518444
0.385179
0.305589
0.216955
0.167434
0.112213
0.0936667
0.0772005
-16.7701
-16.7135
-16.5702
-16.3286
-15.9853
-15.5354
-14.9732
-14.2935
-13.4924
-12.5675
-11.5224
-10.3669
-9.11777
-7.80234
-6.45484
-5.07152
-1.74125
1.03444
2.69218
3.30813
3.24513
2.80242
2.19415
1.58462
1.07639
0.702101
0.444408
0.271539
0.162323
0.123284
-8.48209
-8.45674
-8.4498
-8.4066
-8.37465
-8.30526
-8.24759
-8.15094
-8.06633
-7.94062
-7.82751
-7.67079
-7.52697
-7.33772
-7.16109
-6.9373
-6.72624
-6.46694
-6.21981
-5.92617
-5.64286
-5.31701
-4.99998
-4.64695
-4.30028
-3.92882
-3.56001
-3.18063
-2.80269
-2.42814
-2.00974
-1.11737
-0.147857
0.550354
1.34259
1.68978
2.13798
2.18991
2.32573
2.21201
2.14946
1.95949
1.79147
1.58169
1.37362
1.18485
0.984586
0.838358
0.674233
0.571717
0.451453
0.381766
0.299012
0.25083
0.195436
0.16384
0.128755
0.114414
0.103181
1.30535
1.31069
1.31125
1.31238
1.31442
1.31781
1.3233
1.33121
1.34195
1.3562
1.37372
1.39395
1.41655
1.44
1.46222
1.49578
1.54251
1.51055
1.36506
1.136
0.880302
0.641158
0.443739
0.298956
0.203759
0.144791
0.10671
0.079636
0.0603511
0.0513976
1.09703
1.10905
1.10279
1.11
1.10408
1.11195
1.10641
1.11504
1.11019
1.11979
1.11569
1.12654
1.12358
1.13557
1.13425
1.14763
1.14797
1.16288
1.16542
1.18123
1.18643
1.20296
1.21046
1.2273
1.23726
1.25305
1.26532
1.27942
1.29256
1.30379
1.32808
1.32932
1.38951
1.32854
1.38264
1.25644
1.27072
1.1099
1.07451
0.914439
0.844634
0.706805
0.62322
0.518285
0.436716
0.367767
0.298389
0.260196
0.207672
0.188983
0.152702
0.142225
0.118278
0.109771
0.0939388
0.0867138
0.0759332
0.0725704
0.0666787
0.871848
0.878095
0.881495
0.887223
0.895469
0.906313
0.920116
0.936836
0.956354
0.978877
1.00386
1.03054
1.05857
1.08655
1.11348
1.1464
1.20892
1.22238
1.15257
1.00236
0.807622
0.608077
0.433376
0.300814
0.213433
0.161568
0.130357
0.108639
0.0922418
0.0827975
0.697353
0.708959
0.703643
0.711565
0.70745
0.716711
0.713856
0.724419
0.723033
0.734967
0.735037
0.748424
0.750202
0.764746
0.768473
0.784232
0.789739
0.806674
0.814195
0.831643
0.841323
0.85909
0.870416
0.888186
0.901102
0.917827
0.932264
0.947463
0.962094
0.97541
0.998323
1.01299
1.06958
1.04256
1.09974
1.02139
1.05471
0.938341
0.932875
0.803915
0.763428
0.644428
0.583217
0.48875
0.421958
0.358548
0.29826
0.263551
0.216973
0.201424
0.169828
0.162371
0.142405
0.136204
0.123326
0.11701
0.108114
0.103566
0.0982079
0.531062
0.537477
0.542271
0.550234
0.561406
0.575698
0.593238
0.613759
0.63695
0.662795
0.69066
0.719812
0.749944
0.780022
0.808944
0.842109
0.913128
0.955536
0.939173
0.85354
0.716408
0.559495
0.412894
0.297708
0.221635
0.178471
0.154471
0.137892
0.123988
0.113751
0.381162
0.391875
0.387412
0.395256
0.392418
0.401909
0.400729
0.411765
0.412392
0.424949
0.427308
0.441363
0.445593
0.460788
0.466996
0.483293
0.491217
0.50851
0.518232
0.535909
0.547449
0.565336
0.578169
0.596032
0.610051
0.62708
0.642135
0.658115
0.673298
0.687938
0.708413
0.733105
0.785846
0.782058
0.840066
0.796025
0.842038
0.761336
0.779519
0.679253
0.665621
0.566301
0.528501
0.446395
0.397065
0.341109
0.292716
0.262808
0.224232
0.212364
0.18655
0.182132
0.166548
0.162515
0.152591
0.147271
0.139871
0.134655
0.129194
0.253825
0.259892
0.265183
0.273926
0.286093
0.301507
0.32017
0.341746
0.365853
0.392387
0.420748
0.450277
0.48072
0.511229
0.541105
0.573655
0.64938
0.709934
0.730776
0.696135
0.610986
0.497492
0.382859
0.289422
0.227906
0.195063
0.178711
0.167249
0.155735
0.144676
0.121132
0.130624
0.126953
0.134257
0.13235
0.141391
0.141273
0.151918
0.153688
0.165874
0.169431
0.183086
0.188502
0.203268
0.210572
0.22638
0.235287
0.252015
0.262537
0.27965
0.291749
0.309106
0.322301
0.339728
0.353922
0.370765
0.38586
0.401952
0.417173
0.432361
0.451275
0.481864
0.531579
0.543583
0.600844
0.582588
0.63564
0.585126
0.619937
0.547161
0.555785
0.477548
0.461962
0.394378
0.363659
0.317042
0.282616
0.25863
0.229925
0.222078
0.203184
0.201677
0.19096
0.188825
0.182042
0.177487
0.171642
0.165701
0.16014
0.0183001
0.0238201
0.0291281
0.0378811
0.0500219
0.0653465
0.0838025
0.105049
0.128706
0.154648
0.182338
0.211211
0.241062
0.271219
0.301052
0.332743
0.410725
0.483111
0.530426
0.535949
0.4966
0.425645
0.345347
0.277013
0.232748
0.211597
0.203208
0.196756
0.187496
0.175587
-0.102594
-0.0943572
-0.097345
-0.0907572
-0.0919862
-0.0836874
-0.0831419
-0.0732679
-0.0708824
-0.0595062
-0.055386
-0.0425966
-0.0367075
-0.0228314
-0.0151817
-0.000295078
0.00884372
0.024626
0.0352376
0.0514578
0.0634842
0.0800323
0.0930531
0.109795
0.123723
0.140127
0.154865
0.170825
0.185782
0.201169
0.218676
0.253042
0.300121
0.323168
0.379207
0.380393
0.437536
0.412099
0.458839
0.411496
0.438411
0.381764
0.386684
0.335261
0.32349
0.287867
0.268787
0.251806
0.234391
0.230969
0.219873
0.221255
0.215706
0.215334
0.211714
0.207811
0.203483
0.196791
0.191117
-0.190847
-0.185932
-0.180829
-0.172418
-0.160763
-0.146065
-0.128394
-0.108062
-0.0854166
-0.0605812
-0.0340164
-0.0062021
0.0226974
0.0521275
0.0815942
0.112329
0.191297
0.271729
0.338532
0.37612
0.376895
0.346771
0.302122
0.261422
0.236617
0.228311
0.228112
0.226519
0.219347
0.206548
-0.304954
-0.297894
-0.300295
-0.294446
-0.295158
-0.28767
-0.286683
-0.277681
-0.274951
-0.264505
-0.260132
-0.24833
-0.242298
-0.229426
-0.22176
-0.207888
-0.198832
-0.18406
-0.17364
-0.158356
-0.146633
-0.130924
-0.118257
-0.102228
-0.0886887
-0.0727812
-0.0584483
-0.0427423
-0.0281112
-0.0126982
0.00371369
0.0406019
0.0856243
0.116771
0.171671
0.187998
0.24771
0.243379
0.298938
0.274973
0.316991
0.281947
0.305565
0.271466
0.278492
0.255189
0.252336
0.243248
0.238192
0.239508
0.236896
0.241109
0.240935
0.242183
0.241679
0.23833
0.235431
0.227972
0.222149
-0.385138
-0.380795
-0.375963
-0.367997
-0.356957
-0.343026
-0.326274
-0.306977
-0.285435
-0.261762
-0.236346
-0.209592
-0.181634
-0.152925
-0.123885
-0.093937
-0.014313
0.0722353
0.154293
0.218331
0.25461
0.263387
0.254975
0.243713
0.240065
0.24548
0.253579
0.256641
0.251365
0.23762
-0.496836
-0.490805
-0.492714
-0.487534
-0.487838
-0.481097
-0.479789
-0.471598
-0.468651
-0.45907
-0.45457
-0.443679
-0.437621
-0.425666
-0.418082
-0.405121
-0.396222
-0.382343
-0.372155
-0.357684
-0.346266
-0.33127
-0.318927
-0.303494
-0.290284
-0.274781
-0.260774
-0.245262
-0.230863
-0.215421
-0.199787
-0.160919
-0.117234
-0.0797097
-0.0254227
0.00319622
0.0650406
0.0788039
0.141505
0.139004
0.19398
0.180186
0.221028
0.204971
0.23047
0.220484
0.234376
0.23389
0.241918
0.24822
0.254546
0.261526
0.266809
0.269541
0.272044
0.269161
0.267568
0.25933
0.253301
-0.574
-0.570152
-0.565562
-0.55799
-0.547489
-0.534217
-0.518243
-0.499799
-0.479146
-0.456382
-0.431833
-0.405843
-0.37852
-0.350244
-0.321367
-0.291813
-0.211018
-0.118835
-0.0236192
0.0634304
0.131899
0.177848
0.205787
0.225112
0.243758
0.263419
0.279758
0.287195
0.283588
0.268819
-0.686884
-0.681722
-0.683214
-0.678596
-0.678553
-0.672436
-0.670853
-0.663332
-0.660192
-0.651316
-0.646695
-0.636535
-0.63043
-0.619195
-0.611641
-0.599379
-0.590557
-0.577342
-0.567276
-0.553384
-0.542129
-0.527614
-0.515428
-0.500363
-0.487293
-0.471989
-0.458099
-0.442605
-0.428234
-0.41262
-0.397393
-0.356555
-0.313325
-0.270215
-0.215694
-0.176438
-0.112178
-0.0823277
-0.0131202
0.00437277
0.071072
0.0781158
0.135124
0.137564
0.181157
0.185228
0.216074
0.224733
0.246217
0.25769
0.273138
0.282823
0.29349
0.29759
0.302907
0.300423
0.299966
0.290956
0.284634
-0.764915
-0.761462
-0.757033
-0.749718
-0.739563
-0.726706
-0.711206
-0.693264
-0.673103
-0.650807
-0.626654
-0.600936
-0.573746
-0.545405
-0.516218
-0.486486
-0.403353
-0.304925
-0.197014
-0.088552
0.0101588
0.0920623
0.156279
0.206823
0.248381
0.282465
0.306815
0.318282
0.316089
0.300209
-0.882808
-0.878348
-0.879484
-0.875299
-0.874936
-0.86928
-0.867415
-0.860368
-0.856992
-0.848595
-0.843774
-0.834088
-0.827821
-0.817026
-0.809349
-0.797481
-0.788548
-0.775676
-0.765509
-0.751867
-0.740519
-0.726149
-0.71384
-0.698807
-0.685577
-0.670151
-0.656059
-0.640281
-0.625616
-0.609551
-0.594291
-0.551015
-0.507125
-0.458457
-0.402495
-0.353282
-0.285677
-0.240857
-0.164853
-0.128352
-0.0502609
-0.022765
0.0498897
0.0710362
0.132417
0.150997
0.198748
0.216891
0.251838
0.268572
0.293021
0.30533
0.321123
0.326484
0.334335
0.332194
0.332656
0.322892
0.316161
-0.964684
-0.961518
-0.957129
-0.949875
-0.939792
-0.927003
-0.911562
-0.893639
-0.873431
-0.851012
-0.826622
-0.800516
-0.772778
-0.743685
-0.713503
-0.682842
-0.595583
-0.489333
-0.367802
-0.237911
-0.109552
0.00775998
0.108149
0.1901
0.254667
0.302972
0.334919
0.350003
0.348945
0.331852
-1.09149
-1.08756
-1.08839
-1.08449
-1.08382
-1.07843
-1.07624
-1.06944
-1.06574
-1.05754
-1.05239
-1.04287
-1.03626
-1.02556
-1.01753
-1.00569
-0.99638
-0.983451
-0.972881
-0.959074
-0.947294
-0.932646
-0.919847
-0.904416
-0.890636
-0.874662
-0.859959
-0.843478
-0.828103
-0.811183
-0.795383
-0.748784
-0.702898
-0.648068
-0.589119
-0.529819
-0.457373
-0.397914
-0.314012
-0.258988
-0.168973
-0.121304
-0.0329237
0.00696765
0.0859963
0.119285
0.183697
0.211472
0.259537
0.281535
0.314558
0.329397
0.349883
0.356404
0.366432
0.364581
0.365717
0.355219
0.347952
-1.18006
-1.17705
-1.17255
-1.1651
-1.15474
-1.14158
-1.12566
-1.10715
-1.0862
-1.06291
-1.03748
-1.01013
-0.980959
-0.950207
-0.918127
-0.88557
-0.791702
-0.675071
-0.537685
-0.384842
-0.226117
-0.0732294
0.0632353
0.176315
0.26341
0.325303
0.364214
0.382419
0.382181
0.363764
-1.31983
-1.31627
-1.31684
-1.31306
-1.31206
-1.30673
-1.30414
-1.29731
-1.29316
-1.28485
-1.27917
-1.26945
-1.26225
-1.25124
-1.24257
-1.23031
-1.22028
-1.20682
-1.19545
-1.18099
-1.16834
-1.15289
-1.13914
-1.12278
-1.10795
-1.0909
-1.07506
-1.05735
-1.04073
-1.02243
-1.00548
-0.954263
-0.904742
-0.842562
-0.778687
-0.70843
-0.629105
-0.554565
-0.460963
-0.387311
-0.284134
-0.216297
-0.111654
-0.0529725
0.0436066
0.0916911
0.172211
0.209666
0.270064
0.297298
0.338101
0.355394
0.379922
0.387539
0.399287
0.397698
0.399214
0.388023
0.380062
-1.41783
-1.41487
-1.41007
-1.40212
-1.39106
-1.37698
-1.35994
-1.34008
-1.31756
-1.29247
-1.265
-1.23536
-1.20366
-1.17012
-1.13496
-1.0993
-0.99562
-0.865073
-0.708349
-0.529634
-0.338586
-0.149241
0.0232561
0.166768
0.275366
0.349812
0.394855
0.415624
0.415866
0.396005
-1.57531
-1.57191
-1.57228
-1.56843
-1.56707
-1.56153
-1.55845
-1.55127
-1.54649
-1.53767
-1.53124
-1.52086
-1.51277
-1.50095
-1.49126
-1.47803
-1.46685
-1.45226
-1.43962
-1.42386
-1.40981
-1.39291
-1.37762
-1.35965
-1.34316
-1.32433
-1.30672
-1.28706
-1.26855
-1.24814
-1.22934
-1.1717
-1.11658
-1.04519
-0.973978
-0.891146
-0.802269
-0.711494
-0.605635
-0.512721
-0.394443
-0.306186
-0.184349
-0.106815
0.0071526
0.0700389
0.165676
0.212797
0.284191
0.316626
0.363979
0.383682
0.411358
0.420038
0.432949
0.431607
0.433163
0.421339
0.412501
-1.68578
-1.68265
-1.67734
-1.66851
-1.65621
-1.64055
-1.62158
-1.59945
-1.57432
-1.54628
-1.51553
-1.4823
-1.44667
-1.4089
-1.36925
-1.329
-1.21137
-1.0622
-0.881311
-0.672377
-0.445853
-0.218515
-0.0100268
0.162765
0.291279
0.376838
0.426992
0.449706
0.450065
0.428636
-1.86631
-1.86301
-1.86312
-1.85907
-1.85725
-1.85125
-1.84747
-1.83961
-1.83391
-1.82419
-1.81661
-1.80509
-1.79565
-1.78247
-1.77122
-1.7564
-1.74346
-1.72708
-1.71248
-1.69471
-1.67852
-1.6594
-1.6418
-1.62141
-1.60244
-1.58101
-1.56073
-1.53833
-1.51698
-1.49372
-1.47196
-1.40578
-1.3423
-1.25941
-1.17767
-1.08004
-0.978181
-0.869259
-0.747991
-0.634363
-0.498795
-0.389098
-0.249367
-0.1523
-0.021751
0.0563405
0.165302
0.222258
0.302637
0.340286
0.392554
0.414612
0.444378
0.454056
0.467547
0.466394
0.467651
0.455242
0.445336
-1.99223
-1.98895
-1.98278
-1.9726
-1.95841
-1.94032
-1.91843
-1.89285
-1.8638
-1.83138
-1.79578
-1.75727
-1.71597
-1.67214
-1.62602
-1.5792
-1.44231
-1.26856
-1.05721
-0.812422
-0.546353
-0.279143
-0.0349288
0.165448
0.311747
0.406625
0.460717
0.484718
0.484802
0.461671
-2.20368
-2.1996
-2.19982
-2.19492
-2.19286
-2.1857
-2.18138
-2.17199
-2.16541
-2.15384
-2.14505
-2.13137
-2.12039
-2.10474
-2.09163
-2.07407
-2.05895
-2.03955
-2.02249
-2.00145
-1.9825
-1.95989
-1.93926
-1.91515
-1.8929
-1.86753
-1.8437
-1.81713
-1.79218
-1.7645
-1.73927
-1.66085
-1.5864
-1.48832
-1.39249
-1.27661
-1.15775
-1.02777
-0.887281
-0.75081
-0.595167
-0.462826
-0.304102
-0.187101
-0.0407241
0.0525243
0.172669
0.239385
0.326089
0.369088
0.423931
0.448638
0.478889
0.489845
0.502978
0.502236
0.502562
0.4899
0.478448
-2.34918
-2.34489
-2.33761
-2.32541
-2.30846
-2.28686
-2.26069
-2.23016
-2.19549
-2.15678
-2.11433
-2.06842
-2.01919
-1.967
-1.91202
-1.85603
-1.69344
-1.48725
-1.23752
-0.949727
-0.638861
-0.329207
-0.0494159
0.176495
0.337874
0.439769
0.496313
0.520785
0.52008
0.495026
-1.29568
-1.29316
-1.29319
-1.28995
-1.28857
-1.28391
-1.28102
-1.27492
-1.27058
-1.26303
-1.25724
-1.24831
-1.24107
-1.23088
-1.22228
-1.21081
-1.20091
-1.18825
-1.17707
-1.16337
-1.151
-1.13626
-1.12281
-1.10712
-1.09262
-1.07617
-1.06074
-1.04349
-1.02729
-1.00963
-0.992364
-0.942373
-0.893859
-0.830998
-0.769491
-0.695319
-0.620223
-0.53731
-0.450291
-0.363811
-0.269622
-0.186869
-0.0933729
-0.0220444
0.0615013
0.115832
0.181836
0.217781
0.263108
0.283431
0.310097
0.319415
0.332378
0.334374
0.338303
0.334659
0.332283
0.322756
0.315091
0.0491875
0.0493835
0.049662
0.0501262
0.0507969
0.0516429
0.0526626
0.0538712
0.0552373
0.0567598
0.0584473
0.0602686
0.0622229
0.064313
0.0664883
0.0684145
0.0750561
0.0834649
0.0938056
0.105931
0.119155
0.132168
0.14318
0.150393
0.152737
0.150362
0.144496
0.13678
0.128708
0.121378
0.0344522
0.0345826
0.0345796
0.0347748
0.034863
0.0351504
0.0353404
0.0357091
0.0359799
0.0364462
0.0368061
0.0373597
0.0378168
0.0384441
0.038978
0.0396939
0.0403088
0.0411028
0.0418048
0.0426617
0.0434322
0.0443647
0.0452042
0.046202
0.0471148
0.0481622
0.0491308
0.0502372
0.0512782
0.0524292
0.0536926
0.0568194
0.0598735
0.0641162
0.0680221
0.0731861
0.0780523
0.0839954
0.0898398
0.0961958
0.102876
0.109004
0.116143
0.121205
0.128176
0.131354
0.137371
0.138195
0.14253
0.141092
0.143374
0.140231
0.140596
0.136451
0.13545
0.130852
0.129191
0.124454
0.122569
0.0612039
0.0612712
0.0614007
0.0616088
0.0619011
0.0622732
0.0627247
0.0632569
0.0638639
0.0645453
0.0653014
0.0661251
0.0670164
0.0679746
0.0689948
0.0699969
0.073072
0.0771397
0.0823698
0.0888973
0.0967176
0.105565
0.114802
0.123397
0.130135
0.134054
0.134826
0.132826
0.128822
0.123355
0.056345
0.0564089
0.0564039
0.0564828
0.0565166
0.0566368
0.0567121
0.0568681
0.0569791
0.0571753
0.0573238
0.0575574
0.0577462
0.0580129
0.0582363
0.0585406
0.0587994
0.0591386
0.0594353
0.0598044
0.0601333
0.0605366
0.0608976
0.0613323
0.0617276
0.062188
0.0626116
0.0631015
0.063551
0.0640717
0.0645391
0.066038
0.0673835
0.0694244
0.0712142
0.073809
0.0761414
0.0793429
0.0823087
0.0860865
0.089729
0.0939254
0.0981944
0.102483
0.107194
0.111082
0.115894
0.118822
0.123264
0.124787
0.12838
0.128318
0.130731
0.129194
0.13036
0.127594
0.127703
0.12386
0.123035
0.0704108
0.0704521
0.0705161
0.0706213
0.0707721
0.0709636
0.0711957
0.0714717
0.0717864
0.0721401
0.0725352
0.0729663
0.073434
0.0739401
0.0744779
0.0749863
0.076651
0.0788864
0.0818333
0.0856381
0.0904078
0.0961535
0.102717
0.109688
0.116383
0.121952
0.125612
0.126901
0.125721
0.121963
0.0689632
0.0689936
0.0689899
0.069032
0.0690483
0.0691102
0.0691482
0.0692274
0.0692825
0.0693828
0.0694568
0.0695762
0.0696715
0.0698072
0.0699195
0.0700755
0.0702059
0.0703802
0.0705309
0.0707205
0.0708875
0.071096
0.0712801
0.0715058
0.0717089
0.0719484
0.0721666
0.0724235
0.0726581
0.07293
0.0731835
0.0739698
0.0746718
0.075777
0.0767203
0.078166
0.0794205
0.0812707
0.0829135
0.0852074
0.0873121
0.0900377
0.0926519
0.095709
0.0988253
0.101988
0.105506
0.108428
0.112122
0.114388
0.117925
0.119152
0.122155
0.122091
0.124247
0.122774
0.123904
0.120927
0.120813
0.0776111
0.077632
0.0776692
0.0777296
0.0778156
0.0779251
0.0780581
0.078216
0.0783965
0.0785999
0.0788273
0.079076
0.0793466
0.0796397
0.0799531
0.0802595
0.0812274
0.0825477
0.0843128
0.0866379
0.0896378
0.0933989
0.0979343
0.103116
0.108615
0.113884
0.118217
0.120897
0.121333
0.11888
0.0774666
0.0774849
0.0774829
0.0775064
0.0775155
0.0775505
0.0775717
0.0776166
0.0776477
0.0777045
0.0777463
0.077814
0.0778678
0.0779449
0.0780085
0.0780972
0.0781712
0.0782705
0.0783561
0.0784643
0.0785594
0.0786787
0.0787837
0.0789131
0.0790293
0.0791669
0.0792922
0.0794402
0.0795748
0.0797326
0.0798685
0.0803343
0.0807369
0.0813898
0.0819371
0.0828041
0.0835417
0.0846753
0.0856585
0.0871056
0.088395
0.0901855
0.0918374
0.0939605
0.0960137
0.0983838
0.100835
0.103268
0.106038
0.108245
0.111158
0.112774
0.115555
0.116208
0.118523
0.117886
0.119396
0.11718
0.117453
0.083226
0.0832394
0.0832619
0.0832988
0.0833515
0.0834186
0.0835001
0.0835971
0.083708
0.0838331
0.0839732
0.0841266
0.0842937
0.0844751
0.0846691
0.0848577
0.0854616
0.0862905
0.0874086
0.0888998
0.0908562
0.0933662
0.0964908
0.10022
0.104418
0.108769
0.112757
0.115703
0.116853
0.115305
0.083553
0.0835638
0.0835624
0.083577
0.0835825
0.0836039
0.0836169
0.0836443
0.0836631
0.0836978
0.0837233
0.0837647
0.0837975
0.0838446
0.0838834
0.0839377
0.0839828
0.0840437
0.0840961
0.0841624
0.0842206
0.0842938
0.0843582
0.0844378
0.0845091
0.0845939
0.0846709
0.0847623
0.0848453
0.0849428
0.0850269
0.0853158
0.0855642
0.0859726
0.0863118
0.08686
0.0873205
0.088047
0.0886671
0.0896121
0.0904371
0.091636
0.0927145
0.0941843
0.0955617
0.0972777
0.0989818
0.100853
0.10287
0.104715
0.106962
0.108502
0.110803
0.11168
0.113763
0.11359
0.115094
0.113491
0.113913
0.087559
0.0875674
0.0875819
0.0876056
0.0876395
0.0876826
0.0877351
0.0877975
0.0878689
0.0879495
0.0880399
0.0881389
0.0882469
0.0883643
0.0884899
0.0886133
0.089005
0.0895456
0.090279
0.091265
0.0925732
0.0942775
0.0964433
0.0991006
0.102203
0.105579
0.108877
0.111548
0.112871
0.111912
0.0880153
0.0880223
0.0880215
0.0880308
0.0880343
0.088048
0.0880563
0.0880738
0.0880859
0.0881082
0.0881245
0.088151
0.0881721
0.0882023
0.0882272
0.0882621
0.0882911
0.0883301
0.0883638
0.0884064
0.0884439
0.088491
0.0885324
0.0885837
0.0886297
0.0886843
0.0887339
0.0887929
0.0888465
0.0889095
0.0889627
0.0891509
0.0893112
0.0895772
0.0897971
0.0901564
0.0904563
0.0909366
0.0913433
0.0919753
0.0925213
0.0933361
0.0940586
0.0950794
0.0960175
0.0972444
0.098431
0.0998218
0.101267
0.102712
0.104383
0.105681
0.107474
0.10833
0.110042
0.110092
0.111407
0.110266
0.110702
0.0908606
0.0908661
0.0908757
0.0908914
0.0909139
0.0909426
0.0909774
0.0910188
0.0910663
0.0911199
0.0911799
0.0912459
0.0913177
0.0913959
0.0914797
0.091562
0.0918238
0.0921862
0.0926796
0.0933464
0.0942373
0.0954093
0.0969186
0.098804
0.101059
0.10359
0.106165
0.108371
0.109598
0.109007
0.091307
0.0913115
0.091311
0.0913172
0.0913195
0.0913285
0.0913341
0.0913457
0.0913537
0.0913684
0.0913792
0.0913968
0.0914108
0.0914308
0.0914472
0.0914703
0.0914896
0.0915155
0.0915379
0.0915661
0.0915909
0.0916222
0.0916497
0.0916838
0.0917143
0.0917506
0.0917836
0.0918229
0.0918585
0.0919004
0.0919357
0.0920613
0.0921681
0.0923459
0.0924926
0.0927339
0.0929347
0.0932591
0.0935324
0.0939626
0.0943317
0.0948922
0.0953845
0.0960966
0.0967429
0.0976151
0.0984445
0.0994581
0.100488
0.101576
0.102797
0.103821
0.105171
0.105904
0.107239
0.107375
0.108441
0.107639
0.108024
0.0933472
0.0933509
0.0933574
0.093368
0.0933833
0.0934027
0.0934263
0.0934544
0.0934865
0.0935228
0.0935636
0.0936083
0.0936571
0.0937102
0.0937671
0.0938233
0.0940014
0.0942484
0.0945856
0.0950429
0.0956568
0.0964696
0.0975256
0.0988606
0.100483
0.102341
0.104284
0.106009
0.107035
0.106669
0.0937326
0.0937357
0.0937353
0.0937395
0.0937411
0.0937472
0.0937509
0.0937587
0.0937642
0.0937741
0.0937814
0.0937933
0.0938028
0.0938163
0.0938274
0.0938431
0.0938561
0.0938736
0.0938888
0.0939079
0.0939247
0.0939459
0.0939645
0.0939876
0.0940083
0.0940329
0.0940553
0.0940819
0.094106
0.0941345
0.0941583
0.0942437
0.0943162
0.0944372
0.0945369
0.0947016
0.0948384
0.0950605
0.0952473
0.0955433
0.0957965
0.0961849
0.0965243
0.0970226
0.0974712
0.0980892
0.0986705
0.0994008
0.100132
0.100933
0.101814
0.102591
0.103585
0.104171
0.105177
0.105329
0.106154
0.105592
0.105906
0.0952018
0.0952044
0.0952088
0.0952161
0.0952266
0.0952399
0.0952561
0.0952754
0.0952974
0.0953224
0.0953503
0.0953811
0.0954146
0.0954511
0.0954902
0.0955289
0.0956514
0.0958217
0.0960544
0.0963707
0.0967968
0.0973633
0.0981037
0.0990472
0.100206
0.101552
0.102984
0.104287
0.105095
0.104865
0.0955193
0.0955214
0.0955211
0.095524
0.0955251
0.0955292
0.0955318
0.0955371
0.0955409
0.0955477
0.0955527
0.0955608
0.0955673
0.0955765
0.0955842
0.0955949
0.0956038
0.0956158
0.0956262
0.0956393
0.0956508
0.0956653
0.0956781
0.0956939
0.0957081
0.095725
0.0957403
0.0957586
0.0957752
0.0957947
0.095811
0.0958696
0.0959194
0.0960026
0.0960711
0.0961845
0.0962786
0.096432
0.0965607
0.0967659
0.0969408
0.0972112
0.0974465
0.0977955
0.098108
0.0985445
0.0989521
0.0994736
0.0999906
0.100571
0.101201
0.101776
0.102496
0.102943
0.103685
0.10382
0.10444
0.104045
0.104288
0.0965811
0.0965828
0.0965859
0.0965909
0.0965982
0.0966074
0.0966185
0.0966318
0.0966471
0.0966643
0.0966836
0.0967049
0.096728
0.0967533
0.0967803
0.0968071
0.0968918
0.0970097
0.097171
0.0973907
0.0976871
0.0980823
0.098601
0.0992654
0.100087
0.101051
0.102089
0.103047
0.103657
0.103508
0.0968444
0.0968459
0.0968457
0.0968477
0.0968484
0.0968513
0.096853
0.0968567
0.0968593
0.0968639
0.0968674
0.096873
0.0968774
0.0968838
0.0968891
0.0968964
0.0969025
0.0969108
0.0969179
0.0969269
0.0969349
0.0969449
0.0969536
0.0969645
0.0969743
0.0969859
0.0969964
0.097009
0.0970204
0.0970339
0.097045
0.0970855
0.0971197
0.0971771
0.0972243
0.0973025
0.0973674
0.0974735
0.0975622
0.0977045
0.0978253
0.0980133
0.0981763
0.0984199
0.0986371
0.0989435
0.0992279
0.0995967
0.0999596
0.100374
0.10082
0.101235
0.101749
0.102078
0.102614
0.10272
0.103174
0.102895
0.103077
0.0976206
0.0976218
0.0976239
0.0976274
0.0976324
0.0976387
0.0976464
0.0976555
0.097666
0.0976779
0.0976912
0.0977058
0.0977217
0.0977391
0.0977577
0.0977762
0.0978346
0.0979158
0.0980271
0.0981787
0.0983836
0.0986574
0.0990176
0.0994807
0.100056
0.100735
0.101471
0.102158
0.102601
0.102498
0.0978564
0.0978574
0.0978573
0.0978586
0.0978591
0.0978611
0.0978623
0.0978648
0.0978665
0.0978697
0.097872
0.0978758
0.0978788
0.0978832
0.0978867
0.0978917
0.0978959
0.0979015
0.0979063
0.0979125
0.0979179
0.0979247
0.0979306
0.097938
0.0979446
0.0979525
0.0979597
0.0979683
0.097976
0.0979852
0.0979927
0.0980203
0.0980434
0.0980826
0.0981146
0.0981681
0.098212
0.0982845
0.0983447
0.0984421
0.0985242
0.0986531
0.098764
0.0989315
0.0990796
0.0992908
0.0994855
0.0997407
0.0999902
0.100278
0.100587
0.100876
0.101235
0.101465
0.101843
0.101915
0.102239
0.102036
0.102168
0.0984422
0.098443
0.0984444
0.0984468
0.0984501
0.0984543
0.0984595
0.0984656
0.0984726
0.0984806
0.0984895
0.0984993
0.0985099
0.0985216
0.098534
0.0985464
0.0985854
0.0986398
0.0987143
0.098816
0.0989535
0.0991374
0.0993797
0.0996918
0.100081
0.100541
0.101042
0.101511
0.101812
0.101733
0.0986915
0.0986922
0.0986921
0.0986929
0.0986932
0.0986945
0.0986953
0.0986969
0.098698
0.0987001
0.0987015
0.098704
0.0987059
0.0987087
0.098711
0.0987142
0.0987169
0.0987205
0.0987236
0.0987276
0.098731
0.0987354
0.0987392
0.098744
0.0987482
0.0987533
0.0987579
0.0987634
0.0987684
0.0987743
0.098779
0.0987969
0.0988115
0.098837
0.0988572
0.098892
0.0989197
0.0989669
0.099005
0.0990683
0.0991204
0.0992043
0.0992747
0.0993837
0.0994781
0.0996154
0.09974
0.0999058
0.100066
0.100253
0.100453
0.100639
0.100874
0.101017
0.101268
0.101303
0.10152
0.101367
0.101458
0.0991675
0.099168
0.0991689
0.0991703
0.0991723
0.0991748
0.0991779
0.0991816
0.0991859
0.0991906
0.099196
0.0992019
0.0992083
0.0992153
0.0992228
0.0992302
0.0992536
0.0992863
0.0993311
0.0993921
0.0994748
0.0995854
0.0997312
0.099919
0.100153
0.10043
0.100731
0.10101
0.101182
0.101111
0.0994921
0.0994926
0.0994925
0.099493
0.0994931
0.0994938
0.0994941
0.099495
0.0994955
0.0994966
0.0994973
0.0994987
0.0994996
0.0995011
0.0995022
0.0995039
0.0995052
0.0995071
0.0995087
0.0995108
0.0995125
0.0995148
0.0995167
0.0995192
0.0995213
0.099524
0.0995263
0.0995292
0.0995316
0.0995347
0.099537
0.0995465
0.0995535
0.0995671
0.0995768
0.0995954
0.0996088
0.0996339
0.0996523
0.0996859
0.0997112
0.0997556
0.09979
0.0998473
0.0998937
0.0999654
0.100027
0.100113
0.100193
0.100287
0.100389
0.100478
0.1006
0.100659
0.100793
0.100783
0.100905
0.100782
0.100837
0.0999367
0.0999369
0.0999372
0.0999378
0.0999385
0.0999394
0.0999405
0.0999418
0.0999434
0.0999451
0.099947
0.0999492
0.0999515
0.099954
0.0999567
0.0999592
0.0999674
0.099979
0.0999949
0.100017
0.100046
0.100085
0.100136
0.100202
0.100283
0.100378
0.100477
0.100561
0.100595
0.100519
0.100434
0.100434
0.100434
0.100434
0.100434
0.100434
0.100434
0.100434
0.100434
0.100434
0.100434
0.100434
0.100434
0.100434
0.100434
0.100434
0.100434
0.100434
0.100434
0.100434
0.100433
0.100434
0.100433
0.100433
0.100433
0.100433
0.100433
0.100433
0.100433
0.100433
0.100432
0.100433
0.100431
0.100432
0.10043
0.100431
0.100429
0.10043
0.100427
0.100428
0.100424
0.100425
0.10042
0.100421
0.100414
0.100414
0.100406
0.100402
0.100394
0.100384
0.100378
0.100355
0.100353
0.10031
0.100317
0.100244
0.100262
0.100157
0.100174
0.100936
0.100936
0.100936
0.100935
0.100934
0.100933
0.100932
0.10093
0.100929
0.100927
0.100924
0.100922
0.100919
0.100916
0.100913
0.10091
0.100899
0.100885
0.100866
0.100839
0.100803
0.100754
0.10069
0.100605
0.100498
0.100366
0.100214
0.100053
0.0999073
0.0998149
0.101717
0.101717
0.101717
0.101716
0.101716
0.101715
0.101714
0.101714
0.101712
0.101711
0.10171
0.101708
0.101707
0.101705
0.101703
0.101701
0.101699
0.101697
0.101694
0.101692
0.101689
0.101686
0.101683
0.10168
0.101677
0.101673
0.10167
0.101666
0.101662
0.101658
0.101654
0.101643
0.10163
0.101614
0.101596
0.101575
0.101551
0.101521
0.101488
0.101448
0.101403
0.101349
0.101289
0.101217
0.101138
0.101044
0.100942
0.100822
0.100695
0.100546
0.100397
0.100223
0.10006
0.099873
0.0997202
0.0995481
0.0994454
0.0993323
0.099328
SCALARS Stress_Theta double 1
LOOKUP_TABLE default
31.9551
31.9287
31.912
31.8662
31.8188
31.7425
31.6646
31.5581
31.4501
31.3141
31.1769
31.0124
30.8469
30.6555
30.4633
30.2463
30.0294
29.7889
29.549
29.288
29.0308
28.7491
28.4732
28.1868
27.9269
27.5724
27.3732
27.2888
26.9515
26.1865
19.682
13.688
13.1088
12.039
10.7514
9.5817
8.53577
7.49898
6.54396
5.68089
4.92024
4.23253
3.64653
3.11027
2.66635
2.2446
1.89974
1.55942
1.27977
0.998714
0.765034
0.533333
0.339583
0.154392
0.000709465
-0.139842
-0.25279
-0.350708
-0.426404
29.9321
29.8908
29.8017
29.654
29.4481
29.1849
28.8653
28.4909
28.0626
27.5809
27.0438
26.4468
25.7672
24.8957
23.0604
18.0317
12.7577
10.1545
8.05979
6.20835
4.68386
3.4837
2.55474
1.82483
1.23193
0.737983
0.32868
0.0020246
-0.242239
-0.409366
28.0075
27.9819
27.9674
27.9246
27.882
27.811
27.7402
27.641
27.542
27.4147
27.2878
27.1326
26.9778
26.7946
26.6119
26.4002
26.1895
25.9477
25.7078
25.4328
25.1615
24.8451
24.5365
24.1618
23.8013
23.3102
22.8377
22.2068
20.7711
19.8945
17.2368
13.0715
11.8885
10.5549
9.56102
8.54814
7.57007
6.69832
5.86657
5.12253
4.44403
3.84297
3.3199
2.84272
2.4434
2.0626
1.75044
1.4396
1.18449
0.925946
0.711192
0.497096
0.31797
0.146189
0.00347804
-0.127164
-0.232085
-0.32351
-0.393081
26.0716
26.0325
25.9508
25.815
25.6247
25.3797
25.079
24.7213
24.3034
23.8191
23.2565
22.5882
21.7587
20.5958
18.6692
16.2706
11.3702
8.90157
7.10938
5.53093
4.21093
3.15815
2.33237
1.67553
1.13648
0.684017
0.307016
0.00473269
-0.222212
-0.377073
24.2275
24.2029
24.1903
24.1507
24.1124
24.0469
23.9827
23.8909
23.8006
23.6821
23.5652
23.4193
23.2752
23.1006
22.9281
22.7226
22.5196
22.2794
22.0421
21.7601
21.4805
21.1445
20.81
20.3934
19.9501
19.4373
18.7897
18.0187
16.8986
16.0628
15.0159
11.6372
10.6646
9.29429
8.2833
7.50687
6.63938
5.92143
5.19366
4.56699
3.97364
3.45594
2.99435
2.57625
2.22041
1.88174
1.60047
1.32076
1.08856
0.853862
0.656894
0.461196
0.296053
0.138114
0.00600248
-0.114462
-0.212131
-0.295859
-0.360755
22.368
22.3326
22.2584
22.1347
21.9604
21.7343
21.4539
21.1158
20.714
20.2378
19.6697
18.9748
18.0959
16.8916
15.3232
13.7832
9.93678
7.71344
6.19292
4.86496
3.74207
2.83327
2.10966
1.5258
1.04073
0.629809
0.285124
0.00729185
-0.202127
-0.344536
20.5955
20.5734
20.562
20.5264
20.492
20.4329
20.375
20.2917
20.2098
20.1016
19.9948
19.8603
19.7273
19.5647
19.4033
19.2094
19.016
18.7859
18.5546
18.2811
18.0002
17.6717
17.3217
16.9227
16.4523
15.964
15.3067
14.7162
13.856
13.1791
12.5982
10.0914
9.21755
8.01771
7.11855
6.47008
5.73924
5.15437
4.53279
4.01564
3.508
3.07088
2.67074
2.31096
1.99819
1.70176
1.45086
1.20258
0.992796
0.782225
0.602631
0.425562
0.27408
0.130172
0.00848127
-0.101746
-0.192082
-0.268323
-0.3282
18.8111
18.7796
18.7135
18.6028
18.4462
18.2415
17.9856
17.6736
17.2982
16.8474
16.3032
15.6365
14.8034
13.7579
12.5227
11.3904
8.4759
6.58201
5.29894
4.20984
3.27855
2.51076
1.88793
1.37647
0.945126
0.575612
0.263146
0.00974345
-0.182059
-0.311925
17.0995
17.0802
17.0702
17.039
17.0087
16.9567
16.9057
16.8321
16.7595
16.6633
16.568
16.4477
16.3278
16.1812
16.0339
15.8577
15.6788
15.4685
15.2509
15.0005
14.7325
14.4345
14.0973
13.7431
13.3082
12.8919
12.3386
11.8655
11.2289
10.705
10.2902
8.47967
7.74885
6.71502
6.00582
5.45408
4.85463
4.39532
3.88257
3.46887
3.04705
2.68773
2.34951
2.04689
1.77708
1.52269
1.30182
1.08508
0.897335
0.711036
0.548497
0.390177
0.252119
0.122341
0.010932
-0.0890222
-0.172001
-0.240883
-0.295551
15.3799
15.3528
15.2957
15.1998
15.0635
14.8843
14.6586
14.3813
14.045
13.6387
13.1478
12.5523
11.8315
10.9783
10.0275
9.178
7.00509
5.46766
4.42249
3.56406
2.81961
2.19052
1.66735
1.22772
0.849833
0.521557
0.241202
0.0121836
-0.161963
-0.279239
13.7248
13.7087
13.7002
13.6739
13.6483
13.6044
13.561
13.4986
13.4366
13.3547
13.2728
13.1698
13.0658
12.9396
12.8106
12.6585
12.5
12.3184
12.1238
11.9087
11.6684
11.4156
11.1169
10.824
10.4545
10.1217
9.68633
9.3164
8.85016
8.45189
8.14557
6.8396
6.27722
5.42056
4.90252
4.45215
3.98648
3.64366
3.24212
2.9264
2.59081
2.30666
2.03072
1.78408
1.55728
1.34452
1.1535
0.968249
0.802274
0.640271
0.494555
0.355017
0.230206
0.114599
0.0133526
-0.0763055
-0.151944
-0.213535
-0.262908
12.0591
12.037
11.9901
11.911
11.7982
11.649
11.4601
11.2265
10.9418
10.5974
10.1831
9.68785
9.10578
8.4433
7.73174
7.10691
5.53178
4.35783
3.56101
2.92671
2.36493
1.87251
1.448
1.07969
0.75495
0.467717
0.219339
0.0146287
-0.141869
-0.246546
10.4482
10.4358
10.429
10.4084
10.3879
10.3532
10.3185
10.269
10.2192
10.1539
10.0875
10.0051
9.92012
9.81879
9.71239
9.59
9.45818
9.31233
9.14972
8.97808
8.77805
8.57894
8.33492
8.10833
7.81799
7.56566
7.24085
6.96526
6.63149
6.34028
6.12266
5.19748
4.80486
4.13708
3.79822
3.45793
3.13135
2.89775
2.60917
2.38726
2.13835
1.92734
1.71393
1.52232
1.33861
1.1671
1.00586
0.851954
0.70761
0.56986
0.440833
0.320058
0.208397
0.106958
0.0158115
-0.0635493
-0.131856
-0.186203
-0.230231
8.8308
8.81445
8.77892
8.7189
8.63277
8.51829
8.37232
8.19078
7.96849
7.69942
7.37732
6.99751
6.5611
6.07792
5.57192
5.13734
4.06243
3.24896
2.71085
2.29679
1.91421
1.55668
1.22994
0.932441
0.660526
0.414123
0.197578
0.0170835
-0.121799
-0.213896
7.25104
7.24289
7.23781
7.22347
7.20867
7.18435
7.15931
7.12438
7.08821
7.04181
6.99322
6.93427
6.87141
6.79857
6.71896
6.63073
6.53113
6.42603
6.30261
6.17942
6.02828
5.88663
5.7053
5.54601
5.33674
5.16128
4.93581
4.74638
4.52172
4.32392
4.18489
3.56424
3.33559
2.86233
2.69113
2.46949
2.28555
2.157
1.98266
1.85136
1.68946
1.54992
1.39911
1.26172
1.12113
0.990463
0.858949
0.736196
0.613392
0.49978
0.387368
0.28527
0.186716
0.099386
0.0183171
-0.0507869
-0.111754
-0.158914
-0.197559
5.66906
5.65905
5.63617
5.59728
5.54102
5.46549
5.36813
5.24573
5.09448
4.91047
4.69032
4.43272
4.14124
3.82488
3.50038
3.23416
2.5961
2.1373
1.86703
1.67226
1.46654
1.24259
1.01295
0.785862
0.566518
0.360779
0.175954
0.0196066
-0.101694
-0.181229
4.11197
4.10852
4.10536
4.09793
4.08936
4.07639
4.06195
4.04298
4.02193
3.99631
3.96752
3.93446
3.8964
3.85492
3.80562
3.75476
3.6918
3.63072
3.5516
3.47964
3.38242
3.29968
3.18406
3.09133
2.96088
2.85898
2.72304
2.61356
2.48284
2.36939
2.30328
1.93919
1.87059
1.59162
1.58088
1.48534
1.44571
1.42067
1.36161
1.31861
1.24385
1.17454
1.08621
1.00243
0.90484
0.81468
0.712794
0.620986
0.519634
0.430023
0.334161
0.25064
0.165156
0.0918615
0.0208544
-0.038043
-0.0916717
-0.131687
-0.164941
2.55158
2.54846
2.5393
2.52337
2.49966
2.46668
2.42251
2.36479
2.29087
2.19835
2.08549
1.95236
1.80254
1.64256
1.4832
1.37163
1.1312
1.0217
1.02681
1.05218
1.02167
0.930182
0.797044
0.639984
0.472948
0.307693
0.154471
0.0221913
-0.0815748
-0.148583
1.00204
1.00365
1.00254
1.00252
1.00065
0.999875
0.996885
0.995068
0.990384
0.987102
0.979838
0.974569
0.963577
0.955655
0.939503
0.928344
0.90531
0.89044
0.859049
0.839978
0.799425
0.776221
0.726996
0.700022
0.645382
0.61464
0.561143
0.527355
0.481113
0.44607
0.449885
0.313071
0.403526
0.317178
0.46428
0.5017
0.607688
0.686668
0.744019
0.78807
0.800593
0.800802
0.774772
0.744217
0.689533
0.639607
0.567283
0.506225
0.426285
0.360532
0.281206
0.216152
0.143747
0.0844029
0.0234775
-0.0252748
-0.0715465
-0.10446
-0.132313
-0.54608
-0.541884
-0.536492
-0.528022
-0.517116
-0.504797
-0.492333
-0.481358
-0.473632
-0.470581
-0.47325
-0.481474
-0.492822
-0.50363
-0.5081
-0.472643
-0.336902
-0.0992396
0.188078
0.435589
0.579335
0.619434
0.582252
0.494837
0.379836
0.254876
0.133129
0.0248305
-0.0614634
-0.115992
-2.10387
-2.09698
-2.09591
-2.08816
-2.08297
-2.07096
-2.06186
-2.04567
-2.03304
-2.01288
-1.99731
-1.97345
-1.95568
-1.92854
-1.90951
-1.87941
-1.86025
-1.8275
-1.80902
-1.77418
-1.75667
-1.71995
-1.70295
-1.6646
-1.64585
-1.60676
-1.58231
-1.54277
-1.50996
-1.46992
-1.39705
-1.32325
-1.07153
-0.966074
-0.660283
-0.483408
-0.23058
-0.0456551
0.128934
0.259728
0.359377
0.428831
0.464762
0.487217
0.47523
0.465297
0.422454
0.391917
0.333377
0.291291
0.228526
0.181782
0.122502
0.0769814
0.0261866
-0.0125139
-0.0513958
-0.0772609
-0.0997065
-3.65541
-3.64363
-3.62308
-3.5892
-3.54218
-3.48258
-3.41102
-3.32848
-3.23606
-3.13462
-3.02512
-2.90799
-2.78246
-2.6478
-2.50241
-2.32256
-1.81796
-1.22985
-0.652527
-0.1795
0.138572
0.309909
0.368366
0.350321
0.28714
0.202328
0.111961
0.0275807
-0.0412982
-0.0833949
-5.23224
-5.21996
-5.21664
-5.20093
-5.18846
-5.16332
-5.14176
-5.10708
-5.07654
-5.03229
-4.99307
-4.93926
-4.89168
-4.82853
-4.77305
-4.70065
-4.63795
-4.55655
-4.487
-4.39733
-4.32108
-4.22376
-4.14078
-4.03674
-3.94601
-3.8371
-3.7369
-3.62455
-3.51503
-3.40086
-3.25769
-2.98109
-2.56154
-2.26389
-1.79449
-1.4722
-1.07063
-0.776877
-0.484542
-0.266441
-0.0800563
0.0587415
0.156183
0.231525
0.261989
0.291794
0.278355
0.278066
0.240941
0.222285
0.176134
0.147511
0.101421
0.0695734
0.028973
0.000213158
-0.0312493
-0.0501113
-0.06717
-6.80353
-6.78407
-6.7481
-6.68832
-6.60446
-6.49654
-6.36453
-6.20876
-6.02975
-5.82804
-5.60475
-5.36121
-5.0985
-4.81873
-4.52402
-4.19798
-3.31999
-2.37253
-1.49651
-0.793995
-0.300888
0.00160383
0.155449
0.206495
0.194905
0.150078
0.0909845
0.0304432
-0.0211014
-0.0508333
-8.41596
-8.39835
-8.39274
-8.36905
-8.34923
-8.31089
-8.27673
-8.22341
-8.17475
-8.10616
-8.04296
-7.95882
-7.88094
-7.78124
-7.68867
-7.57326
-7.46627
-7.33531
-7.21396
-7.06839
-6.93284
-6.77367
-6.62447
-6.45337
-6.29073
-6.11055
-5.93477
-5.74811
-5.5617
-5.3721
-5.15527
-4.67631
-4.07809
-3.58463
-2.94323
-2.4687
-1.91557
-1.50873
-1.09837
-0.791256
-0.518628
-0.309886
-0.151339
-0.0231025
0.0496633
0.118928
0.13493
0.164551
0.148965
0.153444
0.124053
0.113315
0.0805569
0.0621913
0.0319007
0.0129495
-0.0110488
-0.0229411
-0.0346519
-10.0178
-9.99081
-9.93954
-9.854
-9.73342
-9.57717
-9.38449
-9.15498
-8.88854
-8.5853
-8.24658
-7.87464
-7.4724
-7.04467
-6.59712
-6.11898
-4.85215
-3.5303
-2.34546
-1.40884
-0.739318
-0.305436
-0.0563808
0.063471
0.103215
0.0981858
0.0702367
0.0334293
-0.000897261
-0.0183615
-11.6825
-11.6596
-11.6518
-11.6203
-11.5932
-11.542
-11.4954
-11.4238
-11.3572
-11.2646
-11.1777
-11.0634
-10.9554
-10.8192
-10.6896
-10.5309
-10.3796
-10.1984
-10.025
-9.82236
-9.62704
-9.40428
-9.18812
-8.94761
-8.71196
-8.45772
-8.20456
-7.94055
-7.67402
-7.40658
-7.11037
-6.42274
-5.63127
-4.93371
-4.11024
-3.47438
-2.76732
-2.24135
-1.71361
-1.31462
-0.956599
-0.676958
-0.457701
-0.276616
-0.161576
-0.0533009
-0.00767535
0.0513438
0.0575541
0.084732
0.0723566
0.0791579
0.059953
0.0548035
0.0349799
0.0256716
0.00917339
0.00423667
-0.00221809
-13.3316
-13.2973
-13.2313
-13.1207
-12.9644
-12.7609
-12.5084
-12.2058
-11.8519
-11.4464
-10.9904
-10.4868
-9.94038
-9.35866
-8.75029
-8.10863
-6.42789
-4.70951
-3.20291
-2.02603
-1.17749
-0.611353
-0.267047
-0.0786354
0.0121765
0.0467517
0.049815
0.0366236
0.0193649
0.014044
-15.0576
-15.0306
-15.0203
-14.9818
-14.9476
-14.8843
-14.8257
-14.7368
-14.6529
-14.5375
-14.4275
-14.2842
-14.1469
-13.9751
-13.8092
-13.6077
-13.4126
-13.1811
-12.9558
-12.6951
-12.4396
-12.1512
-11.8669
-11.5538
-11.2429
-10.9102
-10.5764
-10.2303
-9.88075
-9.5263
-9.1458
-8.23375
-7.2325
-6.3171
-5.2981
-4.49096
-3.62664
-2.97516
-2.33051
-1.83672
-1.39369
-1.04257
-0.762443
-0.529065
-0.371354
-0.224923
-0.149224
-0.0615753
-0.0331516
0.0161311
0.0211304
0.04502
0.0396595
0.0473898
0.0382165
0.0383684
0.0293595
0.0314311
0.0300206
-16.7701
-16.7297
-16.6498
-16.5159
-16.326
-16.0776
-15.7679
-15.3944
-14.9547
-14.4472
-13.8725
-13.2336
-12.5366
-11.7918
-11.0131
-10.195
-8.06299
-5.91577
-4.0702
-2.64525
-1.61432
-0.914957
-0.475611
-0.219211
-0.0778465
-0.00401387
0.029836
0.0400604
0.039631
0.0462605
-8.48209
-8.46189
-8.45954
-8.43714
-8.42283
-8.38777
-8.36103
-8.31264
-8.27285
-8.21022
-8.1566
-8.07876
-8.01013
-7.9163
-7.83148
-7.72049
-7.61847
-7.48955
-7.36904
-7.22242
-7.08266
-6.91869
-6.76005
-6.58025
-6.40348
-6.21118
-6.01863
-5.81732
-5.61412
-5.41093
-5.17778
-4.6573
-4.05721
-3.55092
-2.94834
-2.5262
-2.02378
-1.69607
-1.32805
-1.07968
-0.829835
-0.648124
-0.490219
-0.361983
-0.271253
-0.181627
-0.135192
-0.0727102
-0.0518205
-0.010145
-0.00236888
0.022135
0.0235226
0.0350765
0.0335405
0.0382124
0.0361811
0.0403326
0.0423177
1.30535
1.30817
1.29895
1.28355
1.26219
1.23506
1.20265
1.16515
1.12291
1.0768
1.02719
0.974599
0.920233
0.864733
0.808593
0.764537
0.643247
0.512586
0.375623
0.246598
0.140513
0.0654057
0.0228318
0.00824461
0.0114874
0.0205463
0.0269716
0.0286849
0.0279508
0.0290563
1.09703
1.10771
1.10028
1.10213
1.09168
1.09081
1.07739
1.07388
1.05775
1.05176
1.03294
1.02472
1.00357
0.99305
0.970051
0.957552
0.932855
0.91872
0.89303
0.877044
0.851157
0.833648
0.807791
0.789061
0.764084
0.74372
0.72035
0.698658
0.676536
0.653885
0.64277
0.565654
0.548627
0.436748
0.439866
0.310304
0.317034
0.199474
0.198334
0.1106
0.101853
0.0472873
0.0358148
0.0117245
0.00108148
0.00132842
-0.00700359
0.00760288
0.00175688
0.0196095
0.0156908
0.0291098
0.0264282
0.0335833
0.0317836
0.0350757
0.0338756
0.0371001
0.0369606
0.871848
0.875589
0.869231
0.858601
0.843918
0.825282
0.803101
0.777515
0.748734
0.717439
0.683856
0.648276
0.611589
0.574
0.536196
0.505639
0.423345
0.334073
0.238968
0.146164
0.068099
0.0136052
-0.0141934
-0.0179106
-0.00565099
0.0118927
0.0264131
0.0352962
0.0404788
0.0455891
0.697353
0.707684
0.701212
0.704021
0.69554
0.69648
0.686095
0.685205
0.673141
0.670528
0.656829
0.652652
0.637634
0.63176
0.615784
0.60845
0.59157
0.583007
0.565715
0.555681
0.53848
0.527239
0.510131
0.497926
0.48141
0.467911
0.452535
0.437982
0.423265
0.407873
0.400951
0.348056
0.337592
0.259529
0.265377
0.169861
0.183308
0.089808
0.100838
0.0266264
0.0317376
-0.0153014
-0.0145613
-0.0338867
-0.0350341
-0.0312044
-0.0324206
-0.0144424
-0.0146821
0.00675407
0.00769194
0.0247651
0.0264332
0.0369309
0.0388329
0.044715
0.0466777
0.0510452
0.0535374
0.531062
0.535139
0.530856
0.523673
0.513763
0.501184
0.486264
0.46907
0.449728
0.428763
0.406285
0.382449
0.357923
0.332824
0.307279
0.286663
0.231572
0.172968
0.110871
0.0492093
-0.00324672
-0.038098
-0.0511972
-0.0437077
-0.022121
0.00399193
0.0264985
0.0422874
0.0529158
0.0616157
0.381162
0.390718
0.385199
0.388404
0.381596
0.383565
0.375566
0.376301
0.367313
0.366874
0.356922
0.355409
0.344742
0.341996
0.330882
0.327072
0.315494
0.310784
0.299086
0.293239
0.281761
0.274982
0.263629
0.256116
0.24521
0.23668
0.226532
0.217228
0.207476
0.197659
0.192995
0.158463
0.152443
0.0993271
0.107696
0.0383494
0.057072
-0.0160649
0.00496149
-0.0566901
-0.0390825
-0.0790125
-0.0661862
-0.0811527
-0.0721669
-0.0650659
-0.0583182
-0.0372174
-0.031144
-0.0063732
-0.000135881
0.0203507
0.0265937
0.0402437
0.0458786
0.0543846
0.0591731
0.0651836
0.0696044
0.253825
0.257807
0.255008
0.250289
0.243792
0.235542
0.225789
0.214562
0.201921
0.188269
0.173647
0.158125
0.1422
0.125888
0.10935
0.096029
0.0610348
0.0251521
-0.0114949
-0.0471031
-0.0761445
-0.0917801
-0.0897226
-0.0702673
-0.0387475
-0.00379357
0.0267382
0.0494134
0.0654234
0.0776305
0.121132
0.129609
0.125003
0.128238
0.122839
0.125291
0.119193
0.120841
0.114206
0.115084
0.10792
0.108086
0.100588
0.0998806
0.09224
0.0907846
0.0829453
0.0808612
0.0730681
0.070137
0.062623
0.0590095
0.0516426
0.0475042
0.040517
0.0356031
0.0292385
0.0237388
0.0176559
0.0117634
0.00918686
-0.0123064
-0.0142388
-0.0489076
-0.0385014
-0.0866095
-0.064835
-0.119032
-0.0913758
-0.139574
-0.112177
-0.143747
-0.120108
-0.129936
-0.110864
-0.100234
-0.0848991
-0.0607972
-0.0476626
-0.0198598
-0.00777593
0.0158194
0.0269437
0.0435009
0.0530602
0.0639903
0.0717102
0.0793051
0.0856386
0.0183001
0.0220079
0.0202886
0.017367
0.0133575
0.00826045
0.00227095
-0.00461302
-0.0123691
-0.0206902
-0.0295772
-0.0390106
-0.0486122
-0.0583969
-0.0683325
-0.0761023
-0.0955628
-0.11358
-0.129796
-0.14329
-0.15087
-0.147618
-0.129863
-0.0976398
-0.0555647
-0.0115023
0.0270657
0.0565778
0.0779325
0.0936209
-0.102594
-0.0952301
-0.0990261
-0.09594
-0.100177
-0.0975437
-0.102144
-0.0999938
-0.104828
-0.103144
-0.108214
-0.106961
-0.11212
-0.111452
-0.11656
-0.116382
-0.121512
-0.121737
-0.12671
-0.127533
-0.132183
-0.133474
-0.137942
-0.139575
-0.14369
-0.145883
-0.149479
-0.152074
-0.155422
-0.158273
-0.159224
-0.170774
-0.169176
-0.189666
-0.177197
-0.208065
-0.183975
-0.221148
-0.188703
-0.223216
-0.187993
-0.210086
-0.1768
-0.180485
-0.151539
-0.136826
-0.11249
-0.0852561
-0.0644754
-0.0337517
-0.0153927
0.011163
0.0273583
0.0467388
0.0602808
0.0735852
0.0842602
0.0934285
0.101671
-0.190847
-0.187483
-0.188392
-0.189963
-0.192103
-0.194827
-0.197984
-0.201594
-0.205659
-0.209944
-0.214475
-0.219263
-0.224018
-0.228783
-0.233549
-0.236899
-0.243843
-0.247193
-0.24631
-0.240522
-0.228151
-0.206152
-0.172012
-0.1261
-0.0727514
-0.0192362
0.0274319
0.0637565
0.0904377
0.109606
-0.304954
-0.298637
-0.301728
-0.298859
-0.302135
-0.299468
-0.302863
-0.300431
-0.303845
-0.301638
-0.30508
-0.303081
-0.306438
-0.304784
-0.307955
-0.306574
-0.309636
-0.308463
-0.311283
-0.310493
-0.312951
-0.31244
-0.314671
-0.314341
-0.316216
-0.316262
-0.317654
-0.317951
-0.319102
-0.319534
-0.319052
-0.322712
-0.317805
-0.326931
-0.312192
-0.328651
-0.302375
-0.324129
-0.287856
-0.308638
-0.26692
-0.27853
-0.236534
-0.232996
-0.194403
-0.174909
-0.141249
-0.11063
-0.0816974
-0.0480813
-0.023063
0.00635292
0.0277859
0.0499393
0.0674941
0.0831632
0.0967862
0.107541
0.117681
-0.385138
-0.382111
-0.382385
-0.382893
-0.383563
-0.384416
-0.385339
-0.386359
-0.387496
-0.388571
-0.389621
-0.390679
-0.391523
-0.392205
-0.392749
-0.39237
-0.388662
-0.37929
-0.363328
-0.340038
-0.308673
-0.267834
-0.216499
-0.155891
-0.0904816
-0.0271058
0.0277799
0.070927
0.102937
0.1256
-0.496836
-0.491434
-0.493929
-0.491276
-0.493754
-0.4911
-0.493508
-0.490888
-0.493149
-0.490556
-0.492684
-0.490109
-0.492016
-0.489583
-0.491197
-0.488849
-0.490245
-0.487937
-0.489012
-0.486898
-0.487569
-0.485566
-0.485956
-0.483991
-0.484002
-0.482247
-0.481787
-0.480144
-0.479419
-0.477803
-0.475984
-0.473037
-0.464845
-0.464443
-0.447044
-0.451089
-0.422274
-0.429948
-0.390001
-0.397195
-0.349556
-0.349909
-0.299693
-0.287917
-0.239743
-0.214703
-0.171404
-0.137022
-0.0995013
-0.0628976
-0.0308992
0.00136849
0.0281708
0.0531014
0.0746808
0.0927416
0.109292
0.121668
0.13369
-0.574
-0.571268
-0.571007
-0.570621
-0.570051
-0.569326
-0.568359
-0.567183
-0.565831
-0.564165
-0.562233
-0.56008
-0.557536
-0.554664
-0.551503
-0.547748
-0.534336
-0.513179
-0.48307
-0.443088
-0.393049
-0.332975
-0.263513
-0.187158
-0.108877
-0.0352075
0.0280432
0.0780437
0.115395
0.141577
-0.686884
-0.682256
-0.684245
-0.681773
-0.683575
-0.68093
-0.682502
-0.679714
-0.680999
-0.678064
-0.679077
-0.675994
-0.676666
-0.673545
-0.673827
-0.670623
-0.670586
-0.667267
-0.666833
-0.663538
-0.662646
-0.659309
-0.658075
-0.654643
-0.65299
-0.649618
-0.647482
-0.644094
-0.641654
-0.63819
-0.635033
-0.626214
-0.614579
-0.605746
-0.585171
-0.578063
-0.546083
-0.540576
-0.496597
-0.490274
-0.436714
-0.425106
-0.366756
-0.345735
-0.287884
-0.25644
-0.203197
-0.164531
-0.118068
-0.0782383
-0.0390244
-0.00380091
0.0284458
0.0562308
0.0818136
0.10234
0.121772
0.135836
0.149706
-0.764915
-0.762412
-0.761669
-0.760476
-0.758786
-0.756632
-0.75395
-0.750778
-0.747156
-0.742982
-0.738311
-0.733198
-0.727516
-0.721334
-0.714705
-0.707689
-0.684867
-0.652118
-0.607957
-0.551251
-0.482202
-0.402099
-0.313376
-0.220127
-0.12811
-0.0436591
0.0281586
0.0850846
0.127813
0.157552
-0.882808
-0.878805
-0.880367
-0.878017
-0.879233
-0.876548
-0.877384
-0.874391
-0.874806
-0.871503
-0.871513
-0.867904
-0.867455
-0.863638
-0.8627
-0.85864
-0.857278
-0.852957
-0.851112
-0.846654
-0.844287
-0.839641
-0.836858
-0.831989
-0.828731
-0.823782
-0.820007
-0.814921
-0.810788
-0.805525
-0.800936
-0.786515
-0.771063
-0.7543
-0.729828
-0.712208
-0.676137
-0.657925
-0.609068
-0.589178
-0.529122
-0.504911
-0.438058
-0.40685
-0.338998
-0.30027
-0.236759
-0.193186
-0.137525
-0.0941011
-0.0475465
-0.00915694
0.0285361
0.0593176
0.0888443
0.111947
0.134192
0.150036
0.165703
-0.964684
-0.962336
-0.961123
-0.959144
-0.956364
-0.952818
-0.948462
-0.943336
-0.937491
-0.930852
-0.923481
-0.915443
-0.906647
-0.897169
-0.887074
-0.87671
-0.844204
-0.799393
-0.740515
-0.666262
-0.577184
-0.475796
-0.366433
-0.255033
-0.148356
-0.0525824
0.0280611
0.0920282
0.140194
0.173539
-1.09149
-1.08795
-1.08916
-1.08685
-1.08755
-1.08475
-1.08491
-1.08163
-1.08124
-1.07749
-1.07654
-1.07233
-1.0708
-1.0662
-1.06407
-1.05908
-1.05641
-1.051
-1.04775
-1.04205
-1.03819
-1.03216
-1.0278
-1.02142
-1.01651
-1.00991
-1.00443
-0.997567
-0.991665
-0.984527
-0.978339
-0.958211
-0.938383
-0.913705
-0.884424
-0.856416
-0.815043
-0.784204
-0.729176
-0.695499
-0.627816
-0.590372
-0.514154
-0.471857
-0.393398
-0.346468
-0.27231
-0.223084
-0.158043
-0.110509
-0.0565841
-0.0147017
0.0283812
0.0623672
0.0957581
0.121576
0.146562
0.164289
0.181705
-1.18006
-1.17777
-1.17606
-1.17326
-1.16934
-1.16433
-1.15822
-1.15104
-1.14285
-1.13361
-1.12339
-1.11225
-1.10015
-1.08717
-1.07339
-1.05939
-1.01634
-0.958311
-0.883279
-0.789842
-0.678997
-0.55457
-0.422932
-0.29204
-0.169757
-0.0620933
0.0276718
0.0988259
0.152503
0.189514
-1.31983
-1.31662
-1.31752
-1.31517
-1.3154
-1.31237
-1.3119
-1.30822
-1.30702
-1.30269
-1.30079
-1.29583
-1.2932
-1.28768
-1.28432
-1.27823
-1.27419
-1.26753
-1.26279
-1.25568
-1.25023
-1.24264
-1.23657
-1.22849
-1.22178
-1.21335
-1.206
-1.19718
-1.18932
-1.18013
-1.17209
-1.14582
-1.12082
-1.08782
-1.05257
-1.01381
-0.965629
-0.921794
-0.858916
-0.810925
-0.734044
-0.682562
-0.595759
-0.541334
-0.451507
-0.395273
-0.310136
-0.254282
-0.179836
-0.127457
-0.0662837
-0.0204216
0.0279015
0.0653954
0.102525
0.131248
0.158877
0.178626
0.197718
-1.41783
-1.41552
-1.41327
-1.40955
-1.40436
-1.39774
-1.38966
-1.3802
-1.36941
-1.35728
-1.34388
-1.3293
-1.31352
-1.29662
-1.27871
-1.26058
-1.20559
-1.13252
-1.03914
-0.924076
-0.788983
-0.639213
-0.483344
-0.331457
-0.192533
-0.0723338
0.0269185
0.105456
0.164744
0.205491
-1.57531
-1.57224
-1.57291
-1.5704
-1.57018
-1.56679
-1.56568
-1.56144
-1.55942
-1.55433
-1.55142
-1.5455
-1.54168
-1.53502
-1.5303
-1.52288
-1.51733
-1.50916
-1.50276
-1.49396
-1.48672
-1.47728
-1.46928
-1.45921
-1.45046
-1.43988
-1.4304
-1.4193
-1.40922
-1.39761
-1.38739
-1.35413
-1.32295
-1.28071
-1.23803
-1.18766
-1.13077
-1.07314
-1.00025
-0.937105
-0.84897
-0.782444
-0.683497
-0.615711
-0.513675
-0.446784
-0.350488
-0.286744
-0.203108
-0.144896
-0.0767961
-0.0262968
0.0270016
0.0683977
0.109094
0.140946
0.171101
0.193035
0.213713
-1.68578
-1.68328
-1.6804
-1.67563
-1.66896
-1.66045
-1.65011
-1.63799
-1.62418
-1.60869
-1.59159
-1.57302
-1.55295
-1.53151
-1.50884
-1.48592
-1.4169
-1.3262
-1.21139
-1.07135
-0.908711
-0.730682
-0.548252
-0.373667
-0.216939
-0.0834594
0.0257256
0.111897
0.17692
0.221485
-1.86631
-1.86334
-1.86376
-1.86101
-1.86032
-1.85645
-1.85461
-1.84966
-1.84668
-1.84064
-1.83656
-1.82946
-1.82425
-1.81618
-1.80987
-1.80083
-1.7935
-1.7835
-1.77513
-1.76431
-1.75492
-1.74328
-1.73298
-1.72053
-1.70933
-1.69622
-1.68412
-1.67036
-1.65752
-1.64322
-1.63019
-1.58892
-1.54992
-1.4973
-1.44517
-1.38195
-1.31392
-1.24117
-1.15574
-1.07597
-0.974412
-0.891059
-0.778608
-0.69539
-0.580726
-0.501054
-0.393881
-0.320416
-0.228144
-0.162787
-0.0882495
-0.0323196
0.0256504
0.0713687
0.115484
0.150672
0.183259
0.207539
0.22971
-1.99223
-1.98958
-1.9859
-1.97987
-1.97143
-1.96067
-1.9476
-1.9323
-1.91488
-1.89535
-1.87384
-1.85047
-1.82527
-1.79841
-1.76995
-1.7411
-1.65529
-1.5435
-1.40325
-1.23404
-1.0399
-0.830211
-0.618549
-0.419289
-0.243362
-0.0956789
0.0239989
0.118118
0.18901
0.237465
-2.20368
-2.19994
-2.20046
-2.19696
-2.1961
-2.19119
-2.18893
-2.18263
-2.17893
-2.17127
-2.16618
-2.15719
-2.1507
-2.14049
-2.13261
-2.12119
-2.11202
-2.09943
-2.08897
-2.07535
-2.06364
-2.04899
-2.03615
-2.02052
-2.00657
-1.99012
-1.97506
-1.95782
-1.94199
-1.92385
-1.90781
-1.85635
-1.80829
-1.74304
-1.67921
-1.601
-1.51908
-1.42911
-1.32817
-1.22964
-1.11205
-1.00966
-0.881937
-0.781018
-0.653036
-0.558352
-0.440569
-0.355338
-0.255253
-0.181045
-0.100985
-0.0383718
0.0235727
0.0744071
0.121511
0.160515
0.195188
0.222261
0.245538
-2.34918
-2.34557
-2.34104
-2.33341
-2.32278
-2.30923
-2.29277
-2.27353
-2.25164
-2.22713
-2.20017
-2.17092
-2.13944
-2.10593
-2.07048
-2.03461
-1.92824
-1.79067
-1.61984
-1.4161
-1.18529
-0.93941
-0.694909
-0.468413
-0.271683
-0.108888
0.0217816
0.124114
0.200926
0.253258
-1.29568
-1.29338
-1.29366
-1.29134
-1.29077
-1.2876
-1.2861
-1.28204
-1.27964
-1.27468
-1.27137
-1.26556
-1.26134
-1.25476
-1.24966
-1.24228
-1.23635
-1.22823
-1.22147
-1.21269
-1.20515
-1.19572
-1.18746
-1.17741
-1.16845
-1.15791
-1.1483
-1.13722
-1.12707
-1.11586
-1.10508
-1.07269
-1.0417
-1.00056
-0.960348
-0.911017
-0.860334
-0.803687
-0.742597
-0.680797
-0.611223
-0.547574
-0.473634
-0.411922
-0.339242
-0.282752
-0.216863
-0.167531
-0.112094
-0.070349
-0.0262267
0.00839067
0.0425027
0.0705404
0.096607
0.118486
0.138136
0.153833
0.168066
0.0491875
0.0493103
0.0492815
0.0492362
0.049191
0.0491285
0.0490515
0.048975
0.0488837
0.0487838
0.0486878
0.0485824
0.0484758
0.0483782
0.0482644
0.0479174
0.0477265
0.0476314
0.0477968
0.0484289
0.0497089
0.0517339
0.0544413
0.0575782
0.0608063
0.0638792
0.0667878
0.0698355
0.0736838
0.0793031
0.0344522
0.034562
0.034529
0.0346291
0.0346255
0.0347545
0.0347875
0.0349398
0.0349957
0.0351819
0.0352668
0.035481
0.0356012
0.0358346
0.0359773
0.0362406
0.0364091
0.0366962
0.0368958
0.0371973
0.0374168
0.0377421
0.0379825
0.0383263
0.0385918
0.0389443
0.0392249
0.0395939
0.0399014
0.0402788
0.0407166
0.0417007
0.0425398
0.0439204
0.0450004
0.0465903
0.0479619
0.0496375
0.0513425
0.0529071
0.054969
0.0561745
0.0585766
0.0592117
0.0618837
0.0618851
0.0646974
0.0642344
0.0670129
0.066431
0.0690412
0.0686958
0.0711294
0.0712604
0.0737024
0.0744607
0.0772932
0.078913
0.0825694
0.0612039
0.0612371
0.0612396
0.0612367
0.0612338
0.0612287
0.0612225
0.0612172
0.0612102
0.0612032
0.0611981
0.0611921
0.0611876
0.0611864
0.0611874
0.0611385
0.0611156
0.0611437
0.0612538
0.0615179
0.0620401
0.0629421
0.0643246
0.0662018
0.0684827
0.0710333
0.0737998
0.0769243
0.0808072
0.0859787
0.056345
0.0563975
0.0563821
0.0564147
0.0564085
0.0564526
0.0564582
0.0565104
0.056524
0.0565873
0.0566103
0.056683
0.0567175
0.0567969
0.0568394
0.0569289
0.05698
0.0570783
0.0571403
0.057244
0.0573135
0.0574263
0.0575035
0.0576239
0.0577108
0.0578355
0.0579289
0.0580609
0.0581595
0.0583005
0.0584
0.0588032
0.0590626
0.0596345
0.0599937
0.0606994
0.0611853
0.0620224
0.0626716
0.0636045
0.0644542
0.0654084
0.0664914
0.0673565
0.0686979
0.0693521
0.0709608
0.0713377
0.0731913
0.0733353
0.0753933
0.0754668
0.0777021
0.0779323
0.0803955
0.0810087
0.0838943
0.0850843
0.08862
0.0704108
0.0704363
0.0704378
0.0704391
0.0704435
0.070448
0.0704531
0.0704612
0.0704695
0.0704786
0.0704909
0.0705034
0.0705173
0.0705346
0.0705516
0.070528
0.0705741
0.0706566
0.0707951
0.0710236
0.071389
0.0719544
0.072798
0.0739921
0.0755792
0.0775631
0.0799403
0.0827806
0.0862948
0.0907299
0.0689632
0.0689881
0.0689782
0.0689961
0.0689908
0.069013
0.0690135
0.0690387
0.0690419
0.0690724
0.0690796
0.0691143
0.0691271
0.0691642
0.06918
0.0692222
0.0692418
0.069288
0.069313
0.0693612
0.0693892
0.0694421
0.0694736
0.0695303
0.0695668
0.0696251
0.0696645
0.0697269
0.06977
0.0698354
0.0698841
0.0700744
0.0701791
0.0704673
0.0706138
0.0709828
0.0711882
0.0716479
0.0719373
0.0724857
0.0728918
0.0735109
0.074073
0.0747223
0.0754866
0.076101
0.0771141
0.077627
0.0789229
0.0793007
0.0808985
0.0811769
0.0830857
0.08338
0.0856274
0.0861006
0.0887761
0.0895881
0.0927591
0.0776111
0.077623
0.0776256
0.0776286
0.0776337
0.0776397
0.0776469
0.0776562
0.0776664
0.0776778
0.0776914
0.0777059
0.0777218
0.0777399
0.077759
0.077761
0.0778089
0.0778879
0.078006
0.0781839
0.0784523
0.0788539
0.0794459
0.0802923
0.0814564
0.0829911
0.0849377
0.0873518
0.0903423
0.0939626
0.0774666
0.0774815
0.0774762
0.0774856
0.0774825
0.0774943
0.0774942
0.0775076
0.0775089
0.0775252
0.0775286
0.077547
0.0775534
0.0775732
0.0775811
0.0776036
0.0776135
0.0776382
0.077651
0.0776768
0.0776912
0.0777196
0.0777359
0.0777665
0.0777856
0.0778171
0.0778378
0.0778717
0.0778942
0.0779303
0.0779494
0.0780592
0.0781101
0.078274
0.0783468
0.0785618
0.0786658
0.0789428
0.0790927
0.079439
0.0796557
0.0800728
0.0803844
0.080863
0.0813086
0.0818219
0.0824511
0.0829595
0.0838263
0.0842883
0.0854467
0.0858432
0.0873385
0.0876984
0.0895699
0.0899728
0.0922634
0.0928095
0.0954858
0.083226
0.0832341
0.0832361
0.0832387
0.0832432
0.0832486
0.0832551
0.0832633
0.0832724
0.0832826
0.0832945
0.0833073
0.0833213
0.0833371
0.0833535
0.0833588
0.0834037
0.0834727
0.083572
0.0837158
0.0839243
0.0842262
0.0846627
0.0852857
0.086155
0.0873327
0.0888748
0.0908329
0.0932612
0.0961066
0.083553
0.0835618
0.0835583
0.0835643
0.0835622
0.0835695
0.0835693
0.0835774
0.083578
0.0835878
0.0835897
0.0836008
0.0836045
0.0836164
0.0836209
0.0836345
0.0836403
0.0836552
0.0836627
0.0836783
0.0836867
0.0837039
0.0837135
0.083732
0.0837433
0.0837624
0.0837747
0.0837953
0.0838088
0.0838307
0.0838421
0.0839096
0.0839391
0.0840411
0.0840833
0.0842193
0.0842801
0.0844589
0.0845475
0.0847773
0.0849076
0.0851949
0.0853866
0.0857334
0.0860156
0.0864134
0.0868267
0.0872561
0.0878509
0.0882826
0.0891176
0.0895221
0.0906556
0.0910213
0.0925025
0.0928489
0.0947045
0.0950759
0.0972259
0.087559
0.087564
0.0875656
0.0875679
0.0875716
0.087576
0.0875813
0.087588
0.0875955
0.0876038
0.0876135
0.087624
0.0876354
0.0876481
0.0876616
0.0876686
0.0877058
0.0877619
0.0878414
0.0879547
0.0881163
0.0883471
0.0886768
0.0891446
0.0897993
0.0906962
0.09189
0.0934263
0.0953306
0.0975036
0.0880153
0.088021
0.0880189
0.0880226
0.0880214
0.088026
0.0880259
0.0880311
0.0880315
0.0880378
0.0880391
0.0880463
0.0880487
0.0880563
0.0880593
0.0880681
0.0880718
0.0880815
0.0880864
0.0880965
0.088102
0.0881131
0.0881194
0.0881314
0.0881389
0.0881512
0.0881593
0.0881728
0.0881816
0.0881959
0.0882026
0.0882474
0.0882666
0.0883339
0.0883614
0.088452
0.0884917
0.0886122
0.0886703
0.0888279
0.0889135
0.0891154
0.0892421
0.0894937
0.0896822
0.0899832
0.090264
0.0906063
0.0910204
0.0913858
0.0919849
0.0923469
0.0931877
0.0935207
0.0946534
0.094945
0.0963896
0.0966465
0.0983109
0.0908606
0.090864
0.0908652
0.090867
0.0908699
0.0908734
0.0908776
0.0908828
0.0908887
0.0908953
0.0909029
0.0909111
0.0909201
0.0909301
0.0909406
0.090947
0.090977
0.0910214
0.0910838
0.0911719
0.0912963
0.0914723
0.0917216
0.0920733
0.0925651
0.0932417
0.0941491
0.0953245
0.0967785
0.098402
0.091307
0.0913107
0.0913093
0.0913118
0.091311
0.0913141
0.0913141
0.0913175
0.0913179
0.0913221
0.091323
0.0913278
0.0913296
0.0913347
0.0913368
0.0913427
0.0913453
0.0913518
0.0913553
0.091362
0.0913659
0.0913734
0.0913777
0.0913859
0.091391
0.0913994
0.0914049
0.0914141
0.0914202
0.0914299
0.0914345
0.0914651
0.0914786
0.0915245
0.0915436
0.0916058
0.0916334
0.0917169
0.0917571
0.0918676
0.0919267
0.0920703
0.0921579
0.0923404
0.0924711
0.092695
0.0928911
0.093154
0.0934465
0.0937378
0.094168
0.0944675
0.0950834
0.0953642
0.0962107
0.0964478
0.0975407
0.0977212
0.0989744
0.0933472
0.0933495
0.0933504
0.0933518
0.093354
0.0933567
0.0933599
0.0933639
0.0933684
0.0933735
0.0933793
0.0933856
0.0933925
0.0934001
0.0934082
0.0934136
0.0934368
0.093471
0.0935188
0.0935859
0.0936803
0.093813
0.0939998
0.0942624
0.0946286
0.0951328
0.0958111
0.0966923
0.0977794
0.0989723
0.0937326
0.0937351
0.0937342
0.0937359
0.0937354
0.0937374
0.0937375
0.0937399
0.0937402
0.0937431
0.0937437
0.093747
0.0937483
0.0937518
0.0937533
0.0937574
0.0937593
0.0937637
0.0937662
0.0937709
0.0937736
0.0937788
0.0937819
0.0937875
0.0937911
0.0937969
0.0938008
0.0938072
0.0938115
0.0938183
0.0938215
0.0938428
0.0938524
0.0938843
0.093898
0.0939414
0.0939611
0.0940196
0.0940482
0.0941262
0.0941681
0.0942705
0.0943322
0.094464
0.0945562
0.0947206
0.094859
0.0950561
0.0952636
0.0954872
0.0957953
0.0960308
0.0964774
0.0967016
0.0973235
0.0975096
0.0983193
0.098447
0.0993721
0.0952018
0.0952034
0.0952041
0.0952052
0.0952068
0.0952088
0.0952112
0.0952142
0.0952176
0.0952213
0.0952257
0.0952304
0.0952355
0.0952411
0.0952472
0.0952514
0.0952689
0.0952944
0.0953301
0.0953801
0.0954501
0.0955482
0.0956859
0.0958787
0.0961473
0.0965171
0.0970155
0.0976641
0.0984629
0.0993287
0.0955193
0.095521
0.0955203
0.0955215
0.0955212
0.0955226
0.0955227
0.0955243
0.0955245
0.0955265
0.095527
0.0955293
0.0955302
0.0955326
0.0955337
0.0955365
0.0955378
0.0955409
0.0955427
0.0955459
0.0955478
0.0955514
0.0955536
0.0955575
0.0955601
0.0955641
0.0955669
0.0955713
0.0955743
0.095579
0.0955812
0.0955961
0.0956029
0.0956251
0.0956348
0.0956651
0.095679
0.09572
0.0957402
0.095795
0.0958245
0.095897
0.0959404
0.0960344
0.0960991
0.0962176
0.0963148
0.0964588
0.0966051
0.096771
0.0969897
0.097167
0.0974871
0.0976577
0.0981079
0.0982483
0.0988387
0.0989285
0.0996023
0.0965811
0.0965822
0.0965827
0.0965834
0.0965846
0.096586
0.0965878
0.0965899
0.0965923
0.096595
0.0965981
0.0966015
0.0966051
0.0966092
0.0966135
0.0966166
0.0966291
0.0966475
0.096673
0.0967088
0.0967588
0.0968288
0.096927
0.0970645
0.0972561
0.0975204
0.0978779
0.0983451
0.0989218
0.0995442
0.0968444
0.0968456
0.0968452
0.096846
0.0968457
0.0968467
0.0968467
0.0968478
0.096848
0.0968493
0.0968497
0.0968512
0.0968518
0.0968535
0.0968542
0.0968561
0.096857
0.0968591
0.0968603
0.0968625
0.0968638
0.0968662
0.0968677
0.0968703
0.0968721
0.0968748
0.0968767
0.0968797
0.0968817
0.0968849
0.0968864
0.0968965
0.0969011
0.0969162
0.0969227
0.0969434
0.0969527
0.0969808
0.0969942
0.097032
0.0970517
0.0971017
0.0971308
0.097196
0.0972397
0.0973223
0.0973884
0.0974896
0.0975899
0.0977074
0.097859
0.0979858
0.0982103
0.0983328
0.0986528
0.0987529
0.0991771
0.0992383
0.0997247
0.0976206
0.0976213
0.0976217
0.0976222
0.0976229
0.0976239
0.097625
0.0976264
0.097628
0.0976298
0.0976318
0.097634
0.0976364
0.0976391
0.0976419
0.0976439
0.0976521
0.0976641
0.0976808
0.0977043
0.0977372
0.0977833
0.0978483
0.0979398
0.0980682
0.098247
0.0984916
0.0988156
0.099221
0.0996634
0.0978564
0.0978572
0.0978569
0.0978574
0.0978572
0.0978579
0.0978579
0.0978586
0.0978586
0.0978595
0.0978596
0.0978606
0.097861
0.097862
0.0978624
0.0978636
0.0978641
0.0978655
0.0978661
0.0978675
0.0978683
0.0978698
0.0978707
0.0978723
0.0978733
0.0978751
0.0978762
0.097878
0.0978792
0.0978812
0.097882
0.0978885
0.0978909
0.0979006
0.0979041
0.0979173
0.0979224
0.0979404
0.0979479
0.097972
0.0979832
0.0980153
0.0980322
0.098074
0.0981
0.0981532
0.0981936
0.0982588
0.098322
0.0983978
0.0984961
0.0985778
0.0987276
0.0988062
0.0990254
0.0990888
0.0993866
0.0994246
0.0997724
0.0984422
0.0984427
0.0984429
0.0984431
0.0984435
0.098444
0.0984445
0.0984453
0.098446
0.0984469
0.098448
0.0984491
0.0984503
0.0984516
0.0984531
0.0984539
0.0984578
0.0984638
0.0984721
0.0984839
0.0985007
0.0985246
0.098559
0.0986087
0.0986806
0.0987844
0.0989322
0.0991368
0.0994047
0.0997116
0.0986915
0.098692
0.0986918
0.0986921
0.0986919
0.0986923
0.0986922
0.0986926
0.0986925
0.098693
0.0986929
0.0986934
0.0986934
0.098694
0.098694
0.0986946
0.0986947
0.0986954
0.0986955
0.0986962
0.0986964
0.0986971
0.0986974
0.0986982
0.0986985
0.0986993
0.0986996
0.0987005
0.0987009
0.0987018
0.0987018
0.0987049
0.0987051
0.09871
0.0987103
0.098717
0.0987177
0.0987267
0.098728
0.09874
0.0987426
0.0987585
0.0987632
0.0987839
0.0987928
0.0988188
0.0988351
0.0988667
0.0988958
0.098932
0.098983
0.0990208
0.0991065
0.0991413
0.0992771
0.0993035
0.0995006
0.0995169
0.0997602
0.0991675
0.0991678
0.0991678
0.0991678
0.0991677
0.0991677
0.0991676
0.0991676
0.0991675
0.0991675
0.0991674
0.0991673
0.0991672
0.0991671
0.099167
0.0991664
0.0991656
0.0991648
0.0991639
0.099163
0.0991622
0.0991621
0.0991638
0.0991695
0.0991831
0.0992112
0.0992643
0.0993564
0.0995021
0.0996994
0.0994921
0.0994925
0.0994923
0.0994924
0.0994922
0.0994923
0.0994921
0.0994921
0.0994918
0.0994919
0.0994916
0.0994916
0.0994912
0.0994912
0.0994908
0.0994908
0.0994904
0.0994903
0.0994899
0.0994898
0.0994893
0.0994892
0.0994887
0.0994885
0.099488
0.0994878
0.0994872
0.099487
0.0994864
0.0994862
0.0994853
0.0994848
0.0994822
0.099482
0.0994784
0.0994781
0.0994733
0.0994728
0.0994666
0.0994657
0.0994578
0.0994565
0.0994468
0.0994447
0.0994336
0.0994303
0.0994192
0.0994139
0.099406
0.0993978
0.0993992
0.0993873
0.0994084
0.0993928
0.0994485
0.0994322
0.0995385
0.0995308
0.0996877
0.0999367
0.0999368
0.0999366
0.0999362
0.0999356
0.0999349
0.099934
0.099933
0.0999318
0.0999305
0.099929
0.0999274
0.0999256
0.0999237
0.0999216
0.0999191
0.099912
0.0999026
0.0998897
0.0998722
0.0998489
0.0998182
0.0997787
0.0997295
0.0996713
0.0996083
0.0995501
0.0995151
0.0995309
0.0996242
0.100434
0.100434
0.100434
0.100434
0.100434
0.100433
0.100433
0.100433
0.100432
0.100431
0.100431
0.10043
0.100429
0.100429
0.100428
0.100427
0.100426
0.100425
0.100423
0.100422
0.100421
0.100419
0.100418
0.100417
0.100415
0.100413
0.100412
0.10041
0.100408
0.100406
0.100404
0.100399
0.100392
0.100386
0.100376
0.100367
0.100355
0.100342
0.100325
0.100308
0.100285
0.100261
0.100232
0.1002
0.100162
0.10012
0.100073
0.100019
0.0999626
0.099896
0.0998345
0.0997562
0.0996987
0.0996146
0.099578
0.099502
0.0995104
0.0994691
0.0995416
0.100936
0.100936
0.100935
0.100935
0.100933
0.100932
0.100929
0.100927
0.100924
0.100921
0.100918
0.100914
0.100909
0.100905
0.1009
0.100894
0.100878
0.100856
0.100826
0.100784
0.100728
0.100653
0.100553
0.100425
0.100264
0.100073
0.0998603
0.099654
0.0995023
0.0994732
0.101717
0.101717
0.101717
0.101716
0.101716
0.101715
0.101714
0.101714
0.101712
0.101711
0.10171
0.101708
0.101707
0.101705
0.101703
0.101701
0.101699
0.101697
0.101694
0.101692
0.101689
0.101686
0.101683
0.10168
0.101677
0.101673
0.10167
0.101666
0.101662
0.101658
0.101654
0.101643
0.10163
0.101614
0.101596
0.101575
0.10155
0.101521
0.101488
0.101448
0.101403
0.101349
0.101289
0.101217
0.101138
0.101044
0.100942
0.100822
0.100695
0.100546
0.100397
0.100223
0.10006
0.099873
0.0997201
0.0995481
0.0994453
0.0993324
0.0993279
SCALARS Stress_Z double 1
LOOKUP_TABLE default
15.044
15.0329
15.0383
15.0326
15.0381
15.0323
15.0378
15.032
15.0374
15.0315
15.0369
15.031
15.0363
15.0305
15.0357
15.03
15.0359
15.0297
15.0358
15.0313
15.0425
15.0319
15.0399
15.0558
15.1167
15.0223
15.1287
15.549
15.5056
15.5423
5.92651
-1.29375
0.338671
0.187904
-0.0579041
-0.0555179
0.00650116
0.0109235
-0.0179236
-0.00371234
-0.0076061
-0.000151505
-0.00547817
-0.000680054
-0.00284399
-0.000292814
-0.00181485
-0.000135805
-0.00142572
9.72838e-05
-0.00151711
0.000319939
-0.00177237
0.000483333
-0.00157845
0.000213376
-0.000293281
-0.000739826
0.00154124
14.9727
14.9675
14.9678
14.9681
14.9685
14.9692
14.9699
14.9707
14.9717
14.9724
14.9724
14.9713
14.9646
14.8858
13.8448
5.77045
0.543607
0.0266784
-0.00280045
-0.00722259
-0.005609
-0.00393557
-0.00251718
-0.00164355
-0.00133086
-0.00149372
-0.00177731
-0.0016565
0.000124116
0.00198276
14.9688
14.9563
14.9631
14.9566
14.9634
14.957
14.964
14.9578
14.9649
14.9588
14.9662
14.9602
14.9678
14.9621
14.97
14.9643
14.9732
14.967
14.9771
14.9704
14.9831
14.9736
14.9902
14.9781
15.0036
14.9497
14.9359
14.9242
13.8942
12.3322
6.47711
0.137257
0.202486
-0.0668438
0.0602931
0.0346403
-0.0315406
0.0116888
-0.00844206
0.012286
-0.00776764
0.00555635
-0.00308428
0.00237393
-0.00125401
0.00063131
-0.000495025
0.000194018
-0.000604667
0.000332548
-0.00103613
0.000597891
-0.00141588
0.000709772
-0.00144603
0.000570563
-0.000163303
-0.000536164
0.00106133
14.8285
14.8218
14.8225
14.8239
14.8258
14.8282
14.8306
14.8328
14.8338
14.8308
14.8189
14.7817
14.6761
14.2898
12.7304
7.29426
0.514793
-0.0182211
-0.00951915
0.00164436
0.00299837
0.00235692
0.00133689
0.000366099
-0.000379975
-0.000876703
-0.00117813
-0.00131368
-0.000654087
-2.60304e-05
14.751
14.7374
14.7447
14.7381
14.746
14.7397
14.7482
14.7423
14.7512
14.7455
14.7551
14.7493
14.7594
14.7534
14.7635
14.7562
14.7661
14.7555
14.7637
14.7458
14.7466
14.7146
14.6994
14.6153
14.5096
14.362
14.0192
13.2075
11.7419
10.0272
7.44234
1.40628
0.564975
0.0954241
-0.00290254
0.0792536
-0.00789585
0.0518498
0.0096348
0.0374113
0.00721153
0.0193062
0.00473442
0.00807942
0.00239199
0.00259012
0.000847886
0.000886046
-0.000152025
0.000812463
-0.000700732
0.00102857
-0.000964938
0.00104387
-0.00112123
0.000960191
-0.000713177
0.000451262
-0.00048153
14.5441
14.5383
14.5397
14.542
14.5448
14.5479
14.55
14.5492
14.5416
14.5183
14.4619
14.3265
14.0061
13.1431
11.0455
7.3847
0.789958
0.0574065
0.0325486
0.03239
0.0222375
0.0121371
0.00556498
0.00196066
0.000261501
-0.00037424
-0.00057966
-0.000776935
-0.000761187
-0.000920892
14.3986
14.3866
14.3933
14.3877
14.3951
14.3899
14.398
14.3931
14.4017
14.3966
14.4055
14.3996
14.4079
14.4
14.4062
14.3938
14.3948
14.3729
14.3619
14.3213
14.282
14.2016
14.0976
13.9311
13.6602
13.2825
12.6123
11.7749
10.3637
8.89571
7.3191
2.44664
1.03306
0.338092
0.0919631
0.136923
0.0578259
0.109699
0.0492146
0.0739886
0.0331783
0.0400097
0.0172014
0.0172116
0.0073728
0.00597621
0.00235894
0.00212003
0.000282375
0.00160127
-0.000329311
0.00175945
-0.000429767
0.0016408
-0.000585963
0.00145027
-0.000673949
0.00123168
-0.00106303
14.1386
14.1335
14.1348
14.1366
14.1384
14.1389
14.1354
14.1236
14.0947
14.0316
13.9012
13.6336
13.0831
11.9534
9.88037
7.07531
1.29807
0.218947
0.104437
0.0820536
0.0524848
0.0267216
0.0110647
0.00346837
0.000608368
-4.73463e-05
-6.03e-05
-0.000210048
-0.000530738
-0.00116109
13.929
13.9185
13.9243
13.9193
13.9256
13.9207
13.9274
13.9223
13.9289
13.9228
13.9283
13.9197
13.9224
13.9091
13.9052
13.8826
13.8658
13.8255
13.783
13.7096
13.6156
13.4802
13.2844
13.028
12.6311
12.1487
11.4016
10.5661
9.37286
8.15999
6.95826
3.14554
1.5695
0.613786
0.285928
0.242334
0.145697
0.182057
0.108087
0.121048
0.0689343
0.0660409
0.0344376
0.0291301
0.0138392
0.0106229
0.0040736
0.00395243
0.000643889
0.00276048
2.79234e-05
0.00280106
0.000146317
0.00249446
5.52917e-05
0.00207462
-0.000293597
0.00191554
-0.00104312
13.6213
13.6166
13.6167
13.6163
13.6141
13.6077
13.5929
13.5618
13.501
13.3856
13.1715
12.7786
12.0706
10.854
8.98419
6.73199
1.80524
0.427743
0.205581
0.148578
0.0921125
0.0457941
0.0181591
0.00529452
0.000958836
0.000311676
0.000532086
0.00046337
-1.85366e-05
-0.00090184
13.3584
13.3496
13.354
13.3492
13.3536
13.3482
13.3521
13.3456
13.3479
13.339
13.3383
13.3247
13.3179
13.2961
13.2775
13.241
13.2012
13.1387
13.0605
12.9533
12.8068
12.6226
12.3579
12.0447
11.5868
11.0736
10.3495
9.57283
8.57767
7.56985
6.59817
3.57043
2.04242
0.923443
0.52405
0.383753
0.260729
0.268633
0.183193
0.176592
0.113029
0.096396
0.0557547
0.0432073
0.0218009
0.0162585
0.00613844
0.0062769
0.00104264
0.00423933
0.000419824
0.00410471
0.000768714
0.00356175
0.000744938
0.0028275
0.000263087
0.00255803
-0.000670832
13.0097
13.0053
13.003
12.9982
12.989
12.9718
12.9406
12.8848
12.787
12.6177
12.3292
11.8468
11.0662
9.87557
8.24114
6.39604
2.22306
0.668148
0.333505
0.228921
0.139019
0.0684584
0.0266952
0.00755384
0.00144738
0.000791579
0.00124392
0.00123773
0.000677484
-0.000317807
12.6996
12.6927
12.6953
12.6904
12.6918
12.6853
12.6849
12.6759
12.6723
12.659
12.6498
12.6295
12.6106
12.5785
12.543
12.4913
12.4276
12.3438
12.2333
12.0977
11.9118
11.6946
11.3923
11.0534
10.5866
10.0825
9.42191
8.72767
7.89545
7.05449
6.25331
3.80951
2.41047
1.2347
0.78297
0.549243
0.400094
0.367793
0.27044
0.238445
0.163313
0.129956
0.0801411
0.0588823
0.0310592
0.0226754
0.00865464
0.009039
0.00163796
0.00603997
0.000989363
0.00568942
0.001564
0.00487741
0.00158449
0.00377608
0.00102809
0.003282
2.3888e-05
12.3236
12.3191
12.3133
12.3023
12.2835
12.2525
12.2018
12.1192
11.9852
11.7694
11.4273
10.8971
10.1081
9.00357
7.59599
6.06927
2.54095
0.923415
0.482257
0.319963
0.191219
0.0937454
0.0363791
0.0102465
0.00213787
0.00143792
0.0020969
0.00210853
0.00149366
0.000468946
11.9735
11.9687
11.9691
11.9638
11.9616
11.9532
11.9475
11.935
11.9241
11.9054
11.8865
11.8584
11.8266
11.7838
11.7315
11.6656
11.5809
11.4794
11.3448
11.1895
10.9804
10.7469
10.4336
10.0935
9.64818
9.17697
8.59256
7.98527
7.28914
6.58579
5.92019
3.92556
2.67984
1.52555
1.04538
0.730415
0.557527
0.477066
0.366566
0.304656
0.217872
0.165661
0.106636
0.0756466
0.0413158
0.0296638
0.0116169
0.0121461
0.00249664
0.00809782
0.00179017
0.00748662
0.00256371
0.00636917
0.00258302
0.00485992
0.00196007
0.00406639
0.000945251
11.58
11.5753
11.5651
11.5464
11.5165
11.4701
11.3993
11.2911
11.1263
10.8768
10.5046
9.96347
9.20905
8.21731
7.01679
5.7486
2.7702
1.17687
0.64407
0.417932
0.246503
0.120597
0.0468773
0.0133695
0.00312217
0.00234938
0.003189
0.00317437
0.00249574
0.00147914
11.2037
11.2011
11.1989
11.1931
11.1865
11.176
11.1642
11.1477
11.1287
11.1043
11.075
11.0391
10.9947
10.942
10.8749
10.7974
10.6965
10.5827
10.4329
10.2675
10.0499
9.81431
9.50871
9.18428
8.77632
8.3504
7.84321
7.32005
6.7387
6.15154
5.59828
3.9592
2.87106
1.78439
1.29922
0.919234
0.725738
0.592905
0.468168
0.37318
0.27469
0.202402
0.134244
0.0930024
0.0522047
0.0370368
0.0149497
0.015535
0.00361842
0.0103785
0.00281354
0.00945618
0.00374524
0.0079874
0.00371039
0.00603209
0.00299513
0.00489714
0.00198458
10.8034
10.7984
10.7832
10.7561
10.7142
10.6522
10.5623
10.4322
10.2442
9.97469
9.59374
9.06879
8.3743
7.5039
6.48871
5.43593
2.92993
1.41777
0.812011
0.519308
0.302876
0.148034
0.0578324
0.0168564
0.00441464
0.00353439
0.00451379
0.0044218
0.00364268
0.00263204
10.4108
10.4107
10.4057
10.3992
10.388
10.3751
10.3568
10.3363
10.3091
10.2789
10.2398
10.1967
10.141
10.08
10.001
9.91511
9.80335
9.68298
9.52652
9.35936
9.14467
8.91758
8.63169
8.33324
7.96993
7.59444
7.16078
6.71588
6.23249
5.74436
5.28629
3.93628
3.00061
2.00554
1.53466
1.10646
0.896495
0.710281
0.571067
0.441379
0.331494
0.238841
0.16192
0.110385
0.0633808
0.0446138
0.0186331
0.019181
0.00508202
0.0129047
0.00414809
0.0116326
0.00519763
0.00977306
0.0050619
0.00734557
0.00420883
0.00585977
0.00318426
10.02
10.0148
9.99431
9.95856
9.90468
9.8279
9.72106
9.57348
9.37038
9.09314
8.71978
8.22873
7.60681
6.85632
6.00536
5.13511
3.03757
1.63932
0.979212
0.620283
0.358316
0.175096
0.0688955
0.0206425
0.00603061
0.00500213
0.00606475
0.00583726
0.00489545
0.00385087
9.62218
9.62466
9.61678
9.60962
9.59377
9.57854
9.55382
9.52939
9.49422
9.45881
9.41047
9.36131
9.29596
9.2287
9.14087
9.04984
8.93199
8.80984
8.6533
8.4908
8.28657
8.07496
7.81528
7.5481
7.23133
6.90673
6.54077
6.16692
5.76765
5.36433
4.9879
3.8773
3.08413
2.18994
1.74636
1.28497
1.0626
0.824679
0.671267
0.506976
0.386181
0.273837
0.188684
0.127288
0.0744924
0.0521988
0.0226136
0.0230064
0.0069219
0.0156232
0.00582427
0.0139577
0.00693293
0.0116615
0.00663599
0.0087403
0.00556954
0.00692209
0.0044722
9.2532
9.24769
9.22211
9.178
9.11294
9.02287
8.90198
8.7417
8.5306
8.25525
7.90056
7.45324
6.90779
6.27005
5.56321
4.84874
3.10477
1.83528
1.13769
0.716208
0.41052
0.200775
0.0797483
0.0247223
0.00805813
0.00684809
0.00793535
0.00751622
0.00632443
0.00516703
8.86653
8.87165
8.86089
8.8532
8.83277
8.81541
8.78453
8.75661
8.71403
8.67412
8.61763
8.56359
8.49029
8.41867
8.32457
8.23122
8.11082
7.99056
7.83819
7.68454
7.49482
7.30246
7.07118
6.83693
6.56489
6.28877
5.98336
5.67268
5.34544
5.01472
4.70882
3.79709
3.13499
2.33923
1.93152
1.44798
1.21718
0.931323
0.764644
0.567567
0.436758
0.306204
0.21368
0.143172
0.0852626
0.0595775
0.0268643
0.0269313
0.0091677
0.0184888
0.00785489
0.0163836
0.00894323
0.0135989
0.00841121
0.0101671
0.00701723
0.0080694
0.00574178
8.53164
8.526
8.49569
8.44396
8.36896
8.26757
8.13557
7.96672
7.753
7.48578
7.15561
6.75519
6.28363
5.74761
5.16514
4.58312
3.14227
2.00218
1.28045
0.802815
0.457459
0.224207
0.0901239
0.0290907
0.0105551
0.00911348
0.0101413
0.00945182
0.00787788
0.00648128
8.16827
8.17602
8.16254
8.15452
8.12982
8.11078
8.07429
8.04352
7.99437
7.95094
7.88749
7.82994
7.75029
7.67611
7.57775
7.4843
7.36365
7.24774
7.10169
6.95912
6.78511
6.61315
6.40934
6.2069
5.97533
5.74311
5.49005
5.23423
4.96759
4.69822
4.45294
3.70451
3.15972
2.4533
2.0849
1.58777
1.35194
1.02457
0.846288
0.620345
0.480997
0.3346
0.236048
0.157433
0.0955016
0.0665231
0.0314701
0.0308946
0.011966
0.021498
0.0103749
0.0189268
0.0113467
0.0156182
0.0104872
0.0116854
0.00860182
0.00940599
0.00699493
7.88453
7.87895
7.84458
7.78642
7.70322
7.5928
7.45256
7.2785
7.06572
6.80965
6.50531
6.14961
5.74435
5.29563
4.8168
4.34542
3.15702
2.13555
1.39993
0.875645
0.497176
0.244665
0.0998883
0.0338402
0.0136417
0.0118789
0.0127209
0.0116392
0.00948228
0.00766017
7.55658
7.56702
7.55107
7.54305
7.51465
7.4945
7.45324
7.42054
7.3659
7.32013
7.25101
7.19138
7.10682
7.03168
6.93046
6.8385
6.71868
6.60838
6.46894
6.33789
6.17839
6.0257
5.84589
5.67184
5.4744
5.27956
5.06951
4.85891
4.64211
4.42111
4.2278
3.60849
3.16254
2.53343
2.20028
1.69851
1.4584
1.0998
0.911476
0.662991
0.516994
0.357843
0.255194
0.169462
0.105179
0.0727532
0.0365785
0.0347689
0.0154617
0.0245724
0.013476
0.0215173
0.014183
0.0176584
0.0128448
0.0132645
0.0102229
0.0109466
0.00806595
7.33521
7.33008
7.29278
7.23001
7.14104
7.02455
6.8793
6.70314
6.49368
6.24952
5.96894
5.65168
5.30115
4.92234
4.52493
4.14249
3.14859
2.2257
1.4863
0.929668
0.527867
0.261798
0.109252
0.0392999
0.017591
0.0153423
0.015818
0.0141629
0.0111266
0.00861732
7.0611
7.07288
7.05536
7.04721
7.01647
6.99554
6.95124
6.91728
6.85916
6.81201
6.73937
6.67879
6.59136
6.51639
6.41389
6.32423
6.20595
6.10133
5.96773
5.84698
5.69913
5.56263
5.40137
5.2501
5.07847
4.91321
4.73552
4.5579
4.3751
4.19475
4.03738
3.51878
3.14183
2.57765
2.27094
1.77258
1.52966
1.1515
0.95713
0.692685
0.544038
0.374402
0.271254
0.178487
0.114586
0.077973
0.0423865
0.0384885
0.0197341
0.0277039
0.0171716
0.0241387
0.017427
0.0197019
0.0153995
0.0149157
0.0116867
0.0127639
0.00867409
6.91302
6.90761
6.86893
6.80411
6.71275
6.5941
6.44783
6.27298
6.06882
5.83588
5.57439
5.28576
4.97412
4.64378
4.29984
3.9691
3.10835
2.26174
1.53259
0.96286
0.549849
0.276512
0.118988
0.0459092
0.0225873
0.0195595
0.0194179
0.0169212
0.0125782
0.0090243
6.73812
6.74784
6.73143
6.72172
6.69187
6.66914
6.62569
6.58979
6.53264
6.48357
6.41233
6.35003
6.26477
6.18872
6.08963
6.00003
5.887
5.78414
5.65824
5.54179
5.40452
5.27552
5.12812
4.98799
4.8334
4.6829
4.52416
4.36681
4.20564
4.03917
3.89884
3.44136
3.09079
2.58625
2.27193
1.804
1.54671
1.17431
0.972001
0.705651
0.554658
0.381939
0.278984
0.183189
0.120568
0.0815484
0.0473578
0.0418626
0.0241038
0.0309907
0.0209892
0.0270633
0.0205953
0.0220214
0.0177593
0.0168052
0.0139964
0.0138297
0.0108816
6.35198
6.34469
6.30771
6.24589
6.15909
6.04708
5.91
5.7477
5.56036
5.34918
5.11528
4.86064
4.58895
4.30406
4.01041
3.7254
2.97815
2.21763
1.53269
0.978038
0.567244
0.291697
0.131081
0.0554305
0.0302725
0.0257757
0.0242263
0.0205364
0.0161139
0.0132
6.01528
6.02271
6.0083
5.99853
5.97183
5.95006
5.91105
5.87725
5.82613
5.7804
5.71709
5.65968
5.58454
5.51534
5.42894
5.34844
5.25107
5.15994
5.05275
4.95119
4.83565
4.72483
4.60201
4.48335
4.3554
4.22973
4.09896
3.96818
3.83576
3.70265
3.58087
3.20821
2.90662
2.47989
2.19967
1.77765
1.5368
1.17969
0.985428
0.719205
0.573048
0.396461
0.296144
0.196837
0.135083
0.0940506
0.0596224
0.0533452
0.0347091
0.0412857
0.0300191
0.0357699
0.0277843
0.0289732
0.0232695
0.0220919
0.0183061
0.0181505
0.0154924
5.63339
5.62719
5.59378
5.5381
5.46034
5.36061
5.2395
5.09744
4.93513
4.75416
4.55596
4.34243
4.11671
3.88154
3.64052
3.40456
2.78209
2.12744
1.50912
0.984991
0.584338
0.310122
0.147627
0.0694509
0.0420083
0.0354406
0.0318751
0.0264341
0.0212256
0.0185551
5.29805
5.3053
5.29226
5.28414
5.26041
5.24177
5.20746
5.17833
5.13377
5.09436
5.03965
4.9903
4.92595
4.8667
4.79339
4.72483
4.64294
4.5658
4.47638
4.39095
4.29525
4.20261
4.10139
4.00277
3.89762
3.79369
3.68639
3.57869
3.46993
3.35989
3.25806
2.95161
2.69458
2.33904
2.08952
1.72315
1.50078
1.17243
0.988774
0.731204
0.591247
0.414112
0.317138
0.214386
0.154129
0.109439
0.0755029
0.06631
0.0476488
0.0520613
0.0404702
0.0445117
0.0360195
0.0358426
0.0296316
0.0273863
0.0236668
0.0222074
0.0208152
4.96266
4.9576
4.9285
4.88012
4.81278
4.7268
4.62295
4.50185
4.36436
4.21209
4.04637
3.86883
3.68202
3.48801
3.28906
3.09278
2.57238
2.01253
1.46472
0.981427
0.598958
0.330137
0.166992
0.0859742
0.0554383
0.0461429
0.0402116
0.0327455
0.0261784
0.0232308
4.64269
4.64949
4.63808
4.63151
4.61104
4.59551
4.56616
4.54174
4.50384
4.47075
4.42448
4.38309
4.32898
4.27937
4.21806
4.1608
4.09264
4.02843
3.95433
3.88343
3.8044
3.72774
3.64435
3.56294
3.47636
3.3907
3.3022
3.21345
3.12347
3.03298
2.94728
2.69544
2.47606
2.18021
1.96117
1.64563
1.44526
1.14813
0.979431
0.734636
0.604286
0.428956
0.337647
0.231972
0.174583
0.125766
0.0929523
0.0800637
0.0616147
0.0631732
0.0514011
0.0532742
0.0444494
0.0426356
0.0360198
0.0327126
0.0287165
0.0265836
0.0255479
4.34923
4.34512
4.32043
4.27943
4.22248
4.14997
4.06267
3.96123
3.84649
3.71986
3.58249
3.43571
3.28153
3.12149
2.95733
2.79424
2.35901
1.88209
1.40234
0.964881
0.607175
0.348394
0.186893
0.103626
0.0697192
0.0572524
0.0487155
0.0392097
0.0312539
0.0279085
4.05129
4.05737
4.04763
4.04237
4.02511
4.01237
3.98774
3.96759
3.93592
3.90857
3.87005
3.83582
3.79092
3.74992
3.69919
3.65192
3.59567
3.54273
3.48169
3.4233
3.35828
3.29522
3.22663
3.15971
3.08847
3.01804
2.94512
2.87212
2.79781
2.72318
2.65147
2.44395
2.25799
2.01189
1.82141
1.55229
1.37368
1.11014
0.956932
0.729989
0.610073
0.440589
0.355742
0.24915
0.195288
0.142728
0.111512
0.0944392
0.076514
0.0745417
0.0628052
0.0620197
0.0530568
0.0493166
0.0425197
0.0379285
0.03383
0.0309606
0.0302479
3.79418
3.79091
3.77032
3.73618
3.68882
3.6286
3.55623
3.4723
3.37754
3.27313
3.16003
3.03927
2.91245
2.78074
2.64539
2.51005
2.14696
1.74293
1.32717
0.937339
0.608917
0.364257
0.206816
0.12215
0.0847579
0.0687039
0.0572666
0.0456472
0.0363229
0.0325461
3.521
3.52631
3.51814
3.51398
3.49961
3.48929
3.46889
3.45246
3.42631
3.40397
3.37222
3.34423
3.3073
3.27376
3.23209
3.19343
3.14727
3.10398
3.05393
3.00618
2.95288
2.9013
2.84504
2.79028
2.73178
2.6741
2.61409
2.55421
2.4929
2.43159
2.37173
2.20111
2.04426
1.84018
1.67615
1.44847
1.29122
1.06107
0.923719
0.717668
0.608766
0.448507
0.370701
0.26533
0.215481
0.159911
0.130651
0.109216
0.0920378
0.0860701
0.0744899
0.0707137
0.0616769
0.055893
0.0489732
0.0430581
0.0389253
0.0353072
0.0349111
3.29537
3.2928
3.27587
3.24781
3.2089
3.15947
3.10011
3.03134
2.95373
2.86827
2.77571
2.67686
2.57299
2.46497
2.35377
2.24183
1.94014
1.60005
1.24334
0.900822
0.604386
0.377132
0.226088
0.14107
0.100286
0.0803586
0.0657835
0.0519891
0.0413316
0.0371226
3.04657
3.05116
3.04437
3.04112
3.02929
3.02102
3.00429
2.99104
2.96964
2.95158
2.92564
2.90298
2.87284
2.84565
2.81167
2.78032
2.74268
2.70756
2.66674
2.62797
2.58449
2.54257
2.49662
2.45208
2.40423
2.35724
2.30807
2.2592
2.20884
2.15868
2.10898
1.96934
1.83793
1.66963
1.52977
1.33887
1.20212
1.00401
0.88245
0.698919
0.601264
0.452844
0.382412
0.28025
0.234751
0.177028
0.150006
0.12419
0.107952
0.0976354
0.0863177
0.0792746
0.0702126
0.062301
0.055285
0.0480536
0.0439145
0.0395628
0.039473
2.84891
2.84694
2.83317
2.81035
2.77872
2.73855
2.69032
2.63445
2.57139
2.50196
2.42671
2.34629
2.26169
2.17358
2.08268
1.99058
1.7414
1.45737
1.15454
0.857682
0.594423
0.386908
0.24426
0.159946
0.115996
0.0920337
0.0741614
0.0581685
0.0462311
0.0416071
2.62288
2.62683
2.62123
2.61874
2.60907
2.60254
2.58893
2.57838
2.56101
2.54658
2.52554
2.50741
2.48299
2.46118
2.43367
2.40849
2.37801
2.34978
2.31672
2.28551
2.25026
2.21648
2.17919
2.14325
2.10435
2.06636
2.02632
1.98673
1.94562
1.90489
1.86391
1.75045
1.64126
1.5036
1.38565
1.22723
1.10989
0.941719
0.835683
0.675016
0.588736
0.453804
0.391012
0.293631
0.252767
0.193711
0.169163
0.139082
0.123936
0.109072
0.0980911
0.0876163
0.0785568
0.0684936
0.061393
0.0528919
0.0487567
0.0437072
0.0439091
2.45017
2.4487
2.43763
2.41928
2.39385
2.36154
2.32275
2.2778
2.22705
2.17113
2.11049
2.0456
1.97724
1.90593
1.83221
1.75703
1.55296
1.31809
1.06406
0.810409
0.580329
0.393919
0.261155
0.178451
0.1316
0.103531
0.0822725
0.0640925
0.0509394
0.0459269
2.24527
2.24867
2.24408
2.24223
2.2344
2.22933
2.21835
2.21008
2.1961
2.18473
2.16783
2.1535
2.1339
2.11663
2.09455
2.07458
2.05011
2.02768
2.00113
1.9763
1.94797
1.92105
1.89104
1.86235
1.83101
1.80062
1.7683
1.73657
1.70331
1.67058
1.63709
1.5459
1.45607
1.34475
1.24648
1.11667
1.01741
0.876774
0.785721
0.647429
0.572425
0.451841
0.396785
0.305346
0.269272
0.209643
0.187704
0.153607
0.13963
0.120204
0.109577
0.0956488
0.0865801
0.0744278
0.0672251
0.0575536
0.053403
0.0477275
0.0481832
2.09541
2.09438
2.08559
2.07102
2.05082
2.02515
1.99433
1.95859
1.91821
1.87368
1.82534
1.77355
1.71892
1.66183
1.60268
1.54193
1.37667
1.18483
0.974632
0.761175
0.563326
0.398504
0.276565
0.196186
0.146735
0.114613
0.089989
0.069695
0.0554153
0.0500513
1.90964
1.9126
1.90884
1.90755
1.90125
1.89743
1.88865
1.88231
1.87118
1.8624
1.84897
1.83786
1.8223
1.80886
1.79135
1.77578
1.75637
1.73885
1.71778
1.69833
1.67585
1.65472
1.63087
1.60832
1.58338
1.55943
1.53367
1.50861
1.48204
1.45614
1.4291
1.35691
1.28397
1.19534
1.11467
1.00997
0.927403
0.811688
0.734908
0.617819
0.553848
0.447688
0.400349
0.315483
0.284246
0.224628
0.205319
0.167536
0.154698
0.130864
0.120533
0.103273
0.0941346
0.0800375
0.0726849
0.0619826
0.0577742
0.0515697
0.0522219
1.78172
1.78107
1.7742
1.7628
1.747
1.72692
1.70279
1.67479
1.64313
1.60819
1.57022
1.52947
1.48643
1.44137
1.39458
1.34614
1.21419
1.05985
0.888666
0.711984
0.54464
0.401067
0.290321
0.212739
0.16101
0.12502
0.0971757
0.0749108
0.0596212
0.0539514
1.61328
1.61593
1.61284
1.61205
1.607
1.60425
1.59731
1.59261
1.58385
1.57728
1.56674
1.55836
1.54618
1.536
1.5223
1.51046
1.49529
1.48192
1.46546
1.45058
1.433
1.41679
1.39814
1.38079
1.36127
1.34279
1.32259
1.3032
1.28233
1.26223
1.24074
1.18477
1.12648
1.05737
0.992302
0.90947
0.842115
0.748588
0.685227
0.587602
0.534301
0.441922
0.4022
0.324007
0.297571
0.238361
0.22161
0.180556
0.168741
0.140849
0.130694
0.110385
0.101089
0.0852736
0.0777153
0.0661536
0.0618422
0.0552164
0.056005
1.50717
1.50685
1.50159
1.49285
1.48074
1.46533
1.4468
1.4253
1.40095
1.37405
1.34478
1.31331
1.28003
1.24512
1.20878
1.17078
1.06729
0.945366
0.808495
0.664852
0.525612
0.402161
0.302358
0.227741
0.174033
0.134476
0.103674
0.0796437
0.0634819
0.057556
1.35485
1.35728
1.35473
1.35437
1.35035
1.34853
1.34309
1.33979
1.33299
1.32828
1.32014
1.31408
1.3047
1.29726
1.28674
1.27804
1.2664
1.25654
1.24393
1.23289
1.21943
1.20736
1.19306
1.18011
1.16513
1.15127
1.13578
1.12118
1.10513
1.08994
1.07317
1.03096
0.985251
0.932785
0.881358
0.817336
0.76361
0.689427
0.638423
0.558122
0.514887
0.435135
0.40268
0.330922
0.309
0.250568
0.236066
0.192376
0.181282
0.149966
0.139752
0.116892
0.107285
0.090099
0.0822424
0.07005
0.0655647
0.0586604
0.0594963
1.27146
1.27145
1.26751
1.26097
1.2519
1.24035
1.22646
1.21032
1.19202
1.17178
1.14972
1.12596
1.10078
1.07432
1.04672
1.01745
0.937885
0.843508
0.736173
0.621435
0.507221
0.402021
0.312347
0.240636
0.185308
0.142675
0.109336
0.0838298
0.0669654
0.0608372
1.13437
1.13674
1.13458
1.13465
1.13142
1.13042
1.12615
1.12408
1.11883
1.11572
1.1095
1.1054
1.09829
1.09317
1.08523
1.07917
1.07041
1.06349
1.05402
1.0462
1.03611
1.02752
1.0168
1.00753
0.996302
0.986314
0.974681
0.964108
0.952013
0.940996
0.928131
0.897477
0.862281
0.823813
0.784044
0.735833
0.694051
0.636181
0.596306
0.530762
0.496757
0.427998
0.402163
0.336329
0.31828
0.261063
0.24815
0.202764
0.191817
0.158049
0.147374
0.122696
0.112546
0.0944522
0.0861678
0.0736156
0.0688678
0.0618524
0.0626185
1.07569
1.07603
1.07316
1.06838
1.06176
1.05331
1.04314
1.03132
1.01788
1.003
0.986749
0.969198
0.950571
0.930951
0.910378
0.888111
0.828086
0.756368
0.673586
0.583139
0.490175
0.400622
0.319747
0.250723
0.194269
0.149282
0.114008
0.0874079
0.0700429
0.0637638
0.953856
0.956106
0.954254
0.954633
0.952037
0.951684
0.948382
0.947265
0.943275
0.941434
0.93676
0.934218
0.928931
0.925641
0.919781
0.915821
0.90937
0.904792
0.897844
0.892588
0.885207
0.879375
0.871524
0.865193
0.85698
0.850084
0.841617
0.834259
0.825471
0.817597
0.808012
0.78648
0.76007
0.732656
0.702643
0.666957
0.635346
0.590487
0.560115
0.506615
0.480289
0.421025
0.40022
0.340284
0.324522
0.269656
0.256962
0.21148
0.199725
0.164914
0.15326
0.127693
0.116771
0.098275
0.0894819
0.0768109
0.0717506
0.0647827
0.0653496
0.923678
0.924162
0.922125
0.918674
0.913889
0.90777
0.900403
0.891825
0.882044
0.871202
0.859339
0.846472
0.832786
0.818309
0.803168
0.786469
0.741217
0.6869
0.623077
0.55139
0.474817
0.397359
0.323448
0.256908
0.200161
0.153908
0.11753
0.0903172
0.0726646
0.0662582
0.816027
0.819177
0.81719
0.818348
0.815765
0.81639
0.813283
0.813381
0.809815
0.809406
0.805383
0.804481
0.800062
0.798595
0.793824
0.791855
0.786694
0.784265
0.778791
0.775811
0.770084
0.766639
0.760596
0.756747
0.750475
0.746117
0.739712
0.734936
0.728116
0.723291
0.715784
0.701567
0.680918
0.662141
0.639407
0.613074
0.589198
0.554013
0.530873
0.486582
0.465801
0.41436
0.39661
0.342398
0.327168
0.275785
0.261838
0.218109
0.204371
0.170411
0.156886
0.131905
0.119601
0.101629
0.0919475
0.0797038
0.0739871
0.0675657
0.0674292
0.819435
0.820864
0.819245
0.816652
0.813046
0.808432
0.802891
0.796412
0.789001
0.780793
0.771773
0.761943
0.751474
0.740348
0.72865
0.714942
0.67955
0.636808
0.585431
0.526028
0.460293
0.391159
0.322596
0.258725
0.202793
0.156458
0.119827
0.0924711
0.074644
0.0680167
0.735691
0.737565
0.736267
0.736978
0.735196
0.735476
0.733352
0.733232
0.730749
0.730271
0.727442
0.726589
0.723471
0.722193
0.718783
0.717149
0.713431
0.711442
0.707483
0.70508
0.700894
0.698155
0.693707
0.690654
0.686015
0.682574
0.677753
0.674059
0.669009
0.664571
0.659272
0.647552
0.632456
0.616973
0.598872
0.577861
0.557246
0.529815
0.507222
0.473306
0.449569
0.410455
0.386485
0.344976
0.321695
0.281445
0.259676
0.224021
0.204354
0.175135
0.157989
0.135336
0.121101
0.104236
0.0934371
0.0819571
0.0755378
0.0695446
0.068881
0.633311
0.633111
0.632224
0.630751
0.628716
0.626108
0.622944
0.619253
0.615032
0.610308
0.605113
0.599452
0.593361
0.586872
0.579982
0.572511
0.551648
0.524865
0.491451
0.451214
0.40478
0.353833
0.301038
0.249531
0.202178
0.160966
0.126928
0.100708
0.0833719
0.0769228
0.484835
0.484907
0.484756
0.484669
0.484385
0.484171
0.483767
0.483419
0.482884
0.482416
0.481757
0.481165
0.48039
0.479667
0.478767
0.477926
0.476907
0.475946
0.474815
0.473727
0.472479
0.471277
0.469915
0.4686
0.467133
0.465696
0.46412
0.462576
0.460906
0.459251
0.457593
0.452711
0.447296
0.440866
0.433717
0.425078
0.415836
0.404416
0.39279
0.378091
0.363978
0.345785
0.329396
0.308044
0.290012
0.266552
0.247901
0.224019
0.205953
0.183508
0.167153
0.147638
0.133879
0.118218
0.107803
0.0966212
0.0904272
0.0846233
0.0838996
0.437736
0.437636
0.437285
0.436697
0.435879
0.434829
0.433551
0.432053
0.430333
0.4284
0.42626
0.423915
0.421375
0.418647
0.415737
0.412603
0.403497
0.391473
0.37586
0.356067
0.331733
0.302946
0.270437
0.235621
0.200458
0.16711
0.137624
0.113851
0.0977189
0.0916289
0.362543
0.36257
0.362498
0.362438
0.3623
0.362177
0.361976
0.361786
0.361519
0.361267
0.360935
0.36062
0.360227
0.359845
0.359389
0.358946
0.358427
0.357922
0.357344
0.356776
0.356138
0.35551
0.354812
0.354127
0.353373
0.352627
0.351817
0.351015
0.350147
0.349295
0.348368
0.345878
0.343033
0.339713
0.335921
0.33145
0.326459
0.32052
0.314078
0.306327
0.298222
0.288355
0.278487
0.266354
0.254838
0.240575
0.227822
0.212004
0.198724
0.182373
0.169499
0.153916
0.142468
0.128984
0.119999
0.109855
0.104485
0.098944
0.0985497
0.332528
0.33249
0.332319
0.332034
0.331639
0.33113
0.33051
0.329782
0.328945
0.328001
0.326954
0.325802
0.324551
0.323203
0.321757
0.320177
0.315601
0.309463
0.30133
0.290732
0.277222
0.260484
0.240496
0.217674
0.192982
0.167907
0.144322
0.124342
0.110311
0.104892
0.289289
0.289302
0.289262
0.28923
0.289155
0.289088
0.288978
0.288874
0.288727
0.28859
0.288407
0.288234
0.288019
0.287809
0.287557
0.287314
0.287028
0.286751
0.286432
0.286119
0.285766
0.28542
0.285033
0.284655
0.284237
0.283824
0.283373
0.282929
0.282447
0.281971
0.28146
0.280072
0.278477
0.276622
0.274472
0.271957
0.269092
0.265715
0.261957
0.257483
0.252652
0.246838
0.240788
0.233429
0.226108
0.217111
0.208635
0.198135
0.188847
0.177305
0.167808
0.156054
0.147186
0.136348
0.129135
0.120525
0.116174
0.111234
0.111111
0.269916
0.269893
0.2698
0.269646
0.269431
0.269155
0.268819
0.268423
0.267966
0.267451
0.266879
0.266249
0.265562
0.264821
0.264024
0.263157
0.26061
0.257167
0.252547
0.246428
0.23846
0.228315
0.215776
0.200851
0.183913
0.165813
0.147919
0.132081
0.120586
0.116051
0.243183
0.24319
0.243167
0.243148
0.243104
0.243064
0.243
0.242938
0.242853
0.242771
0.242665
0.242562
0.242436
0.242312
0.242165
0.242021
0.241853
0.24169
0.241502
0.241317
0.24111
0.240905
0.240678
0.240454
0.240208
0.239964
0.239698
0.239435
0.23915
0.238868
0.238559
0.23774
0.236789
0.235686
0.234396
0.232893
0.231159
0.229129
0.226825
0.224112
0.221103
0.217531
0.213685
0.209081
0.204308
0.198538
0.19284
0.185883
0.179415
0.171449
0.16458
0.156073
0.149421
0.141177
0.13561
0.128742
0.125362
0.121235
0.121281
0.230397
0.230384
0.23033
0.230239
0.230114
0.229952
0.229754
0.229522
0.229254
0.228952
0.228615
0.228244
0.227839
0.227402
0.226931
0.226415
0.224903
0.222846
0.220065
0.216343
0.211429
0.205059
0.197006
0.187151
0.175596
0.162792
0.149646
0.137595
0.128597
0.12498
0.213118
0.213122
0.213108
0.213096
0.213069
0.213045
0.213005
0.212967
0.212914
0.212864
0.212798
0.212735
0.212657
0.212581
0.21249
0.212401
0.212298
0.212197
0.212081
0.211967
0.211838
0.211712
0.211571
0.211433
0.21128
0.211129
0.210964
0.210801
0.210625
0.21045
0.210258
0.20975
0.209158
0.208471
0.207664
0.206727
0.205635
0.204362
0.202902
0.20119
0.199262
0.196988
0.19449
0.191524
0.188371
0.184592
0.180747
0.176092
0.171616
0.166139
0.161253
0.15521
0.150345
0.144271
0.140108
0.134859
0.132318
0.129041
0.129165
0.204559
0.204551
0.204517
0.204462
0.204384
0.204284
0.204162
0.204019
0.203853
0.203666
0.203458
0.203228
0.202977
0.202706
0.202413
0.202093
0.201151
0.199865
0.198118
0.195764
0.19263
0.18852
0.183246
0.17667
0.168785
0.159818
0.150355
0.141444
0.134639
0.13186
0.193085
0.193087
0.193078
0.193071
0.193053
0.193038
0.193013
0.192988
0.192955
0.192922
0.192881
0.19284
0.192791
0.192742
0.192684
0.192627
0.192561
0.192496
0.192422
0.192349
0.192267
0.192186
0.192096
0.192008
0.19191
0.191813
0.191708
0.191604
0.19149
0.191378
0.191255
0.190929
0.190549
0.190108
0.189588
0.188984
0.188278
0.187457
0.186506
0.185396
0.184133
0.18265
0.180999
0.179049
0.176939
0.174427
0.171816
0.168677
0.165583
0.161821
0.158376
0.154129
0.150629
0.146247
0.143202
0.139308
0.137443
0.134938
0.135084
0.187307
0.187302
0.187281
0.187245
0.187196
0.187132
0.187054
0.186962
0.186856
0.186736
0.186603
0.186455
0.186294
0.18612
0.185933
0.185727
0.18512
0.184291
0.183161
0.181631
0.179583
0.176876
0.173367
0.168937
0.163541
0.157293
0.150566
0.144103
0.139083
0.137008
0.179569
0.179571
0.179565
0.17956
0.179549
0.179539
0.179522
0.179506
0.179484
0.179463
0.179436
0.17941
0.179377
0.179345
0.179307
0.17927
0.179227
0.179184
0.179136
0.179088
0.179034
0.178981
0.178922
0.178864
0.1788
0.178737
0.178668
0.178599
0.178525
0.178451
0.17837
0.178157
0.177906
0.177617
0.177274
0.176877
0.17641
0.175869
0.175239
0.174505
0.173663
0.172679
0.171572
0.17027
0.168844
0.167154
0.165371
0.163239
0.1611
0.158511
0.156095
0.153126
0.150636
0.147515
0.145322
0.14249
0.141145
0.139281
0.139418
0.175659
0.175656
0.175642
0.175619
0.175586
0.175544
0.175493
0.175433
0.175363
0.175284
0.175197
0.1751
0.174994
0.17488
0.174756
0.174621
0.174221
0.173674
0.172927
0.171912
0.170548
0.168737
0.166373
0.163362
0.159655
0.155307
0.150559
0.14593
0.142288
0.140769
0.170401
0.170402
0.170398
0.170395
0.170387
0.17038
0.170369
0.170359
0.170344
0.17033
0.170312
0.170294
0.170272
0.170251
0.170226
0.170201
0.170172
0.170144
0.170111
0.170079
0.170044
0.170008
0.169969
0.16993
0.169887
0.169845
0.169799
0.169753
0.169703
0.169654
0.1696
0.169457
0.16929
0.169096
0.168866
0.168601
0.168287
0.167924
0.1675
0.167007
0.166439
0.165776
0.165025
0.164144
0.163171
0.162023
0.160798
0.159339
0.157857
0.156069
0.154378
0.152304
0.150543
0.148334
0.14677
0.144735
0.143775
0.142412
0.142529
0.16776
0.167758
0.167748
0.167733
0.167711
0.167683
0.167649
0.167608
0.167562
0.167509
0.16745
0.167385
0.167314
0.167238
0.167155
0.167064
0.166796
0.166428
0.165925
0.165241
0.164319
0.163089
0.161478
0.159413
0.156851
0.153819
0.150474
0.147179
0.144562
0.143462
0.164182
0.164183
0.16418
0.164178
0.164173
0.164168
0.164161
0.164154
0.164144
0.164134
0.164122
0.16411
0.164095
0.164081
0.164063
0.164047
0.164027
0.164008
0.163986
0.163964
0.16394
0.163916
0.163889
0.163863
0.163834
0.163805
0.163773
0.163742
0.163709
0.163675
0.163638
0.163541
0.163427
0.163296
0.163139
0.162959
0.162745
0.162498
0.162208
0.161872
0.161483
0.161029
0.160514
0.159911
0.15924
0.15845
0.157602
0.156593
0.15556
0.154317
0.153129
0.151677
0.150431
0.148868
0.147754
0.146299
0.145615
0.144628
0.144721
0.16241
0.162409
0.162402
0.162391
0.162377
0.162357
0.162334
0.162306
0.162275
0.162239
0.162198
0.162154
0.162106
0.162053
0.161997
0.161935
0.161751
0.161499
0.161155
0.160686
0.160052
0.159205
0.158092
0.156658
0.154871
0.152742
0.150376
0.148027
0.146149
0.145356
0.159989
0.15999
0.159988
0.159986
0.159983
0.159979
0.159974
0.159969
0.159962
0.159956
0.159947
0.159939
0.159929
0.159919
0.159907
0.159895
0.159882
0.159868
0.159853
0.159838
0.159821
0.159805
0.159786
0.159768
0.159748
0.159728
0.159706
0.159684
0.159661
0.159638
0.159612
0.159545
0.159466
0.159375
0.159266
0.159141
0.158992
0.158821
0.158619
0.158386
0.158115
0.157799
0.157439
0.157019
0.156549
0.155997
0.155401
0.154694
0.153965
0.15309
0.152248
0.151219
0.15033
0.149217
0.148418
0.147373
0.146882
0.146168
0.146237
0.158811
0.15881
0.158806
0.158798
0.158788
0.158774
0.158758
0.158739
0.158716
0.158691
0.158663
0.158632
0.158598
0.158562
0.158522
0.158479
0.158351
0.158175
0.157933
0.157605
0.15716
0.156565
0.155781
0.154768
0.153501
0.151984
0.15029
0.148598
0.147239
0.146663
0.157195
0.157195
0.157194
0.157193
0.15719
0.157188
0.157184
0.157181
0.157176
0.157171
0.157165
0.157159
0.157152
0.157145
0.157136
0.157128
0.157118
0.157109
0.157098
0.157087
0.157075
0.157063
0.15705
0.157037
0.157023
0.157009
0.156993
0.156978
0.156961
0.156945
0.156926
0.156879
0.156822
0.156757
0.15668
0.156591
0.156485
0.156362
0.156219
0.156052
0.155858
0.155633
0.155376
0.155075
0.154738
0.154343
0.153914
0.153407
0.152881
0.152251
0.151641
0.150898
0.150251
0.149444
0.148859
0.148099
0.147737
0.147216
0.147265
0.156415
0.156414
0.156411
0.156406
0.156398
0.156389
0.156377
0.156363
0.156347
0.156329
0.156309
0.156286
0.156262
0.156236
0.156207
0.156176
0.156084
0.155957
0.155783
0.155546
0.155225
0.154795
0.154227
0.153493
0.152571
0.151464
0.150222
0.148978
0.147974
0.147548
0.155364
0.155364
0.155363
0.155362
0.15536
0.155359
0.155356
0.155353
0.15535
0.155346
0.155342
0.155337
0.155332
0.155327
0.15532
0.155314
0.155307
0.1553
0.155292
0.155284
0.155275
0.155266
0.155257
0.155247
0.155237
0.155226
0.155215
0.155203
0.155191
0.155179
0.155165
0.15513
0.155088
0.15504
0.154983
0.154917
0.154839
0.154748
0.154641
0.154518
0.154375
0.154207
0.154017
0.153793
0.153543
0.153249
0.152931
0.152553
0.152161
0.151691
0.151234
0.15068
0.150193
0.14959
0.149147
0.148579
0.1483
0.147915
0.147943
0.154829
0.154829
0.154826
0.154822
0.154817
0.15481
0.154801
0.15479
0.154779
0.154765
0.15475
0.154733
0.154715
0.154695
0.154674
0.154651
0.154582
0.154487
0.154357
0.15418
0.15394
0.153618
0.153192
0.15264
0.151946
0.151111
0.150172
0.149227
0.148463
0.148138
0.154175
0.154175
0.154174
0.154174
0.154172
0.154171
0.154169
0.154167
0.154164
0.154161
0.154158
0.154154
0.15415
0.154146
0.154141
0.154136
0.154131
0.154126
0.154119
0.154113
0.154106
0.1541
0.154092
0.154085
0.154076
0.154068
0.154059
0.154051
0.154041
0.154032
0.154021
0.153994
0.153962
0.153924
0.15388
0.153828
0.153768
0.153697
0.153616
0.153519
0.153409
0.153278
0.153131
0.152957
0.152764
0.152535
0.152287
0.151993
0.151688
0.151323
0.150965
0.150535
0.150151
0.149685
0.14933
0.148895
0.148665
0.148376
0.148383
0.153744
0.153744
0.153742
0.153739
0.153735
0.153729
0.153722
0.153714
0.153705
0.153695
0.153683
0.15367
0.153656
0.153641
0.153624
0.153607
0.153553
0.15348
0.15338
0.153243
0.153058
0.152809
0.152479
0.152052
0.151514
0.150865
0.150134
0.149396
0.148796
0.148542
0.153361
0.153361
0.153361
0.15336
0.153359
0.153358
0.153356
0.153355
0.153352
0.15335
0.153347
0.153345
0.153341
0.153338
0.153334
0.15333
0.153326
0.153322
0.153317
0.153312
0.153306
0.153301
0.153295
0.153289
0.153282
0.153276
0.153269
0.153261
0.153254
0.153246
0.153238
0.153216
0.15319
0.15316
0.153125
0.153083
0.153035
0.152977
0.152912
0.152834
0.152746
0.15264
0.152523
0.152382
0.152228
0.152043
0.151845
0.151607
0.151361
0.151068
0.150778
0.150434
0.150119
0.14975
0.149454
0.149114
0.148912
0.148697
0.148681
0.152868
0.152868
0.152866
0.152864
0.152861
0.152856
0.152851
0.152845
0.152838
0.15283
0.152821
0.152811
0.152801
0.152789
0.152776
0.152763
0.152723
0.152667
0.15259
0.152486
0.152344
0.152154
0.151902
0.151575
0.151162
0.150663
0.150099
0.149529
0.149063
0.148868
0.152575
0.152575
0.152575
0.152575
0.152574
0.152573
0.152572
0.15257
0.152569
0.152567
0.152565
0.152563
0.15256
0.152558
0.152555
0.152552
0.152548
0.152545
0.152541
0.152537
0.152533
0.152529
0.152524
0.15252
0.152515
0.15251
0.152504
0.152499
0.152493
0.152487
0.152481
0.152464
0.152445
0.152421
0.152394
0.152362
0.152326
0.152282
0.152232
0.152172
0.152105
0.152024
0.151934
0.151826
0.151708
0.151566
0.151414
0.151233
0.151043
0.15082
0.150596
0.150334
0.150091
0.149809
0.14958
0.149322
0.149168
0.148998
0.148992
SCALARS Stress_Shear double 1
LOOKUP_TABLE default
0.00171592
0.000224723
-0.00105544
-0.000617645
-0.00132314
-0.00113568
-0.00215564
-0.00110596
-0.00272602
-0.00145406
-0.00253073
-0.00160091
-0.00243743
-0.0010069
-0.00157141
-0.000468432
0.00082017
0.000831675
0.00471469
0.00380118
0.0112902
0.00866617
0.028058
0.0205592
0.0487211
0.0303808
0.164259
0.225603
0.942037
-0.943511
-2.15748
0.36302
0.183998
-0.200803
0.138311
0.0169194
0.00205574
-0.0143161
0.0129912
-0.00538553
0.0114086
-0.00772992
0.01404
-0.0072424
0.0133497
-0.00644716
0.011266
-0.00504113
0.00851754
-0.00363976
0.00611417
-0.00258529
0.00450325
-0.00197753
0.00379965
-0.0018358
0.00441367
-0.0025089
0.0112124
0.00021827
-0.0474925
-0.09419
-0.14087
-0.186566
-0.230551
-0.273505
-0.31453
-0.353031
-0.390253
-0.426276
-0.464338
-0.512545
-0.601707
-0.989346
-3.99298
-0.181315
-0.317552
-0.258144
-0.166907
-0.0908392
-0.0431778
-0.0194923
-0.0102655
-0.00741737
-0.00584022
-0.00367117
-0.000982104
0.00243097
0.0110461
-0.00115076
-0.0465235
-0.0935625
-0.139497
-0.186329
-0.231885
-0.278559
-0.322558
-0.369172
-0.412068
-0.45726
-0.499483
-0.543404
-0.584046
-0.626788
-0.666904
-0.707267
-0.748757
-0.787433
-0.831903
-0.870637
-0.927284
-0.969192
-1.05238
-1.1117
-1.29489
-1.43943
-2.00493
-2.89352
-4.36581
-5.60517
-2.68663
-0.668596
-0.877857
-0.74451
-0.681679
-0.521057
-0.45201
-0.343396
-0.28505
-0.190477
-0.166917
-0.0962253
-0.0985174
-0.0476112
-0.0628648
-0.0272356
-0.0446233
-0.0194821
-0.0333303
-0.0146762
-0.0241453
-0.00929336
-0.0161075
-0.00360066
-0.009645
0.00198521
-0.00515147
0.0108852
-0.00113289
-0.13622
-0.271618
-0.406529
-0.539966
-0.671257
-0.801421
-0.930605
-1.06048
-1.1971
-1.35123
-1.55017
-1.8608
-2.51643
-4.10994
-6.01209
-1.62754
-1.07125
-0.779988
-0.501747
-0.283945
-0.14639
-0.0748663
-0.0437923
-0.0311714
-0.0231411
-0.0146435
-0.00607397
0.00156089
0.0107916
-0.000934143
-0.089007
-0.178603
-0.267012
-0.356385
-0.444476
-0.533759
-0.62046
-0.709878
-0.795827
-0.884333
-0.970356
-1.05861
-1.14468
-1.23386
-1.3226
-1.41357
-1.50985
-1.60721
-1.71892
-1.83251
-1.98006
-2.12928
-2.35532
-2.59568
-3.00945
-3.47187
-4.23369
-5.23238
-5.86871
-6.50298
-4.3124
-2.43706
-1.93539
-1.46521
-1.2865
-1.03384
-0.863675
-0.664213
-0.537885
-0.380344
-0.31539
-0.201074
-0.185411
-0.106556
-0.117984
-0.0640951
-0.083716
-0.0456654
-0.0626775
-0.0336324
-0.0454858
-0.0214899
-0.0302589
-0.00965601
-0.0177507
0.000487298
-0.00810672
0.0107032
-0.00104662
-0.217405
-0.434193
-0.651037
-0.867446
-1.08354
-1.30164
-1.52424
-1.75708
-2.01333
-2.31656
-2.71557
-3.30965
-4.28504
-5.7362
-6.69001
-3.15841
-1.84843
-1.26726
-0.811731
-0.46907
-0.252575
-0.13711
-0.083903
-0.0597603
-0.0437482
-0.0280559
-0.0130804
-0.000546792
0.010649
-0.000973407
-0.127646
-0.25589
-0.383093
-0.5114
-0.638681
-0.767441
-0.89409
-1.02389
-1.15099
-1.28138
-1.41048
-1.54302
-1.67527
-1.81258
-1.95244
-2.09781
-2.25302
-2.4149
-2.59797
-2.79232
-3.02798
-3.28202
-3.61428
-3.98608
-4.46411
-5.01368
-5.60536
-6.28254
-6.59039
-6.99464
-5.46599
-3.85843
-2.89593
-2.21011
-1.86041
-1.49912
-1.23154
-0.956838
-0.764689
-0.556629
-0.449531
-0.303851
-0.264924
-0.168116
-0.16875
-0.104438
-0.119729
-0.0745971
-0.0895923
-0.0545288
-0.0649134
-0.0352146
-0.0429891
-0.0170318
-0.0249057
-0.00193741
-0.0106773
0.0105998
-0.00108879
-0.290519
-0.581005
-0.872748
-1.1661
-1.46233
-1.76535
-2.08007
-2.41577
-2.79032
-3.23266
-3.79133
-4.53895
-5.52121
-6.56357
-7.12419
-4.38494
-2.5641
-1.70546
-1.08663
-0.635838
-0.351695
-0.197882
-0.124474
-0.0890644
-0.0649661
-0.0421182
-0.020842
-0.00330667
0.0105658
-0.00097891
-0.162041
-0.324734
-0.486597
-0.649791
-0.812347
-0.976814
-1.13982
-1.30661
-1.47168
-1.64104
-1.81041
-1.98474
-2.16054
-2.3436
-2.53144
-2.72807
-2.93679
-3.157
-3.39925
-3.6592
-3.95504
-4.27692
-4.64948
-5.06185
-5.50798
-6.0019
-6.42562
-6.87944
-7.04982
-7.31469
-6.1828
-4.8945
-3.7318
-2.89471
-2.38031
-1.91149
-1.55548
-1.21395
-0.965108
-0.713655
-0.570669
-0.398753
-0.3389
-0.227412
-0.217014
-0.144561
-0.154136
-0.103702
-0.115126
-0.0756111
-0.0831557
-0.0492513
-0.0548013
-0.0249043
-0.0314296
-0.00488149
-0.0129469
0.0105365
-0.00112861
-0.35459
-0.709897
-1.06799
-1.43013
-1.79871
-2.17889
-2.5771
-3.00399
-3.47754
-4.02258
-4.67067
-5.4462
-6.30618
-7.03944
-7.38851
-5.24825
-3.1956
-2.09053
-1.3249
-0.782688
-0.442082
-0.255546
-0.164063
-0.117921
-0.0858806
-0.0561012
-0.0288015
-0.00639707
0.0105114
-0.000991137
-0.191592
-0.383909
-0.57562
-0.768938
-0.96202
-1.15752
-1.35218
-1.55136
-1.74965
-1.9533
-2.15789
-2.36896
-2.5824
-2.80509
-3.03301
-3.2723
-3.52253
-3.78733
-4.06894
-4.371
-4.69447
-5.04457
-5.41181
-5.81126
-6.19243
-6.60238
-6.90726
-7.22382
-7.32003
-7.49734
-6.61807
-5.59491
-4.39416
-3.4796
-2.82639
-2.26641
-1.8317
-1.43321
-1.13724
-0.850168
-0.678011
-0.484553
-0.407208
-0.283331
-0.263038
-0.18348
-0.187321
-0.132167
-0.13964
-0.0962177
-0.100515
-0.0630452
-0.0659475
-0.0328281
-0.037509
-0.00805086
-0.0150092
0.0104908
-0.0011768
-0.408225
-0.81794
-1.23195
-1.65234
-2.08223
-2.52738
-2.99435
-3.49276
-4.03671
-4.64114
-5.31637
-6.04962
-6.76565
-7.29322
-7.51589
-5.81273
-3.71568
-2.41372
-1.52407
-0.908492
-0.523063
-0.309619
-0.202273
-0.145982
-0.106174
-0.0697018
-0.0366856
-0.00963807
0.0104676
-0.00100775
-0.21554
-0.431882
-0.647809
-0.865628
-1.08354
-1.30436
-1.52481
-1.75049
-1.97576
-2.20738
-2.44025
-2.68085
-2.92364
-3.17715
-3.43449
-3.7048
-3.98208
-4.27523
-4.5764
-4.89798
-5.22417
-5.57387
-5.91387
-6.27785
-6.5946
-6.92859
-7.15257
-7.38151
-7.43472
-7.55694
-6.84866
-6.02892
-4.86906
-3.93923
-3.18468
-2.55591
-2.05613
-1.61218
-1.27946
-0.965151
-0.770746
-0.560671
-0.469478
-0.335499
-0.306739
-0.220913
-0.219338
-0.159753
-0.163229
-0.116124
-0.117093
-0.0763747
-0.0765298
-0.0405941
-0.0432346
-0.0113011
-0.0169032
0.010449
-0.00122427
-0.449861
-0.90188
-1.35947
-1.82523
-2.3026
-2.79713
-3.31434
-3.86106
-4.44542
-5.07146
-5.73233
-6.39604
-6.98539
-7.37581
-7.52085
-6.13807
-4.10459
-2.66722
-1.68196
-1.01239
-0.594198
-0.359861
-0.238953
-0.17313
-0.125727
-0.0827882
-0.0443561
-0.0129265
0.0104236
-0.00102685
-0.233089
-0.467051
-0.700733
-0.936562
-1.17268
-1.41216
-1.65148
-1.89663
-2.14147
-2.39343
-2.64631
-2.90782
-3.17038
-3.44454
-3.71982
-4.00873
-4.29918
-4.60549
-4.91025
-5.23393
-5.54746
-5.88073
-6.18597
-6.50895
-6.77094
-7.04421
-7.21268
-7.38408
-7.41182
-7.49961
-6.91306
-6.24743
-5.16315
-4.26028
-3.44502
-2.77253
-2.22486
-1.74874
-1.39051
-1.05785
-0.8483
-0.626782
-0.52541
-0.383787
-0.347988
-0.256819
-0.250149
-0.186441
-0.185896
-0.135301
-0.132907
-0.0891892
-0.0865736
-0.0481354
-0.0486383
-0.0146025
-0.0186203
0.0104026
-0.0012704
-0.477937
-0.958521
-1.44555
-1.94186
-2.45076
-2.97702
-3.52432
-4.09595
-4.69398
-5.31342
-5.93677
-6.52558
-7.01259
-7.31
-7.40735
-6.26508
-4.35348
-2.84463
-1.79663
-1.09373
-0.65518
-0.406116
-0.274026
-0.199314
-0.144493
-0.095302
-0.0517446
-0.016206
0.0103727
-0.00104747
-0.2435
-0.487933
-0.732146
-0.978718
-1.22563
-1.47626
-1.7267
-1.98343
-2.23957
-2.50338
-2.76727
-3.04038
-3.31272
-3.5971
-3.87923
-4.17508
-4.46676
-4.77366
-5.07044
-5.38433
-5.6769
-5.98608
-6.25609
-6.5399
-6.75766
-6.98403
-7.11386
-7.24661
-7.25931
-7.32577
-6.8303
-6.28363
-5.28816
-4.43905
-3.60061
-2.91051
-2.33456
-1.84125
-1.46948
-1.12778
-0.910361
-0.682644
-0.574867
-0.428031
-0.386751
-0.291082
-0.279773
-0.212141
-0.207673
-0.153669
-0.147991
-0.10141
-0.096116
-0.0553717
-0.053756
-0.0178669
-0.0202025
0.0103472
-0.00131004
-0.491073
-0.985072
-1.48597
-1.99655
-2.51968
-3.05903
-3.61623
-4.19114
-4.78083
-5.37424
-5.94878
-6.46662
-6.87293
-7.1061
-7.17461
-6.21953
-4.46063
-2.94107
-1.86656
-1.15218
-0.705883
-0.448321
-0.307464
-0.224521
-0.162459
-0.107225
-0.0588266
-0.0194536
0.0103116
-0.00106838
-0.24614
-0.493259
-0.740146
-0.989545
-1.23921
-1.49283
-1.74603
-2.00583
-2.26448
-2.53114
-2.79675
-3.07188
-3.34419
-3.62866
-3.90751
-4.19986
-4.48297
-4.78054
-5.06123
-5.35753
-5.625
-5.90698
-6.14389
-6.39253
-6.57483
-6.76501
-6.86737
-6.97371
-6.97772
-7.03138
-6.60765
-6.15649
-5.25448
-4.47612
-3.64756
-2.96559
-2.38275
-1.88847
-1.51585
-1.17474
-0.95681
-0.728188
-0.617781
-0.468182
-0.422986
-0.323674
-0.308188
-0.236836
-0.22855
-0.171218
-0.162339
-0.113025
-0.105154
-0.062291
-0.0585892
-0.0210829
-0.021652
0.0102806
-0.00134099
-0.488165
-0.979322
-1.47741
-1.98498
-2.5043
-3.0379
-3.58552
-4.14429
-4.70786
-5.26188
-5.7825
-6.23567
-6.57801
-6.76586
-6.81769
-6.0157
-4.42752
-2.95327
-1.89089
-1.18772
-0.746332
-0.486469
-0.339255
-0.248743
-0.179622
-0.11856
-0.0656055
-0.0226709
0.0102396
-0.00108622
-0.240535
-0.482073
-0.723309
-0.967139
-1.21105
-1.45905
-1.70625
-1.96021
-2.21232
-2.47259
-2.73059
-2.99819
-3.26103
-3.53596
-3.80236
-4.08196
-4.34838
-4.62863
-4.88734
-5.16071
-5.40086
-5.65447
-5.86077
-6.07817
-6.23151
-6.39325
-6.47551
-6.56348
-6.56281
-6.60935
-6.24549
-5.87534
-5.06925
-4.3736
-3.58429
-2.9351
-2.36806
-1.88978
-1.52959
-1.19886
-0.987786
-0.763549
-0.654187
-0.504329
-0.456669
-0.354666
-0.335355
-0.260591
-0.248487
-0.188005
-0.175915
-0.124093
-0.113653
-0.0689478
-0.0631096
-0.0243145
-0.0229329
0.0102032
-0.00135826
-0.468444
-0.939743
-1.41764
-1.9043
-2.40139
-2.91044
-3.42979
-3.95478
-4.47722
-4.98171
-5.44546
-5.83932
-6.12938
-6.28429
-6.32755
-5.65894
-4.25621
-2.87953
-1.8694
-1.20066
-0.776692
-0.520614
-0.369414
-0.27199
-0.195999
-0.129333
-0.0721173
-0.0258866
0.0101583
-0.00109991
-0.226397
-0.453802
-0.680782
-0.910366
-1.13977
-1.37326
-1.60549
-1.84448
-2.08086
-2.32539
-2.56648
-2.81713
-3.06133
-3.31752
-3.56293
-3.82132
-4.06383
-4.31987
-4.55164
-4.79776
-5.00876
-5.23317
-5.4105
-5.59944
-5.72806
-5.86659
-5.93343
-6.00833
-6.00561
-6.04904
-5.7385
-5.44219
-4.73559
-4.13379
-3.41054
-2.81826
-2.29026
-1.84547
-1.51121
-1.20066
-1.0037
-0.788966
-0.68428
-0.536528
-0.487876
-0.384048
-0.361293
-0.283385
-0.267481
-0.204028
-0.188706
-0.134631
-0.121597
-0.0753717
-0.0672985
-0.0275608
-0.0240621
0.0101182
-0.00136399
-0.431533
-0.865587
-1.30554
-1.75311
-2.20938
-2.67518
-3.14802
-3.62244
-4.08986
-4.53546
-4.93894
-5.27626
-5.52119
-5.65105
-5.69137
-5.14796
-3.9482
-2.71968
-1.80272
-1.19165
-0.797312
-0.550916
-0.398026
-0.294328
-0.211663
-0.139632
-0.0784525
-0.0291668
0.0100729
-0.00111344
-0.203645
-0.408283
-0.612314
-0.818885
-1.02492
-1.23495
-1.44313
-1.65796
-1.86935
-2.08875
-2.30363
-2.5279
-2.74439
-2.97271
-3.18871
-3.41761
-3.62911
-3.85418
-4.05389
-4.2683
-4.44761
-4.64114
-4.7896
-4.95116
-5.05712
-5.17536
-5.22952
-5.29475
-5.2918
-5.33503
-5.0756
-4.85249
-4.25258
-3.75769
-3.12701
-2.61563
-2.15035
-1.75655
-1.46179
-1.18094
-1.00517
-0.804861
-0.708307
-0.565002
-0.51664
-0.411971
-0.385944
-0.305355
-0.28545
-0.219425
-0.200628
-0.144781
-0.128905
-0.0817006
-0.0710876
-0.0309166
-0.0250115
0.0100326
-0.00134405
-0.377506
-0.756967
-1.14123
-1.53148
-1.92826
-2.33198
-2.73992
-3.14672
-3.5446
-3.92069
-4.25809
-4.53794
-4.74046
-4.84952
-4.89121
-4.47546
-3.50398
-2.47506
-1.69236
-1.1617
-0.808733
-0.577691
-0.42533
-0.31597
-0.22682
-0.149658
-0.084796
-0.0326331
0.00999367
-0.00108936
-0.172423
-0.345802
-0.518337
-0.69324
-0.867184
-1.04482
-1.21997
-1.40143
-1.5786
-1.76338
-1.94268
-2.13098
-2.31046
-2.50152
-2.67932
-2.86996
-3.04269
-3.22926
-3.39076
-3.56779
-3.71129
-3.87057
-3.9882
-4.12131
-4.20441
-4.30309
-4.34536
-4.40293
-4.40108
-4.44677
-4.23981
-4.09615
-3.61562
-3.24511
-2.73529
-2.32916
-1.95076
-1.62495
-1.38301
-1.141
-0.992994
-0.812116
-0.726445
-0.59046
-0.542822
-0.43905
-0.409056
-0.327026
-0.302138
-0.234643
-0.211462
-0.154928
-0.135392
-0.0882464
-0.0743409
-0.0345969
-0.0257069
0.00995988
-0.00137249
-0.306907
-0.614958
-0.926209
-1.24113
-1.55972
-1.8822
-2.20601
-2.52669
-2.83833
-3.13107
-3.39242
-3.60904
-3.767
-3.85585
-3.90419
-3.62908
-2.92307
-2.14848
-1.54073
-1.11237
-0.812077
-0.601914
-0.452182
-0.33764
-0.242067
-0.159901
-0.0915271
-0.0365062
0.00993933
-0.00122768
-0.133189
-0.267213
-0.400103
-0.53509
-0.668506
-0.805197
-0.9385
-1.07761
-1.21131
-1.35205
-1.48614
-1.62866
-1.76127
-1.90509
-2.03491
-2.1775
-2.3022
-2.44121
-2.55627
-2.68814
-2.78921
-2.90827
-2.99037
-3.09124
-3.14863
-3.22573
-3.25494
-3.30355
-3.30468
-3.35574
-3.20958
-3.15443
-2.81828
-2.5935
-2.23818
-1.96322
-1.69463
-1.45547
-1.27608
-1.08481
-0.966985
-0.814082
-0.737859
-0.615698
-0.565415
-0.467459
-0.429738
-0.349989
-0.316865
-0.250817
-0.220715
-0.165883
-0.140713
-0.0955666
-0.0768362
-0.0388709
-0.0260975
0.00992429
-0.000760913
-0.221003
-0.441871
-0.663688
-0.885893
-1.10778
-1.32932
-1.54837
-1.76186
-1.96663
-2.15696
-2.32601
-2.46718
-2.57313
-2.63805
-2.69174
-2.58181
-2.20062
-1.74583
-1.35501
-1.05007
-0.81303
-0.628331
-0.482204
-0.361905
-0.259167
-0.17157
-0.0994419
-0.0411927
0.00994401
7.62867e-06
-0.0865671
-0.173774
-0.259781
-0.346833
-0.432245
-0.519205
-0.603168
-0.689934
-0.772275
-0.857994
-0.938335
-1.02274
-1.09984
-1.18242
-1.25552
-1.33492
-1.40302
-1.47827
-1.53956
-1.60941
-1.66256
-1.72502
-1.76867
-1.82224
-1.85482
-1.89811
-1.91877
-1.9503
-1.95709
-1.99314
-1.95886
-1.97201
-1.85386
-1.78897
-1.63975
-1.5249
-1.38512
-1.25764
-1.14108
-1.02029
-0.925651
-0.817132
-0.740671
-0.645474
-0.582764
-0.50038
-0.446835
-0.376109
-0.328979
-0.268898
-0.228085
-0.178076
-0.144737
-0.10395
-0.0784137
-0.0446345
-0.0255048
0.00568097
-0.00010701
-0.169616
-0.338536
-0.506049
-0.671276
-0.833196
-0.990614
-1.14201
-1.28557
-1.41926
-1.54075
-1.64763
-1.73764
-1.80887
-1.85987
-1.89474
-1.88727
-1.75022
-1.52831
-1.28266
-1.05029
-0.843923
-0.666027
-0.514517
-0.385248
-0.274893
-0.182319
-0.107187
-0.0474804
0.0013971
-0.00019305
-0.0829412
-0.165849
-0.248346
-0.330839
-0.412463
-0.494077
-0.574309
-0.654551
-0.732865
-0.811137
-0.886918
-0.962584
-1.03508
-1.10741
-1.17583
-1.24396
-1.30743
-1.37045
-1.42801
-1.48498
-1.53571
-1.58567
-1.62873
-1.67085
-1.70555
-1.73918
-1.76499
-1.78978
-1.80657
-1.82608
-1.83498
-1.83568
-1.78418
-1.72954
-1.631
-1.5353
-1.4157
-1.30361
-1.18441
-1.07356
-0.965114
-0.863462
-0.769329
-0.679768
-0.600035
-0.522892
-0.45568
-0.389933
-0.333135
-0.277611
-0.230182
-0.184141
-0.145847
-0.108493
-0.0786559
-0.0483066
-0.024666
0.00141468
-0.000111544
-0.159797
-0.318645
-0.475568
-0.629496
-0.779284
-0.923706
-1.06137
-1.19079
-1.31044
-1.41872
-1.51414
-1.5954
-1.66148
-1.71182
-1.74979
-1.77323
-1.69262
-1.52506
-1.31115
-1.08827
-0.878146
-0.690937
-0.529824
-0.393599
-0.279494
-0.185321
-0.109399
-0.0489102
0.00138861
-0.000163317
-0.0770142
-0.153989
-0.2305
-0.30695
-0.382464
-0.457866
-0.531813
-0.605627
-0.677461
-0.749087
-0.818219
-0.887058
-0.952828
-1.01825
-1.08002
-1.14132
-1.19844
-1.25497
-1.30675
-1.35788
-1.40375
-1.44885
-1.4883
-1.5269
-1.55954
-1.59127
-1.6169
-1.64166
-1.6604
-1.68096
-1.70205
-1.71649
-1.68946
-1.65871
-1.58697
-1.51527
-1.41431
-1.31781
-1.20626
-1.10179
-0.993058
-0.891746
-0.793251
-0.701205
-0.616092
-0.536013
-0.464419
-0.396637
-0.337177
-0.280821
-0.232068
-0.185998
-0.146938
-0.10985
-0.0792694
-0.0492136
-0.0247886
0.00137579
-5.54421e-05
-0.146995
-0.292963
-0.436867
-0.57762
-0.714115
-0.845236
-0.969795
-1.0866
-1.19453
-1.29246
-1.37941
-1.45459
-1.51744
-1.56766
-1.60797
-1.65307
-1.61401
-1.49273
-1.31317
-1.10716
-0.900176
-0.708424
-0.540387
-0.398465
-0.281252
-0.186029
-0.109911
-0.0493264
0.00135307
-0.000171721
-0.0702287
-0.140405
-0.210136
-0.279778
-0.348518
-0.417105
-0.484307
-0.551321
-0.616476
-0.681364
-0.743949
-0.806187
-0.865645
-0.924705
-0.980525
-1.03586
-1.08755
-1.13867
-1.18574
-1.23219
-1.27425
-1.31562
-1.35234
-1.38832
-1.41946
-1.44985
-1.47529
-1.50002
-1.51981
-1.5411
-1.57065
-1.59459
-1.58529
-1.57234
-1.52243
-1.47126
-1.38867
-1.30837
-1.20747
-1.11191
-1.00655
-0.90799
-0.808176
-0.715188
-0.626837
-0.544472
-0.469879
-0.400124
-0.338954
-0.281583
-0.232327
-0.185995
-0.146991
-0.109913
-0.079406
-0.0493853
-0.0248118
0.00134385
-3.78023e-05
-0.133321
-0.265655
-0.396016
-0.523391
-0.646785
-0.765228
-0.877729
-0.983343
-1.08121
-1.17051
-1.25055
-1.32082
-1.38093
-1.43072
-1.47234
-1.53223
-1.52363
-1.44043
-1.29419
-1.10908
-0.910482
-0.718525
-0.546415
-0.400391
-0.280956
-0.185309
-0.109527
-0.0492645
0.00132681
-0.000156129
-0.063378
-0.126704
-0.189625
-0.252451
-0.314465
-0.376315
-0.436925
-0.497332
-0.556088
-0.614568
-0.671021
-0.727125
-0.780811
-0.834106
-0.884613
-0.93466
-0.981607
-1.02803
-1.07104
-1.11351
-1.1523
-1.1905
-1.22486
-1.25857
-1.28831
-1.31741
-1.34245
-1.36687
-1.38726
-1.40886
-1.44399
-1.47433
-1.4779
-1.47798
-1.44552
-1.41109
-1.34528
-1.28027
-1.19114
-1.10586
-1.00611
-0.912394
-0.813396
-0.721324
-0.631278
-0.547944
-0.471269
-0.400371
-0.337986
-0.280139
-0.230686
-0.184502
-0.145807
-0.109067
-0.078883
-0.0491014
-0.024658
0.00132328
-2.49432e-05
-0.119974
-0.239056
-0.356362
-0.470996
-0.582091
-0.688825
-0.790374
-0.885977
-0.974955
-1.05668
-1.13064
-1.19646
-1.25384
-1.30266
-1.34469
-1.41415
-1.42759
-1.37477
-1.2586
-1.0957
-0.908967
-0.720422
-0.54706
-0.3988
-0.278308
-0.183037
-0.10822
-0.0487643
0.00131231
-0.000139955
-0.0568748
-0.113701
-0.170174
-0.226557
-0.282232
-0.337752
-0.392197
-0.446448
-0.499275
-0.551842
-0.602671
-0.653177
-0.70162
-0.749706
-0.795429
-0.840739
-0.883437
-0.925671
-0.965051
-1.00395
-1.03979
-1.07511
-1.10724
-1.13883
-1.16711
-1.19484
-1.21921
-1.24305
-1.26353
-1.28501
-1.3235
-1.35789
-1.3706
-1.38009
-1.36122
-1.34009
-1.28885
-1.23749
-1.16011
-1.08539
-0.992652
-0.905089
-0.808703
-0.719026
-0.628858
-0.545764
-0.46814
-0.396932
-0.334062
-0.276281
-0.227108
-0.18145
-0.143408
-0.107302
-0.0777065
-0.0483899
-0.0243179
0.00131474
-2.03516e-05
-0.107504
-0.214231
-0.319412
-0.422274
-0.522079
-0.618131
-0.709749
-0.796306
-0.877257
-0.952103
-1.02043
-1.08194
-1.1364
-1.18369
-1.22529
-1.30028
-1.32925
-1.30005
-1.20987
-1.06873
-0.895932
-0.713737
-0.541836
-0.393377
-0.273192
-0.179202
-0.106003
-0.0478459
0.00130962
-0.000123142
-0.0508828
-0.101723
-0.15226
-0.202717
-0.252569
-0.302283
-0.351078
-0.399702
-0.447113
-0.494295
-0.540001
-0.585424
-0.629101
-0.672469
-0.713842
-0.754858
-0.793678
-0.8321
-0.868127
-0.903744
-0.936799
-0.969415
-0.999358
-1.02884
-1.05556
-1.08181
-1.10524
-1.12823
-1.14838
-1.16938
-1.20947
-1.24606
-1.26501
-1.28106
-1.27251
-1.26168
-1.22265
-1.18296
-1.11662
-1.05208
-0.967041
-0.886411
-0.794008
-0.707974
-0.619124
-0.537482
-0.460082
-0.389502
-0.326965
-0.269892
-0.221532
-0.176826
-0.1398
-0.104631
-0.0758876
-0.0472667
-0.0237907
0.00131766
-1.80759e-05
-0.0960799
-0.191495
-0.285589
-0.377703
-0.467213
-0.553537
-0.636103
-0.714392
-0.787956
-0.856382
-0.919329
-0.976548
-1.02784
-1.0731
-1.11354
-1.19083
-1.23023
-1.21889
-1.1504
-1.02954
-0.871675
-0.698171
-0.530319
-0.38383
-0.265492
-0.173791
-0.102886
-0.0465216
0.00131813
-0.000107768
-0.0454189
-0.0908012
-0.135927
-0.180982
-0.225527
-0.269951
-0.313597
-0.357097
-0.39957
-0.441847
-0.482878
-0.523667
-0.562982
-0.602036
-0.639407
-0.676477
-0.711698
-0.746584
-0.779453
-0.81198
-0.842347
-0.872349
-0.900098
-0.927462
-0.952488
-0.977136
-0.999386
-1.02126
-1.04073
-1.06094
-1.10123
-1.13856
-1.16142
-1.18178
-1.18081
-1.17771
-1.1486
-1.11863
-1.06223
-1.00711
-0.929973
-0.856651
-0.769287
-0.687924
-0.601737
-0.522726
-0.446769
-0.377826
-0.316523
-0.260873
-0.213915
-0.170625
-0.134994
-0.101069
-0.0734417
-0.0457428
-0.0230797
0.00133131
-1.87756e-05
-0.0856508
-0.170738
-0.254707
-0.337
-0.41709
-0.494491
-0.56872
-0.639343
-0.705987
-0.768304
-0.826005
-0.878876
-0.926743
-0.969492
-1.00816
-1.08518
-1.13088
-1.13255
-1.08166
-0.979058
-0.836437
-0.673512
-0.512182
-0.369935
-0.255125
-0.166803
-0.0988873
-0.0448033
0.00133704
-9.36411e-05
-0.040419
-0.0808077
-0.120979
-0.161091
-0.200772
-0.240351
-0.279272
-0.318073
-0.356003
-0.393772
-0.430487
-0.467002
-0.502269
-0.537323
-0.570952
-0.604335
-0.636153
-0.667695
-0.697529
-0.727086
-0.75481
-0.782237
-0.807751
-0.832951
-0.856158
-0.879061
-0.899913
-0.92046
-0.938943
-0.95809
-0.99742
-1.0343
-1.05922
-1.08205
-1.08637
-1.08885
-1.06757
-1.04546
-0.997803
-0.951164
-0.881863
-0.815976
-0.734491
-0.658673
-0.576425
-0.501206
-0.427952
-0.361704
-0.302611
-0.249153
-0.204237
-0.16285
-0.129009
-0.0966356
-0.0703869
-0.0438313
-0.022188
0.00135507
-2.07575e-05
-0.0760414
-0.151606
-0.22623
-0.299442
-0.370796
-0.439885
-0.506304
-0.569684
-0.629713
-0.686094
-0.738579
-0.786983
-0.831147
-0.870963
-0.907323
-0.981917
-1.03058
-1.0412
-1.00422
-0.91774
-0.790293
-0.639559
-0.487169
-0.351526
-0.242041
-0.158251
-0.0940304
-0.0427037
0.00136589
-8.17951e-05
-0.0357755
-0.0715266
-0.107093
-0.142611
-0.177765
-0.212836
-0.247348
-0.281767
-0.315444
-0.348993
-0.381649
-0.414144
-0.445578
-0.476847
-0.506901
-0.536762
-0.565292
-0.593603
-0.620459
-0.647098
-0.672172
-0.697012
-0.720218
-0.743176
-0.764426
-0.785438
-0.804686
-0.823694
-0.840921
-0.858763
-0.896157
-0.931593
-0.957024
-0.980841
-0.988527
-0.994793
-0.979507
-0.96364
-0.92353
-0.884453
-0.822797
-0.764368
-0.68949
-0.620021
-0.542957
-0.472696
-0.403445
-0.341001
-0.285151
-0.234699
-0.192498
-0.153521
-0.121872
-0.0913566
-0.0667439
-0.0415454
-0.0211205
0.00138853
-2.28148e-05
-0.0670053
-0.133609
-0.199425
-0.264054
-0.327121
-0.388288
-0.447211
-0.503578
-0.557128
-0.607606
-0.654796
-0.698541
-0.738697
-0.775159
-0.80871
-0.879032
-0.927885
-0.944075
-0.917822
-0.845511
-0.733102
-0.596092
-0.455081
-0.328499
-0.226222
-0.14816
-0.0883424
-0.0402366
0.00140452
-7.11438e-05
-0.0313514
-0.0626842
-0.0938586
-0.124997
-0.155826
-0.186592
-0.216879
-0.247101
-0.276689
-0.306182
-0.334914
-0.363525
-0.39123
-0.418815
-0.445362
-0.471765
-0.497032
-0.522136
-0.545993
-0.569693
-0.59205
-0.614235
-0.635018
-0.655616
-0.674744
-0.6937
-0.711132
-0.728389
-0.744105
-0.760409
-0.794994
-0.828114
-0.852765
-0.876321
-0.885781
-0.894358
-0.883513
-0.87253
-0.838943
-0.806641
-0.75248
-0.701571
-0.634026
-0.571731
-0.501121
-0.437026
-0.373128
-0.315648
-0.264117
-0.217518
-0.178727
-0.142672
-0.113618
-0.0852623
-0.0625363
-0.0388991
-0.0198837
0.0014316
-2.78433e-05
-0.0582465
-0.116157
-0.173412
-0.229678
-0.284639
-0.338017
-0.389523
-0.438891
-0.485907
-0.530353
-0.572042
-0.610841
-0.646621
-0.679287
-0.709534
-0.773915
-0.820616
-0.839599
-0.821482
-0.761775
-0.664478
-0.542846
-0.415771
-0.300812
-0.207695
-0.136574
-0.0818562
-0.0374179
0.00145281
-6.32115e-05
-0.0269854
-0.0539581
-0.0807956
-0.107608
-0.134159
-0.160664
-0.186762
-0.212821
-0.238337
-0.263791
-0.288598
-0.313322
-0.337274
-0.361151
-0.384139
-0.407035
-0.428961
-0.450778
-0.471528
-0.492182
-0.511681
-0.531072
-0.549259
-0.567328
-0.584129
-0.600829
-0.616209
-0.631485
-0.645425
-0.659947
-0.690907
-0.720919
-0.743669
-0.765919
-0.775841
-0.785542
-0.7779
-0.770756
-0.742922
-0.716863
-0.670217
-0.627062
-0.567692
-0.513508
-0.450716
-0.394071
-0.336949
-0.285632
-0.239542
-0.197651
-0.16298
-0.130354
-0.104292
-0.0783875
-0.0577909
-0.03591
-0.0184825
0.00148455
-2.74708e-05
-0.0494182
-0.0985588
-0.147165
-0.194959
-0.241682
-0.287109
-0.331
-0.373134
-0.413338
-0.451429
-0.487248
-0.520686
-0.551632
-0.579997
-0.606419
-0.66327
-0.705807
-0.725364
-0.713452
-0.665401
-0.583763
-0.479502
-0.369139
-0.268491
-0.186527
-0.123553
-0.074609
-0.0342652
0.00151138
-4.65011e-05
-0.0224906
-0.0449767
-0.0673439
-0.0896992
-0.111836
-0.133946
-0.155712
-0.177466
-0.198759
-0.220024
-0.240744
-0.261422
-0.281445
-0.301443
-0.320685
-0.339888
-0.358271
-0.376603
-0.394028
-0.411422
-0.427832
-0.4442
-0.459545
-0.47484
-0.489054
-0.503237
-0.516294
-0.529315
-0.541204
-0.553682
-0.580199
-0.606338
-0.62621
-0.646255
-0.6556
-0.665511
-0.660193
-0.656191
-0.63371
-0.613712
-0.574916
-0.540045
-0.489926
-0.445007
-0.391546
-0.343762
-0.294921
-0.251018
-0.211514
-0.175194
-0.145343
-0.11664
-0.093952
-0.0707736
-0.0525367
-0.0325982
-0.016922
0.00154818
-5.30954e-05
-0.0401101
-0.0799993
-0.11947
-0.1583
-0.196283
-0.233248
-0.269
-0.303365
-0.336209
-0.367384
-0.396761
-0.424257
-0.449776
-0.473244
-0.495231
-0.542971
-0.579595
-0.598058
-0.591196
-0.554697
-0.490022
-0.40569
-0.315156
-0.231644
-0.162838
-0.109181
-0.0666453
-0.0308014
0.00158172
-7.49613e-05
-0.0176468
-0.0352855
-0.0528364
-0.0703852
-0.0877529
-0.105118
-0.122195
-0.139296
-0.156009
-0.172737
-0.189013
-0.205297
-0.221035
-0.236808
-0.251946
-0.267112
-0.281595
-0.2961
-0.309846
-0.32364
-0.336609
-0.349621
-0.361779
-0.373974
-0.385263
-0.396619
-0.407007
-0.417471
-0.426936
-0.437054
-0.458293
-0.479818
-0.495913
-0.513043
-0.520989
-0.530556
-0.527024
-0.525968
-0.50884
-0.495274
-0.465054
-0.439474
-0.400014
-0.365818
-0.323458
-0.286058
-0.247167
-0.211901
-0.180217
-0.150247
-0.125952
-0.101593
-0.0826733
-0.0624544
-0.0468073
-0.0289864
-0.0152065
0.0016245
1.93176e-05
-0.0298322
-0.0594979
-0.0888628
-0.117768
-0.146061
-0.173629
-0.200325
-0.226017
-0.250619
-0.274019
-0.296119
-0.316873
-0.336213
-0.354059
-0.370967
-0.40795
-0.437205
-0.453538
-0.45151
-0.42753
-0.382099
-0.320958
-0.253757
-0.190343
-0.136704
-0.0935004
-0.0579887
-0.0270534
0.00166642
9.94442e-05
-0.0121628
-0.0243676
-0.0364569
-0.0485631
-0.0605408
-0.072536
-0.0843113
-0.0961476
-0.107681
-0.119271
-0.130518
-0.141821
-0.152702
-0.163679
-0.17416
-0.184734
-0.194783
-0.204924
-0.214475
-0.224154
-0.233187
-0.242344
-0.250839
-0.259455
-0.267366
-0.27543
-0.282768
-0.290229
-0.297053
-0.304437
-0.319476
-0.335549
-0.347204
-0.360695
-0.36691
-0.375736
-0.374168
-0.376187
-0.365256
-0.358913
-0.338803
-0.323955
-0.297154
-0.275546
-0.246285
-0.221182
-0.193766
-0.168751
-0.145734
-0.123261
-0.10483
-0.0855391
-0.0704375
-0.0536401
-0.0405672
-0.0251984
-0.0133122
0.00171712
-0.000340101
-0.0179831
-0.0357882
-0.0534722
-0.0709107
-0.0880065
-0.104707
-0.120931
-0.136593
-0.151655
-0.166056
-0.179724
-0.192637
-0.204751
-0.216056
-0.226989
-0.251464
-0.272077
-0.285946
-0.289693
-0.280685
-0.258333
-0.224976
-0.185492
-0.145493
-0.108971
-0.0771229
-0.0490351
-0.0232424
0.00178185
-0.000408627
-0.00565222
-0.0111941
-0.0167212
-0.0222839
-0.0278
-0.0333237
-0.0387695
-0.0442358
-0.0495917
-0.0549674
-0.060222
-0.0654933
-0.0706177
-0.075773
-0.0807491
-0.0857576
-0.0905787
-0.0954279
-0.10007
-0.104753
-0.1092
-0.11369
-0.117939
-0.122227
-0.126258
-0.130345
-0.134145
-0.13798
-0.14147
-0.145366
-0.153926
-0.16279
-0.170307
-0.178701
-0.184418
-0.191465
-0.194244
-0.198898
-0.197713
-0.198905
-0.193238
-0.190198
-0.180384
-0.17302
-0.160285
-0.149377
-0.135408
-0.122418
-0.108666
-0.0951255
-0.0823145
-0.0691959
-0.0573544
-0.0448951
-0.0337756
-0.0217505
-0.0110915
0.00108764
0.000172687
-0.00758284
-0.0151866
-0.0227301
-0.0302
-0.0375784
-0.0448449
-0.0519742
-0.058951
-0.0657575
-0.0723694
-0.078777
-0.0849659
-0.0909144
-0.0966219
-0.102072
-0.115459
-0.128561
-0.140337
-0.149315
-0.153833
-0.152426
-0.144352
-0.130022
-0.110985
-0.0893165
-0.0667628
-0.0442317
-0.0219233
0.000230669
-0.000177841
-0.0026773
-0.00529778
-0.00791506
-0.010542
-0.0131613
-0.0157759
-0.0183804
-0.020977
-0.0235585
-0.0261304
-0.0286832
-0.0312227
-0.0337423
-0.036247
-0.0387254
-0.0411886
-0.0436218
-0.0460358
-0.0484208
-0.0507852
-0.0531132
-0.0554215
-0.0576901
-0.0599352
-0.0621428
-0.0643266
-0.0664649
-0.0685765
-0.0706436
-0.0727401
-0.077923
-0.0829865
-0.0884286
-0.0936135
-0.098957
-0.103944
-0.108722
-0.113048
-0.116628
-0.119705
-0.121365
-0.122555
-0.121657
-0.12042
-0.116641
-0.112734
-0.106237
-0.0998519
-0.0912541
-0.0829636
-0.0730583
-0.0635673
-0.0530002
-0.0428566
-0.0319949
-0.021488
-0.0105096
0.000174216
-5.53921e-07
-0.00392618
-0.00784357
-0.0117455
-0.0156246
-0.0194737
-0.0232857
-0.0270532
-0.0307693
-0.0344276
-0.0380214
-0.0415445
-0.0449913
-0.0483558
-0.0516328
-0.0548345
-0.0629267
-0.0714703
-0.0800911
-0.0881633
-0.0948102
-0.0989572
-0.099505
-0.0956256
-0.0870737
-0.0743074
-0.0582775
-0.0400074
-0.0202999
0.00014486
-2.14263e-05
-0.00146605
-0.00292618
-0.00438477
-0.00584458
-0.00730059
-0.00875554
-0.0102049
-0.0116528
-0.0130933
-0.0145318
-0.015961
-0.0173877
-0.0188035
-0.0202166
-0.0216168
-0.023014
-0.0243966
-0.0257754
-0.0271386
-0.0284977
-0.029839
-0.0311762
-0.0324941
-0.033807
-0.0350999
-0.0363877
-0.0376534
-0.0389138
-0.0401501
-0.0414045
-0.0445822
-0.0477295
-0.0511825
-0.0545711
-0.0581798
-0.0616905
-0.0652678
-0.0686945
-0.0719455
-0.0749807
-0.0774997
-0.0797381
-0.0810355
-0.0820136
-0.0815991
-0.0808819
-0.078401
-0.0757009
-0.0710678
-0.0663476
-0.0597775
-0.0532607
-0.045166
-0.0372291
-0.0280722
-0.0191144
-0.00936165
0.000116248
1.79277e-05
-0.00227314
-0.00454769
-0.00681445
-0.00907147
-0.0113162
-0.0135457
-0.0157565
-0.0179463
-0.0201123
-0.0222509
-0.0243604
-0.0264383
-0.0284811
-0.0304879
-0.032455
-0.0375349
-0.0430824
-0.048962
-0.0549039
-0.0604756
-0.0650593
-0.0678742
-0.0680737
-0.0649284
-0.0580411
-0.0474774
-0.0337187
-0.0175091
0.00011605
-2.32347e-05
-0.000887848
-0.00176854
-0.00264866
-0.00353012
-0.00441008
-0.00528943
-0.00616666
-0.00704293
-0.00791621
-0.00878831
-0.00965664
-0.0105233
-0.0113858
-0.0122465
-0.0131019
-0.0139555
-0.0148031
-0.0156481
-0.0164871
-0.0173235
-0.0181525
-0.0189788
-0.0197972
-0.0206122
-0.0214193
-0.0222229
-0.0230171
-0.0238076
-0.0245882
-0.0253789
-0.0274066
-0.0294185
-0.0316749
-0.0338941
-0.0363321
-0.0387143
-0.0412518
-0.0437065
-0.0461967
-0.0485702
-0.0507872
-0.0528482
-0.0544811
-0.0559185
-0.0565887
-0.0570365
-0.0563527
-0.0554482
-0.0530985
-0.0505692
-0.0464188
-0.0421648
-0.0363069
-0.0304356
-0.0231787
-0.0159864
-0.00784743
8.24438e-05
3.37543e-06
-0.00141228
-0.00282388
-0.00423219
-0.00563598
-0.00703394
-0.00842465
-0.00980655
-0.0111783
-0.0125387
-0.013886
-0.0152192
-0.016537
-0.0178381
-0.0191215
-0.0203866
-0.0236805
-0.0273451
-0.0313321
-0.0355208
-0.0396921
-0.0434979
-0.0464417
-0.0478931
-0.0471585
-0.0436162
-0.0368867
-0.0269684
-0.0143021
9.60771e-05
-7.962e-06
-0.000563385
-0.00112438
-0.0016851
-0.00224627
-0.00280659
-0.00336669
-0.00392556
-0.00448407
-0.00504094
-0.00559736
-0.00615169
-0.00670541
-0.00725675
-0.00780739
-0.00835517
-0.00890221
-0.00944596
-0.00998877
-0.0105281
-0.0110664
-0.0116007
-0.0121339
-0.0126627
-0.0131902
-0.0137132
-0.0142347
-0.0147511
-0.0152659
-0.0157751
-0.0162904
-0.0176227
-0.0189485
-0.0204477
-0.0219311
-0.0235809
-0.0252053
-0.0269691
-0.028692
-0.0304954
-0.032236
-0.0339527
-0.0355781
-0.0370163
-0.0383299
-0.0392283
-0.0399688
-0.040011
-0.0398718
-0.0387335
-0.0374114
-0.0348368
-0.0321055
-0.0279957
-0.0237858
-0.0182747
-0.0127403
-0.00626862
5.67092e-05
3.28432e-06
-0.000913695
-0.00182749
-0.00273942
-0.00364893
-0.00455537
-0.00545799
-0.00635593
-0.00724855
-0.00813513
-0.00901479
-0.00988697
-0.010751
-0.011606
-0.0124518
-0.0132871
-0.0154753
-0.0179364
-0.0206546
-0.0235736
-0.0265778
-0.0294672
-0.0319321
-0.0335396
-0.0337494
-0.0319792
-0.0277285
-0.0207439
-0.0111958
7.73804e-05
-5.54348e-06
-0.000370205
-0.000738702
-0.00110707
-0.00147573
-0.00184395
-0.00221204
-0.00257948
-0.0029467
-0.00331304
-0.00367911
-0.00404406
-0.00440862
-0.00477194
-0.00513481
-0.00549615
-0.00585703
-0.00621614
-0.00657467
-0.00693134
-0.00728738
-0.00764124
-0.00799447
-0.00834529
-0.00869533
-0.00904292
-0.00938962
-0.00973352
-0.0100764
-0.0104162
-0.0107597
-0.0116523
-0.0125412
-0.0135535
-0.0145565
-0.0156829
-0.0167945
-0.018018
-0.0192177
-0.0204981
-0.0217419
-0.023006
-0.0242154
-0.0253445
-0.0263954
-0.0272151
-0.0279289
-0.0282081
-0.0283542
-0.0278236
-0.0271412
-0.0255408
-0.0237884
-0.0209462
-0.0179793
-0.0139131
-0.00978204
-0.00482343
3.86712e-05
1.46325e-06
-0.000606466
-0.00121289
-0.00181829
-0.0024223
-0.00302458
-0.00362468
-0.00422211
-0.0048165
-0.00540744
-0.00599442
-0.00657712
-0.00715513
-0.00772799
-0.0082955
-0.00885703
-0.0103329
-0.0120039
-0.0138667
-0.0158941
-0.0180222
-0.0201323
-0.0220292
-0.0234224
-0.0239199
-0.0230537
-0.0203558
-0.0154958
-0.00847957
6.05856e-05
-2.99317e-06
-0.00024766
-0.000494395
-0.000741062
-0.000987888
-0.00123444
-0.00148093
-0.00172702
-0.00197299
-0.00221844
-0.00246373
-0.00270835
-0.00295277
-0.00319642
-0.00343984
-0.00368233
-0.00392458
-0.00416575
-0.00440661
-0.00464634
-0.00488572
-0.00512379
-0.00536152
-0.00559779
-0.00583363
-0.00606799
-0.00630184
-0.00653401
-0.00676557
-0.00699531
-0.00722733
-0.00783236
-0.0084353
-0.00912453
-0.00980853
-0.0105808
-0.0113446
-0.0121918
-0.0130249
-0.0139247
-0.014802
-0.0157104
-0.0165844
-0.0174264
-0.0182177
-0.0188775
-0.0194657
-0.0197803
-0.02
-0.0197648
-0.0194132
-0.0184078
-0.0172747
-0.0153218
-0.0132509
-0.0103114
-0.00729634
-0.00360422
2.62701e-05
9.99016e-07
-0.00040827
-0.00081656
-0.00122421
-0.00163104
-0.00203682
-0.00244128
-0.00284414
-0.00324517
-0.00364411
-0.00404067
-0.00443465
-0.0048258
-0.00521383
-0.00559863
-0.00597974
-0.00698366
-0.00812521
-0.00940532
-0.0108104
-0.0123035
-0.0138122
-0.0152115
-0.0163069
-0.0168223
-0.0164066
-0.0146761
-0.0113163
-0.00625764
4.60923e-05
-1.94523e-06
-0.000167438
-0.000334271
-0.000501066
-0.000667964
-0.000834693
-0.00100138
-0.00116783
-0.0013342
-0.00150026
-0.00166621
-0.00183176
-0.00199717
-0.00216212
-0.00232692
-0.00249115
-0.00265523
-0.00281865
-0.00298187
-0.00314441
-0.00330672
-0.00346823
-0.00362952
-0.00378991
-0.00395004
-0.00410925
-0.00426814
-0.004426
-0.00458347
-0.00473981
-0.0048976
-0.00531002
-0.00572113
-0.0061924
-0.0066604
-0.00719085
-0.00771594
-0.00830158
-0.00887836
-0.00950611
-0.0101197
-0.0107624
-0.0113831
-0.0119927
-0.0125689
-0.0130682
-0.013519
-0.013795
-0.0140043
-0.0139079
-0.0137259
-0.0130857
-0.0123459
-0.0110086
-0.00957248
-0.00748035
-0.00531801
-0.00263071
1.78298e-05
5.97458e-07
-0.000276731
-0.000553471
-0.000829814
-0.00110564
-0.00138081
-0.00165516
-0.0019285
-0.00220071
-0.0024716
-0.00274101
-0.00300879
-0.0032748
-0.00353886
-0.00380089
-0.00406059
-0.00474566
-0.00552684
-0.0064062
-0.00737673
-0.00841644
-0.00947971
-0.0104854
-0.0113032
-0.0117416
-0.0115463
-0.010424
-0.00811238
-0.00452079
3.42029e-05
-1.22541e-06
-0.000113584
-0.000226786
-0.000339966
-0.00045321
-0.000566345
-0.000679458
-0.000792417
-0.000905326
-0.00101803
-0.00113068
-0.00124306
-0.00135537
-0.00146738
-0.00157929
-0.00169084
-0.0018023
-0.00191333
-0.00202424
-0.00213472
-0.00224505
-0.00235487
-0.00246455
-0.00257366
-0.00268261
-0.00279097
-0.00289912
-0.00300662
-0.00311387
-0.0032204
-0.00332787
-0.00360919
-0.00388969
-0.00421181
-0.00453184
-0.0048955
-0.00525571
-0.0056589
-0.00605637
-0.00649123
-0.00691684
-0.00736622
-0.00780102
-0.00823355
-0.00864374
-0.00900791
-0.00933902
-0.00955725
-0.00972884
-0.00969521
-0.00959984
-0.00918734
-0.00870031
-0.00778776
-0.00679787
-0.00532868
-0.00380113
-0.00188238
1.20942e-05
3.9484e-07
-0.000187713
-0.000375437
-0.000562905
-0.000750039
-0.000936758
-0.00112295
-0.0013085
-0.00149331
-0.00167729
-0.00186032
-0.0020423
-0.00222315
-0.00240274
-0.00258104
-0.00275782
-0.00322462
-0.00375789
-0.00435973
-0.00502639
-0.00574437
-0.00648447
-0.00719348
-0.00778397
-0.00812443
-0.00803518
-0.00730122
-0.00571981
-0.00320542
2.48331e-05
-8.06581e-07
-7.68929e-05
-0.000153533
-0.00023016
-0.00030683
-0.000383429
-0.000460013
-0.0005365
-0.000612952
-0.000689276
-0.000765561
-0.000841674
-0.000917737
-0.000993609
-0.00106942
-0.001145
-0.00122051
-0.00129575
-0.00137092
-0.0014458
-0.00152059
-0.00159505
-0.00166942
-0.00174342
-0.00181731
-0.00189082
-0.00196421
-0.00203716
-0.00210996
-0.00218228
-0.00225523
-0.00244637
-0.00263698
-0.00285614
-0.00307394
-0.00332186
-0.00356752
-0.00384318
-0.00411505
-0.00441359
-0.00470599
-0.00501641
-0.00531707
-0.0056188
-0.00590542
-0.00616404
-0.00640003
-0.00656272
-0.00669296
-0.00668595
-0.00663507
-0.00636732
-0.00604526
-0.00542623
-0.00474915
-0.00373127
-0.00266797
-0.0013223
8.18993e-06
2.57193e-07
-0.000126733
-0.000253475
-0.000380051
-0.000506409
-0.0006325
-0.000758248
-0.000883578
-0.00100844
-0.00113275
-0.00125644
-0.00137946
-0.00150175
-0.00162321
-0.00174384
-0.00186347
-0.00217959
-0.00254116
-0.00294992
-0.00340382
-0.0038944
-0.00440279
-0.00489393
-0.00530939
-0.00555976
-0.00552052
-0.00503898
-0.00396603
-0.00223157
1.76929e-05
-5.3151e-07
-5.16528e-05
-0.000103138
-0.000154617
-0.000206123
-0.000257583
-0.000309033
-0.000360421
-0.000411785
-0.000463067
-0.000514324
-0.000565468
-0.000616579
-0.000667568
-0.000718514
-0.000769312
-0.000820068
-0.000870647
-0.000921174
-0.000971519
-0.0010218
-0.00107187
-0.00112188
-0.00117166
-0.00122135
-0.00127081
-0.00132018
-0.00136927
-0.00141826
-0.00146694
-0.00151603
-0.00164474
-0.00177311
-0.00192084
-0.00206765
-0.002235
-0.00240083
-0.00258726
-0.00277115
-0.00297363
-0.00317197
-0.0033834
-0.00358822
-0.00379511
-0.00399169
-0.00417117
-0.00433508
-0.00445159
-0.00454552
-0.0045486
-0.00452073
-0.00434688
-0.00413406
-0.00371833
-0.00326015
-0.00256585
-0.0018376
-0.000911322
5.52555e-06
1.73087e-07
-8.47134e-05
-0.000169434
-0.000254046
-0.000338517
-0.000422814
-0.000506888
-0.000590691
-0.000674187
-0.00075733
-0.000840069
-0.000922372
-0.00100419
-0.00108549
-0.00116623
-0.00124633
-0.00145806
-0.00170045
-0.00197479
-0.00227993
-0.00261052
-0.00295433
-0.00328837
-0.00357386
-0.0037508
-0.00373453
-0.00341951
-0.00270024
-0.00152378
1.24413e-05
-3.5391e-07
-3.42627e-05
-6.84132e-05
-0.00010256
-0.000136726
-0.000170861
-0.00020499
-0.000239079
-0.000273152
-0.000307173
-0.000341176
-0.000375107
-0.000409017
-0.000442848
-0.000476649
-0.000510357
-0.000544036
-0.000577601
-0.000611131
-0.000644545
-0.000677916
-0.000711153
-0.00074435
-0.000777392
-0.000810385
-0.000843224
-0.000876001
-0.000908603
-0.000941132
-0.000973467
-0.00100607
-0.00109159
-0.00117687
-0.00127511
-0.00137271
-0.00148409
-0.00159443
-0.00171869
-0.0018412
-0.00197644
-0.00210881
-0.00225046
-0.00238752
-0.0025268
-0.00265891
-0.00278079
-0.00289179
-0.00297269
-0.00303768
-0.00304375
-0.00302783
-0.00291587
-0.00277593
-0.00250087
-0.00219498
-0.00173005
-0.00124024
-0.000615389
3.71196e-06
1.16649e-07
-5.59308e-05
-0.000111868
-0.000167733
-0.000223507
-0.00027917
-0.000334687
-0.000390029
-0.000445174
-0.000500089
-0.000554743
-0.000609115
-0.000663175
-0.000716893
-0.000770259
-0.000823193
-0.000963184
-0.00112353
-0.00130517
-0.00150742
-0.0017269
-0.00195572
-0.00217889
-0.00237096
-0.00249222
-0.00248614
-0.00228143
-0.00180574
-0.00102122
8.76145e-06
-2.47974e-07
-2.24818e-05
-4.48842e-05
-6.72854e-05
-8.96999e-05
-0.000112094
-0.000134485
-0.000156851
-0.000179204
-0.000201527
-0.000223837
-0.0002461
-0.000268349
-0.000290549
-0.000312726
-0.000334847
-0.000356948
-0.000378975
-0.000400979
-0.000422911
-0.000444811
-0.000466628
-0.000488417
-0.000510108
-0.000531764
-0.000553325
-0.000574841
-0.000596249
-0.000617605
-0.000638838
-0.00066025
-0.000716425
-0.000772424
-0.000836999
-0.000901109
-0.000974389
-0.0010469
-0.00112875
-0.00120931
-0.00129854
-0.00138567
-0.00147938
-0.00156971
-0.00166223
-0.00174948
-0.00183106
-0.0019046
-0.00195981
-0.00200323
-0.00200972
-0.00199984
-0.00192876
-0.00183675
-0.00165751
-0.00145512
-0.00114876
-0.000823785
-0.00040897
2.53232e-06
9.35969e-08
-3.69759e-05
-7.39607e-05
-0.000110896
-0.000147772
-0.000184577
-0.000221286
-0.000257881
-0.000294349
-0.000330666
-0.000366812
-0.000402777
-0.000438538
-0.000474076
-0.000509386
-0.000544398
-0.000637047
-0.000743211
-0.000863537
-0.000997629
-0.00114331
-0.00129546
-0.00144426
-0.00157295
-0.00165524
-0.00165345
-0.00151971
-0.0012049
-0.000682688
6.43658e-06
-1.66608e-07
-1.50754e-05
-3.00966e-05
-4.51184e-05
-6.01494e-05
-7.51661e-05
-9.01805e-05
-0.00010518
-0.000120168
-0.000135139
-0.0001501
-0.000165031
-0.000179951
-0.000194841
-0.000209713
-0.000224551
-0.000239373
-0.000254148
-0.000268905
-0.000283619
-0.000298306
-0.000312945
-0.00032756
-0.000342113
-0.00035664
-0.000371109
-0.000385541
-0.000399909
-0.000414236
-0.000428486
-0.00044285
-0.000480566
-0.000518126
-0.000561521
-0.000604522
-0.000653807
-0.000702449
-0.000757566
-0.000811613
-0.000871815
-0.00093027
-0.00099367
-0.00105428
-0.00111716
-0.00117568
-0.00123161
-0.00128086
-0.00131957
-0.00134844
-0.00135492
-0.00134768
-0.00130233
-0.00123938
-0.00112104
-0.000983281
-0.000778123
-0.000557684
-0.000277068
1.8162e-06
5.3367e-08
-2.63395e-05
-5.26816e-05
-7.89886e-05
-0.000105255
-0.000131472
-0.00015762
-0.000183688
-0.000209669
-0.000235541
-0.000261294
-0.000286921
-0.000312402
-0.000337727
-0.000362894
-0.00038785
-0.000453883
-0.000529581
-0.000615418
-0.000711133
-0.000815217
-0.000924067
-0.00103075
-0.00112336
-0.00118316
-0.00118315
-0.0010888
-0.000864412
-0.000490569
5.50993e-06
-2.36561e-07
-1.17622e-05
-2.34449e-05
-3.51303e-05
-4.68301e-05
-5.85179e-05
-7.02048e-05
-8.18834e-05
-9.3549e-05
-0.000105207
-0.000116853
-0.000128478
-0.000140091
-0.000151688
-0.000163263
-0.00017482
-0.000186359
-0.000197866
-0.000209353
-0.000220815
-0.000232247
-0.000243651
-0.00025503
-0.000266366
-0.000277673
-0.000288948
-0.000300181
-0.000311376
-0.00032253
-0.000333631
-0.00034486
-0.000374217
-0.000403446
-0.00043732
-0.000470765
-0.000509284
-0.000547091
-0.000590248
-0.000632214
-0.000679485
-0.000724803
-0.000774798
-0.000821669
-0.000871603
-0.000916653
-0.000961642
-0.000999195
-0.00103136
-0.00105263
-0.00106031
-0.00105293
-0.00102068
-0.000969293
-0.000880002
-0.000769865
-0.000611583
-0.000437197
-0.000217537
1.66492e-06
1.79254e-07
-2.44036e-05
-4.88464e-05
-7.3244e-05
-9.76012e-05
-0.000121917
-0.000146166
-0.000170341
-0.000194439
-0.000218436
-0.000242322
-0.000266097
-0.000289739
-0.000313234
-0.000336591
-0.000359654
-0.000420949
-0.00049118
-0.000570836
-0.000659683
-0.000756339
-0.000857485
-0.000956708
-0.00104299
-0.00109893
-0.00109942
-0.00101227
-0.00080413
-0.000456965
5.13004e-06
3.96654e-14
-1.32175e-05
-2.64264e-05
-3.96391e-05
-5.28474e-05
-6.6041e-05
-7.92344e-05
-9.24167e-05
-0.000105582
-0.00011874
-0.000131885
-0.000145005
-0.000158115
-0.000171204
-0.000184267
-0.000197312
-0.000210336
-0.000223323
-0.000236293
-0.00024923
-0.000262133
-0.000275007
-0.000287851
-0.000300648
-0.000313419
-0.000326147
-0.000338832
-0.000351478
-0.000364086
-0.000376636
-0.000389152
-0.000422435
-0.000455386
-0.000493655
-0.000531379
-0.000574907
-0.000617567
-0.000666335
-0.000713708
-0.000767123
-0.00081831
-0.000874805
-0.000927791
-0.000984219
-0.00103521
-0.00108606
-0.00112866
-0.00116503
-0.00118931
-0.00119805
-0.00118994
-0.00115364
-0.0010957
-0.00099503
-0.000870414
-0.000691883
-0.000494555
-0.000246554
1.40278e-15
SCALARS Radial_Distance double 1
LOOKUP_TABLE default
0
0.1667
0.3333
0.5
0.6667
0.8333
1
1.1667
1.3333
1.5
1.6667
1.8333
2
2.1667
2.3333
2.5
2.6667
2.8333
3
3.1667
3.3333
3.5
3.6667
3.8333
4
4.1667
4.3333
4.5
4.6667
4.8333
5
5.4469
5.8938
6.4207
6.9475
7.5685
8.1895
8.9215
9.6535
10.5164
11.3792
12.3964
13.4135
14.6124
15.8114
17.2247
18.638
20.3039
21.9699
23.9336
25.8974
28.2122
30.527
33.2556
35.9843
39.2007
42.4171
46.2086
50
0
0.3333
0.6667
1
1.3333
1.6667
2
2.3333
2.6667
3
3.3333
3.6667
4
4.3333
4.6667
5
5.8938
6.9475
8.1895
9.6535
11.3792
13.4135
15.8114
18.638
21.9699
25.8974
30.527
35.9843
42.4171
50
0
0.1667
0.3333
0.5
0.6667
0.8333
1
1.1667
1.3333
1.5
1.6667
1.8333
2
2.1667
2.3333
2.5
2.6667
2.8333
3
3.1667
3.3333
3.5
3.6667
3.8333
4
4.1667
4.3333
4.5
4.6667
4.8333
5
5.4469
5.8938
6.4207
6.9475
7.5685
8.1895
8.9215
9.6535
10.5164
11.3792
12.3964
13.4135
14.6124
15.8114
17.2247
18.638
20.3039
21.9699
23.9336
25.8974
28.2122
30.527
33.2556
35.9843
39.2007
42.4171
46.2086
50
0
0.3333
0.6667
1
1.3333
1.6667
2
2.3333
2.6667
3
3.3333
3.6667
4
4.3333
4.6667
5
5.8938
6.9475
8.1895
9.6535
11.3792
13.4135
15.8114
18.638
21.9699
25.8974
30.527
35.9843
42.4171
50
0
0.1667
0.3333
0.5
0.6667
0.8333
1
1.1667
1.3333
1.5
1.6667
1.8333
2
2.1667
2.3333
2.5
2.6667
2.8333
3
3.1667
3.3333
3.5
3.6667
3.8333
4
4.1667
4.3333
4.5
4.6667
4.8333
5
5.4469
5.8938
6.4207
6.9475
7.5685
8.1895
8.9215
9.6535
10.5164
11.3792
12.3964
13.4135
14.6124
15.8114
17.2247
18.638
20.3039
21.9699
23.9336
25.8974
28.2122
30.527
33.2556
35.9843
39.2007
42.4171
46.2086
50
0
0.3333
0.6667
1
1.3333
1.6667
2
2.3333
2.6667
3
3.3333
3.6667
4
4.3333
4.6667
5
5.8938
6.9475
8.1895
9.6535
11.3792
13.4135
15.8114
18.638
21.9699
25.8974
30.527
35.9843
42.4171
50
0
0.1667
0.3333
0.5
0.6667
0.8333
1
1.1667
1.3333
1.5
1.6667
1.8333
2
2.1667
2.3333
2.5
2.6667
2.8333
3
3.1667
3.3333
3.5
3.6667
3.8333
4
4.1667
4.3333
4.5
4.6667
4.8333
5
5.4469
5.8938
6.4207
6.9475
7.5685
8.1895
8.9215
9.6535
10.5164
11.3792
12.3964
13.4135
14.6124
15.8114
17.2247
18.638
20.3039
21.9699
23.9336
25.8974
28.2122
30.527
33.2556
35.9843
39.2007
42.4171
46.2086
50
0
0.3333
0.6667
1
1.3333
1.6667
2
2.3333
2.6667
3
3.3333
3.6667
4
4.3333
4.6667
5
5.8938
6.9475
8.1895
9.6535
11.3792
13.4135
15.8114
18.638
21.9699
25.8974
30.527
35.9843
42.4171
50
0
0.1667
0.3333
0.5
0.6667
0.8333
1
1.1667
1.3333
1.5
1.6667
1.8333
2
2.1667
2.3333
2.5
2.6667
2.8333
3
3.1667
3.3333
3.5
3.6667
3.8333
4
4.1667
4.3333
4.5
4.6667
4.8333
5
5.4469
5.8938
6.4207
6.9475
7.5685
8.1895
8.9215
9.6535
10.5164
11.3792
12.3964
13.4135
14.6124
15.8114
17.2247
18.638
20.3039
21.9699
23.9336
25.8974
28.2122
30.527
33.2556
35.9843
39.2007
42.4171
46.2086
50
0
0.3333
0.6667
1
1.3333
1.6667
2
2.3333
2.6667
3
3.3333
3.6667
4
4.3333
4.6667
5
5.8938
6.9475
8.1895
9.6535
11.3792
13.4135
15.8114
18.638
21.9699
25.8974
30.527
35.9843
42.4171
50
0
0.1667
0.3333
0.5
0.6667
0.8333
1
1.1667
1.3333
1.5
1.6667
1.8333
2
2.1667
2.3333
2.5
2.6667
2.8333
3
3.1667
3.3333
3.5
3.6667
3.8333
4
4.1667
4.3333
4.5
4.6667
4.8333
5
5.4469
5.8938
6.4207
6.9475
7.5685
8.1895
8.9215
9.6535
10.5164
11.3792
12.3964
13.4135
14.6124
15.8114
17.2247
18.638
20.3039
21.9699
23.9336
25.8974
28.2122
30.527
33.2556
35.9843
39.2007
42.4171
46.2086
50
0
0.3333
0.6667
1
1.3333
1.6667
2
2.3333
2.6667
3
3.3333
3.6667
4
4.3333
4.6667
5
5.8938
6.9475
8.1895
9.6535
11.3792
13.4135
15.8114
18.638
21.9699
25.8974
30.527
35.9843
42.4171
50
0
0.1667
0.3333
0.5
0.6667
0.8333
1
1.1667
1.3333
1.5
1.6667
1.8333
2
2.1667
2.3333
2.5
2.6667
2.8333
3
3.1667
3.3333
3.5
3.6667
3.8333
4
4.1667
4.3333
4.5
4.6667
4.8333
5
5.4469
5.8938
6.4207
6.9475
7.5685
8.1895
8.9215
9.6535
10.5164
11.3792
12.3964
13.4135
14.6124
15.8114
17.2247
18.638
20.3039
21.9699
23.9336
25.8974
28.2122
30.527
33.2556
35.9843
39.2007
42.4171
46.2086
50
0
0.3333
0.6667
1
1.3333
1.6667
2
2.3333
2.6667
3
3.3333
3.6667
4
4.3333
4.6667
5
5.8938
6.9475
8.1895
9.6535
11.3792
13.4135
15.8114
18.638
21.9699
25.8974
30.527
35.9843
42.4171
50
0
0.1667
0.3333
0.5
0.6667
0.8333
1
1.1667
1.3333
1.5
1.6667
1.8333
2
2.1667
2.3333
2.5
2.6667
2.8333
3
3.1667
3.3333
3.5
3.6667
3.8333
4
4.1667
4.3333
4.5
4.6667
4.8333
5
5.4469
5.8938
6.4207
6.9475
7.5685
8.1895
8.9215
9.6535
10.5164
11.3792
12.3964
13.4135
14.6124
15.8114
17.2247
18.638
20.3039
21.9699
23.9336
25.8974
28.2122
30.527
33.2556
35.9843
39.2007
42.4171
46.2086
50
0
0.3333
0.6667
1
1.3333
1.6667
2
2.3333
2.6667
3
3.3333
3.6667
4
4.3333
4.6667
5
5.8938
6.9475
8.1895
9.6535
11.3792
13.4135
15.8114
18.638
21.9699
25.8974
30.527
35.9843
42.4171
50
0
0.1667
0.3333
0.5
0.6667
0.8333
1
1.1667
1.3333
1.5
1.6667
1.8333
2
2.1667
2.3333
2.5
2.6667
2.8333
3
3.1667
3.3333
3.5
3.6667
3.8333
4
4.1667
4.3333
4.5
4.6667
4.8333
5
5.4469
5.8938
6.4207
6.9475
7.5685
8.1895
8.9215
9.6535
10.5164
11.3792
12.3964
13.4135
14.6124
15.8114
17.2247
18.638
20.3039
21.9699
23.9336
25.8974
28.2122
30.527
33.2556
35.9843
39.2007
42.4171
46.2086
50
0
0.3333
0.6667
1
1.3333
1.6667
2
2.3333
2.6667
3
3.3333
3.6667
4
4.3333
4.6667
5
5.8938
6.9475
8.1895
9.6535
11.3792
13.4135
15.8114
18.638
21.9699
25.8974
30.527
35.9843
42.4171
50
0
0.1667
0.3333
0.5
0.6667
0.8333
1
1.1667
1.3333
1.5
1.6667
1.8333
2
2.1667
2.3333
2.5
2.6667
2.8333
3
3.1667
3.3333
3.5
3.6667
3.8333
4
4.1667
4.3333
4.5
4.6667
4.8333
5
5.4469
5.8938
6.4207
6.9475
7.5685
8.1895
8.9215
9.6535
10.5164
11.3792
12.3964
13.4135
14.6124
15.8114
17.2247
18.638
20.3039
21.9699
23.9336
25.8974
28.2122
30.527
33.2556
35.9843
39.2007
42.4171
46.2086
50
0
0.3333
0.6667
1
1.3333
1.6667
2
2.3333
2.6667
3
3.3333
3.6667
4
4.3333
4.6667
5
5.8938
6.9475
8.1895
9.6535
11.3792
13.4135
15.8114
18.638
21.9699
25.8974
30.527
35.9843
42.4171
50
0
0.1667
0.3333
0.5
0.6667
0.8333
1
1.1667
1.3333
1.5
1.6667
1.8333
2
2.1667
2.3333
2.5
2.6667
2.8333
3
3.1667
3.3333
3.5
3.6667
3.8333
4
4.1667
4.3333
4.5
4.6667
4.8333
5
5.4469
5.8938
6.4207
6.9475
7.5685
8.1895
8.9215
9.6535
10.5164
11.3792
12.3964
13.4135
14.6124
15.8114
17.2247
18.638
20.3039
21.9699
23.9336
25.8974
28.2122
30.527
33.2556
35.9843
39.2007
42.4171
46.2086
50
0
0.3333
0.6667
1
1.3333
1.6667
2
2.3333
2.6667
3
3.3333
3.6667
4
4.3333
4.6667
5
5.8938
6.9475
8.1895
9.6535
11.3792
13.4135
15.8114
18.638
21.9699
25.8974
30.527
35.9843
42.4171
50
0
0.1667
0.3333
0.5
0.6667
0.8333
1
1.1667
1.3333
1.5
1.6667
1.8333
2
2.1667
2.3333
2.5
2.6667
2.8333
3
3.1667
3.3333
3.5
3.6667
3.8333
4
4.1667
4.3333
4.5
4.6667
4.8333
5
5.4469
5.8938
6.4207
6.9475
7.5685
8.1895
8.9215
9.6535
10.5164
11.3792
12.3964
13.4135
14.6124
15.8114
17.2247
18.638
20.3039
21.9699
23.9336
25.8974
28.2122
30.527
33.2556
35.9843
39.2007
42.4171
46.2086
50
0
0.3333
0.6667
1
1.3333
1.6667
2
2.3333
2.6667
3
3.3333
3.6667
4
4.3333
4.6667
5
5.8938
6.9475
8.1895
9.6535
11.3792
13.4135
15.8114
18.638
21.9699
25.8974
30.527
35.9843
42.4171
50
0
0.1667
0.3333
0.5
0.6667
0.8333
1
1.1667
1.3333
1.5
1.6667
1.8333
2
2.1667
2.3333
2.5
2.6667
2.8333
3
3.1667
3.3333
3.5
3.6667
3.8333
4
4.1667
4.3333
4.5
4.6667
4.8333
5
5.4469
5.8938
6.4207
6.9475
7.5685
8.1895
8.9215
9.6535
10.5164
11.3792
12.3964
13.4135
14.6124
15.8114
17.2247
18.638
20.3039
21.9699
23.9336
25.8974
28.2122
30.527
33.2556
35.9843
39.2007
42.4171
46.2086
50
0
0.3333
0.6667
1
1.3333
1.6667
2
2.3333
2.6667
3
3.3333
3.6667
4
4.3333
4.6667
5
5.8938
6.9475
8.1895
9.6535
11.3792
13.4135
15.8114
18.638
21.9699
25.8974
30.527
35.9843
42.4171
50
0
0.1667
0.3333
0.5
0.6667
0.8333
1
1.1667
1.3333
1.5
1.6667
1.8333
2
2.1667
2.3333
2.5
2.6667
2.8333
3
3.1667
3.3333
3.5
3.6667
3.8333
4
4.1667
4.3333
4.5
4.6667
4.8333
5
5.4469
5.8938
6.4207
6.9475
7.5685
8.1895
8.9215
9.6535
10.5164
11.3792
12.3964
13.4135
14.6124
15.8114
17.2247
18.638
20.3039
21.9699
23.9336
25.8974
28.2122
30.527
33.2556
35.9843
39.2007
42.4171
46.2086
50
0
0.3333
0.6667
1
1.3333
1.6667
2
2.3333
2.6667
3
3.3333
3.6667
4
4.3333
4.6667
5
5.8938
6.9475
8.1895
9.6535
11.3792
13.4135
15.8114
18.638
21.9699
25.8974
30.527
35.9843
42.4171
50
0
0.1667
0.3333
0.5
0.6667
0.8333
1
1.1667
1.3333
1.5
1.6667
1.8333
2
2.1667
2.3333
2.5
2.6667
2.8333
3
3.1667
3.3333
3.5
3.6667
3.8333
4
4.1667
4.3333
4.5
4.6667
4.8333
5
5.4469
5.8938
6.4207
6.9475
7.5685
8.1895
8.9215
9.6535
10.5164
11.3792
12.3964
13.4135
14.6124
15.8114
17.2247
18.638
20.3039
21.9699
23.9336
25.8974
28.2122
30.527
33.2556
35.9843
39.2007
42.4171
46.2086
50
0
0.3333
0.6667
1
1.3333
1.6667
2
2.3333
2.6667
3
3.3333
3.6667
4
4.3333
4.6667
5
5.8938
6.9475
8.1895
9.6535
11.3792
13.4135
15.8114
18.638
21.9699
25.8974
30.527
35.9843
42.4171
50
0
0.1667
0.3333
0.5
0.6667
0.8333
1
1.1667
1.3333
1.5
1.6667
1.8333
2
2.1667
2.3333
2.5
2.6667
2.8333
3
3.1667
3.3333
3.5
3.6667
3.8333
4
4.1667
4.3333
4.5
4.6667
4.8333
5
5.4469
5.8938
6.4207
6.9475
7.5685
8.1895
8.9215
9.6535
10.5164
11.3792
12.3964
13.4135
14.6124
15.8114
17.2247
18.638
20.3039
21.9699
23.9336
25.8974
28.2122
30.527
33.2556
35.9843
39.2007
42.4171
46.2086
50
0
0.3333
0.6667
1
1.3333
1.6667
2
2.3333
2.6667
3
3.3333
3.6667
4
4.3333
4.6667
5
5.8938
6.9475
8.1895
9.6535
11.3792
13.4135
15.8114
18.638
21.9699
25.8974
30.527
35.9843
42.4171
50
0
0.1667
0.3333
0.5
0.6667
0.8333
1
1.1667
1.3333
1.5
1.6667
1.8333
2
2.1667
2.3333
2.5
2.6667
2.8333
3
3.1667
3.3333
3.5
3.6667
3.8333
4
4.1667
4.3333
4.5
4.6667
4.8333
5
5.4469
5.8938
6.4207
6.9475
7.5685
8.1895
8.9215
9.6535
10.5164
11.3792
12.3964
13.4135
14.6124
15.8114
17.2247
18.638
20.3039
21.9699
23.9336
25.8974
28.2122
30.527
33.2556
35.9843
39.2007
42.4171
46.2086
50
0
0.3333
0.6667
1
1.3333
1.6667
2
2.3333
2.6667
3
3.3333
3.6667
4
4.3333
4.6667
5
5.8938
6.9475
8.1895
9.6535
11.3792
13.4135
15.8114
18.638
21.9699
25.8974
30.527
35.9843
42.4171
50
0
0.1667
0.3333
0.5
0.6667
0.8333
1
1.1667
1.3333
1.5
1.6667
1.8333
2
2.1667
2.3333
2.5
2.6667
2.8333
3
3.1667
3.3333
3.5
3.6667
3.8333
4
4.1667
4.3333
4.5
4.6667
4.8333
5
5.4469
5.8938
6.4207
6.9475
7.5685
8.1895
8.9215
9.6535
10.5164
11.3792
12.3964
13.4135
14.6124
15.8114
17.2247
18.638
20.3039
21.9699
23.9336
25.8974
28.2122
30.527
33.2556
35.9843
39.2007
42.4171
46.2086
50
0
0.3333
0.6667
1
1.3333
1.6667
2
2.3333
2.6667
3
3.3333
3.6667
4
4.3333
4.6667
5
5.8938
6.9475
8.1895
9.6535
11.3792
13.4135
15.8114
18.638
21.9699
25.8974
30.527
35.9843
42.4171
50
0
0.1667
0.3333
0.5
0.6667
0.8333
1
1.1667
1.3333
1.5
1.6667
1.8333
2
2.1667
2.3333
2.5
2.6667
2.8333
3
3.1667
3.3333
3.5
3.6667
3.8333
4
4.1667
4.3333
4.5
4.6667
4.8333
5
5.4469
5.8938
6.4207
6.9475
7.5685
8.1895
8.9215
9.6535
10.5164
11.3792
12.3964
13.4135
14.6124
15.8114
17.2247
18.638
20.3039
21.9699
23.9336
25.8974
28.2122
30.527
33.2556
35.9843
39.2007
42.4171
46.2086
50
0
0.3333
0.6667
1
1.3333
1.6667
2
2.3333
2.6667
3
3.3333
3.6667
4
4.3333
4.6667
5
5.8938
6.9475
8.1895
9.6535
11.3792
13.4135
15.8114
18.638
21.9699
25.8974
30.527
35.9843
42.4171
50
0
0.1667
0.3333
0.5
0.6667
0.8333
1
1.1667
1.3333
1.5
1.6667
1.8333
2
2.1667
2.3333
2.5
2.6667
2.8333
3
3.1667
3.3333
3.5
3.6667
3.8333
4
4.1667
4.3333
4.5
4.6667
4.8333
5
5.4469
5.8938
6.4207
6.9475
7.5685
8.1895
8.9215
9.6535
10.5164
11.3792
12.3964
13.4135
14.6124
15.8114
17.2247
18.638
20.3039
21.9699
23.9336
25.8974
28.2122
30.527
33.2556
35.9843
39.2007
42.4171
46.2086
50
0
0.3333
0.6667
1
1.3333
1.6667
2
2.3333
2.6667
3
3.3333
3.6667
4
4.3333
4.6667
5
5.8938
6.9475
8.1895
9.6535
11.3792
13.4135
15.8114
18.638
21.9699
25.8974
30.527
35.9843
42.4171
50
0
0.1667
0.3333
0.5
0.6667
0.8333
1
1.1667
1.3333
1.5
1.6667
1.8333
2
2.1667
2.3333
2.5
2.6667
2.8333
3
3.1667
3.3333
3.5
3.6667
3.8333
4
4.1667
4.3333
4.5
4.6667
4.8333
5
5.4469
5.8938
6.4207
6.9475
7.5685
8.1895
8.9215
9.6535
10.5164
11.3792
12.3964
13.4135
14.6124
15.8114
17.2247
18.638
20.3039
21.9699
23.9336
25.8974
28.2122
30.527
33.2556
35.9843
39.2007
42.4171
46.2086
50
0
0.3333
0.6667
1
1.3333
1.6667
2
2.3333
2.6667
3
3.3333
3.6667
4
4.3333
4.6667
5
5.8938
6.9475
8.1895
9.6535
11.3792
13.4135
15.8114
18.638
21.9699
25.8974
30.527
35.9843
42.4171
50
0
0.1667
0.3333
0.5
0.6667
0.8333
1
1.1667
1.3333
1.5
1.6667
1.8333
2
2.1667
2.3333
2.5
2.6667
2.8333
3
3.1667
3.3333
3.5
3.6667
3.8333
4
4.1667
4.3333
4.5
4.6667
4.8333
5
5.4469
5.8938
6.4207
6.9475
7.5685
8.1895
8.9215
9.6535
10.5164
11.3792
12.3964
13.4135
14.6124
15.8114
17.2247
18.638
20.3039
21.9699
23.9336
25.8974
28.2122
30.527
33.2556
35.9843
39.2007
42.4171
46.2086
50
0
0.3333
0.6667
1
1.3333
1.6667
2
2.3333
2.6667
3
3.3333
3.6667
4
4.3333
4.6667
5
5.8938
6.9475
8.1895
9.6535
11.3792
13.4135
15.8114
18.638
21.9699
25.8974
30.527
35.9843
42.4171
50
0
0.1667
0.3333
0.5
0.6667
0.8333
1
1.1667
1.3333
1.5
1.6667
1.8333
2
2.1667
2.3333
2.5
2.6667
2.8333
3
3.1667
3.3333
3.5
3.6667
3.8333
4
4.1667
4.3333
4.5
4.6667
4.8333
5
5.4469
5.8938
6.4207
6.9475
7.5685
8.1895
8.9215
9.6535
10.5164
11.3792
12.3964
13.4135
14.6124
15.8114
17.2247
18.638
20.3039
21.9699
23.9336
25.8974
28.2122
30.527
33.2556
35.9843
39.2007
42.4171
46.2086
50
0
0.3333
0.6667
1
1.3333
1.6667
2
2.3333
2.6667
3
3.3333
3.6667
4
4.3333
4.6667
5
5.8938
6.9475
8.1895
9.6535
11.3792
13.4135
15.8114
18.638
21.9699
25.8974
30.527
35.9843
42.4171
50
0
0.1667
0.3333
0.5
0.6667
0.8333
1
1.1667
1.3333
1.5
1.6667
1.8333
2
2.1667
2.3333
2.5
2.6667
2.8333
3
3.1667
3.3333
3.5
3.6667
3.8333
4
4.1667
4.3333
4.5
4.6667
4.8333
5
5.4469
5.8938
6.4207
6.9475
7.5685
8.1895
8.9215
9.6535
10.5164
11.3792
12.3964
13.4135
14.6124
15.8114
17.2247
18.638
20.3039
21.9699
23.9336
25.8974
28.2122
30.527
33.2556
35.9843
39.2007
42.4171
46.2086
50
0
0.3333
0.6667
1
1.3333
1.6667
2
2.3333
2.6667
3
3.3333
3.6667
4
4.3333
4.6667
5
5.8938
6.9475
8.1895
9.6535
11.3792
13.4135
15.8114
18.638
21.9699
25.8974
30.527
35.9843
42.4171
50
0
0.1667
0.3333
0.5
0.6667
0.8333
1
1.1667
1.3333
1.5
1.6667
1.8333
2
2.1667
2.3333
2.5
2.6667
2.8333
3
3.1667
3.3333
3.5
3.6667
3.8333
4
4.1667
4.3333
4.5
4.6667
4.8333
5
5.4469
5.8938
6.4207
6.9475
7.5685
8.1895
8.9215
9.6535
10.5164
11.3792
12.3964
13.4135
14.6124
15.8114
17.2247
18.638
20.3039
21.9699
23.9336
25.8974
28.2122
30.527
33.2556
35.9843
39.2007
42.4171
46.2086
50
0
0.3333
0.6667
1
1.3333
1.6667
2
2.3333
2.6667
3
3.3333
3.6667
4
4.3333
4.6667
5
5.8938
6.9475
8.1895
9.6535
11.3792
13.4135
15.8114
18.638
21.9699
25.8974
30.527
35.9843
42.4171
50
0
0.1667
0.3333
0.5
0.6667
0.8333
1
1.1667
1.3333
1.5
1.6667
1.8333
2
2.1667
2.3333
2.5
2.6667
2.8333
3
3.1667
3.3333
3.5
3.6667
3.8333
4
4.1667
4.3333
4.5
4.6667
4.8333
5
5.4469
5.8938
6.4207
6.9475
7.5685
8.1895
8.9215
9.6535
10.5164
11.3792
12.3964
13.4135
14.6124
15.8114
17.2247
18.638
20.3039
21.9699
23.9336
25.8974
28.2122
30.527
33.2556
35.9843
39.2007
42.4171
46.2086
50
0
0.3333
0.6667
1
1.3333
1.6667
2
2.3333
2.6667
3
3.3333
3.6667
4
4.3333
4.6667
5
5.8938
6.9475
8.1895
9.6535
11.3792
13.4135
15.8114
18.638
21.9699
25.8974
30.527
35.9843
42.4171
50
0
0.1667
0.3333
0.5
0.6667
0.8333
1
1.1667
1.3333
1.5
1.6667
1.8333
2
2.1667
2.3333
2.5
2.6667
2.8333
3
3.1667
3.3333
3.5
3.6667
3.8333
4
4.1667
4.3333
4.5
4.6667
4.8333
5
5.4469
5.8938
6.4207
6.9475
7.5685
8.1895
8.9215
9.6535
10.5164
11.3792
12.3964
13.4135
14.6124
15.8114
17.2247
18.638
20.3039
21.9699
23.9336
25.8974
28.2122
30.527
33.2556
35.9843
39.2007
42.4171
46.2086
50
0
0.3333
0.6667
1
1.3333
1.6667
2
2.3333
2.6667
3
3.3333
3.6667
4
4.3333
4.6667
5
5.8938
6.9475
8.1895
9.6535
11.3792
13.4135
15.8114
18.638
21.9699
25.8974
30.527
35.9843
42.4171
50
0
0.1667
0.3333
0.5
0.6667
0.8333
1
1.1667
1.3333
1.5
1.6667
1.8333
2
2.1667
2.3333
2.5
2.6667
2.8333
3
3.1667
3.3333
3.5
3.6667
3.8333
4
4.1667
4.3333
4.5
4.6667
4.8333
5
5.4469
5.8938
6.4207
6.9475
7.5685
8.1895
8.9215
9.6535
10.5164
11.3792
12.3964
13.4135
14.6124
15.8114
17.2247
18.638
20.3039
21.9699
23.9336
25.8974
28.2122
30.527
33.2556
35.9843
39.2007
42.4171
46.2086
50
0
0.3333
0.6667
1
1.3333
1.6667
2
2.3333
2.6667
3
3.3333
3.6667
4
4.3333
4.6667
5
5.8938
6.9475
8.1895
9.6535
11.3792
13.4135
15.8114
18.638
21.9699
25.8974
30.527
35.9843
42.4171
50
0
0.1667
0.3333
0.5
0.6667
0.8333
1
1.1667
1.3333
1.5
1.6667
1.8333
2
2.1667
2.3333
2.5
2.6667
2.8333
3
3.1667
3.3333
3.5
3.6667
3.8333
4
4.1667
4.3333
4.5
4.6667
4.8333
5
5.4469
5.8938
6.4207
6.9475
7.5685
8.1895
8.9215
9.6535
10.5164
11.3792
12.3964
13.4135
14.6124
15.8114
17.2247
18.638
20.3039
21.9699
23.9336
25.8974
28.2122
30.527
33.2556
35.9843
39.2007
42.4171
46.2086
50
0
0.3333
0.6667
1
1.3333
1.6667
2
2.3333
2.6667
3
3.3333
3.6667
4
4.3333
4.6667
5
5.8938
6.9475
8.1895
9.6535
11.3792
13.4135
15.8114
18.638
21.9699
25.8974
30.527
35.9843
42.4171
50
0
0.1667
0.3333
0.5
0.6667
0.8333
1
1.1667
1.3333
1.5
1.6667
1.8333
2
2.1667
2.3333
2.5
2.6667
2.8333
3
3.1667
3.3333
3.5
3.6667
3.8333
4
4.1667
4.3333
4.5
4.6667
4.8333
5
5.4469
5.8938
6.4207
6.9475
7.5685
8.1895
8.9215
9.6535
10.5164
11.3792
12.3964
13.4135
14.6124
15.8114
17.2247
18.638
20.3039
21.9699
23.9336
25.8974
28.2122
30.527
33.2556
35.9843
39.2007
42.4171
46.2086
50
0
0.3333
0.6667
1
1.3333
1.6667
2
2.3333
2.6667
3
3.3333
3.6667
4
4.3333
4.6667
5
5.8938
6.9475
8.1895
9.6535
11.3792
13.4135
15.8114
18.638
21.9699
25.8974
30.527
35.9843
42.4171
50
0
0.1667
0.3333
0.5
0.6667
0.8333
1
1.1667
1.3333
1.5
1.6667
1.8333
2
2.1667
2.3333
2.5
2.6667
2.8333
3
3.1667
3.3333
3.5
3.6667
3.8333
4
4.1667
4.3333
4.5
4.6667
4.8333
5
5.4469
5.8938
6.4207
6.9475
7.5685
8.1895
8.9215
9.6535
10.5164
11.3792
12.3964
13.4135
14.6124
15.8114
17.2247
18.638
20.3039
21.9699
23.9336
25.8974
28.2122
30.527
33.2556
35.9843
39.2007
42.4171
46.2086
50
0
0.3333
0.6667
1
1.3333
1.6667
2
2.3333
2.6667
3
3.3333
3.6667
4
4.3333
4.6667
5
5.8938
6.9475
8.1895
9.6535
11.3792
13.4135
15.8114
18.638
21.9699
25.8974
30.527
35.9843
42.4171
50
0
0.1667
0.3333
0.5
0.6667
0.8333
1
1.1667
1.3333
1.5
1.6667
1.8333
2
2.1667
2.3333
2.5
2.6667
2.8333
3
3.1667
3.3333
3.5
3.6667
3.8333
4
4.1667
4.3333
4.5
4.6667
4.8333
5
5.4469
5.8938
6.4207
6.9475
7.5685
8.1895
8.9215
9.6535
10.5164
11.3792
12.3964
13.4135
14.6124
15.8114
17.2247
18.638
20.3039
21.9699
23.9336
25.8974
28.2122
30.527
33.2556
35.9843
39.2007
42.4171
46.2086
50
0
0.3333
0.6667
1
1.3333
1.6667
2
2.3333
2.6667
3
3.3333
3.6667
4
4.3333
4.6667
5
5.8938
6.9475
8.1895
9.6535
11.3792
13.4135
15.8114
18.638
21.9699
25.8974
30.527
35.9843
42.4171
50
0
0.1667
0.3333
0.5
0.6667
0.8333
1
1.1667
1.3333
1.5
1.6667
1.8333
2
2.1667
2.3333
2.5
2.6667
2.8333
3
3.1667
3.3333
3.5
3.6667
3.8333
4
4.1667
4.3333
4.5
4.6667
4.8333
5
5.4469
5.8938
6.4207
6.9475
7.5685
8.1895
8.9215
9.6535
10.5164
11.3792
12.3964
13.4135
14.6124
15.8114
17.2247
18.638
20.3039
21.9699
23.9336
25.8974
28.2122
30.527
33.2556
35.9843
39.2007
42.4171
46.2086
50
0
0.3333
0.6667
1
1.3333
1.6667
2
2.3333
2.6667
3
3.3333
3.6667
4
4.3333
4.6667
5
5.8938
6.9475
8.1895
9.6535
11.3792
13.4135
15.8114
18.638
21.9699
25.8974
30.527
35.9843
42.4171
50
0
0.1667
0.3333
0.5
0.6667
0.8333
1
1.1667
1.3333
1.5
1.6667
1.8333
2
2.1667
2.3333
2.5
2.6667
2.8333
3
3.1667
3.3333
3.5
3.6667
3.8333
4
4.1667
4.3333
4.5
4.6667
4.8333
5
5.4469
5.8938
6.4207
6.9475
7.5685
8.1895
8.9215
9.6535
10.5164
11.3792
12.3964
13.4135
14.6124
15.8114
17.2247
18.638
20.3039
21.9699
23.9336
25.8974
28.2122
30.527
33.2556
35.9843
39.2007
42.4171
46.2086
50
0
0.3333
0.6667
1
1.3333
1.6667
2
2.3333
2.6667
3
3.3333
3.6667
4
4.3333
4.6667
5
5.8938
6.9475
8.1895
9.6535
11.3792
13.4135
15.8114
18.638
21.9699
25.8974
30.527
35.9843
42.4171
50
0
0.1667
0.3333
0.5
0.6667
0.8333
1
1.1667
1.3333
1.5
1.6667
1.8333
2
2.1667
2.3333
2.5
2.6667
2.8333
3
3.1667
3.3333
3.5
3.6667
3.8333
4
4.1667
4.3333
4.5
4.6667
4.8333
5
5.4469
5.8938
6.4207
6.9475
7.5685
8.1895
8.9215
9.6535
10.5164
11.3792
12.3964
13.4135
14.6124
15.8114
17.2247
18.638
20.3039
21.9699
23.9336
25.8974
28.2122
30.527
33.2556
35.9843
39.2007
42.4171
46.2086
50
0
0.3333
0.6667
1
1.3333
1.6667
2
2.3333
2.6667
3
3.3333
3.6667
4
4.3333
4.6667
5
5.8938
6.9475
8.1895
9.6535
11.3792
13.4135
15.8114
18.638
21.9699
25.8974
30.527
35.9843
42.4171
50
0
0.1667
0.3333
0.5
0.6667
0.8333
1
1.1667
1.3333
1.5
1.6667
1.8333
2
2.1667
2.3333
2.5
2.6667
2.8333
3
3.1667
3.3333
3.5
3.6667
3.8333
4
4.1667
4.3333
4.5
4.6667
4.8333
5
5.4469
5.8938
6.4207
6.9475
7.5685
8.1895
8.9215
9.6535
10.5164
11.3792
12.3964
13.4135
14.6124
15.8114
17.2247
18.638
20.3039
21.9699
23.9336
25.8974
28.2122
30.527
33.2556
35.9843
39.2007
42.4171
46.2086
50
0
0.3333
0.6667
1
1.3333
1.6667
2
2.3333
2.6667
3
3.3333
3.6667
4
4.3333
4.6667
5
5.8938
6.9475
8.1895
9.6535
11.3792
13.4135
15.8114
18.638
21.9699
25.8974
30.527
35.9843
42.4171
50
0
0.1667
0.3333
0.5
0.6667
0.8333
1
1.1667
1.3333
1.5
1.6667
1.8333
2
2.1667
2.3333
2.5
2.6667
2.8333
3
3.1667
3.3333
3.5
3.6667
3.8333
4
4.1667
4.3333
4.5
4.6667
4.8333
5
5.4469
5.8938
6.4207
6.9475
7.5685
8.1895
8.9215
9.6535
10.5164
11.3792
12.3964
13.4135
14.6124
15.8114
17.2247
18.638
20.3039
21.9699
23.9336
25.8974
28.2122
30.527
33.2556
35.9843
39.2007
42.4171
46.2086
50
0
0.3333
0.6667
1
1.3333
1.6667
2
2.3333
2.6667
3
3.3333
3.6667
4
4.3333
4.6667
5
5.8938
6.9475
8.1895
9.6535
11.3792
13.4135
15.8114
18.638
21.9699
25.8974
30.527
35.9843
42.4171
50
0
0.1667
0.3333
0.5
0.6667
0.8333
1
1.1667
1.3333
1.5
1.6667
1.8333
2
2.1667
2.3333
2.5
2.6667
2.8333
3
3.1667
3.3333
3.5
3.6667
3.8333
4
4.1667
4.3333
4.5
4.6667
4.8333
5
5.4469
5.8938
6.4207
6.9475
7.5685
8.1895
8.9215
9.6535
10.5164
11.3792
12.3964
13.4135
14.6124
15.8114
17.2247
18.638
20.3039
21.9699
23.9336
25.8974
28.2122
30.527
33.2556
35.9843
39.2007
42.4171
46.2086
50
0
0.3333
0.6667
1
1.3333
1.6667
2
2.3333
2.6667
3
3.3333
3.6667
4
4.3333
4.6667
5
5.8938
6.9475
8.1895
9.6535
11.3792
13.4135
15.8114
18.638
21.9699
25.8974
30.527
35.9843
42.4171
50
0
0.1667
0.3333
0.5
0.6667
0.8333
1
1.1667
1.3333
1.5
1.6667
1.8333
2
2.1667
2.3333
2.5
2.6667
2.8333
3
3.1667
3.3333
3.5
3.6667
3.8333
4
4.1667
4.3333
4.5
4.6667
4.8333
5
5.4469
5.8938
6.4207
6.9475
7.5685
8.1895
8.9215
9.6535
10.5164
11.3792
12.3964
13.4135
14.6124
15.8114
17.2247
18.638
20.3039
21.9699
23.9336
25.8974
28.2122
30.527
33.2556
35.9843
39.2007
42.4171
46.2086
50
0
0.3333
0.6667
1
1.3333
1.6667
2
2.3333
2.6667
3
3.3333
3.6667
4
4.3333
4.6667
5
5.8938
6.9475
8.1895
9.6535
11.3792
13.4135
15.8114
18.638
21.9699
25.8974
30.527
35.9843
42.4171
50
0
0.1667
0.3333
0.5
0.6667
0.8333
1
1.1667
1.3333
1.5
1.6667
1.8333
2
2.1667
2.3333
2.5
2.6667
2.8333
3
3.1667
3.3333
3.5
3.6667
3.8333
4
4.1667
4.3333
4.5
4.6667
4.8333
5
5.4469
5.8938
6.4207
6.9475
7.5685
8.1895
8.9215
9.6535
10.5164
11.3792
12.3964
13.4135
14.6124
15.8114
17.2247
18.638
20.3039
21.9699
23.9336
25.8974
28.2122
30.527
33.2556
35.9843
39.2007
42.4171
46.2086
50
0
0.3333
0.6667
1
1.3333
1.6667
2
2.3333
2.6667
3
3.3333
3.6667
4
4.3333
4.6667
5
5.8938
6.9475
8.1895
9.6535
11.3792
13.4135
15.8114
18.638
21.9699
25.8974
30.527
35.9843
42.4171
50
0
0.1667
0.3333
0.5
0.6667
0.8333
1
1.1667
1.3333
1.5
1.6667
1.8333
2
2.1667
2.3333
2.5
2.6667
2.8333
3
3.1667
3.3333
3.5
3.6667
3.8333
4
4.1667
4.3333
4.5
4.6667
4.8333
5
5.4469
5.8938
6.4207
6.9475
7.5685
8.1895
8.9215
9.6535
10.5164
11.3792
12.3964
13.4135
14.6124
15.8114
17.2247
18.638
20.3039
21.9699
23.9336
25.8974
28.2122
30.527
33.2556
35.9843
39.2007
42.4171
46.2086
50
0
0.3333
0.6667
1
1.3333
1.6667
2
2.3333
2.6667
3
3.3333
3.6667
4
4.3333
4.6667
5
5.8938
6.9475
8.1895
9.6535
11.3792
13.4135
15.8114
18.638
21.9699
25.8974
30.527
35.9843
42.4171
50
0
0.1667
0.3333
0.5
0.6667
0.8333
1
1.1667
1.3333
1.5
1.6667
1.8333
2
2.1667
2.3333
2.5
2.6667
2.8333
3
3.1667
3.3333
3.5
3.6667
3.8333
4
4.1667
4.3333
4.5
4.6667
4.8333
5
5.4469
5.8938
6.4207
6.9475
7.5685
8.1895
8.9215
9.6535
10.5164
11.3792
12.3964
13.4135
14.6124
15.8114
17.2247
18.638
20.3039
21.9699
23.9336
25.8974
28.2122
30.527
33.2556
35.9843
39.2007
42.4171
46.2086
50
0
0.3333
0.6667
1
1.3333
1.6667
2
2.3333
2.6667
3
3.3333
3.6667
4
4.3333
4.6667
5
5.8938
6.9475
8.1895
9.6535
11.3792
13.4135
15.8114
18.638
21.9699
25.8974
30.527
35.9843
42.4171
50
0
0.1667
0.3333
0.5
0.6667
0.8333
1
1.1667
1.3333
1.5
1.6667
1.8333
2
2.1667
2.3333
2.5
2.6667
2.8333
3
3.1667
3.3333
3.5
3.6667
3.8333
4
4.1667
4.3333
4.5
4.6667
4.8333
5
5.4469
5.8938
6.4207
6.9475
7.5685
8.1895
8.9215
9.6535
10.5164
11.3792
12.3964
13.4135
14.6124
15.8114
17.2247
18.638
20.3039
21.9699
23.9336
25.8974
28.2122
30.527
33.2556
35.9843
39.2007
42.4171
46.2086
50
0
0.3333
0.6667
1
1.3333
1.6667
2
2.3333
2.6667
3
3.3333
3.6667
4
4.3333
4.6667
5
5.8938
6.9475
8.1895
9.6535
11.3792
13.4135
15.8114
18.638
21.9699
25.8974
30.527
35.9843
42.4171
50
0
0.1667
0.3333
0.5
0.6667
0.8333
1
1.1667
1.3333
1.5
1.6667
1.8333
2
2.1667
2.3333
2.5
2.6667
2.8333
3
3.1667
3.3333
3.5
3.6667
3.8333
4
4.1667
4.3333
4.5
4.6667
4.8333
5
5.4469
5.8938
6.4207
6.9475
7.5685
8.1895
8.9215
9.6535
10.5164
11.3792
12.3964
13.4135
14.6124
15.8114
17.2247
18.638
20.3039
21.9699
23.9336
25.8974
28.2122
30.527
33.2556
35.9843
39.2007
42.4171
46.2086
50
0
0.3333
0.6667
1
1.3333
1.6667
2
2.3333
2.6667
3
3.3333
3.6667
4
4.3333
4.6667
5
5.8938
6.9475
8.1895
9.6535
11.3792
13.4135
15.8114
18.638
21.9699
25.8974
30.527
35.9843
42.4171
50
0
0.1667
0.3333
0.5
0.6667
0.8333
1
1.1667
1.3333
1.5
1.6667
1.8333
2
2.1667
2.3333
2.5
2.6667
2.8333
3
3.1667
3.3333
3.5
3.6667
3.8333
4
4.1667
4.3333
4.5
4.6667
4.8333
5
5.4469
5.8938
6.4207
6.9475
7.5685
8.1895
8.9215
9.6535
10.5164
11.3792
12.3964
13.4135
14.6124
15.8114
17.2247
18.638
20.3039
21.9699
23.9336
25.8974
28.2122
30.527
33.2556
35.9843
39.2007
42.4171
46.2086
50
0
0.3333
0.6667
1
1.3333
1.6667
2
2.3333
2.6667
3
3.3333
3.6667
4
4.3333
4.6667
5
5.8938
6.9475
8.1895
9.6535
11.3792
13.4135
15.8114
18.638
21.9699
25.8974
30.527
35.9843
42.4171
50
0
0.1667
0.3333
0.5
0.6667
0.8333
1
1.1667
1.3333
1.5
1.6667
1.8333
2
2.1667
2.3333
2.5
2.6667
2.8333
3
3.1667
3.3333
3.5
3.6667
3.8333
4
4.1667
4.3333
4.5
4.6667
4.8333
5
5.4469
5.8938
6.4207
6.9475
7.5685
8.1895
8.9215
9.6535
10.5164
11.3792
12.3964
13.4135
14.6124
15.8114
17.2247
18.638
20.3039
21.9699
23.9336
25.8974
28.2122
30.527
33.2556
35.9843
39.2007
42.4171
46.2086
50
SCALARS Depth double 1
LOOKUP_TABLE default
0
0
0
0
0
0
0
0
0
0
0
0
0
0
0
0
0
0
0
0
0
0
0
0
0
0
0
0
0
0
0
0
0
0
0
0
0
0
0
0
0
0
0
0
0
0
0
0
0
0
0
0
0
0
0
0
0
0
0
-0.1333
-0.1333
-0.1333
-0.1333
-0.1333
-0.1333
-0.1333
-0.1333
-0.1333
-0.1333
-0.1333
-0.1333
-0.1333
-0.1333
-0.1333
-0.1333
-0.1333
-0.1333
-0.1333
-0.1333
-0.1333
-0.1333
-0.1333
-0.1333
-0.1333
-0.1333
-0.1333
-0.1333
-0.1333
-0.1333
-0.2667
-0.2667
-0.2667
-0.2667
-0.2667
-0.2667
-0.2667
-0.2667
-0.2667
-0.2667
-0.2667
-0.2667
-0.2667
-0.2667
-0.2667
-0.2667
-0.2667
-0.2667
-0.2667
-0.2667
-0.2667
-0.2667
-0.2667
-0.2667
-0.2667
-0.2667
-0.2667
-0.2667
-0.2667
-0.2667
-0.2667
-0.2667
-0.2667
-0.2667
-0.2667
-0.2667
-0.2667
-0.2667
-0.2667
-0.2667
-0.2667
-0.2667
-0.2667
-0.2667
-0.2667
-0.2667
-0.2667
-0.2667
-0.2667
-0.2667
-0.2667
-0.2667
-0.2667
-0.2667
-0.2667
-0.2667
-0.2667
-0.2667
-0.2667
-0.4
-0.4
-0.4
-0.4
-0.4
-0.4
-0.4
-0.4
-0.4
-0.4
-0.4
-0.4
-0.4
-0.4
-0.4
-0.4
-0.4
-0.4
-0.4
-0.4
-0.4
-0.4
-0.4
-0.4
-0.4
-0.4
-0.4
-0.4
-0.4
-0.4
-0.5333
-0.5333
-0.5333
-0.5333
-0.5333
-0.5333
-0.5333
-0.5333
-0.5333
-0.5333
-0.5333
-0.5333
-0.5333
-0.5333
-0.5333
-0.5333
-0.5333
-0.5333
-0.5333
-0.5333
-0.5333
-0.5333
-0.5333
-0.5333
-0.5333
-0.5333
-0.5333
-0.5333
-0.5333
-0.5333
-0.5333
-0.5333
-0.5333
-0.5333
-0.5333
-0.5333
-0.5333
-0.5333
-0.5333
-0.5333
-0.5333
-0.5333
-0.5333
-0.5333
-0.5333
-0.5333
-0.5333
-0.5333
-0.5333
-0.5333
-0.5333
-0.5333
-0.5333
-0.5333
-0.5333
-0.5333
-0.5333
-0.5333
-0.5333
-0.6667
-0.6667
-0.6667
-0.6667
-0.6667
-0.6667
-0.6667
-0.6667
-0.6667
-0.6667
-0.6667
-0.6667
-0.6667
-0.6667
-0.6667
-0.6667
-0.6667
-0.6667
-0.6667
-0.6667
-0.6667
-0.6667
-0.6667
-0.6667
-0.6667
-0.6667
-0.6667
-0.6667
-0.6667
-0.6667
-0.8
-0.8
-0.8
-0.8
-0.8
-0.8
-0.8
-0.8
-0.8
-0.8
-0.8
-0.8
-0.8
-0.8
-0.8
-0.8
-0.8
-0.8
-0.8
-0.8
-0.8
-0.8
-0.8
-0.8
-0.8
-0.8
-0.8
-0.8
-0.8
-0.8
-0.8
-0.8
-0.8
-0.8
-0.8
-0.8
-0.8
-0.8
-0.8
-0.8
-0.8
-0.8
-0.8
-0.8
-0.8
-0.8
-0.8
-0.8
-0.8
-0.8
-0.8
-0.8
-0.8
-0.8
-0.8
-0.8
-0.8
-0.8
-0.8
-0.9333
-0.9333
-0.9333
-0.9333
-0.9333
-0.9333
-0.9333
-0.9333
-0.9333
-0.9333
-0.9333
-0.9333
-0.9333
-0.9333
-0.9333
-0.9333
-0.9333
-0.9333
-0.9333
-0.9333
-0.9333
-0.9333
-0.9333
-0.9333
-0.9333
-0.9333
-0.9333
-0.9333
-0.9333
-0.9333
-1.0667
-1.0667
-1.0667
-1.0667
-1.0667
-1.0667
-1.0667
-1.0667
-1.0667
-1.0667
-1.0667
-1.0667
-1.0667
-1.0667
-1.0667
-1.0667
-1.0667
-1.0667
-1.0667
-1.0667
-1.0667
-1.0667
-1.0667
-1.0667
-1.0667
-1.0667
-1.0667
-1.0667
-1.0667
-1.0667
-1.0667
-1.0667
-1.0667
-1.0667
-1.0667
-1.0667
-1.0667
-1.0667
-1.0667
-1.0667
-1.0667
-1.0667
-1.0667
-1.0667
-1.0667
-1.0667
-1.0667
-1.0667
-1.0667
-1.0667
-1.0667
-1.0667
-1.0667
-1.0667
-1.0667
-1.0667
-1.0667
-1.0667
-1.0667
-1.2
-1.2
-1.2
-1.2
-1.2
-1.2
-1.2
-1.2
-1.2
-1.2
-1.2
-1.2
-1.2
-1.2
-1.2
-1.2
-1.2
-1.2
-1.2
-1.2
-1.2
-1.2
-1.2
-1.2
-1.2
-1.2
-1.2
-1.2
-1.2
-1.2
-1.3333
-1.3333
-1.3333
-1.3333
-1.3333
-1.3333
-1.3333
-1.3333
-1.3333
-1.3333
-1.3333
-1.3333
-1.3333
-1.3333
-1.3333
-1.3333
-1.3333
-1.3333
-1.3333
-1.3333
-1.3333
-1.3333
-1.3333
-1.3333
-1.3333
-1.3333
-1.3333
-1.3333
-1.3333
-1.3333
-1.3333
-1.3333
-1.3333
-1.3333
-1.3333
-1.3333
-1.3333
-1.3333
-1.3333
-1.3333
-1.3333
-1.3333
-1.3333
-1.3333
-1.3333
-1.3333
-1.3333
-1.3333
-1.3333
-1.3333
-1.3333
-1.3333
-1.3333
-1.3333
-1.3333
-1.3333
-1.3333
-1.3333
-1.3333
-1.4667
-1.4667
-1.4667
-1.4667
-1.4667
-1.4667
-1.4667
-1.4667
-1.4667
-1.4667
-1.4667
-1.4667
-1.4667
-1.4667
-1.4667
-1.4667
-1.4667
-1.4667
-1.4667
-1.4667
-1.4667
-1.4667
-1.4667
-1.4667
-1.4667
-1.4667
-1.4667
-1.4667
-1.4667
-1.4667
-1.6
-1.6
-1.6
-1.6
-1.6
-1.6
-1.6
-1.6
-1.6
-1.6
-1.6
-1.6
-1.6
-1.6
-1.6
-1.6
-1.6
-1.6
-1.6
-1.6
-1.6
-1.6
-1.6
-1.6
-1.6
-1.6
-1.6
-1.6
-1.6
-1.6
-1.6
-1.6
-1.6
-1.6
-1.6
-1.6
-1.6
-1.6
-1.6
-1.6
-1.6
-1.6
-1.6
-1.6
-1.6
-1.6
-1.6
-1.6
-1.6
-1.6
-1.6
-1.6
-1.6
-1.6
-1.6
-1.6
-1.6
-1.6
-1.6
-1.7333
-1.7333
-1.7333
-1.7333
-1.7333
-1.7333
-1.7333
-1.7333
-1.7333
-1.7333
-1.7333
-1.7333
-1.7333
-1.7333
-1.7333
-1.7333
-1.7333
-1.7333
-1.7333
-1.7333
-1.7333
-1.7333
-1.7333
-1.7333
-1.7333
-1.7333
-1.7333
-1.7333
-1.7333
-1.7333
-1.8667
-1.8667
-1.8667
-1.8667
-1.8667
-1.8667
-1.8667
-1.8667
-1.8667
-1.8667
-1.8667
-1.8667
-1.8667
-1.8667
-1.8667
-1.8667
-1.8667
-1.8667
-1.8667
-1.8667
-1.8667
-1.8667
-1.8667
-1.8667
-1.8667
-1.8667
-1.8667
-1.8667
-1.8667
-1.8667
-1.8667
-1.8667
-1.8667
-1.8667
-1.8667
-1.8667
-1.8667
-1.8667
-1.8667
-1.8667
-1.8667
-1.8667
-1.8667
-1.8667
-1.8667
-1.8667
-1.8667
-1.8667
-1.8667
-1.8667
-1.8667
-1.8667
-1.8667
-1.8667
-1.8667
-1.8667
-1.8667
-1.8667
-1.8667
-2
-2
-2
-2
-2
-2
-2
-2
-2
-2
-2
-2
-2
-2
-2
-2
-2
-2
-2
-2
-2
-2
-2
-2
-2
-2
-2
-2
-2
-2
-2.1333
-2.1333
-2.1333
-2.1333
-2.1333
-2.1333
-2.1333
-2.1333
-2.1333
-2.1333
-2.1333
-2.1333
-2.1333
-2.1333
-2.1333
-2.1333
-2.1333
-2.1333
-2.1333
-2.1333
-2.1333
-2.1333
-2.1333
-2.1333
-2.1333
-2.1333
-2.1333
-2.1333
-2.1333
-2.1333
-2.1333
-2.1333
-2.1333
-2.1333
-2.1333
-2.1333
-2.1333
-2.1333
-2.1333
-2.1333
-2.1333
-2.1333
-2.1333
-2.1333
-2.1333
-2.1333
-2.1333
-2.1333
-2.1333
-2.1333
-2.1333
-2.1333
-2.1333
-2.1333
-2.1333
-2.1333
-2.1333
-2.1333
-2.1333
-2.2667
-2.2667
-2.2667
-2.2667
-2.2667
-2.2667
-2.2667
-2.2667
-2.2667
-2.2667
-2.2667
-2.2667
-2.2667
-2.2667
-2.2667
-2.2667
-2.2667
-2.2667
-2.2667
-2.2667
-2.2667
-2.2667
-2.2667
-2.2667
-2.2667
-2.2667
-2.2667
-2.2667
-2.2667
-2.2667
-2.4
-2.4
-2.4
-2.4
-2.4
-2.4
-2.4
-2.4
-2.4
-2.4
-2.4
-2.4
-2.4
-2.4
-2.4
-2.4
-2.4
-2.4
-2.4
-2.4
-2.4
-2.4
-2.4
-2.4
-2.4
-2.4
-2.4
-2.4
-2.4
-2.4
-2.4
-2.4
-2.4
-2.4
-2.4
-2.4
-2.4
-2.4
-2.4
-2.4
-2.4
-2.4
-2.4
-2.4
-2.4
-2.4
-2.4
-2.4
-2.4
-2.4
-2.4
-2.4
-2.4
-2.4
-2.4
-2.4
-2.4
-2.4
-2.4
-2.5333
-2.5333
-2.5333
-2.5333
-2.5333
-2.5333
-2.5333
-2.5333
-2.5333
-2.5333
-2.5333
-2.5333
-2.5333
-2.5333
-2.5333
-2.5333
-2.5333
-2.5333
-2.5333
-2.5333
-2.5333
-2.5333
-2.5333
-2.5333
-2.5333
-2.5333
-2.5333
-2.5333
-2.5333
-2.5333
-2.6667
-2.6667
-2.6667
-2.6667
-2.6667
-2.6667
-2.6667
-2.6667
-2.6667
-2.6667
-2.6667
-2.6667
-2.6667
-2.6667
-2.6667
-2.6667
-2.6667
-2.6667
-2.6667
-2.6667
-2.6667
-2.6667
-2.6667
-2.6667
-2.6667
-2.6667
-2.6667
-2.6667
-2.6667
-2.6667
-2.6667
-2.6667
-2.6667
-2.6667
-2.6667
-2.6667
-2.6667
-2.6667
-2.6667
-2.6667
-2.6667
-2.6667
-2.6667
-2.6667
-2.6667
-2.6667
-2.6667
-2.6667
-2.6667
-2.6667
-2.6667
-2.6667
-2.6667
-2.6667
-2.6667
-2.6667
-2.6667
-2.6667
-2.6667
-2.8
-2.8
-2.8
-2.8
-2.8
-2.8
-2.8
-2.8
-2.8
-2.8
-2.8
-2.8
-2.8
-2.8
-2.8
-2.8
-2.8
-2.8
-2.8
-2.8
-2.8
-2.8
-2.8
-2.8
-2.8
-2.8
-2.8
-2.8
-2.8
-2.8
-2.9333
-2.9333
-2.9333
-2.9333
-2.9333
-2.9333
-2.9333
-2.9333
-2.9333
-2.9333
-2.9333
-2.9333
-2.9333
-2.9333
-2.9333
-2.9333
-2.9333
-2.9333
-2.9333
-2.9333
-2.9333
-2.9333
-2.9333
-2.9333
-2.9333
-2.9333
-2.9333
-2.9333
-2.9333
-2.9333
-2.9333
-2.9333
-2.9333
-2.9333
-2.9333
-2.9333
-2.9333
-2.9333
-2.9333
-2.9333
-2.9333
-2.9333
-2.9333
-2.9333
-2.9333
-2.9333
-2.9333
-2.9333
-2.9333
-2.9333
-2.9333
-2.9333
-2.9333
-2.9333
-2.9333
-2.9333
-2.9333
-2.9333
-2.9333
-3.0667
-3.0667
-3.0667
-3.0667
-3.0667
-3.0667
-3.0667
-3.0667
-3.0667
-3.0667
-3.0667
-3.0667
-3.0667
-3.0667
-3.0667
-3.0667
-3.0667
-3.0667
-3.0667
-3.0667
-3.0667
-3.0667
-3.0667
-3.0667
-3.0667
-3.0667
-3.0667
-3.0667
-3.0667
-3.0667
-3.2
-3.2
-3.2
-3.2
-3.2
-3.2
-3.2
-3.2
-3.2
-3.2
-3.2
-3.2
-3.2
-3.2
-3.2
-3.2
-3.2
-3.2
-3.2
-3.2
-3.2
-3.2
-3.2
-3.2
-3.2
-3.2
-3.2
-3.2
-3.2
-3.2
-3.2
-3.2
-3.2
-3.2
-3.2
-3.2
-3.2
-3.2
-3.2
-3.2
-3.2
-3.2
-3.2
-3.2
-3.2
-3.2
-3.2
-3.2
-3.2
-3.2
-3.2
-3.2
-3.2
-3.2
-3.2
-3.2
-3.2
-3.2
-3.2
-3.3333
-3.3333
-3.3333
-3.3333
-3.3333
-3.3333
-3.3333
-3.3333
-3.3333
-3.3333
-3.3333
-3.3333
-3.3333
-3.3333
-3.3333
-3.3333
-3.3333
-3.3333
-3.3333
-3.3333
-3.3333
-3.3333
-3.3333
-3.3333
-3.3333
-3.3333
-3.3333
-3.3333
-3.3333
-3.3333
-3.4667
-3.4667
-3.4667
-3.4667
-3.4667
-3.4667
-3.4667
-3.4667
-3.4667
-3.4667
-3.4667
-3.4667
-3.4667
-3.4667
-3.4667
-3.4667
-3.4667
-3.4667
-3.4667
-3.4667
-3.4667
-3.4667
-3.4667
-3.4667
-3.4667
-3.4667
-3.4667
-3.4667
-3.4667
-3.4667
-3.4667
-3.4667
-3.4667
-3.4667
-3.4667
-3.4667
-3.4667
-3.4667
-3.4667
-3.4667
-3.4667
-3.4667
-3.4667
-3.4667
-3.4667
-3.4667
-3.4667
-3.4667
-3.4667
-3.4667
-3.4667
-3.4667
-3.4667
-3.4667
-3.4667
-3.4667
-3.4667
-3.4667
-3.4667
-3.6
-3.6
-3.6
-3.6
-3.6
-3.6
-3.6
-3.6
-3.6
-3.6
-3.6
-3.6
-3.6
-3.6
-3.6
-3.6
-3.6
-3.6
-3.6
-3.6
-3.6
-3.6
-3.6
-3.6
-3.6
-3.6
-3.6
-3.6
-3.6
-3.6
-3.7333
-3.7333
-3.7333
-3.7333
-3.7333
-3.7333
-3.7333
-3.7333
-3.7333
-3.7333
-3.7333
-3.7333
-3.7333
-3.7333
-3.7333
-3.7333
-3.7333
-3.7333
-3.7333
-3.7333
-3.7333
-3.7333
-3.7333
-3.7333
-3.7333
-3.7333
-3.7333
-3.7333
-3.7333
-3.7333
-3.7333
-3.7333
-3.7333
-3.7333
-3.7333
-3.7333
-3.7333
-3.7333
-3.7333
-3.7333
-3.7333
-3.7333
-3.7333
-3.7333
-3.7333
-3.7333
-3.7333
-3.7333
-3.7333
-3.7333
-3.7333
-3.7333
-3.7333
-3.7333
-3.7333
-3.7333
-3.7333
-3.7333
-3.7333
-3.8667
-3.8667
-3.8667
-3.8667
-3.8667
-3.8667
-3.8667
-3.8667
-3.8667
-3.8667
-3.8667
-3.8667
-3.8667
-3.8667
-3.8667
-3.8667
-3.8667
-3.8667
-3.8667
-3.8667
-3.8667
-3.8667
-3.8667
-3.8667
-3.8667
-3.8667
-3.8667
-3.8667
-3.8667
-3.8667
-4
-4
-4
-4
-4
-4
-4
-4
-4
-4
-4
-4
-4
-4
-4
-4
-4
-4
-4
-4
-4
-4
-4
-4
-4
-4
-4
-4
-4
-4
-4
-4
-4
-4
-4
-4
-4
-4
-4
-4
-4
-4
-4
-4
-4
-4
-4
-4
-4
-4
-4
-4
-4
-4
-4
-4
-4
-4
-4
-4.3667
-4.3667
-4.3667
-4.3667
-4.3667
-4.3667
-4.3667
-4.3667
-4.3667
-4.3667
-4.3667
-4.3667
-4.3667
-4.3667
-4.3667
-4.3667
-4.3667
-4.3667
-4.3667
-4.3667
-4.3667
-4.3667
-4.3667
-4.3667
-4.3667
-4.3667
-4.3667
-4.3667
-4.3667
-4.3667
-4.7333
-4.7333
-4.7333
-4.7333
-4.7333
-4.7333
-4.7333
-4.7333
-4.7333
-4.7333
-4.7333
-4.7333
-4.7333
-4.7333
-4.7333
-4.7333
-4.7333
-4.7333
-4.7333
-4.7333
-4.7333
-4.7333
-4.7333
-4.7333
-4.7333
-4.7333
-4.7333
-4.7333
-4.7333
-4.7333
-4.7333
-4.7333
-4.7333
-4.7333
-4.7333
-4.7333
-4.7333
-4.7333
-4.7333
-4.7333
-4.7333
-4.7333
-4.7333
-4.7333
-4.7333
-4.7333
-4.7333
-4.7333
-4.7333
-4.7333
-4.7333
-4.7333
-4.7333
-4.7333
-4.7333
-4.7333
-4.7333
-4.7333
-4.7333
-5.1
-5.1
-5.1
-5.1
-5.1
-5.1
-5.1
-5.1
-5.1
-5.1
-5.1
-5.1
-5.1
-5.1
-5.1
-5.1
-5.1
-5.1
-5.1
-5.1
-5.1
-5.1
-5.1
-5.1
-5.1
-5.1
-5.1
-5.1
-5.1
-5.1
-5.4667
-5.4667
-5.4667
-5.4667
-5.4667
-5.4667
-5.4667
-5.4667
-5.4667
-5.4667
-5.4667
-5.4667
-5.4667
-5.4667
-5.4667
-5.4667
-5.4667
-5.4667
-5.4667
-5.4667
-5.4667
-5.4667
-5.4667
-5.4667
-5.4667
-5.4667
-5.4667
-5.4667
-5.4667
-5.4667
-5.4667
-5.4667
-5.4667
-5.4667
-5.4667
-5.4667
-5.4667
-5.4667
-5.4667
-5.4667
-5.4667
-5.4667
-5.4667
-5.4667
-5.4667
-5.4667
-5.4667
-5.4667
-5.4667
-5.4667
-5.4667
-5.4667
-5.4667
-5.4667
-5.4667
-5.4667
-5.4667
-5.4667
-5.4667
-5.8333
-5.8333
-5.8333
-5.8333
-5.8333
-5.8333
-5.8333
-5.8333
-5.8333
-5.8333
-5.8333
-5.8333
-5.8333
-5.8333
-5.8333
-5.8333
-5.8333
-5.8333
-5.8333
-5.8333
-5.8333
-5.8333
-5.8333
-5.8333
-5.8333
-5.8333
-5.8333
-5.8333
-5.8333
-5.8333
-6.2
-6.2
-6.2
-6.2
-6.2
-6.2
-6.2
-6.2
-6.2
-6.2
-6.2
-6.2
-6.2
-6.2
-6.2
-6.2
-6.2
-6.2
-6.2
-6.2
-6.2
-6.2
-6.2
-6.2
-6.2
-6.2
-6.2
-6.2
-6.2
-6.2
-6.2
-6.2
-6.2
-6.2
-6.2
-6.2
-6.2
-6.2
-6.2
-6.2
-6.2
-6.2
-6.2
-6.2
-6.2
-6.2
-6.2
-6.2
-6.2
-6.2
-6.2
-6.2
-6.2
-6.2
-6.2
-6.2
-6.2
-6.2
-6.2
-6.5667
-6.5667
-6.5667
-6.5667
-6.5667
-6.5667
-6.5667
-6.5667
-6.5667
-6.5667
-6.5667
-6.5667
-6.5667
-6.5667
-6.5667
-6.5667
-6.5667
-6.5667
-6.5667
-6.5667
-6.5667
-6.5667
-6.5667
-6.5667
-6.5667
-6.5667
-6.5667
-6.5667
-6.5667
-6.5667
-6.9333
-6.9333
-6.9333
-6.9333
-6.9333
-6.9333
-6.9333
-6.9333
-6.9333
-6.9333
-6.9333
-6.9333
-6.9333
-6.9333
-6.9333
-6.9333
-6.9333
-6.9333
-6.9333
-6.9333
-6.9333
-6.9333
-6.9333
-6.9333
-6.9333
-6.9333
-6.9333
-6.9333
-6.9333
-6.9333
-6.9333
-6.9333
-6.9333
-6.9333
-6.9333
-6.9333
-6.9333
-6.9333
-6.9333
-6.9333
-6.9333
-6.9333
-6.9333
-6.9333
-6.9333
-6.9333
-6.9333
-6.9333
-6.9333
-6.9333
-6.9333
-6.9333
-6.9333
-6.9333
-6.9333
-6.9333
-6.9333
-6.9333
-6.9333
-7.3
-7.3
-7.3
-7.3
-7.3
-7.3
-7.3
-7.3
-7.3
-7.3
-7.3
-7.3
-7.3
-7.3
-7.3
-7.3
-7.3
-7.3
-7.3
-7.3
-7.3
-7.3
-7.3
-7.3
-7.3
-7.3
-7.3
-7.3
-7.3
-7.3
-7.6667
-7.6667
-7.6667
-7.6667
-7.6667
-7.6667
-7.6667
-7.6667
-7.6667
-7.6667
-7.6667
-7.6667
-7.6667
-7.6667
-7.6667
-7.6667
-7.6667
-7.6667
-7.6667
-7.6667
-7.6667
-7.6667
-7.6667
-7.6667
-7.6667
-7.6667
-7.6667
-7.6667
-7.6667
-7.6667
-7.6667
-7.6667
-7.6667
-7.6667
-7.6667
-7.6667
-7.6667
-7.6667
-7.6667
-7.6667
-7.6667
-7.6667
-7.6667
-7.6667
-7.6667
-7.6667
-7.6667
-7.6667
-7.6667
-7.6667
-7.6667
-7.6667
-7.6667
-7.6667
-7.6667
-7.6667
-7.6667
-7.6667
-7.6667
-8.0333
-8.0333
-8.0333
-8.0333
-8.0333
-8.0333
-8.0333
-8.0333
-8.0333
-8.0333
-8.0333
-8.0333
-8.0333
-8.0333
-8.0333
-8.0333
-8.0333
-8.0333
-8.0333
-8.0333
-8.0333
-8.0333
-8.0333
-8.0333
-8.0333
-8.0333
-8.0333
-8.0333
-8.0333
-8.0333
-8.4
-8.4
-8.4
-8.4
-8.4
-8.4
-8.4
-8.4
-8.4
-8.4
-8.4
-8.4
-8.4
-8.4
-8.4
-8.4
-8.4
-8.4
-8.4
-8.4
-8.4
-8.4
-8.4
-8.4
-8.4
-8.4
-8.4
-8.4
-8.4
-8.4
-8.4
-8.4
-8.4
-8.4
-8.4
-8.4
-8.4
-8.4
-8.4
-8.4
-8.4
-8.4
-8.4
-8.4
-8.4
-8.4
-8.4
-8.4
-8.4
-8.4
-8.4
-8.4
-8.4
-8.4
-8.4
-8.4
-8.4
-8.4
-8.4
-8.7667
-8.7667
-8.7667
-8.7667
-8.7667
-8.7667
-8.7667
-8.7667
-8.7667
-8.7667
-8.7667
-8.7667
-8.7667
-8.7667
-8.7667
-8.7667
-8.7667
-8.7667
-8.7667
-8.7667
-8.7667
-8.7667
-8.7667
-8.7667
-8.7667
-8.7667
-8.7667
-8.7667
-8.7667
-8.7667
-9.1333
-9.1333
-9.1333
-9.1333
-9.1333
-9.1333
-9.1333
-9.1333
-9.1333
-9.1333
-9.1333
-9.1333
-9.1333
-9.1333
-9.1333
-9.1333
-9.1333
-9.1333
-9.1333
-9.1333
-9.1333
-9.1333
-9.1333
-9.1333
-9.1333
-9.1333
-9.1333
-9.1333
-9.1333
-9.1333
-9.1333
-9.1333
-9.1333
-9.1333
-9.1333
-9.1333
-9.1333
-9.1333
-9.1333
-9.1333
-9.1333
-9.1333
-9.1333
-9.1333
-9.1333
-9.1333
-9.1333
-9.1333
-9.1333
-9.1333
-9.1333
-9.1333
-9.1333
-9.1333
-9.1333
-9.1333
-9.1333
-9.1333
-9.1333
-9.5
-9.5
-9.5
-9.5
-9.5
-9.5
-9.5
-9.5
-9.5
-9.5
-9.5
-9.5
-9.5
-9.5
-9.5
-9.5
-9.5
-9.5
-9.5
-9.5
-9.5
-9.5
-9.5
-9.5
-9.5
-9.5
-9.5
-9.5
-9.5
-9.5
-9.8667
-9.8667
-9.8667
-9.8667
-9.8667
-9.8667
-9.8667
-9.8667
-9.8667
-9.8667
-9.8667
-9.8667
-9.8667
-9.8667
-9.8667
-9.8667
-9.8667
-9.8667
-9.8667
-9.8667
-9.8667
-9.8667
-9.8667
-9.8667
-9.8667
-9.8667
-9.8667
-9.8667
-9.8667
-9.8667
-9.8667
-9.8667
-9.8667
-9.8667
-9.8667
-9.8667
-9.8667
-9.8667
-9.8667
-9.8667
-9.8667
-9.8667
-9.8667
-9.8667
-9.8667
-9.8667
-9.8667
-9.8667
-9.8667
-9.8667
-9.8667
-9.8667
-9.8667
-9.8667
-9.8667
-9.8667
-9.8667
-9.8667
-9.8667
-10.2333
-10.2333
-10.2333
-10.2333
-10.2333
-10.2333
-10.2333
-10.2333
-10.2333
-10.2333
-10.2333
-10.2333
-10.2333
-10.2333
-10.2333
-10.2333
-10.2333
-10.2333
-10.2333
-10.2333
-10.2333
-10.2333
-10.2333
-10.2333
-10.2333
-10.2333
-10.2333
-10.2333
-10.2333
-10.2333
-10.6
-10.6
-10.6
-10.6
-10.6
-10.6
-10.6
-10.6
-10.6
-10.6
-10.6
-10.6
-10.6
-10.6
-10.6
-10.6
-10.6
-10.6
-10.6
-10.6
-10.6
-10.6
-10.6
-10.6
-10.6
-10.6
-10.6
-10.6
-10.6
-10.6
-10.6
-10.6
-10.6
-10.6
-10.6
-10.6
-10.6
-10.6
-10.6
-10.6
-10.6
-10.6
-10.6
-10.6
-10.6
-10.6
-10.6
-10.6
-10.6
-10.6
-10.6
-10.6
-10.6
-10.6
-10.6
-10.6
-10.6
-10.6
-10.6
-10.9667
-10.9667
-10.9667
-10.9667
-10.9667
-10.9667
-10.9667
-10.9667
-10.9667
-10.9667
-10.9667
-10.9667
-10.9667
-10.9667
-10.9667
-10.9667
-10.9667
-10.9667
-10.9667
-10.9667
-10.9667
-10.9667
-10.9667
-10.9667
-10.9667
-10.9667
-10.9667
-10.9667
-10.9667
-10.9667
-11.3333
-11.3333
-11.3333
-11.3333
-11.3333
-11.3333
-11.3333
-11.3333
-11.3333
-11.3333
-11.3333
-11.3333
-11.3333
-11.3333
-11.3333
-11.3333
-11.3333
-11.3333
-11.3333
-11.3333
-11.3333
-11.3333
-11.3333
-11.3333
-11.3333
-11.3333
-11.3333
-11.3333
-11.3333
-11.3333
-11.3333
-11.3333
-11.3333
-11.3333
-11.3333
-11.3333
-11.3333
-11.3333
-11.3333
-11.3333
-11.3333
-11.3333
-11.3333
-11.3333
-11.3333
-11.3333
-11.3333
-11.3333
-11.3333
-11.3333
-11.3333
-11.3333
-11.3333
-11.3333
-11.3333
-11.3333
-11.3333
-11.3333
-11.3333
-11.7
-11.7
-11.7
-11.7
-11.7
-11.7
-11.7
-11.7
-11.7
-11.7
-11.7
-11.7
-11.7
-11.7
-11.7
-11.7
-11.7
-11.7
-11.7
-11.7
-11.7
-11.7
-11.7
-11.7
-11.7
-11.7
-11.7
-11.7
-11.7
-11.7
-12.0667
-12.0667
-12.0667
-12.0667
-12.0667
-12.0667
-12.0667
-12.0667
-12.0667
-12.0667
-12.0667
-12.0667
-12.0667
-12.0667
-12.0667
-12.0667
-12.0667
-12.0667
-12.0667
-12.0667
-12.0667
-12.0667
-12.0667
-12.0667
-12.0667
-12.0667
-12.0667
-12.0667
-12.0667
-12.0667
-12.0667
-12.0667
-12.0667
-12.0667
-12.0667
-12.0667
-12.0667
-12.0667
-12.0667
-12.0667
-12.0667
-12.0667
-12.0667
-12.0667
-12.0667
-12.0667
-12.0667
-12.0667
-12.0667
-12.0667
-12.0667
-12.0667
-12.0667
-12.0667
-12.0667
-12.0667
-12.0667
-12.0667
-12.0667
-12.4333
-12.4333
-12.4333
-12.4333
-12.4333
-12.4333
-12.4333
-12.4333
-12.4333
-12.4333
-12.4333
-12.4333
-12.4333
-12.4333
-12.4333
-12.4333
-12.4333
-12.4333
-12.4333
-12.4333
-12.4333
-12.4333
-12.4333
-12.4333
-12.4333
-12.4333
-12.4333
-12.4333
-12.4333
-12.4333
-12.8
-12.8
-12.8
-12.8
-12.8
-12.8
-12.8
-12.8
-12.8
-12.8
-12.8
-12.8
-12.8
-12.8
-12.8
-12.8
-12.8
-12.8
-12.8
-12.8
-12.8
-12.8
-12.8
-12.8
-12.8
-12.8
-12.8
-12.8
-12.8
-12.8
-12.8
-12.8
-12.8
-12.8
-12.8
-12.8
-12.8
-12.8
-12.8
-12.8
-12.8
-12.8
-12.8
-12.8
-12.8
-12.8
-12.8
-12.8
-12.8
-12.8
-12.8
-12.8
-12.8
-12.8
-12.8
-12.8
-12.8
-12.8
-12.8
-13.1667
-13.1667
-13.1667
-13.1667
-13.1667
-13.1667
-13.1667
-13.1667
-13.1667
-13.1667
-13.1667
-13.1667
-13.1667
-13.1667
-13.1667
-13.1667
-13.1667
-13.1667
-13.1667
-13.1667
-13.1667
-13.1667
-13.1667
-13.1667
-13.1667
-13.1667
-13.1667
-13.1667
-13.1667
-13.1667
-13.5333
-13.5333
-13.5333
-13.5333
-13.5333
-13.5333
-13.5333
-13.5333
-13.5333
-13.5333
-13.5333
-13.5333
-13.5333
-13.5333
-13.5333
-13.5333
-13.5333
-13.5333
-13.5333
-13.5333
-13.5333
-13.5333
-13.5333
-13.5333
-13.5333
-13.5333
-13.5333
-13.5333
-13.5333
-13.5333
-13.5333
-13.5333
-13.5333
-13.5333
-13.5333
-13.5333
-13.5333
-13.5333
-13.5333
-13.5333
-13.5333
-13.5333
-13.5333
-13.5333
-13.5333
-13.5333
-13.5333
-13.5333
-13.5333
-13.5333
-13.5333
-13.5333
-13.5333
-13.5333
-13.5333
-13.5333
-13.5333
-13.5333
-13.5333
-13.9
-13.9
-13.9
-13.9
-13.9
-13.9
-13.9
-13.9
-13.9
-13.9
-13.9
-13.9
-13.9
-13.9
-13.9
-13.9
-13.9
-13.9
-13.9
-13.9
-13.9
-13.9
-13.9
-13.9
-13.9
-13.9
-13.9
-13.9
-13.9
-13.9
-14.2667
-14.2667
-14.2667
-14.2667
-14.2667
-14.2667
-14.2667
-14.2667
-14.2667
-14.2667
-14.2667
-14.2667
-14.2667
-14.2667
-14.2667
-14.2667
-14.2667
-14.2667
-14.2667
-14.2667
-14.2667
-14.2667
-14.2667
-14.2667
-14.2667
-14.2667
-14.2667
-14.2667
-14.2667
-14.2667
-14.2667
-14.2667
-14.2667
-14.2667
-14.2667
-14.2667
-14.2667
-14.2667
-14.2667
-14.2667
-14.2667
-14.2667
-14.2667
-14.2667
-14.2667
-14.2667
-14.2667
-14.2667
-14.2667
-14.2667
-14.2667
-14.2667
-14.2667
-14.2667
-14.2667
-14.2667
-14.2667
-14.2667
-14.2667
-14.6333
-14.6333
-14.6333
-14.6333
-14.6333
-14.6333
-14.6333
-14.6333
-14.6333
-14.6333
-14.6333
-14.6333
-14.6333
-14.6333
-14.6333
-14.6333
-14.6333
-14.6333
-14.6333
-14.6333
-14.6333
-14.6333
-14.6333
-14.6333
-14.6333
-14.6333
-14.6333
-14.6333
-14.6333
-14.6333
-15
-15
-15
-15
-15
-15
-15
-15
-15
-15
-15
-15
-15
-15
-15
-15
-15
-15
-15
-15
-15
-15
-15
-15
-15
-15
-15
-15
-15
-15
-15
-15
-15
-15
-15
-15
-15
-15
-15
-15
-15
-15
-15
-15
-15
-15
-15
-15
-15
-15
-15
-15
-15
-15
-15
-15
-15
-15
-15
-17.8333
-17.8333
-17.8333
-17.8333
-17.8333
-17.8333
-17.8333
-17.8333
-17.8333
-17.8333
-17.8333
-17.8333
-17.8333
-17.8333
-17.8333
-17.8333
-17.8333
-17.8333
-17.8333
-17.8333
-17.8333
-17.8333
-17.8333
-17.8333
-17.8333
-17.8333
-17.8333
-17.8333
-17.8333
-17.8333
-20.6667
-20.6667
-20.6667
-20.6667
-20.6667
-20.6667
-20.6667
-20.6667
-20.6667
-20.6667
-20.6667
-20.6667
-20.6667
-20.6667
-20.6667
-20.6667
-20.6667
-20.6667
-20.6667
-20.6667
-20.6667
-20.6667
-20.6667
-20.6667
-20.6667
-20.6667
-20.6667
-20.6667
-20.6667
-20.6667
-20.6667
-20.6667
-20.6667
-20.6667
-20.6667
-20.6667
-20.6667
-20.6667
-20.6667
-20.6667
-20.6667
-20.6667
-20.6667
-20.6667
-20.6667
-20.6667
-20.6667
-20.6667
-20.6667
-20.6667
-20.6667
-20.6667
-20.6667
-20.6667
-20.6667
-20.6667
-20.6667
-20.6667
-20.6667
-23.5
-23.5
-23.5
-23.5
-23.5
-23.5
-23.5
-23.5
-23.5
-23.5
-23.5
-23.5
-23.5
-23.5
-23.5
-23.5
-23.5
-23.5
-23.5
-23.5
-23.5
-23.5
-23.5
-23.5
-23.5
-23.5
-23.5
-23.5
-23.5
-23.5
-26.3333
-26.3333
-26.3333
-26.3333
-26.3333
-26.3333
-26.3333
-26.3333
-26.3333
-26.3333
-26.3333
-26.3333
-26.3333
-26.3333
-26.3333
-26.3333
-26.3333
-26.3333
-26.3333
-26.3333
-26.3333
-26.3333
-26.3333
-26.3333
-26.3333
-26.3333
-26.3333
-26.3333
-26.3333
-26.3333
-26.3333
-26.3333
-26.3333
-26.3333
-26.3333
-26.3333
-26.3333
-26.3333
-26.3333
-26.3333
-26.3333
-26.3333
-26.3333
-26.3333
-26.3333
-26.3333
-26.3333
-26.3333
-26.3333
-26.3333
-26.3333
-26.3333
-26.3333
-26.3333
-26.3333
-26.3333
-26.3333
-26.3333
-26.3333
-29.1667
-29.1667
-29.1667
-29.1667
-29.1667
-29.1667
-29.1667
-29.1667
-29.1667
-29.1667
-29.1667
-29.1667
-29.1667
-29.1667
-29.1667
-29.1667
-29.1667
-29.1667
-29.1667
-29.1667
-29.1667
-29.1667
-29.1667
-29.1667
-29.1667
-29.1667
-29.1667
-29.1667
-29.1667
-29.1667
-32
-32
-32
-32
-32
-32
-32
-32
-32
-32
-32
-32
-32
-32
-32
-32
-32
-32
-32
-32
-32
-32
-32
-32
-32
-32
-32
-32
-32
-32
-32
-32
-32
-32
-32
-32
-32
-32
-32
-32
-32
-32
-32
-32
-32
-32
-32
-32
-32
-32
-32
-32
-32
-32
-32
-32
-32
-32
-32
-34.8333
-34.8333
-34.8333
-34.8333
-34.8333
-34.8333
-34.8333
-34.8333
-34.8333
-34.8333
-34.8333
-34.8333
-34.8333
-34.8333
-34.8333
-34.8333
-34.8333
-34.8333
-34.8333
-34.8333
-34.8333
-34.8333
-34.8333
-34.8333
-34.8333
-34.8333
-34.8333
-34.8333
-34.8333
-34.8333
-37.6667
-37.6667
-37.6667
-37.6667
-37.6667
-37.6667
-37.6667
-37.6667
-37.6667
-37.6667
-37.6667
-37.6667
-37.6667
-37.6667
-37.6667
-37.6667
-37.6667
-37.6667
-37.6667
-37.6667
-37.6667
-37.6667
-37.6667
-37.6667
-37.6667
-37.6667
-37.6667
-37.6667
-37.6667
-37.6667
-37.6667
-37.6667
-37.6667
-37.6667
-37.6667
-37.6667
-37.6667
-37.6667
-37.6667
-37.6667
-37.6667
-37.6667
-37.6667
-37.6667
-37.6667
-37.6667
-37.6667
-37.6667
-37.6667
-37.6667
-37.6667
-37.6667
-37.6667
-37.6667
-37.6667
-37.6667
-37.6667
-37.6667
-37.6667
-40.5
-40.5
-40.5
-40.5
-40.5
-40.5
-40.5
-40.5
-40.5
-40.5
-40.5
-40.5
-40.5
-40.5
-40.5
-40.5
-40.5
-40.5
-40.5
-40.5
-40.5
-40.5
-40.5
-40.5
-40.5
-40.5
-40.5
-40.5
-40.5
-40.5
-43.3333
-43.3333
-43.3333
-43.3333
-43.3333
-43.3333
-43.3333
-43.3333
-43.3333
-43.3333
-43.3333
-43.3333
-43.3333
-43.3333
-43.3333
-43.3333
-43.3333
-43.3333
-43.3333
-43.3333
-43.3333
-43.3333
-43.3333
-43.3333
-43.3333
-43.3333
-43.3333
-43.3333
-43.3333
-43.3333
-43.3333
-43.3333
-43.3333
-43.3333
-43.3333
-43.3333
-43.3333
-43.3333
-43.3333
-43.3333
-43.3333
-43.3333
-43.3333
-43.3333
-43.3333
-43.3333
-43.3333
-43.3333
-43.3333
-43.3333
-43.3333
-43.3333
-43.3333
-43.3333
-43.3333
-43.3333
-43.3333
-43.3333
-43.3333
-46.1667
-46.1667
-46.1667
-46.1667
-46.1667
-46.1667
-46.1667
-46.1667
-46.1667
-46.1667
-46.1667
-46.1667
-46.1667
-46.1667
-46.1667
-46.1667
-46.1667
-46.1667
-46.1667
-46.1667
-46.1667
-46.1667
-46.1667
-46.1667
-46.1667
-46.1667
-46.1667
-46.1667
-46.1667
-46.1667
-49
-49
-49
-49
-49
-49
-49
-49
-49
-49
-49
-49
-49
-49
-49
-49
-49
-49
-49
-49
-49
-49
-49
-49
-49
-49
-49
-49
-49
-49
-49
-49
-49
-49
-49
-49
-49
-49
-49
-49
-49
-49
-49
-49
-49
-49
-49
-49
-49
-49
-49
-49
-49
-49
-49
-49
-49
-49
-49
-51.8333
-51.8333
-51.8333
-51.8333
-51.8333
-51.8333
-51.8333
-51.8333
-51.8333
-51.8333
-51.8333
-51.8333
-51.8333
-51.8333
-51.8333
-51.8333
-51.8333
-51.8333
-51.8333
-51.8333
-51.8333
-51.8333
-51.8333
-51.8333
-51.8333
-51.8333
-51.8333
-51.8333
-51.8333
-51.8333
-54.6667
-54.6667
-54.6667
-54.6667
-54.6667
-54.6667
-54.6667
-54.6667
-54.6667
-54.6667
-54.6667
-54.6667
-54.6667
-54.6667
-54.6667
-54.6667
-54.6667
-54.6667
-54.6667
-54.6667
-54.6667
-54.6667
-54.6667
-54.6667
-54.6667
-54.6667
-54.6667
-54.6667
-54.6667
-54.6667
-54.6667
-54.6667
-54.6667
-54.6667
-54.6667
-54.6667
-54.6667
-54.6667
-54.6667
-54.6667
-54.6667
-54.6667
-54.6667
-54.6667
-54.6667
-54.6667
-54.6667
-54.6667
-54.6667
-54.6667
-54.6667
-54.6667
-54.6667
-54.6667
-54.6667
-54.6667
-54.6667
-54.6667
-54.6667
-57.5
-57.5
-57.5
-57.5
-57.5
-57.5
-57.5
-57.5
-57.5
-57.5
-57.5
-57.5
-57.5
-57.5
-57.5
-57.5
-57.5
-57.5
-57.5
-57.5
-57.5
-57.5
-57.5
-57.5
-57.5
-57.5
-57.5
-57.5
-57.5
-57.5
-60.3333
-60.3333
-60.3333
-60.3333
-60.3333
-60.3333
-60.3333
-60.3333
-60.3333
-60.3333
-60.3333
-60.3333
-60.3333
-60.3333
-60.3333
-60.3333
-60.3333
-60.3333
-60.3333
-60.3333
-60.3333
-60.3333
-60.3333
-60.3333
-60.3333
-60.3333
-60.3333
-60.3333
-60.3333
-60.3333
-60.3333
-60.3333
-60.3333
-60.3333
-60.3333
-60.3333
-60.3333
-60.3333
-60.3333
-60.3333
-60.3333
-60.3333
-60.3333
-60.3333
-60.3333
-60.3333
-60.3333
-60.3333
-60.3333
-60.3333
-60.3333
-60.3333
-60.3333
-60.3333
-60.3333
-60.3333
-60.3333
-60.3333
-60.3333
-63.1667
-63.1667
-63.1667
-63.1667
-63.1667
-63.1667
-63.1667
-63.1667
-63.1667
-63.1667
-63.1667
-63.1667
-63.1667
-63.1667
-63.1667
-63.1667
-63.1667
-63.1667
-63.1667
-63.1667
-63.1667
-63.1667
-63.1667
-63.1667
-63.1667
-63.1667
-63.1667
-63.1667
-63.1667
-63.1667
-66
-66
-66
-66
-66
-66
-66
-66
-66
-66
-66
-66
-66
-66
-66
-66
-66
-66
-66
-66
-66
-66
-66
-66
-66
-66
-66
-66
-66
-66
-66
-66
-66
-66
-66
-66
-66
-66
-66
-66
-66
-66
-66
-66
-66
-66
-66
-66
-66
-66
-66
-66
-66
-66
-66
-66
-66
-66
-66
-68.8333
-68.8333
-68.8333
-68.8333
-68.8333
-68.8333
-68.8333
-68.8333
-68.8333
-68.8333
-68.8333
-68.8333
-68.8333
-68.8333
-68.8333
-68.8333
-68.8333
-68.8333
-68.8333
-68.8333
-68.8333
-68.8333
-68.8333
-68.8333
-68.8333
-68.8333
-68.8333
-68.8333
-68.8333
-68.8333
-71.6667
-71.6667
-71.6667
-71.6667
-71.6667
-71.6667
-71.6667
-71.6667
-71.6667
-71.6667
-71.6667
-71.6667
-71.6667
-71.6667
-71.6667
-71.6667
-71.6667
-71.6667
-71.6667
-71.6667
-71.6667
-71.6667
-71.6667
-71.6667
-71.6667
-71.6667
-71.6667
-71.6667
-71.6667
-71.6667
-71.6667
-71.6667
-71.6667
-71.6667
-71.6667
-71.6667
-71.6667
-71.6667
-71.6667
-71.6667
-71.6667
-71.6667
-71.6667
-71.6667
-71.6667
-71.6667
-71.6667
-71.6667
-71.6667
-71.6667
-71.6667
-71.6667
-71.6667
-71.6667
-71.6667
-71.6667
-71.6667
-71.6667
-71.6667
-74.5
-74.5
-74.5
-74.5
-74.5
-74.5
-74.5
-74.5
-74.5
-74.5
-74.5
-74.5
-74.5
-74.5
-74.5
-74.5
-74.5
-74.5
-74.5
-74.5
-74.5
-74.5
-74.5
-74.5
-74.5
-74.5
-74.5
-74.5
-74.5
-74.5
-77.3333
-77.3333
-77.3333
-77.3333
-77.3333
-77.3333
-77.3333
-77.3333
-77.3333
-77.3333
-77.3333
-77.3333
-77.3333
-77.3333
-77.3333
-77.3333
-77.3333
-77.3333
-77.3333
-77.3333
-77.3333
-77.3333
-77.3333
-77.3333
-77.3333
-77.3333
-77.3333
-77.3333
-77.3333
-77.3333
-77.3333
-77.3333
-77.3333
-77.3333
-77.3333
-77.3333
-77.3333
-77.3333
-77.3333
-77.3333
-77.3333
-77.3333
-77.3333
-77.3333
-77.3333
-77.3333
-77.3333
-77.3333
-77.3333
-77.3333
-77.3333
-77.3333
-77.3333
-77.3333
-77.3333
-77.3333
-77.3333
-77.3333
-77.3333
-80.1667
-80.1667
-80.1667
-80.1667
-80.1667
-80.1667
-80.1667
-80.1667
-80.1667
-80.1667
-80.1667
-80.1667
-80.1667
-80.1667
-80.1667
-80.1667
-80.1667
-80.1667
-80.1667
-80.1667
-80.1667
-80.1667
-80.1667
-80.1667
-80.1667
-80.1667
-80.1667
-80.1667
-80.1667
-80.1667
-83
-83
-83
-83
-83
-83
-83
-83
-83
-83
-83
-83
-83
-83
-83
-83
-83
-83
-83
-83
-83
-83
-83
-83
-83
-83
-83
-83
-83
-83
-83
-83
-83
-83
-83
-83
-83
-83
-83
-83
-83
-83
-83
-83
-83
-83
-83
-83
-83
-83
-83
-83
-83
-83
-83
-83
-83
-83
-83
-85.8333
-85.8333
-85.8333
-85.8333
-85.8333
-85.8333
-85.8333
-85.8333
-85.8333
-85.8333
-85.8333
-85.8333
-85.8333
-85.8333
-85.8333
-85.8333
-85.8333
-85.8333
-85.8333
-85.8333
-85.8333
-85.8333
-85.8333
-85.8333
-85.8333
-85.8333
-85.8333
-85.8333
-85.8333
-85.8333
-88.6667
-88.6667
-88.6667
-88.6667
-88.6667
-88.6667
-88.6667
-88.6667
-88.6667
-88.6667
-88.6667
-88.6667
-88.6667
-88.6667
-88.6667
-88.6667
-88.6667
-88.6667
-88.6667
-88.6667
-88.6667
-88.6667
-88.6667
-88.6667
-88.6667
-88.6667
-88.6667
-88.6667
-88.6667
-88.6667
-88.6667
-88.6667
-88.6667
-88.6667
-88.6667
-88.6667
-88.6667
-88.6667
-88.6667
-88.6667
-88.6667
-88.6667
-88.6667
-88.6667
-88.6667
-88.6667
-88.6667
-88.6667
-88.6667
-88.6667
-88.6667
-88.6667
-88.6667
-88.6667
-88.6667
-88.6667
-88.6667
-88.6667
-88.6667
-91.5
-91.5
-91.5
-91.5
-91.5
-91.5
-91.5
-91.5
-91.5
-91.5
-91.5
-91.5
-91.5
-91.5
-91.5
-91.5
-91.5
-91.5
-91.5
-91.5
-91.5
-91.5
-91.5
-91.5
-91.5
-91.5
-91.5
-91.5
-91.5
-91.5
-94.3333
-94.3333
-94.3333
-94.3333
-94.3333
-94.3333
-94.3333
-94.3333
-94.3333
-94.3333
-94.3333
-94.3333
-94.3333
-94.3333
-94.3333
-94.3333
-94.3333
-94.3333
-94.3333
-94.3333
-94.3333
-94.3333
-94.3333
-94.3333
-94.3333
-94.3333
-94.3333
-94.3333
-94.3333
-94.3333
-94.3333
-94.3333
-94.3333
-94.3333
-94.3333
-94.3333
-94.3333
-94.3333
-94.3333
-94.3333
-94.3333
-94.3333
-94.3333
-94.3333
-94.3333
-94.3333
-94.3333
-94.3333
-94.3333
-94.3333
-94.3333
-94.3333
-94.3333
-94.3333
-94.3333
-94.3333
-94.3333
-94.3333
-94.3333
-97.1667
-97.1667
-97.1667
-97.1667
-97.1667
-97.1667
-97.1667
-97.1667
-97.1667
-97.1667
-97.1667
-97.1667
-97.1667
-97.1667
-97.1667
-97.1667
-97.1667
-97.1667
-97.1667
-97.1667
-97.1667
-97.1667
-97.1667
-97.1667
-97.1667
-97.1667
-97.1667
-97.1667
-97.1667
-97.1667
-100
-100
-100
-100
-100
-100
-100
-100
-100
-100
-100
-100
-100
-100
-100
-100
-100
-100
-100
-100
-100
-100
-100
-100
-100
-100
-100
-100
-100
-100
-100
-100
-100
-100
-100
-100
-100
-100
-100
-100
-100
-100
-100
-100
-100
-100
-100
-100
-100
-100
-100
-100
-100
-100
-100
-100
-100
-100
-100
