# vtk DataFile Version 2.0
./vtk
ASCII

DATASET UNSTRUCTURED_GRID
POINTS 95 double
0 0 0.0
0.5 0 0.0
1 0 0.0
1.5 0 0.0
2 0 0.0
2.5 0 0.0
3 0 0.0
0 -0.75 0.0
1 -0.75 0.0
2 -0.75 0.0
3 -0.75 0.0
0 -1.5 0.0
0.5 -1.5 0.0
1 -1.5 0.0
1.5 -1.5 0.0
2 -1.5 0.0
2.5 -1.5 0.0
3 -1.5 0.0
0 -2.25 0.0
1 -2.25 0.0
2 -2.25 0.0
3 -2.25 0.0
0 -3 0.0
0.5 -3 0.0
1 -3 0.0
1.5 -3 0.0
2 -3 0.0
2.5 -3 0.0
3 -3 0.0
0 -3.75 0.0
1 -3.75 0.0
2 -3.75 0.0
3 -3.75 0.0
0 -4.5 0.0
0.5 -4.5 0.0
1 -4.5 0.0
1.5 -4.5 0.0
2 -4.5 0.0
2.5 -4.5 0.0
3 -4.5 0.0
0 -5.25 0.0
1 -5.25 0.0
2 -5.25 0.0
3 -5.25 0.0
0 -6 0.0
0.5 -6 0.0
1 -6 0.0
1.5 -6 0.0
2 -6 0.0
2.5 -6 0.0
3 -6 0.0
0 -6.75 0.0
1 -6.75 0.0
2 -6.75 0.0
3 -6.75 0.0
0 -7.5 0.0
0.5 -7.5 0.0
1 -7.5 0.0
1.5 -7.5 0.0
2 -7.5 0.0
2.5 -7.5 0.0
3 -7.5 0.0
0 -8.25 0.0
1 -8.25 0.0
2 -8.25 0.0
3 -8.25 0.0
0 -9 0.0
0.5 -9 0.0
1 -9 0.0
1.5 -9 0.0
2 -9 0.0
2.5 -9 0.0
3 -9 0.0
0 -9.75 0.0
1 -9.75 0.0
2 -9.75 0.0
3 -9.75 0.0
0 -10.5 0.0
0.5 -10.5 0.0
1 -10.5 0.0
1.5 -10.5 0.0
2 -10.5 0.0
2.5 -10.5 0.0
3 -10.5 0.0
0 -11.25 0.0
1 -11.25 0.0
2 -11.25 0.0
3 -11.25 0.0
0 -12 0.0
0.5 -12 0.0
1 -12 0.0
1.5 -12 0.0
2 -12 0.0
2.5 -12 0.0
3 -12 0.0

CELLS 24 216
8 11 13  2  0 12  8  1  7
8 13 15  4  2 14  9  3  8
8 15 17  6  4 16 10  5  9
8 22 24 13 11 23 19 12 18
8 24 26 15 13 25 20 14 19
8 26 28 17 15 27 21 16 20
8 33 35 24 22 34 30 23 29
8 35 37 26 24 36 31 25 30
8 37 39 28 26 38 32 27 31
8 44 46 35 33 45 41 34 40
8 46 48 37 35 47 42 36 41
8 48 50 39 37 49 43 38 42
8 55 57 46 44 56 52 45 51
8 57 59 48 46 58 53 47 52
8 59 61 50 48 60 54 49 53
8 66 68 57 55 67 63 56 62
8 68 70 59 57 69 64 58 63
8 70 72 61 59 71 65 60 64
8 77 79 68 66 78 74 67 73
8 79 81 70 68 80 75 69 74
8 81 83 72 70 82 76 71 75
8 88 90 79 77 89 85 78 84
8 90 92 81 79 91 86 80 85
8 92 94 83 81 93 87 82 86

CELL_TYPES 24
23
23
23
23
23
23
23
23
23
23
23
23
23
23
23
23
23
23
23
23
23
23
23
23

POINT_DATA 95
SCALARS Displacement_R double 1
LOOKUP_TABLE default
0
0
5.14996e-19
5.6243e-19
1.89735e-19
2.03288e-19
0
0
5.0822e-19
3.65918e-19
0
0
3.41778e-19
2.57498e-19
8.63974e-20
3.38813e-20
-1.35525e-20
0
0
-4.6248e-19
-2.57498e-19
0
0
-4.1674e-19
-6.05205e-19
-1.63054e-19
6.77626e-20
-2.96462e-20
0
0
1.02491e-19
3.86247e-19
0
0
3.09591e-19
1.783e-19
6.24687e-20
1.42302e-19
9.48677e-20
0
0
5.80218e-20
-2.10064e-19
0
0
-1.86771e-19
2.51992e-20
-3.38813e-20
-9.48677e-20
-4.74338e-20
0
0
-2.79097e-19
-9.82558e-20
0
0
-1.41243e-19
-2.43945e-19
-3.52366e-19
-4.26905e-19
-2.43945e-19
0
0
-3.38813e-20
-1.4569e-19
0
0
-5.781e-20
-1.88888e-19
-1.49078e-19
-1.35525e-19
-4.06576e-20
0
0
3.11708e-19
2.30393e-19
0
0
9.67735e-20
1.69407e-19
1.21973e-19
2.71051e-20
4.40457e-20
0
0
2.37169e-20
8.47033e-20
0
0
0
0
0
0
0
0
SCALARS Displacement_Z double 1
LOOKUP_TABLE default
0.00512096
0.00512096
0.00512096
0.00512096
0.00512096
0.00512096
0.00512096
0.00481397
0.00481397
0.00481397
0.00481397
0.00450519
0.00450519
0.00450519
0.00450519
0.00450519
0.00450519
0.00450519
0.00419463
0.00419463
0.00419463
0.00419463
0.0038823
0.0038823
0.0038823
0.0038823
0.0038823
0.0038823
0.0038823
0.00356821
0.00356821
0.00356821
0.00356821
0.00325236
0.00325236
0.00325236
0.00325236
0.00325236
0.00325236
0.00325236
0.00293478
0.00293478
0.00293478
0.00293478
0.00261547
0.00261547
0.00261547
0.00261547
0.00261547
0.00261547
0.00261547
0.00229445
0.00229445
0.00229445
0.00229445
0.00197171
0.00197171
0.00197171
0.00197171
0.00197171
0.00197171
0.00197171
0.00164728
0.00164728
0.00164728
0.00164728
0.00132116
0.00132116
0.00132116
0.00132116
0.00132116
0.00132116
0.00132116
0.000993363
0.000993363
0.000993363
0.000993363
0.000663898
0.000663898
0.000663898
0.000663898
0.000663898
0.000663898
0.000663898
0.000332773
0.000332773
0.000332773
0.000332773
-0
-0
-0
-0
-0
-0
-0
SCALARS Stress_R double 1
LOOKUP_TABLE default
6.64613e-15
-6.63899e-15
-1.32814e-14
4.19916e-15
5.94156e-15
2.43983e-15
8.03356e-15
-5.43865e-15
-4.90578e-15
4.24105e-15
6.7681e-15
-1.44803e-14
-3.36489e-15
6.87949e-15
2.91474e-15
9.31106e-16
4.50145e-16
-1.14092e-15
3.47202e-15
2.37764e-15
-1.1916e-15
-5.8441e-15
1.40126e-14
7.99097e-15
-6.24079e-15
-8.87621e-15
4.6765e-16
8.85239e-16
-2.4663e-15
-4.17854e-15
-1.25525e-15
1.31141e-15
4.06621e-15
-1.41389e-14
-2.38243e-15
7.53469e-15
4.77764e-16
-2.05e-15
1.90466e-15
3.16953e-15
-1.34258e-15
2.98887e-15
-1.22762e-15
-2.17992e-15
1.0405e-14
-3.41341e-16
-4.75684e-15
1.62534e-15
1.96352e-16
-1.28399e-15
-1.28399e-15
9.70397e-15
-2.07963e-15
-1.69382e-15
-2.15708e-15
4.37618e-15
3.32662e-15
2.84283e-15
2.48591e-15
-1.29424e-15
-5.81253e-15
-7.47337e-15
-1.15929e-17
1.28681e-15
-2.37654e-16
-2.08672e-15
5.84517e-16
2.60034e-15
1.5799e-15
-7.3394e-16
-1.68469e-15
-1.8664e-15
-3.74924e-16
-5.6564e-15
-1.42874e-15
1.8679e-15
4.77808e-15
-3.03014e-15
-2.35926e-15
-5.13471e-16
1.97965e-15
9.91313e-16
3.79605e-16
2.07445e-15
-6.68289e-16
-7.54043e-16
7.09687e-17
2.03444e-15
1.68021e-18
1.6802e-18
-9.80075e-19
-3.64036e-18
-8.40094e-19
1.96016e-18
1.96013e-18
SCALARS Stress_Theta double 1
LOOKUP_TABLE default
6.64613e-15
3.56714e-18
-6.72218e-15
-4.83634e-15
-1.22447e-15
-1.00885e-15
-2.90591e-17
-5.43865e-15
-6.5893e-15
-2.35658e-15
3.61877e-17
-1.44803e-14
-8.92258e-15
-3.24013e-15
-7.90468e-16
-2.36289e-16
6.43933e-17
-4.88232e-18
3.47202e-15
5.94498e-15
1.68055e-15
-5.29622e-17
1.40126e-14
1.10018e-14
7.7606e-15
1.45014e-15
-3.19456e-16
1.56316e-16
-2.2194e-17
-4.17854e-15
-1.3383e-15
-2.4667e-15
2.05639e-17
-1.41389e-14
-8.26066e-15
-2.32355e-15
-4.97243e-16
-1.05602e-15
-5.03762e-16
-3.43621e-18
-1.34258e-15
-6.82843e-16
1.36034e-15
-2.35661e-17
1.0405e-14
5.03181e-15
-2.92212e-16
2.59877e-16
6.69877e-16
2.51335e-16
1.2406e-17
9.70397e-15
3.6733e-15
6.35825e-16
2.49856e-17
4.37618e-15
3.8514e-15
3.36062e-15
3.16548e-15
2.90417e-15
1.35259e-15
-2.7835e-17
-1.15929e-17
5.03897e-16
1.02852e-15
2.78929e-17
5.84517e-16
1.59243e-15
2.5046e-15
1.44559e-15
8.56795e-16
2.58309e-16
-3.53648e-17
-5.6564e-15
-4.23566e-15
-1.53595e-15
4.6389e-17
-3.03014e-15
-2.6947e-15
-2.36178e-15
-1.11128e-15
-2.41755e-16
-2.16392e-16
-3.3652e-17
-6.68289e-16
-3.71476e-16
-6.05188e-16
1.33455e-17
1.68021e-18
1.6802e-18
4.01038e-17
-5.13811e-17
2.87824e-17
1.12471e-17
-1.74651e-17
SCALARS Stress_Z double 1
LOOKUP_TABLE default
5.26401
5.26401
5.26401
5.26401
5.26401
5.26401
5.26401
5.32487
5.32487
5.32487
5.32487
5.38608
5.38608
5.38608
5.38608
5.38608
5.38608
5.38608
5.44697
5.44697
5.44697
5.44697
5.50819
5.50819
5.50819
5.50819
5.50819
5.50819
5.50819
5.56911
5.56911
5.56911
5.56911
5.63036
5.63036
5.63036
5.63036
5.63036
5.63036
5.63036
5.6913
5.6913
5.6913
5.6913
5.75257
5.75257
5.75257
5.75257
5.75257
5.75257
5.75257
5.81354
5.81354
5.81354
5.81354
5.87483
5.87483
5.87483
5.87483
5.87483
5.87483
5.87483
5.93583
5.93583
5.93583
5.93583
5.99714
5.99714
5.99714
5.99714
5.99714
5.99714
5.99714
6.05815
6.05815
6.05815
6.05815
6.11948
6.11948
6.11948
6.11948
6.11948
6.11948
6.11948
6.18052
6.18052
6.18052
6.18052
6.24187
6.24187
6.24187
6.24187
6.24187
6.24187
6.24187
SCALARS Stress_Shear double 1
LOOKUP_TABLE default
-4.78608e-14
-8.5926e-15
6.8487e-14
1.7535e-14
-6.13835e-15
-6.52721e-15
-4.09729e-14
-4.1728e-14
1.15246e-14
5.27574e-15
3.87347e-15
3.43526e-14
1.84486e-14
3.72506e-15
2.25795e-14
-8.95015e-15
-9.79446e-15
8.99949e-15
2.56078e-14
1.28169e-14
-6.62572e-15
1.41043e-15
-1.31959e-15
-2.56727e-14
3.51776e-15
1.65129e-14
-2.40113e-14
-2.47346e-14
-6.22524e-14
-9.28049e-15
-1.18976e-14
4.95211e-15
-2.75535e-14
-1.73809e-15
-2.65211e-15
-2.36037e-14
5.37002e-15
5.35846e-15
-1.81733e-14
2.58215e-15
4.45069e-14
-1.46337e-14
8.14249e-15
1.50123e-14
6.88727e-14
2.85068e-14
2.17162e-14
-1.25033e-15
-2.73836e-14
-9.5966e-15
-7.10475e-15
-2.3108e-14
-2.97569e-16
-7.43824e-15
4.32302e-15
-1.03521e-14
-2.26443e-15
-3.96567e-16
-1.72079e-14
-1.76098e-14
-1.809e-15
-3.33663e-14
-2.75249e-14
-5.61471e-15
-1.34701e-14
-1.83317e-14
2.49684e-14
-2.02247e-15
-1.92884e-14
-3.49167e-15
-3.98112e-15
-1.55373e-14
-5.11708e-14
3.78202e-15
-6.23711e-15
-1.21987e-14
-1.00763e-14
2.57357e-14
1.94889e-15
2.24384e-15
-5.44774e-15
-4.84058e-15
-4.67458e-15
-1.62355e-14
-1.66001e-14
1.13999e-15
-3.13176e-15
1.78568e-14
2.70405e-15
2.01348e-15
1.95544e-15
1.66771e-15
1.50126e-15
1.24066e-16
1.73854e-15
SCALARS Radial_Distance double 1
LOOKUP_TABLE default
0
0.5
1
1.5
2
2.5
3
0
1
2
3
0
0.5
1
1.5
2
2.5
3
0
1
2
3
0
0.5
1
1.5
2
2.5
3
0
1
2
3
0
0.5
1
1.5
2
2.5
3
0
1
2
3
0
0.5
1
1.5
2
2.5
3
0
1
2
3
0
0.5
1
1.5
2
2.5
3
0
1
2
3
0
0.5
1
1.5
2
2.5
3
0
1
2
3
0
0.5
1
1.5
2
2.5
3
0
1
2
3
0
0.5
1
1.5
2
2.5
3
SCALARS Depth double 1
LOOKUP_TABLE default
0
0
0
0
0
0
0
-0.75
-0.75
-0.75
-0.75
-1.5
-1.5
-1.5
-1.5
-1.5
-1.5
-1.5
-2.25
-2.25
-2.25
-2.25
-3
-3
-3
-3
-3
-3
-3
-3.75
-3.75
-3.75
-3.75
-4.5
-4.5
-4.5
-4.5
-4.5
-4.5
-4.5
-5.25
-5.25
-5.25
-5.25
-6
-6
-6
-6
-6
-6
-6
-6.75
-6.75
-6.75
-6.75
-7.5
-7.5
-7.5
-7.5
-7.5
-7.5
-7.5
-8.25
-8.25
-8.25
-8.25
-9
-9
-9
-9
-9
-9
-9
-9.75
-9.75
-9.75
-9.75
-10.5
-10.5
-10.5
-10.5
-10.5
-10.5
-10.5
-11.25
-11.25
-11.25
-11.25
-12
-12
-12
-12
-12
-12
-12
