# vtk DataFile Version 2.0
./vtk
ASCII

DATASET UNSTRUCTURED_GRID
POINTS 153 double
0 0 0.0
1 0 0.0
2 0 0.0
2.5 0 0.0
3 0 0.0
3.5 0 0.0
4 0 0.0
4.3928 0 0.0
4.7856 0 0.0
5.7957 0 0.0
6.8057 0 0.0
9.4029 0 0.0
12 0 0.0
0 1 0.0
2 1 0.0
3 1 0.0
4 1 0.0
4.7856 1 0.0
6.8057 1 0.0
12 1 0.0
0 2 0.0
1 2 0.0
2 2 0.0
2.5 2 0.0
3 2 0.0
3.5 2 0.0
4 2 0.0
4.3928 2 0.0
4.7856 2 0.0
5.7957 2 0.0
6.8057 2 0.0
9.4029 2 0.0
12 2 0.0
0 3 0.0
2 3 0.0
3 3 0.0
4 3 0.0
4.7856 3 0.0
6.8057 3 0.0
12 3 0.0
0 4 0.0
1 4 0.0
2 4 0.0
2.5 4 0.0
3 4 0.0
3.5 4 0.0
4 4 0.0
4.3928 4 0.0
4.7856 4 0.0
5.7957 4 0.0
6.8057 4 0.0
9.4029 4 0.0
12 4 0.0
0 4.8001 0.0
2 4.8001 0.0
3 4.8001 0.0
4 4.8001 0.0
4.7856 4.8001 0.0
6.8057 4.8001 0.0
12 4.8001 0.0
0 5.6002 0.0
1 5.6002 0.0
2 5.6002 0.0
2.5 5.6002 0.0
3 5.6002 0.0
3.5 5.6002 0.0
4 5.6002 0.0
4.3928 5.6002 0.0
4.7856 5.6002 0.0
5.7957 5.6002 0.0
6.8057 5.6002 0.0
9.4029 5.6002 0.0
12 5.6002 0.0
0 6.1158 0.0
2 6.1158 0.0
3 6.1158 0.0
4 6.1158 0.0
4.7856 6.1158 0.0
6.8057 6.1158 0.0
12 6.1158 0.0
0 6.6314 0.0
1 6.6314 0.0
2 6.6314 0.0
2.5 6.6314 0.0
3 6.6314 0.0
3.5 6.6314 0.0
4 6.6314 0.0
4.3928 6.6314 0.0
4.7856 6.6314 0.0
5.7957 6.6314 0.0
6.8057 6.6314 0.0
9.4029 6.6314 0.0
12 6.6314 0.0
0 6.9636 0.0
2 6.9636 0.0
3 6.9636 0.0
4 6.9636 0.0
4.7856 6.9636 0.0
6.8057 6.9636 0.0
12 6.9636 0.0
0 7.2959 0.0
1 7.2959 0.0
2 7.2959 0.0
2.5 7.2959 0.0
3 7.2959 0.0
3.5 7.2959 0.0
4 7.2959 0.0
4.3928 7.2959 0.0
4.7856 7.2959 0.0
5.7957 7.2959 0.0
6.8057 7.2959 0.0
9.4029 7.2959 0.0
12 7.2959 0.0
0 7.51 0.0
2 7.51 0.0
3 7.51 0.0
4 7.51 0.0
4.7856 7.51 0.0
6.8057 7.51 0.0
12 7.51 0.0
0 7.7241 0.0
1 7.7241 0.0
2 7.7241 0.0
2.5 7.7241 0.0
3 7.7241 0.0
3.5 7.7241 0.0
4 7.7241 0.0
4.3928 7.7241 0.0
4.7856 7.7241 0.0
5.7957 7.7241 0.0
6.8057 7.7241 0.0
9.4029 7.7241 0.0
12 7.7241 0.0
0 7.862 0.0
2 7.862 0.0
3 7.862 0.0
4 7.862 0.0
4.7856 7.862 0.0
6.8057 7.862 0.0
12 7.862 0.0
0 8 0.0
1 8 0.0
2 8 0.0
2.5 8 0.0
3 8 0.0
3.5 8 0.0
4 8 0.0
4.3928 8 0.0
4.7856 8 0.0
5.7957 8 0.0
6.8057 8 0.0
9.4029 8 0.0
12 8 0.0

CELLS 42 378
8  0  2 22 20  1 14 21 13
8  2  4 24 22  3 15 23 14
8  4  6 26 24  5 16 25 15
8  6  8 28 26  7 17 27 16
8  8 10 30 28  9 18 29 17
8 10 12 32 30 11 19 31 18
8 20 22 42 40 21 34 41 33
8 22 24 44 42 23 35 43 34
8 24 26 46 44 25 36 45 35
8 26 28 48 46 27 37 47 36
8 28 30 50 48 29 38 49 37
8 30 32 52 50 31 39 51 38
8 40 42 62 60 41 54 61 53
8 42 44 64 62 43 55 63 54
8 44 46 66 64 45 56 65 55
8 46 48 68 66 47 57 67 56
8 48 50 70 68 49 58 69 57
8 50 52 72 70 51 59 71 58
8 60 62 82 80 61 74 81 73
8 62 64 84 82 63 75 83 74
8 64 66 86 84 65 76 85 75
8 66 68 88 86 67 77 87 76
8 68 70 90 88 69 78 89 77
8 70 72 92 90 71 79 91 78
8  80  82 102 100  81  94 101  93
8  82  84 104 102  83  95 103  94
8  84  86 106 104  85  96 105  95
8  86  88 108 106  87  97 107  96
8  88  90 110 108  89  98 109  97
8  90  92 112 110  91  99 111  98
8 100 102 122 120 101 114 121 113
8 102 104 124 122 103 115 123 114
8 104 106 126 124 105 116 125 115
8 106 108 128 126 107 117 127 116
8 108 110 130 128 109 118 129 117
8 110 112 132 130 111 119 131 118
8 120 122 142 140 121 134 141 133
8 122 124 144 142 123 135 143 134
8 124 126 146 144 125 136 145 135
8 126 128 148 146 127 137 147 136
8 128 130 150 148 129 138 149 137
8 130 132 152 150 131 139 151 138

CELL_TYPES 42
23
23
23
23
23
23
23
23
23
23
23
23
23
23
23
23
23
23
23
23
23
23
23
23
23
23
23
23
23
23
23
23
23
23
23
23
23
23
23
23
23
23

POINT_DATA 153
SCALARS Displacement_R double 1
LOOKUP_TABLE default
3.30278e-06
0.00105749
0.00214073
0.00284618
0.00351663
0.00415527
0.00474674
0.00518816
0.00560171
0.00655182
0.00736589
0.00908056
0.0104835
3.68296e-06
0.00216742
0.00356963
0.00478969
0.00562095
0.00734853
0.0104326
-1.51449e-05
0.00124907
0.00246377
0.00312838
0.00375428
0.00433609
0.00488093
0.00527989
0.00565656
0.00651968
0.00726361
0.00887399
0.0102546
-1.30385e-05
0.00279828
0.00394673
0.00496431
0.0056636
0.00710867
0.0099697
-2.50309e-05
0.00146347
0.00280488
0.00341579
0.00397763
0.00448461
0.00494434
0.00527418
0.00557785
0.00625129
0.00682264
0.00818352
0.00955431
-1.17432e-05
0.00271806
0.00387311
0.00481634
0.00539076
0.00646489
0.00914298
-1.88339e-05
0.00126404
0.00248572
0.00305279
0.00357476
0.0040548
0.00448367
0.00480336
0.00508532
0.00555849
0.00592918
0.00718827
0.00869093
-9.77995e-06
0.00221858
0.00322338
0.0040503
0.00455082
0.00537806
0.00839485
-2.60046e-05
0.00083862
0.00181511
0.00227969
0.0026816
0.00305015
0.00340173
0.00365563
0.00385395
0.00427928
0.00478491
0.00641195
0.00809815
1.4804e-05
0.00136595
0.00205331
0.00268539
0.0032098
0.00435716
0.00789325
5.53763e-05
0.000341096
0.000877265
0.00116211
0.00136256
0.00160171
0.00192088
0.00218832
0.00247352
0.00317919
0.00391133
0.00590282
0.00769908
7.76302e-05
0.000532284
0.000870153
0.00136944
0.00193926
0.00362514
0.00757899
0.000189387
4.60792e-05
0.000143985
0.000249217
0.000323251
0.000512276
0.000784216
0.00103196
0.00131464
0.00228807
0.0033433
0.0055786
0.00746147
-4.05889e-05
-0.000135549
-3.32102e-05
0.000370665
0.000854621
0.00318032
0.00740042
-0.000201001
3.6537e-05
-0.000452774
-0.00064955
-0.000414276
-0.000198625
-5.35372e-05
8.3554e-05
0.000329017
0.00160624
0.00302616
0.00536651
0.00733828
SCALARS Displacement_Z double 1
LOOKUP_TABLE default
0
0
0
0
0
0
0
0
0
0
0
0
0
-0.000862372
-0.000959083
-0.00095549
-0.000769928
-0.000572807
-6.83054e-05
0.000751507
-0.0017667
-0.00174012
-0.0019682
-0.00206419
-0.00197692
-0.0017836
-0.00154243
-0.00134066
-0.00112998
-0.000596767
-0.000105529
0.000833272
0.00151013
-0.00366176
-0.00346307
-0.00305642
-0.00232754
-0.00167018
-8.60017e-05
0.00227555
-0.00575674
-0.00562425
-0.00513053
-0.00473628
-0.00427356
-0.00372829
-0.00313635
-0.00265504
-0.00217579
-0.00100353
2.90721e-05
0.0018078
0.00304258
-0.00757371
-0.00658451
-0.00536195
-0.00381175
-0.00255075
0.000207315
0.00364642
-0.00943527
-0.00913104
-0.00815058
-0.00741281
-0.00654154
-0.00557092
-0.00453581
-0.00369377
-0.00286883
-0.00105436
0.000488918
0.00275211
0.0042231
-0.0105723
-0.00920936
-0.00732901
-0.00501339
-0.00300012
0.000741818
0.00458329
-0.0116101
-0.011458
-0.0103037
-0.00928912
-0.00809692
-0.0068292
-0.00547717
-0.00433817
-0.00312169
-0.000702427
0.00102618
0.00341351
0.00492695
-0.0120135
-0.0107955
-0.008386
-0.00564994
-0.00320962
0.00121923
0.00514905
-0.0123141
-0.0123468
-0.01133
-0.0100474
-0.00862674
-0.00728201
-0.005861
-0.0045973
-0.0032844
-0.000369415
0.0014201
0.00384117
0.00536607
-0.0126285
-0.0117737
-0.00877486
-0.00601901
-0.00334842
0.00154708
0.00550553
-0.0128654
-0.0127661
-0.0122493
-0.0104628
-0.00888193
-0.00754289
-0.00619812
-0.00480239
-0.00340527
-0.000102103
0.00167431
0.00411526
0.00564417
-0.0132595
-0.0126803
-0.00901334
-0.00638424
-0.00347555
0.00174881
0.00573081
-0.0136301
-0.0128882
-0.0131145
-0.0105914
-0.00913428
-0.00763682
-0.00657018
-0.00486521
-0.00354542
9.39587e-05
0.00182246
0.00429309
0.0058176
SCALARS Stress_R double 1
LOOKUP_TABLE default
10.5723
12.1151
12.4484
9.67863
8.66179
6.63799
4.8206
3.92808
2.35403
0.517962
-2.03002
-0.916095
-1.27408
13.326
11.834
7.90149
4.21923
1.69748
-2.1818
-0.843687
8.66341
7.25935
6.96576
5.37004
3.77345
2.46131
1.31843
0.446333
-0.636548
-1.85501
-3.63683
-1.5954
-1.03806
2.06057
-0.643584
-2.20323
-2.9999
-3.93578
-5.32717
-0.541578
0.496762
-2.90331
-3.54094
-4.03264
-5.07195
-5.85754
-6.25648
-6.70675
-7.74844
-7.53505
-7.70803
-3.12119
-0.205471
-5.10977
-7.31331
-8.48336
-9.58379
-10.8532
-9.25905
0.0398013
-15.0436
-16.2929
-14.3824
-14.8221
-14.1695
-13.5553
-11.8828
-10.0769
-11.1754
-13.3655
-12.7012
-4.20537
0.655999
-23.581
-20.3159
-20.0783
-16.4403
-16.6373
-9.91101
0.204807
-24.0902
-19.2512
-13.6458
-16.3176
-17.9813
-15.9636
-13.3973
-16.5444
-20.5556
-11.257
-4.01121
-0.365324
0.926114
-24.7633
-9.77106
-18.2039
-8.31213
-12.518
0.11571
0.410669
-44.7282
-32.2954
-24.6718
-26.3706
-30.0417
-18.8473
-12.0483
-8.71946
-6.1796
1.5654
5.28566
3.92308
0.115509
-54.9839
-39.1794
-34.5397
-15.7148
-3.75024
10.4052
0.106569
-70.5921
-53.4439
-58.5341
-42.7508
-41.0533
-25.1172
-22.9985
-12.0475
-2.86526
16.5755
16.6341
6.94835
-0.0378479
-62.1942
-91.8323
-31.4231
-35.6975
-0.9596
21.3879
0.70857
-44.8509
-55.9767
-122.903
-50.913
-18.4181
-30.7225
-47.7335
-22.6414
1.17094
33.2433
27.3182
8.69503
1.43513
SCALARS Stress_Z double 1
LOOKUP_TABLE default
11.8097
11.3765
7.74415
4.22421
5.33215
5.65453
5.71574
6.06963
5.99799
6.4553
6.08681
7.51919
7.82832
14.0362
7.51848
4.9898
5.80025
6.00998
6.24654
7.95093
5.90061
7.4052
6.1113
4.46364
4.79921
5.0517
5.28254
5.39945
5.36164
5.74778
5.48025
6.8938
7.47058
0.157638
2.15675
3.18726
3.88488
4.29571
4.90262
6.9391
-2.79004
-1.90317
-0.510472
0.418026
0.894846
1.39864
2.1356
2.38897
2.33344
3.13604
3.41657
4.82123
6.00836
-6.87683
-5.04869
-2.95394
-0.923544
0.332707
2.25384
4.65255
-17.4143
-16.1795
-13.0351
-11.7759
-9.86273
-7.79742
-5.26375
-2.51924
2.39546
4.64285
3.67689
3.53476
4.04424
-25.1101
-20.8387
-15.9676
-10.5517
-0.145287
4.36608
2.90474
-29.1489
-22.0668
-17.2569
-14.8078
-13.1244
-10.9299
-8.44142
-8.00731
-5.18501
0.798416
1.446
1.54656
1.5732
-20.9045
-16.6496
-12.5914
-9.78587
-8.03585
-0.890608
0.524189
-31.1554
-34.7501
-33.9931
-27.2605
-25.8702
-23.2285
-21.0842
-17.6435
-14.8746
-5.5388
-3.19061
-0.48873
-0.496939
-33.5651
-46.2954
-34.1067
-29.528
-20.3249
-4.50585
-1.04798
-22.7428
-49.4161
-64.1035
-46.2144
-45.3422
-38.7983
-40.8394
-31.1867
-27.5755
-9.93007
-5.67739
-1.72665
-1.71
-71.8753
-82.0426
-51.3001
-50.1541
-33.1334
-6.31441
-1.91201
-98.6469
-48.0075
-99.2869
-63.8888
-54.8104
-48.8762
-57.7062
-42.9839
-38.3287
-12.7639
-6.46469
-2.58373
-2.05854
SCALARS Stress_Theta double 1
LOOKUP_TABLE default
-71.2125
-70.1796
-59.1831
-44.5524
-42.9775
-41.5386
-39.3983
-36.8066
-34.4132
-27.0603
-20.7984
-5.59292
4.90479
-72.5631
-61.2409
-45.2863
-39.6306
-34.1374
-19.8635
5.28408
-75.0584
-74.1602
-62.0769
-50.6151
-47.9044
-44.5121
-40.7256
-37.6428
-34.6852
-26.4843
-19.6959
-4.79416
5.3317
-78.6852
-66.481
-53.6544
-43.1433
-35.0792
-17.6084
5.40611
-86.7581
-84.2701
-73.2297
-66.1356
-59.5926
-52.5944
-45.252
-40.3853
-36.0122
-24.873
-15.972
-2.81493
5.33339
-92.0597
-79.8274
-65.4505
-48.8888
-35.6492
-12.9805
4.03956
-99.0782
-98.358
-88.4217
-81.5351
-72.8729
-63.2777
-52.7693
-42.6543
-36.1122
-19.9266
-10.4439
-0.911544
3.49695
-97.3775
-94.4849
-75.5636
-54.9841
-39.9179
-7.2816
2.09446
-102.889
-106.267
-103.007
-91.3246
-80.3264
-68.7799
-57.0258
-50.3047
-46.0202
-12.7952
-4.09815
0.064407
1.04413
-92.3229
-113.685
-76.9852
-64.0954
-47.8261
-2.97554
0.68132
-103.864
-100.867
-133.066
-93.6426
-76.8714
-71.8606
-72.0045
-58.3066
-48.6824
-4.60931
-1.97016
0.238622
-0.0896789
-110.16
-152.67
-72.5948
-78.6513
-50.225
-1.93132
-0.167835
-143.233
-82.6429
-186.152
-81.8798
-80.347
-65.6378
-97.9934
-57.5237
-56.0709
2.35426
-2.39756
0.440609
-0.924169
-191.199
-215.371
-90.6399
-112.805
-63.0129
-3.39167
-1.25143
-184.013
-66.5418
-223.674
-71.6973
-85.3876
-59.5201
-115.63
-53.6112
-63.3014
6.00078
-2.85012
0.496129
-1.13091
SCALARS Stress_Shear double 1
LOOKUP_TABLE default
0.217048
-0.639715
-1.79907
-0.687088
-0.147976
0.00512477
0.217155
0.156262
0.127648
0.109852
0.189253
-0.0684008
0.146715
1.5163
-0.258683
3.24353
3.50293
3.3901
1.93244
-0.081318
2.30458
2.33093
1.3412
4.11207
7.04011
7.24646
7.40157
7.05828
6.88608
5.48275
3.8621
1.19423
-0.235984
0.474453
3.74226
8.74665
9.89336
9.46634
4.97977
-0.584392
-0.495711
3.1237
7.0351
9.22006
11.4139
12.6731
13.5853
12.9931
12.433
9.74422
6.08858
1.14807
-1.3143
-0.2337
9.43276
13.6157
15.6643
14.6174
5.56527
-1.55388
-0.272913
4.61859
10.9233
13.5363
15.9339
16.8051
18.0269
17.3129
18.1075
12.7613
4.43415
-0.148412
-2.75509
-1.90072
10.3227
15.1502
16.4531
20.6669
2.36231
-3.39194
-4.79155
0.0940956
9.84612
13.947
15.0408
13.8098
15.3855
19.6417
24.2065
12.8015
0.0573344
-0.517547
-4.13145
-6.40048
9.8486
14.4631
15.0506
23.9555
-2.59246
-4.0164
-11.9389
-6.75005
10.0961
18.1321
13.5591
9.21622
13.0791
18.8093
24.0168
10.3987
-4.30576
-0.336558
-3.32325
0.149253
8.72229
8.16029
9.38939
19.4236
-4.7
-3.06353
-15.3084
-1.25236
7.58957
14.5693
4.89261
1.81099
5.1425
10.3938
14.7461
5.21653
-4.37008
-0.106055
-1.69098
-18.4764
6.81298
1.12159
3.50165
3.87714
-3.15259
-0.81723
6.87165
7.36354
5.79131
10.855
-4.61838
-3.00848
3.3754
3.02444
-7.29851
-0.388592
-2.94204
0.629764
-1.06918
