# vtk DataFile Version 2.0
./vtk
ASCII

DATASET UNSTRUCTURED_GRID
POINTS 139 double
0 0 0.0
1.25 0 0.0
2.5 0 0.0
3.75 0 0.0
5 0 0.0
27.5 0 0.0
50 0 0.0
0 -1.25 0.0
2.5 -1.25 0.0
5 -1.25 0.0
50 -1.25 0.0
0 -2.5 0.0
1.25 -2.5 0.0
2.5 -2.5 0.0
3.75 -2.5 0.0
5 -2.5 0.0
27.5 -2.5 0.0
50 -2.5 0.0
0 -3.75 0.0
2.5 -3.75 0.0
5 -3.75 0.0
50 -3.75 0.0
0 -5 0.0
1.25 -5 0.0
2.5 -5 0.0
3.75 -5 0.0
5 -5 0.0
27.5 -5 0.0
50 -5 0.0
0 -6.25 0.0
2.5 -6.25 0.0
5 -6.25 0.0
50 -6.25 0.0
0 -7.5 0.0
1.25 -7.5 0.0
2.5 -7.5 0.0
3.75 -7.5 0.0
5 -7.5 0.0
27.5 -7.5 0.0
50 -7.5 0.0
0 -8.75 0.0
2.5 -8.75 0.0
5 -8.75 0.0
50 -8.75 0.0
0 -10 0.0
1.25 -10 0.0
2.5 -10 0.0
3.75 -10 0.0
5 -10 0.0
27.5 -10 0.0
50 -10 0.0
0 -11.25 0.0
2.5 -11.25 0.0
5 -11.25 0.0
50 -11.25 0.0
0 -12.5 0.0
1.25 -12.5 0.0
2.5 -12.5 0.0
3.75 -12.5 0.0
5 -12.5 0.0
27.5 -12.5 0.0
50 -12.5 0.0
0 -13.75 0.0
2.5 -13.75 0.0
5 -13.75 0.0
50 -13.75 0.0
0 -15 0.0
1.25 -15 0.0
2.5 -15 0.0
3.75 -15 0.0
5 -15 0.0
27.5 -15 0.0
50 -15 0.0
0 -18.75 0.0
2.5 -18.75 0.0
5 -18.75 0.0
50 -18.75 0.0
0 -22.5 0.0
1.25 -22.5 0.0
2.5 -22.5 0.0
3.75 -22.5 0.0
5 -22.5 0.0
27.5 -22.5 0.0
50 -22.5 0.0
0 -26.25 0.0
2.5 -26.25 0.0
5 -26.25 0.0
50 -26.25 0.0
0 -30 0.0
1.25 -30 0.0
2.5 -30 0.0
3.75 -30 0.0
5 -30 0.0
27.5 -30 0.0
50 -30 0.0
0 -33.75 0.0
2.5 -33.75 0.0
5 -33.75 0.0
50 -33.75 0.0
0 -37.5 0.0
1.25 -37.5 0.0
2.5 -37.5 0.0
3.75 -37.5 0.0
5 -37.5 0.0
27.5 -37.5 0.0
50 -37.5 0.0
0 -41.25 0.0
2.5 -41.25 0.0
5 -41.25 0.0
50 -41.25 0.0
0 -45 0.0
1.25 -45 0.0
2.5 -45 0.0
3.75 -45 0.0
5 -45 0.0
27.5 -45 0.0
50 -45 0.0
0 -58.75 0.0
2.5 -58.75 0.0
5 -58.75 0.0
50 -58.75 0.0
0 -72.5 0.0
1.25 -72.5 0.0
2.5 -72.5 0.0
3.75 -72.5 0.0
5 -72.5 0.0
27.5 -72.5 0.0
50 -72.5 0.0
0 -86.25 0.0
2.5 -86.25 0.0
5 -86.25 0.0
50 -86.25 0.0
0 -100 0.0
1.25 -100 0.0
2.5 -100 0.0
3.75 -100 0.0
5 -100 0.0
27.5 -100 0.0
50 -100 0.0

CELLS 36 324
8 11 13  2  0 12  8  1  7
8 13 15  4  2 14  9  3  8
8 15 17  6  4 16 10  5  9
8 22 24 13 11 23 19 12 18
8 24 26 15 13 25 20 14 19
8 26 28 17 15 27 21 16 20
8 33 35 24 22 34 30 23 29
8 35 37 26 24 36 31 25 30
8 37 39 28 26 38 32 27 31
8 44 46 35 33 45 41 34 40
8 46 48 37 35 47 42 36 41
8 48 50 39 37 49 43 38 42
8 55 57 46 44 56 52 45 51
8 57 59 48 46 58 53 47 52
8 59 61 50 48 60 54 49 53
8 66 68 57 55 67 63 56 62
8 68 70 59 57 69 64 58 63
8 70 72 61 59 71 65 60 64
8 77 79 68 66 78 74 67 73
8 79 81 70 68 80 75 69 74
8 81 83 72 70 82 76 71 75
8 88 90 79 77 89 85 78 84
8 90 92 81 79 91 86 80 85
8 92 94 83 81 93 87 82 86
8  99 101  90  88 100  96  89  95
8 101 103  92  90 102  97  91  96
8 103 105  94  92 104  98  93  97
8 110 112 101  99 111 107 100 106
8 112 114 103 101 113 108 102 107
8 114 116 105 103 115 109 104 108
8 121 123 112 110 122 118 111 117
8 123 125 114 112 124 119 113 118
8 125 127 116 114 126 120 115 119
8 132 134 123 121 133 129 122 128
8 134 136 125 123 135 130 124 129
8 136 138 127 125 137 131 126 130

CELL_TYPES 36
23
23
23
23
23
23
23
23
23
23
23
23
23
23
23
23
23
23
23
23
23
23
23
23
23
23
23
23
23
23
23
23
23
23
23
23

POINT_DATA 139
SCALARS Displacement_R double 1
LOOKUP_TABLE default
1.36178e-05
-0.000189953
-0.000339164
-0.000303741
-0.000169893
-0.000125552
6.28627e-05
-6.17095e-06
1.89968e-05
-3.509e-05
3.81235e-05
7.97284e-06
5.75155e-05
8.00144e-05
0.000134677
6.77569e-05
-6.03521e-05
2.62068e-05
-7.19593e-06
0.000131839
0.00011238
8.70368e-06
3.3025e-06
7.67762e-05
0.000134393
0.000151046
0.000138452
-7.68502e-06
-1.28745e-06
-1.50151e-06
0.000119846
0.000146063
-8.15994e-06
-2.2167e-06
5.75688e-05
0.000104548
0.000135249
0.000143861
3.06137e-05
-1.12886e-05
-1.02582e-06
9.21269e-05
0.000139396
-9.8645e-06
-3.73442e-07
4.3117e-05
8.17797e-05
0.000110587
0.000129957
5.72125e-05
-6.93268e-06
-3.52544e-07
7.19815e-05
0.000122314
-7.15579e-07
-5.56343e-07
3.32507e-05
6.41911e-05
9.03983e-05
0.000112191
7.54674e-05
5.80081e-06
-1.24604e-07
5.7222e-05
0.000104154
1.40607e-05
-1.04581e-07
2.68896e-05
5.27347e-05
7.51339e-05
9.48737e-05
8.8018e-05
2.20132e-05
-9.81634e-08
4.12929e-05
8.03627e-05
4.74855e-05
1.82014e-08
1.62257e-05
3.23784e-05
4.81696e-05
6.40374e-05
0.000105144
6.66572e-05
-1.32149e-08
2.75693e-05
5.4132e-05
8.32426e-05
2.88136e-08
1.13795e-05
2.26439e-05
3.41936e-05
4.54942e-05
0.00010605
9.40629e-05
-3.37849e-08
1.98262e-05
3.91162e-05
0.000101314
4.48682e-08
8.48857e-06
1.69133e-05
2.54172e-05
3.38602e-05
9.92609e-05
0.000105032
-2.22441e-08
1.46471e-05
2.90898e-05
0.000106312
2.15447e-09
6.17677e-06
1.23271e-05
1.85655e-05
2.47532e-05
8.90452e-05
0.000105942
3.24522e-10
8.77447e-06
1.73264e-05
9.52427e-05
-2.11484e-09
3.73688e-06
7.47146e-06
1.12622e-05
1.50384e-05
4.76055e-05
7.89223e-05
-8.17623e-10
1.52167e-06
3.02929e-06
5.29608e-05
0
0
0
0
0
0
0
SCALARS Displacement_Z double 1
LOOKUP_TABLE default
-0.00381403
-0.00377288
-0.0034608
-0.00288269
-0.00179644
-0.000438674
-0.000369912
-0.00349609
-0.00303478
-0.00177112
-0.000355832
-0.00300839
-0.0029287
-0.00269879
-0.00223345
-0.00174041
-0.000444978
-0.000344997
-0.00262755
-0.0023543
-0.00168467
-0.000329236
-0.00228635
-0.0022397
-0.00208878
-0.00187171
-0.00162398
-0.000454993
-0.000316125
-0.00202021
-0.00188439
-0.00155681
-0.000303529
-0.00181939
-0.00178921
-0.001719
-0.0016106
-0.001487
-0.000462896
-0.00029223
-0.00165025
-0.00158028
-0.00141941
-0.000283589
-0.0015141
-0.00150116
-0.00146624
-0.00141246
-0.00135061
-0.00046654
-0.000275337
-0.00140251
-0.00136805
-0.00128726
-0.000270039
-0.00130887
-0.00130241
-0.00128486
-0.00125639
-0.00122357
-0.000465643
-0.000264578
-0.0012293
-0.00121069
-0.00116615
-0.000261743
-0.00115852
-0.00115515
-0.0011466
-0.00112934
-0.00110887
-0.000460633
-0.000258455
-0.000986405
-0.000980542
-0.000969855
-0.000259018
-0.000853822
-0.000853246
-0.000851447
-0.00084439
-0.000836062
-0.000428188
-0.00025394
-0.000745126
-0.000741905
-0.000736334
-0.000256443
-0.000652327
-0.000652391
-0.000651409
-0.000647628
-0.000642899
-0.000381814
-0.000253738
-0.000574216
-0.000572311
-0.000568534
-0.00025254
-0.000505458
-0.000505374
-0.000504744
-0.00050257
-0.000499913
-0.000331585
-0.000247358
-0.000445914
-0.000444755
-0.000442323
-0.000241498
-0.000393764
-0.000393578
-0.000392847
-0.000391446
-0.00038949
-0.000282057
-0.000232769
-0.000247228
-0.000246682
-0.000245108
-0.000191238
-0.000136592
-0.000136704
-0.00013689
-0.000137275
-0.000137753
-0.000120572
-0.000133022
-5.43258e-05
-5.43185e-05
-5.43222e-05
-6.76725e-05
0
0
0
0
0
0
0
SCALARS Stress_R double 1
LOOKUP_TABLE default
-12.957
-13.4803
-11.0886
-3.78537
2.15933
0.185181
0.256217
-5.99875
-4.94076
-1.2814
0.225374
-3.35047
-3.90979
-2.1364
-3.06031
-2.71229
-0.0206836
0.194598
-1.29148
-1.43885
-2.11866
0.0592659
-0.354991
-0.652513
-0.91046
-1.26534
-1.17149
-0.0729386
0.00100747
0.121272
-0.351248
-0.936649
-0.0825046
0.410433
0.134204
-0.0145591
-0.285214
-0.744864
-0.082483
-0.126266
0.355569
0.130946
-0.542995
-0.162033
0.426867
0.322982
0.25724
0.0935017
-0.394141
-0.0788157
-0.182499
0.395818
0.281965
-0.290062
-0.190378
0.414793
0.355943
0.306441
0.228323
-0.22725
-0.0692854
-0.194087
0.363089
0.305053
-0.175813
-0.188105
0.362302
0.344227
0.321774
0.246089
-0.132889
-0.065453
-0.169082
0.272109
0.266049
-0.0514678
-0.139632
0.220716
0.215627
0.208674
0.197528
-0.0169848
-0.0241261
-0.118335
0.173992
0.16684
0.0158022
-0.0778158
0.14073
0.138155
0.143815
0.141741
0.0241763
-0.00175536
-0.0618993
0.119586
0.116805
0.0359056
-0.0402971
0.0993319
0.0981198
0.100369
0.10053
0.0412811
0.0111913
-0.0322856
0.080299
0.0789633
0.0396834
-0.0226318
0.0701009
0.0700936
0.0716923
0.0698897
0.0424859
0.0170111
-0.0198118
0.0413095
0.0398655
0.0254384
-0.0026672
0.0535956
0.0536727
0.0548805
0.0560537
0.0197081
-0.00267784
-0.000137499
-0.050801
-0.0510703
-0.0389491
-0.0209417
-0.050794
-0.050673
-0.0505839
-0.0503033
-0.0508737
-0.0579297
-0.0882889
SCALARS Stress_Z double 1
LOOKUP_TABLE default
-11.7304
-13.5427
-12.9982
-7.26648
-0.12905
-0.0436991
-0.00272659
-6.49436
-4.82607
-1.04035
0.0174731
-2.71489
-3.34792
-2.58335
-2.14661
-1.19667
-0.0533095
0.033949
-1.94641
-1.22654
-0.846527
-0.0456759
-0.112778
-0.362774
-0.46245
-0.376445
-0.324878
-0.00957189
-0.0492169
-0.0224038
-0.0252685
-0.211479
-0.0910174
0.150143
0.221328
0.174117
0.18496
-0.133774
0.0218123
-0.0934478
0.238958
0.26464
-0.0542411
-0.103653
0.388672
0.358539
0.367712
0.330005
-0.0148429
0.0389168
-0.0987113
0.355522
0.350319
0.0189371
-0.0929741
0.355811
0.370371
0.362756
0.342103
0.0219427
0.0483699
-0.0831313
0.347006
0.336696
0.0336237
-0.0709674
0.351971
0.352068
0.355968
0.320051
0.0484157
0.0456226
-0.0457336
0.261845
0.26986
0.0674941
-0.0185509
0.221971
0.216976
0.212741
0.201956
0.0528305
0.0628043
0.000109534
0.172935
0.171308
0.0703056
0.0293515
0.14303
0.140077
0.14136
0.141113
0.0624777
0.062538
0.034447
0.116626
0.118362
0.065611
0.0452167
0.103335
0.099768
0.0998379
0.10043
0.0615431
0.0581185
0.0425537
0.0783418
0.0796166
0.0544058
0.0430266
0.069962
0.0706089
0.0708841
0.0693846
0.0510522
0.0504933
0.036149
0.0413421
0.04069
0.0318671
0.027444
0.0533658
0.0536713
0.0543648
0.0554779
0.0300606
0.00559772
0.00446753
-0.0508943
-0.0510658
-0.0419984
-0.0204526
-0.05079
-0.0506756
-0.0505738
-0.0503142
-0.0519621
-0.0564677
-0.090482
SCALARS Stress_Theta double 1
LOOKUP_TABLE default
-12.9994
-17.2803
-18.5309
-12.1223
0.0658846
0.143736
-0.300776
-13.4155
-12.0742
-1.36885
-0.226127
-13.4985
-12.5664
-9.51525
-7.56411
-2.21259
0.0766977
-0.247037
-9.63592
-8.11976
-2.28672
-0.342385
-7.58269
-7.0559
-5.81102
-4.00372
-1.99715
0.0769761
-0.314825
-5.5738
-4.55032
-1.98818
-0.338791
-4.07714
-4.04455
-3.51552
-2.70821
-1.92086
0.0480214
-0.299752
-3.48522
-2.91443
-1.81594
-0.282421
-2.63813
-2.56806
-2.30121
-1.94544
-1.71384
0.00256406
-0.24364
-2.23727
-1.98691
-1.6058
-0.214123
-1.79239
-1.77379
-1.65815
-1.50102
-1.51785
-0.0428989
-0.18099
-1.5912
-1.46659
-1.41904
-0.151193
-1.34979
-1.31821
-1.24337
-1.18531
-1.27827
-0.101887
-0.0930741
-1.05861
-1.01983
-1.08642
-0.0655135
-0.785034
-0.792628
-0.792294
-0.809888
-0.925475
-0.149046
-0.0466352
-0.7019
-0.698708
-0.74682
-0.0153495
-0.585431
-0.584163
-0.577796
-0.582656
-0.644103
-0.17632
-0.0262995
-0.516614
-0.516108
-0.541489
-0.0240436
-0.448484
-0.447438
-0.443263
-0.443205
-0.472025
-0.178974
-0.0433122
-0.399183
-0.400016
-0.413467
-0.0522392
-0.331232
-0.329963
-0.327987
-0.333463
-0.351461
-0.17421
-0.0719641
-0.255756
-0.255059
-0.25743
-0.101381
-0.17401
-0.173706
-0.172649
-0.171308
-0.18888
-0.156488
-0.141333
-0.179518
-0.179975
-0.17456
-0.157533
-0.118523
-0.118234
-0.118039
-0.117364
-0.117617
-0.136631
-0.203814
SCALARS Stress_Shear double 1
LOOKUP_TABLE default
-0.531314
-0.726703
-1.11639
4.13928
5.30769
-0.0234513
-0.00770821
0.211492
1.78134
3.55583
-0.104966
0.0280637
1.36636
3.54275
3.97672
2.1752
0.104476
-0.131725
0.108173
2.37748
1.81281
-0.0962158
-0.126761
0.973909
2.03558
2.27602
1.51066
0.136897
-0.123783
-0.0136713
1.43426
1.239
-0.115452
0.0810676
0.536879
1.01605
1.18179
1.01948
0.162595
-0.128604
0.0282448
0.727199
0.832954
-0.125356
0.0155139
0.277564
0.53438
0.642794
0.704168
0.175168
-0.124619
0.00717001
0.394857
0.587713
-0.118387
0.0069228
0.148952
0.297233
0.368632
0.513895
0.176261
-0.109273
0.0087176
0.21873
0.44467
-0.100087
0.00819408
0.0751621
0.158182
0.227785
0.391903
0.173254
-0.0907211
-0.00266207
0.0739364
0.260711
-0.0606956
-0.000493595
0.0208313
0.0598467
0.102835
0.218629
0.138174
-0.025146
0.00437958
0.0353798
0.155035
-0.0131232
-0.00532272
0.0102603
0.0341301
0.0566804
0.131003
0.105915
0.00548954
0.00142922
0.0222927
0.0982625
0.00847928
-0.00178963
0.00729015
0.0210837
0.0338213
0.0822134
0.078757
0.015388
0.000388311
0.0154642
0.0659991
0.0136204
-0.000902765
0.0069676
0.0153915
0.0235549
0.0558418
0.0575715
0.0155165
0.000350393
0.00695162
0.026934
0.00264357
-0.000689047
0.000380218
0.000909526
0.00117316
0.0125871
0.0162147
-0.000726663
0.000374214
0.00318718
0.00817387
0.0220933
-4.8489e-07
-0.00028983
-0.000581025
-0.000900287
-0.00122569
0.027535
0.055771
