# vtk DataFile Version 2.0
./vtk
ASCII

DATASET UNSTRUCTURED_GRID
POINTS 8069 double
0 0 0.0
0.0333 0 0.0
0.0667 0 0.0
0.1 0 0.0
0.1333 0 0.0
0.1667 0 0.0
0.2 0 0.0
0.2333 0 0.0
0.2667 0 0.0
0.3 0 0.0
0.3333 0 0.0
0.3667 0 0.0
0.4 0 0.0
0.4333 0 0.0
0.4667 0 0.0
0.5 0 0.0
0.5333 0 0.0
0.5667 0 0.0
0.6 0 0.0
0.6333 0 0.0
0.6667 0 0.0
0.7 0 0.0
0.7333 0 0.0
0.7667 0 0.0
0.8 0 0.0
0.8333 0 0.0
0.8667 0 0.0
0.9 0 0.0
0.9333 0 0.0
0.9667 0 0.0
1 0 0.0
1.0894 0 0.0
1.1788 0 0.0
1.2841 0 0.0
1.3895 0 0.0
1.5137 0 0.0
1.6379 0 0.0
1.7843 0 0.0
1.9307 0 0.0
2.1033 0 0.0
2.2758 0 0.0
2.4793 0 0.0
2.6827 0 0.0
2.9225 0 0.0
3.1623 0 0.0
3.4449 0 0.0
3.7276 0 0.0
4.0608 0 0.0
4.394 0 0.0
4.7867 0 0.0
5.1795 0 0.0
5.6424 0 0.0
6.1054 0 0.0
6.6511 0 0.0
7.1969 0 0.0
7.8401 0 0.0
8.4834 0 0.0
9.2417 0 0.0
10 0 0.0
0 -0.0444 0.0
0.0667 -0.0444 0.0
0.1333 -0.0444 0.0
0.2 -0.0444 0.0
0.2667 -0.0444 0.0
0.3333 -0.0444 0.0
0.4 -0.0444 0.0
0.4667 -0.0444 0.0
0.5333 -0.0444 0.0
0.6 -0.0444 0.0
0.6667 -0.0444 0.0
0.7333 -0.0444 0.0
0.8 -0.0444 0.0
0.8667 -0.0444 0.0
0.9333 -0.0444 0.0
1 -0.0444 0.0
1.1788 -0.0444 0.0
1.3895 -0.0444 0.0
1.6379 -0.0444 0.0
1.9307 -0.0444 0.0
2.2758 -0.0444 0.0
2.6827 -0.0444 0.0
3.1623 -0.0444 0.0
3.7276 -0.0444 0.0
4.394 -0.0444 0.0
5.1795 -0.0444 0.0
6.1054 -0.0444 0.0
7.1969 -0.0444 0.0
8.4834 -0.0444 0.0
10 -0.0444 0.0
0 -0.0889 0.0
0.0333 -0.0889 0.0
0.0667 -0.0889 0.0
0.1 -0.0889 0.0
0.1333 -0.0889 0.0
0.1667 -0.0889 0.0
0.2 -0.0889 0.0
0.2333 -0.0889 0.0
0.2667 -0.0889 0.0
0.3 -0.0889 0.0
0.3333 -0.0889 0.0
0.3667 -0.0889 0.0
0.4 -0.0889 0.0
0.4333 -0.0889 0.0
0.4667 -0.0889 0.0
0.5 -0.0889 0.0
0.5333 -0.0889 0.0
0.5667 -0.0889 0.0
0.6 -0.0889 0.0
0.6333 -0.0889 0.0
0.6667 -0.0889 0.0
0.7 -0.0889 0.0
0.7333 -0.0889 0.0
0.7667 -0.0889 0.0
0.8 -0.0889 0.0
0.8333 -0.0889 0.0
0.8667 -0.0889 0.0
0.9 -0.0889 0.0
0.9333 -0.0889 0.0
0.9667 -0.0889 0.0
1 -0.0889 0.0
1.0894 -0.0889 0.0
1.1788 -0.0889 0.0
1.2841 -0.0889 0.0
1.3895 -0.0889 0.0
1.5137 -0.0889 0.0
1.6379 -0.0889 0.0
1.7843 -0.0889 0.0
1.9307 -0.0889 0.0
2.1033 -0.0889 0.0
2.2758 -0.0889 0.0
2.4793 -0.0889 0.0
2.6827 -0.0889 0.0
2.9225 -0.0889 0.0
3.1623 -0.0889 0.0
3.4449 -0.0889 0.0
3.7276 -0.0889 0.0
4.0608 -0.0889 0.0
4.394 -0.0889 0.0
4.7867 -0.0889 0.0
5.1795 -0.0889 0.0
5.6424 -0.0889 0.0
6.1054 -0.0889 0.0
6.6511 -0.0889 0.0
7.1969 -0.0889 0.0
7.8401 -0.0889 0.0
8.4834 -0.0889 0.0
9.2417 -0.0889 0.0
10 -0.0889 0.0
0 -0.1333 0.0
0.0667 -0.1333 0.0
0.1333 -0.1333 0.0
0.2 -0.1333 0.0
0.2667 -0.1333 0.0
0.3333 -0.1333 0.0
0.4 -0.1333 0.0
0.4667 -0.1333 0.0
0.5333 -0.1333 0.0
0.6 -0.1333 0.0
0.6667 -0.1333 0.0
0.7333 -0.1333 0.0
0.8 -0.1333 0.0
0.8667 -0.1333 0.0
0.9333 -0.1333 0.0
1 -0.1333 0.0
1.1788 -0.1333 0.0
1.3895 -0.1333 0.0
1.6379 -0.1333 0.0
1.9307 -0.1333 0.0
2.2758 -0.1333 0.0
2.6827 -0.1333 0.0
3.1623 -0.1333 0.0
3.7276 -0.1333 0.0
4.394 -0.1333 0.0
5.1795 -0.1333 0.0
6.1054 -0.1333 0.0
7.1969 -0.1333 0.0
8.4834 -0.1333 0.0
10 -0.1333 0.0
0 -0.1778 0.0
0.0333 -0.1778 0.0
0.0667 -0.1778 0.0
0.1 -0.1778 0.0
0.1333 -0.1778 0.0
0.1667 -0.1778 0.0
0.2 -0.1778 0.0
0.2333 -0.1778 0.0
0.2667 -0.1778 0.0
0.3 -0.1778 0.0
0.3333 -0.1778 0.0
0.3667 -0.1778 0.0
0.4 -0.1778 0.0
0.4333 -0.1778 0.0
0.4667 -0.1778 0.0
0.5 -0.1778 0.0
0.5333 -0.1778 0.0
0.5667 -0.1778 0.0
0.6 -0.1778 0.0
0.6333 -0.1778 0.0
0.6667 -0.1778 0.0
0.7 -0.1778 0.0
0.7333 -0.1778 0.0
0.7667 -0.1778 0.0
0.8 -0.1778 0.0
0.8333 -0.1778 0.0
0.8667 -0.1778 0.0
0.9 -0.1778 0.0
0.9333 -0.1778 0.0
0.9667 -0.1778 0.0
1 -0.1778 0.0
1.0894 -0.1778 0.0
1.1788 -0.1778 0.0
1.2841 -0.1778 0.0
1.3895 -0.1778 0.0
1.5137 -0.1778 0.0
1.6379 -0.1778 0.0
1.7843 -0.1778 0.0
1.9307 -0.1778 0.0
2.1033 -0.1778 0.0
2.2758 -0.1778 0.0
2.4793 -0.1778 0.0
2.6827 -0.1778 0.0
2.9225 -0.1778 0.0
3.1623 -0.1778 0.0
3.4449 -0.1778 0.0
3.7276 -0.1778 0.0
4.0608 -0.1778 0.0
4.394 -0.1778 0.0
4.7867 -0.1778 0.0
5.1795 -0.1778 0.0
5.6424 -0.1778 0.0
6.1054 -0.1778 0.0
6.6511 -0.1778 0.0
7.1969 -0.1778 0.0
7.8401 -0.1778 0.0
8.4834 -0.1778 0.0
9.2417 -0.1778 0.0
10 -0.1778 0.0
0 -0.2222 0.0
0.0667 -0.2222 0.0
0.1333 -0.2222 0.0
0.2 -0.2222 0.0
0.2667 -0.2222 0.0
0.3333 -0.2222 0.0
0.4 -0.2222 0.0
0.4667 -0.2222 0.0
0.5333 -0.2222 0.0
0.6 -0.2222 0.0
0.6667 -0.2222 0.0
0.7333 -0.2222 0.0
0.8 -0.2222 0.0
0.8667 -0.2222 0.0
0.9333 -0.2222 0.0
1 -0.2222 0.0
1.1788 -0.2222 0.0
1.3895 -0.2222 0.0
1.6379 -0.2222 0.0
1.9307 -0.2222 0.0
2.2758 -0.2222 0.0
2.6827 -0.2222 0.0
3.1623 -0.2222 0.0
3.7276 -0.2222 0.0
4.394 -0.2222 0.0
5.1795 -0.2222 0.0
6.1054 -0.2222 0.0
7.1969 -0.2222 0.0
8.4834 -0.2222 0.0
10 -0.2222 0.0
0 -0.2667 0.0
0.0333 -0.2667 0.0
0.0667 -0.2667 0.0
0.1 -0.2667 0.0
0.1333 -0.2667 0.0
0.1667 -0.2667 0.0
0.2 -0.2667 0.0
0.2333 -0.2667 0.0
0.2667 -0.2667 0.0
0.3 -0.2667 0.0
0.3333 -0.2667 0.0
0.3667 -0.2667 0.0
0.4 -0.2667 0.0
0.4333 -0.2667 0.0
0.4667 -0.2667 0.0
0.5 -0.2667 0.0
0.5333 -0.2667 0.0
0.5667 -0.2667 0.0
0.6 -0.2667 0.0
0.6333 -0.2667 0.0
0.6667 -0.2667 0.0
0.7 -0.2667 0.0
0.7333 -0.2667 0.0
0.7667 -0.2667 0.0
0.8 -0.2667 0.0
0.8333 -0.2667 0.0
0.8667 -0.2667 0.0
0.9 -0.2667 0.0
0.9333 -0.2667 0.0
0.9667 -0.2667 0.0
1 -0.2667 0.0
1.0894 -0.2667 0.0
1.1788 -0.2667 0.0
1.2841 -0.2667 0.0
1.3895 -0.2667 0.0
1.5137 -0.2667 0.0
1.6379 -0.2667 0.0
1.7843 -0.2667 0.0
1.9307 -0.2667 0.0
2.1033 -0.2667 0.0
2.2758 -0.2667 0.0
2.4793 -0.2667 0.0
2.6827 -0.2667 0.0
2.9225 -0.2667 0.0
3.1623 -0.2667 0.0
3.4449 -0.2667 0.0
3.7276 -0.2667 0.0
4.0608 -0.2667 0.0
4.394 -0.2667 0.0
4.7867 -0.2667 0.0
5.1795 -0.2667 0.0
5.6424 -0.2667 0.0
6.1054 -0.2667 0.0
6.6511 -0.2667 0.0
7.1969 -0.2667 0.0
7.8401 -0.2667 0.0
8.4834 -0.2667 0.0
9.2417 -0.2667 0.0
10 -0.2667 0.0
0 -0.3111 0.0
0.0667 -0.3111 0.0
0.1333 -0.3111 0.0
0.2 -0.3111 0.0
0.2667 -0.3111 0.0
0.3333 -0.3111 0.0
0.4 -0.3111 0.0
0.4667 -0.3111 0.0
0.5333 -0.3111 0.0
0.6 -0.3111 0.0
0.6667 -0.3111 0.0
0.7333 -0.3111 0.0
0.8 -0.3111 0.0
0.8667 -0.3111 0.0
0.9333 -0.3111 0.0
1 -0.3111 0.0
1.1788 -0.3111 0.0
1.3895 -0.3111 0.0
1.6379 -0.3111 0.0
1.9307 -0.3111 0.0
2.2758 -0.3111 0.0
2.6827 -0.3111 0.0
3.1623 -0.3111 0.0
3.7276 -0.3111 0.0
4.394 -0.3111 0.0
5.1795 -0.3111 0.0
6.1054 -0.3111 0.0
7.1969 -0.3111 0.0
8.4834 -0.3111 0.0
10 -0.3111 0.0
0 -0.3556 0.0
0.0333 -0.3556 0.0
0.0667 -0.3556 0.0
0.1 -0.3556 0.0
0.1333 -0.3556 0.0
0.1667 -0.3556 0.0
0.2 -0.3556 0.0
0.2333 -0.3556 0.0
0.2667 -0.3556 0.0
0.3 -0.3556 0.0
0.3333 -0.3556 0.0
0.3667 -0.3556 0.0
0.4 -0.3556 0.0
0.4333 -0.3556 0.0
0.4667 -0.3556 0.0
0.5 -0.3556 0.0
0.5333 -0.3556 0.0
0.5667 -0.3556 0.0
0.6 -0.3556 0.0
0.6333 -0.3556 0.0
0.6667 -0.3556 0.0
0.7 -0.3556 0.0
0.7333 -0.3556 0.0
0.7667 -0.3556 0.0
0.8 -0.3556 0.0
0.8333 -0.3556 0.0
0.8667 -0.3556 0.0
0.9 -0.3556 0.0
0.9333 -0.3556 0.0
0.9667 -0.3556 0.0
1 -0.3556 0.0
1.0894 -0.3556 0.0
1.1788 -0.3556 0.0
1.2841 -0.3556 0.0
1.3895 -0.3556 0.0
1.5137 -0.3556 0.0
1.6379 -0.3556 0.0
1.7843 -0.3556 0.0
1.9307 -0.3556 0.0
2.1033 -0.3556 0.0
2.2758 -0.3556 0.0
2.4793 -0.3556 0.0
2.6827 -0.3556 0.0
2.9225 -0.3556 0.0
3.1623 -0.3556 0.0
3.4449 -0.3556 0.0
3.7276 -0.3556 0.0
4.0608 -0.3556 0.0
4.394 -0.3556 0.0
4.7867 -0.3556 0.0
5.1795 -0.3556 0.0
5.6424 -0.3556 0.0
6.1054 -0.3556 0.0
6.6511 -0.3556 0.0
7.1969 -0.3556 0.0
7.8401 -0.3556 0.0
8.4834 -0.3556 0.0
9.2417 -0.3556 0.0
10 -0.3556 0.0
0 -0.4 0.0
0.0667 -0.4 0.0
0.1333 -0.4 0.0
0.2 -0.4 0.0
0.2667 -0.4 0.0
0.3333 -0.4 0.0
0.4 -0.4 0.0
0.4667 -0.4 0.0
0.5333 -0.4 0.0
0.6 -0.4 0.0
0.6667 -0.4 0.0
0.7333 -0.4 0.0
0.8 -0.4 0.0
0.8667 -0.4 0.0
0.9333 -0.4 0.0
1 -0.4 0.0
1.1788 -0.4 0.0
1.3895 -0.4 0.0
1.6379 -0.4 0.0
1.9307 -0.4 0.0
2.2758 -0.4 0.0
2.6827 -0.4 0.0
3.1623 -0.4 0.0
3.7276 -0.4 0.0
4.394 -0.4 0.0
5.1795 -0.4 0.0
6.1054 -0.4 0.0
7.1969 -0.4 0.0
8.4834 -0.4 0.0
10 -0.4 0.0
0 -0.4444 0.0
0.0333 -0.4444 0.0
0.0667 -0.4444 0.0
0.1 -0.4444 0.0
0.1333 -0.4444 0.0
0.1667 -0.4444 0.0
0.2 -0.4444 0.0
0.2333 -0.4444 0.0
0.2667 -0.4444 0.0
0.3 -0.4444 0.0
0.3333 -0.4444 0.0
0.3667 -0.4444 0.0
0.4 -0.4444 0.0
0.4333 -0.4444 0.0
0.4667 -0.4444 0.0
0.5 -0.4444 0.0
0.5333 -0.4444 0.0
0.5667 -0.4444 0.0
0.6 -0.4444 0.0
0.6333 -0.4444 0.0
0.6667 -0.4444 0.0
0.7 -0.4444 0.0
0.7333 -0.4444 0.0
0.7667 -0.4444 0.0
0.8 -0.4444 0.0
0.8333 -0.4444 0.0
0.8667 -0.4444 0.0
0.9 -0.4444 0.0
0.9333 -0.4444 0.0
0.9667 -0.4444 0.0
1 -0.4444 0.0
1.0894 -0.4444 0.0
1.1788 -0.4444 0.0
1.2841 -0.4444 0.0
1.3895 -0.4444 0.0
1.5137 -0.4444 0.0
1.6379 -0.4444 0.0
1.7843 -0.4444 0.0
1.9307 -0.4444 0.0
2.1033 -0.4444 0.0
2.2758 -0.4444 0.0
2.4793 -0.4444 0.0
2.6827 -0.4444 0.0
2.9225 -0.4444 0.0
3.1623 -0.4444 0.0
3.4449 -0.4444 0.0
3.7276 -0.4444 0.0
4.0608 -0.4444 0.0
4.394 -0.4444 0.0
4.7867 -0.4444 0.0
5.1795 -0.4444 0.0
5.6424 -0.4444 0.0
6.1054 -0.4444 0.0
6.6511 -0.4444 0.0
7.1969 -0.4444 0.0
7.8401 -0.4444 0.0
8.4834 -0.4444 0.0
9.2417 -0.4444 0.0
10 -0.4444 0.0
0 -0.4889 0.0
0.0667 -0.4889 0.0
0.1333 -0.4889 0.0
0.2 -0.4889 0.0
0.2667 -0.4889 0.0
0.3333 -0.4889 0.0
0.4 -0.4889 0.0
0.4667 -0.4889 0.0
0.5333 -0.4889 0.0
0.6 -0.4889 0.0
0.6667 -0.4889 0.0
0.7333 -0.4889 0.0
0.8 -0.4889 0.0
0.8667 -0.4889 0.0
0.9333 -0.4889 0.0
1 -0.4889 0.0
1.1788 -0.4889 0.0
1.3895 -0.4889 0.0
1.6379 -0.4889 0.0
1.9307 -0.4889 0.0
2.2758 -0.4889 0.0
2.6827 -0.4889 0.0
3.1623 -0.4889 0.0
3.7276 -0.4889 0.0
4.394 -0.4889 0.0
5.1795 -0.4889 0.0
6.1054 -0.4889 0.0
7.1969 -0.4889 0.0
8.4834 -0.4889 0.0
10 -0.4889 0.0
0 -0.5333 0.0
0.0333 -0.5333 0.0
0.0667 -0.5333 0.0
0.1 -0.5333 0.0
0.1333 -0.5333 0.0
0.1667 -0.5333 0.0
0.2 -0.5333 0.0
0.2333 -0.5333 0.0
0.2667 -0.5333 0.0
0.3 -0.5333 0.0
0.3333 -0.5333 0.0
0.3667 -0.5333 0.0
0.4 -0.5333 0.0
0.4333 -0.5333 0.0
0.4667 -0.5333 0.0
0.5 -0.5333 0.0
0.5333 -0.5333 0.0
0.5667 -0.5333 0.0
0.6 -0.5333 0.0
0.6333 -0.5333 0.0
0.6667 -0.5333 0.0
0.7 -0.5333 0.0
0.7333 -0.5333 0.0
0.7667 -0.5333 0.0
0.8 -0.5333 0.0
0.8333 -0.5333 0.0
0.8667 -0.5333 0.0
0.9 -0.5333 0.0
0.9333 -0.5333 0.0
0.9667 -0.5333 0.0
1 -0.5333 0.0
1.0894 -0.5333 0.0
1.1788 -0.5333 0.0
1.2841 -0.5333 0.0
1.3895 -0.5333 0.0
1.5137 -0.5333 0.0
1.6379 -0.5333 0.0
1.7843 -0.5333 0.0
1.9307 -0.5333 0.0
2.1033 -0.5333 0.0
2.2758 -0.5333 0.0
2.4793 -0.5333 0.0
2.6827 -0.5333 0.0
2.9225 -0.5333 0.0
3.1623 -0.5333 0.0
3.4449 -0.5333 0.0
3.7276 -0.5333 0.0
4.0608 -0.5333 0.0
4.394 -0.5333 0.0
4.7867 -0.5333 0.0
5.1795 -0.5333 0.0
5.6424 -0.5333 0.0
6.1054 -0.5333 0.0
6.6511 -0.5333 0.0
7.1969 -0.5333 0.0
7.8401 -0.5333 0.0
8.4834 -0.5333 0.0
9.2417 -0.5333 0.0
10 -0.5333 0.0
0 -0.5778 0.0
0.0667 -0.5778 0.0
0.1333 -0.5778 0.0
0.2 -0.5778 0.0
0.2667 -0.5778 0.0
0.3333 -0.5778 0.0
0.4 -0.5778 0.0
0.4667 -0.5778 0.0
0.5333 -0.5778 0.0
0.6 -0.5778 0.0
0.6667 -0.5778 0.0
0.7333 -0.5778 0.0
0.8 -0.5778 0.0
0.8667 -0.5778 0.0
0.9333 -0.5778 0.0
1 -0.5778 0.0
1.1788 -0.5778 0.0
1.3895 -0.5778 0.0
1.6379 -0.5778 0.0
1.9307 -0.5778 0.0
2.2758 -0.5778 0.0
2.6827 -0.5778 0.0
3.1623 -0.5778 0.0
3.7276 -0.5778 0.0
4.394 -0.5778 0.0
5.1795 -0.5778 0.0
6.1054 -0.5778 0.0
7.1969 -0.5778 0.0
8.4834 -0.5778 0.0
10 -0.5778 0.0
0 -0.6222 0.0
0.0333 -0.6222 0.0
0.0667 -0.6222 0.0
0.1 -0.6222 0.0
0.1333 -0.6222 0.0
0.1667 -0.6222 0.0
0.2 -0.6222 0.0
0.2333 -0.6222 0.0
0.2667 -0.6222 0.0
0.3 -0.6222 0.0
0.3333 -0.6222 0.0
0.3667 -0.6222 0.0
0.4 -0.6222 0.0
0.4333 -0.6222 0.0
0.4667 -0.6222 0.0
0.5 -0.6222 0.0
0.5333 -0.6222 0.0
0.5667 -0.6222 0.0
0.6 -0.6222 0.0
0.6333 -0.6222 0.0
0.6667 -0.6222 0.0
0.7 -0.6222 0.0
0.7333 -0.6222 0.0
0.7667 -0.6222 0.0
0.8 -0.6222 0.0
0.8333 -0.6222 0.0
0.8667 -0.6222 0.0
0.9 -0.6222 0.0
0.9333 -0.6222 0.0
0.9667 -0.6222 0.0
1 -0.6222 0.0
1.0894 -0.6222 0.0
1.1788 -0.6222 0.0
1.2841 -0.6222 0.0
1.3895 -0.6222 0.0
1.5137 -0.6222 0.0
1.6379 -0.6222 0.0
1.7843 -0.6222 0.0
1.9307 -0.6222 0.0
2.1033 -0.6222 0.0
2.2758 -0.6222 0.0
2.4793 -0.6222 0.0
2.6827 -0.6222 0.0
2.9225 -0.6222 0.0
3.1623 -0.6222 0.0
3.4449 -0.6222 0.0
3.7276 -0.6222 0.0
4.0608 -0.6222 0.0
4.394 -0.6222 0.0
4.7867 -0.6222 0.0
5.1795 -0.6222 0.0
5.6424 -0.6222 0.0
6.1054 -0.6222 0.0
6.6511 -0.6222 0.0
7.1969 -0.6222 0.0
7.8401 -0.6222 0.0
8.4834 -0.6222 0.0
9.2417 -0.6222 0.0
10 -0.6222 0.0
0 -0.6667 0.0
0.0667 -0.6667 0.0
0.1333 -0.6667 0.0
0.2 -0.6667 0.0
0.2667 -0.6667 0.0
0.3333 -0.6667 0.0
0.4 -0.6667 0.0
0.4667 -0.6667 0.0
0.5333 -0.6667 0.0
0.6 -0.6667 0.0
0.6667 -0.6667 0.0
0.7333 -0.6667 0.0
0.8 -0.6667 0.0
0.8667 -0.6667 0.0
0.9333 -0.6667 0.0
1 -0.6667 0.0
1.1788 -0.6667 0.0
1.3895 -0.6667 0.0
1.6379 -0.6667 0.0
1.9307 -0.6667 0.0
2.2758 -0.6667 0.0
2.6827 -0.6667 0.0
3.1623 -0.6667 0.0
3.7276 -0.6667 0.0
4.394 -0.6667 0.0
5.1795 -0.6667 0.0
6.1054 -0.6667 0.0
7.1969 -0.6667 0.0
8.4834 -0.6667 0.0
10 -0.6667 0.0
0 -0.7111 0.0
0.0333 -0.7111 0.0
0.0667 -0.7111 0.0
0.1 -0.7111 0.0
0.1333 -0.7111 0.0
0.1667 -0.7111 0.0
0.2 -0.7111 0.0
0.2333 -0.7111 0.0
0.2667 -0.7111 0.0
0.3 -0.7111 0.0
0.3333 -0.7111 0.0
0.3667 -0.7111 0.0
0.4 -0.7111 0.0
0.4333 -0.7111 0.0
0.4667 -0.7111 0.0
0.5 -0.7111 0.0
0.5333 -0.7111 0.0
0.5667 -0.7111 0.0
0.6 -0.7111 0.0
0.6333 -0.7111 0.0
0.6667 -0.7111 0.0
0.7 -0.7111 0.0
0.7333 -0.7111 0.0
0.7667 -0.7111 0.0
0.8 -0.7111 0.0
0.8333 -0.7111 0.0
0.8667 -0.7111 0.0
0.9 -0.7111 0.0
0.9333 -0.7111 0.0
0.9667 -0.7111 0.0
1 -0.7111 0.0
1.0894 -0.7111 0.0
1.1788 -0.7111 0.0
1.2841 -0.7111 0.0
1.3895 -0.7111 0.0
1.5137 -0.7111 0.0
1.6379 -0.7111 0.0
1.7843 -0.7111 0.0
1.9307 -0.7111 0.0
2.1033 -0.7111 0.0
2.2758 -0.7111 0.0
2.4793 -0.7111 0.0
2.6827 -0.7111 0.0
2.9225 -0.7111 0.0
3.1623 -0.7111 0.0
3.4449 -0.7111 0.0
3.7276 -0.7111 0.0
4.0608 -0.7111 0.0
4.394 -0.7111 0.0
4.7867 -0.7111 0.0
5.1795 -0.7111 0.0
5.6424 -0.7111 0.0
6.1054 -0.7111 0.0
6.6511 -0.7111 0.0
7.1969 -0.7111 0.0
7.8401 -0.7111 0.0
8.4834 -0.7111 0.0
9.2417 -0.7111 0.0
10 -0.7111 0.0
0 -0.7556 0.0
0.0667 -0.7556 0.0
0.1333 -0.7556 0.0
0.2 -0.7556 0.0
0.2667 -0.7556 0.0
0.3333 -0.7556 0.0
0.4 -0.7556 0.0
0.4667 -0.7556 0.0
0.5333 -0.7556 0.0
0.6 -0.7556 0.0
0.6667 -0.7556 0.0
0.7333 -0.7556 0.0
0.8 -0.7556 0.0
0.8667 -0.7556 0.0
0.9333 -0.7556 0.0
1 -0.7556 0.0
1.1788 -0.7556 0.0
1.3895 -0.7556 0.0
1.6379 -0.7556 0.0
1.9307 -0.7556 0.0
2.2758 -0.7556 0.0
2.6827 -0.7556 0.0
3.1623 -0.7556 0.0
3.7276 -0.7556 0.0
4.394 -0.7556 0.0
5.1795 -0.7556 0.0
6.1054 -0.7556 0.0
7.1969 -0.7556 0.0
8.4834 -0.7556 0.0
10 -0.7556 0.0
0 -0.8 0.0
0.0333 -0.8 0.0
0.0667 -0.8 0.0
0.1 -0.8 0.0
0.1333 -0.8 0.0
0.1667 -0.8 0.0
0.2 -0.8 0.0
0.2333 -0.8 0.0
0.2667 -0.8 0.0
0.3 -0.8 0.0
0.3333 -0.8 0.0
0.3667 -0.8 0.0
0.4 -0.8 0.0
0.4333 -0.8 0.0
0.4667 -0.8 0.0
0.5 -0.8 0.0
0.5333 -0.8 0.0
0.5667 -0.8 0.0
0.6 -0.8 0.0
0.6333 -0.8 0.0
0.6667 -0.8 0.0
0.7 -0.8 0.0
0.7333 -0.8 0.0
0.7667 -0.8 0.0
0.8 -0.8 0.0
0.8333 -0.8 0.0
0.8667 -0.8 0.0
0.9 -0.8 0.0
0.9333 -0.8 0.0
0.9667 -0.8 0.0
1 -0.8 0.0
1.0894 -0.8 0.0
1.1788 -0.8 0.0
1.2841 -0.8 0.0
1.3895 -0.8 0.0
1.5137 -0.8 0.0
1.6379 -0.8 0.0
1.7843 -0.8 0.0
1.9307 -0.8 0.0
2.1033 -0.8 0.0
2.2758 -0.8 0.0
2.4793 -0.8 0.0
2.6827 -0.8 0.0
2.9225 -0.8 0.0
3.1623 -0.8 0.0
3.4449 -0.8 0.0
3.7276 -0.8 0.0
4.0608 -0.8 0.0
4.394 -0.8 0.0
4.7867 -0.8 0.0
5.1795 -0.8 0.0
5.6424 -0.8 0.0
6.1054 -0.8 0.0
6.6511 -0.8 0.0
7.1969 -0.8 0.0
7.8401 -0.8 0.0
8.4834 -0.8 0.0
9.2417 -0.8 0.0
10 -0.8 0.0
0 -0.8444 0.0
0.0667 -0.8444 0.0
0.1333 -0.8444 0.0
0.2 -0.8444 0.0
0.2667 -0.8444 0.0
0.3333 -0.8444 0.0
0.4 -0.8444 0.0
0.4667 -0.8444 0.0
0.5333 -0.8444 0.0
0.6 -0.8444 0.0
0.6667 -0.8444 0.0
0.7333 -0.8444 0.0
0.8 -0.8444 0.0
0.8667 -0.8444 0.0
0.9333 -0.8444 0.0
1 -0.8444 0.0
1.1788 -0.8444 0.0
1.3895 -0.8444 0.0
1.6379 -0.8444 0.0
1.9307 -0.8444 0.0
2.2758 -0.8444 0.0
2.6827 -0.8444 0.0
3.1623 -0.8444 0.0
3.7276 -0.8444 0.0
4.394 -0.8444 0.0
5.1795 -0.8444 0.0
6.1054 -0.8444 0.0
7.1969 -0.8444 0.0
8.4834 -0.8444 0.0
10 -0.8444 0.0
0 -0.8889 0.0
0.0333 -0.8889 0.0
0.0667 -0.8889 0.0
0.1 -0.8889 0.0
0.1333 -0.8889 0.0
0.1667 -0.8889 0.0
0.2 -0.8889 0.0
0.2333 -0.8889 0.0
0.2667 -0.8889 0.0
0.3 -0.8889 0.0
0.3333 -0.8889 0.0
0.3667 -0.8889 0.0
0.4 -0.8889 0.0
0.4333 -0.8889 0.0
0.4667 -0.8889 0.0
0.5 -0.8889 0.0
0.5333 -0.8889 0.0
0.5667 -0.8889 0.0
0.6 -0.8889 0.0
0.6333 -0.8889 0.0
0.6667 -0.8889 0.0
0.7 -0.8889 0.0
0.7333 -0.8889 0.0
0.7667 -0.8889 0.0
0.8 -0.8889 0.0
0.8333 -0.8889 0.0
0.8667 -0.8889 0.0
0.9 -0.8889 0.0
0.9333 -0.8889 0.0
0.9667 -0.8889 0.0
1 -0.8889 0.0
1.0894 -0.8889 0.0
1.1788 -0.8889 0.0
1.2841 -0.8889 0.0
1.3895 -0.8889 0.0
1.5137 -0.8889 0.0
1.6379 -0.8889 0.0
1.7843 -0.8889 0.0
1.9307 -0.8889 0.0
2.1033 -0.8889 0.0
2.2758 -0.8889 0.0
2.4793 -0.8889 0.0
2.6827 -0.8889 0.0
2.9225 -0.8889 0.0
3.1623 -0.8889 0.0
3.4449 -0.8889 0.0
3.7276 -0.8889 0.0
4.0608 -0.8889 0.0
4.394 -0.8889 0.0
4.7867 -0.8889 0.0
5.1795 -0.8889 0.0
5.6424 -0.8889 0.0
6.1054 -0.8889 0.0
6.6511 -0.8889 0.0
7.1969 -0.8889 0.0
7.8401 -0.8889 0.0
8.4834 -0.8889 0.0
9.2417 -0.8889 0.0
10 -0.8889 0.0
0 -0.9333 0.0
0.0667 -0.9333 0.0
0.1333 -0.9333 0.0
0.2 -0.9333 0.0
0.2667 -0.9333 0.0
0.3333 -0.9333 0.0
0.4 -0.9333 0.0
0.4667 -0.9333 0.0
0.5333 -0.9333 0.0
0.6 -0.9333 0.0
0.6667 -0.9333 0.0
0.7333 -0.9333 0.0
0.8 -0.9333 0.0
0.8667 -0.9333 0.0
0.9333 -0.9333 0.0
1 -0.9333 0.0
1.1788 -0.9333 0.0
1.3895 -0.9333 0.0
1.6379 -0.9333 0.0
1.9307 -0.9333 0.0
2.2758 -0.9333 0.0
2.6827 -0.9333 0.0
3.1623 -0.9333 0.0
3.7276 -0.9333 0.0
4.394 -0.9333 0.0
5.1795 -0.9333 0.0
6.1054 -0.9333 0.0
7.1969 -0.9333 0.0
8.4834 -0.9333 0.0
10 -0.9333 0.0
0 -0.9778 0.0
0.0333 -0.9778 0.0
0.0667 -0.9778 0.0
0.1 -0.9778 0.0
0.1333 -0.9778 0.0
0.1667 -0.9778 0.0
0.2 -0.9778 0.0
0.2333 -0.9778 0.0
0.2667 -0.9778 0.0
0.3 -0.9778 0.0
0.3333 -0.9778 0.0
0.3667 -0.9778 0.0
0.4 -0.9778 0.0
0.4333 -0.9778 0.0
0.4667 -0.9778 0.0
0.5 -0.9778 0.0
0.5333 -0.9778 0.0
0.5667 -0.9778 0.0
0.6 -0.9778 0.0
0.6333 -0.9778 0.0
0.6667 -0.9778 0.0
0.7 -0.9778 0.0
0.7333 -0.9778 0.0
0.7667 -0.9778 0.0
0.8 -0.9778 0.0
0.8333 -0.9778 0.0
0.8667 -0.9778 0.0
0.9 -0.9778 0.0
0.9333 -0.9778 0.0
0.9667 -0.9778 0.0
1 -0.9778 0.0
1.0894 -0.9778 0.0
1.1788 -0.9778 0.0
1.2841 -0.9778 0.0
1.3895 -0.9778 0.0
1.5137 -0.9778 0.0
1.6379 -0.9778 0.0
1.7843 -0.9778 0.0
1.9307 -0.9778 0.0
2.1033 -0.9778 0.0
2.2758 -0.9778 0.0
2.4793 -0.9778 0.0
2.6827 -0.9778 0.0
2.9225 -0.9778 0.0
3.1623 -0.9778 0.0
3.4449 -0.9778 0.0
3.7276 -0.9778 0.0
4.0608 -0.9778 0.0
4.394 -0.9778 0.0
4.7867 -0.9778 0.0
5.1795 -0.9778 0.0
5.6424 -0.9778 0.0
6.1054 -0.9778 0.0
6.6511 -0.9778 0.0
7.1969 -0.9778 0.0
7.8401 -0.9778 0.0
8.4834 -0.9778 0.0
9.2417 -0.9778 0.0
10 -0.9778 0.0
0 -1.0222 0.0
0.0667 -1.0222 0.0
0.1333 -1.0222 0.0
0.2 -1.0222 0.0
0.2667 -1.0222 0.0
0.3333 -1.0222 0.0
0.4 -1.0222 0.0
0.4667 -1.0222 0.0
0.5333 -1.0222 0.0
0.6 -1.0222 0.0
0.6667 -1.0222 0.0
0.7333 -1.0222 0.0
0.8 -1.0222 0.0
0.8667 -1.0222 0.0
0.9333 -1.0222 0.0
1 -1.0222 0.0
1.1788 -1.0222 0.0
1.3895 -1.0222 0.0
1.6379 -1.0222 0.0
1.9307 -1.0222 0.0
2.2758 -1.0222 0.0
2.6827 -1.0222 0.0
3.1623 -1.0222 0.0
3.7276 -1.0222 0.0
4.394 -1.0222 0.0
5.1795 -1.0222 0.0
6.1054 -1.0222 0.0
7.1969 -1.0222 0.0
8.4834 -1.0222 0.0
10 -1.0222 0.0
0 -1.0667 0.0
0.0333 -1.0667 0.0
0.0667 -1.0667 0.0
0.1 -1.0667 0.0
0.1333 -1.0667 0.0
0.1667 -1.0667 0.0
0.2 -1.0667 0.0
0.2333 -1.0667 0.0
0.2667 -1.0667 0.0
0.3 -1.0667 0.0
0.3333 -1.0667 0.0
0.3667 -1.0667 0.0
0.4 -1.0667 0.0
0.4333 -1.0667 0.0
0.4667 -1.0667 0.0
0.5 -1.0667 0.0
0.5333 -1.0667 0.0
0.5667 -1.0667 0.0
0.6 -1.0667 0.0
0.6333 -1.0667 0.0
0.6667 -1.0667 0.0
0.7 -1.0667 0.0
0.7333 -1.0667 0.0
0.7667 -1.0667 0.0
0.8 -1.0667 0.0
0.8333 -1.0667 0.0
0.8667 -1.0667 0.0
0.9 -1.0667 0.0
0.9333 -1.0667 0.0
0.9667 -1.0667 0.0
1 -1.0667 0.0
1.0894 -1.0667 0.0
1.1788 -1.0667 0.0
1.2841 -1.0667 0.0
1.3895 -1.0667 0.0
1.5137 -1.0667 0.0
1.6379 -1.0667 0.0
1.7843 -1.0667 0.0
1.9307 -1.0667 0.0
2.1033 -1.0667 0.0
2.2758 -1.0667 0.0
2.4793 -1.0667 0.0
2.6827 -1.0667 0.0
2.9225 -1.0667 0.0
3.1623 -1.0667 0.0
3.4449 -1.0667 0.0
3.7276 -1.0667 0.0
4.0608 -1.0667 0.0
4.394 -1.0667 0.0
4.7867 -1.0667 0.0
5.1795 -1.0667 0.0
5.6424 -1.0667 0.0
6.1054 -1.0667 0.0
6.6511 -1.0667 0.0
7.1969 -1.0667 0.0
7.8401 -1.0667 0.0
8.4834 -1.0667 0.0
9.2417 -1.0667 0.0
10 -1.0667 0.0
0 -1.1111 0.0
0.0667 -1.1111 0.0
0.1333 -1.1111 0.0
0.2 -1.1111 0.0
0.2667 -1.1111 0.0
0.3333 -1.1111 0.0
0.4 -1.1111 0.0
0.4667 -1.1111 0.0
0.5333 -1.1111 0.0
0.6 -1.1111 0.0
0.6667 -1.1111 0.0
0.7333 -1.1111 0.0
0.8 -1.1111 0.0
0.8667 -1.1111 0.0
0.9333 -1.1111 0.0
1 -1.1111 0.0
1.1788 -1.1111 0.0
1.3895 -1.1111 0.0
1.6379 -1.1111 0.0
1.9307 -1.1111 0.0
2.2758 -1.1111 0.0
2.6827 -1.1111 0.0
3.1623 -1.1111 0.0
3.7276 -1.1111 0.0
4.394 -1.1111 0.0
5.1795 -1.1111 0.0
6.1054 -1.1111 0.0
7.1969 -1.1111 0.0
8.4834 -1.1111 0.0
10 -1.1111 0.0
0 -1.1556 0.0
0.0333 -1.1556 0.0
0.0667 -1.1556 0.0
0.1 -1.1556 0.0
0.1333 -1.1556 0.0
0.1667 -1.1556 0.0
0.2 -1.1556 0.0
0.2333 -1.1556 0.0
0.2667 -1.1556 0.0
0.3 -1.1556 0.0
0.3333 -1.1556 0.0
0.3667 -1.1556 0.0
0.4 -1.1556 0.0
0.4333 -1.1556 0.0
0.4667 -1.1556 0.0
0.5 -1.1556 0.0
0.5333 -1.1556 0.0
0.5667 -1.1556 0.0
0.6 -1.1556 0.0
0.6333 -1.1556 0.0
0.6667 -1.1556 0.0
0.7 -1.1556 0.0
0.7333 -1.1556 0.0
0.7667 -1.1556 0.0
0.8 -1.1556 0.0
0.8333 -1.1556 0.0
0.8667 -1.1556 0.0
0.9 -1.1556 0.0
0.9333 -1.1556 0.0
0.9667 -1.1556 0.0
1 -1.1556 0.0
1.0894 -1.1556 0.0
1.1788 -1.1556 0.0
1.2841 -1.1556 0.0
1.3895 -1.1556 0.0
1.5137 -1.1556 0.0
1.6379 -1.1556 0.0
1.7843 -1.1556 0.0
1.9307 -1.1556 0.0
2.1033 -1.1556 0.0
2.2758 -1.1556 0.0
2.4793 -1.1556 0.0
2.6827 -1.1556 0.0
2.9225 -1.1556 0.0
3.1623 -1.1556 0.0
3.4449 -1.1556 0.0
3.7276 -1.1556 0.0
4.0608 -1.1556 0.0
4.394 -1.1556 0.0
4.7867 -1.1556 0.0
5.1795 -1.1556 0.0
5.6424 -1.1556 0.0
6.1054 -1.1556 0.0
6.6511 -1.1556 0.0
7.1969 -1.1556 0.0
7.8401 -1.1556 0.0
8.4834 -1.1556 0.0
9.2417 -1.1556 0.0
10 -1.1556 0.0
0 -1.2 0.0
0.0667 -1.2 0.0
0.1333 -1.2 0.0
0.2 -1.2 0.0
0.2667 -1.2 0.0
0.3333 -1.2 0.0
0.4 -1.2 0.0
0.4667 -1.2 0.0
0.5333 -1.2 0.0
0.6 -1.2 0.0
0.6667 -1.2 0.0
0.7333 -1.2 0.0
0.8 -1.2 0.0
0.8667 -1.2 0.0
0.9333 -1.2 0.0
1 -1.2 0.0
1.1788 -1.2 0.0
1.3895 -1.2 0.0
1.6379 -1.2 0.0
1.9307 -1.2 0.0
2.2758 -1.2 0.0
2.6827 -1.2 0.0
3.1623 -1.2 0.0
3.7276 -1.2 0.0
4.394 -1.2 0.0
5.1795 -1.2 0.0
6.1054 -1.2 0.0
7.1969 -1.2 0.0
8.4834 -1.2 0.0
10 -1.2 0.0
0 -1.2444 0.0
0.0333 -1.2444 0.0
0.0667 -1.2444 0.0
0.1 -1.2444 0.0
0.1333 -1.2444 0.0
0.1667 -1.2444 0.0
0.2 -1.2444 0.0
0.2333 -1.2444 0.0
0.2667 -1.2444 0.0
0.3 -1.2444 0.0
0.3333 -1.2444 0.0
0.3667 -1.2444 0.0
0.4 -1.2444 0.0
0.4333 -1.2444 0.0
0.4667 -1.2444 0.0
0.5 -1.2444 0.0
0.5333 -1.2444 0.0
0.5667 -1.2444 0.0
0.6 -1.2444 0.0
0.6333 -1.2444 0.0
0.6667 -1.2444 0.0
0.7 -1.2444 0.0
0.7333 -1.2444 0.0
0.7667 -1.2444 0.0
0.8 -1.2444 0.0
0.8333 -1.2444 0.0
0.8667 -1.2444 0.0
0.9 -1.2444 0.0
0.9333 -1.2444 0.0
0.9667 -1.2444 0.0
1 -1.2444 0.0
1.0894 -1.2444 0.0
1.1788 -1.2444 0.0
1.2841 -1.2444 0.0
1.3895 -1.2444 0.0
1.5137 -1.2444 0.0
1.6379 -1.2444 0.0
1.7843 -1.2444 0.0
1.9307 -1.2444 0.0
2.1033 -1.2444 0.0
2.2758 -1.2444 0.0
2.4793 -1.2444 0.0
2.6827 -1.2444 0.0
2.9225 -1.2444 0.0
3.1623 -1.2444 0.0
3.4449 -1.2444 0.0
3.7276 -1.2444 0.0
4.0608 -1.2444 0.0
4.394 -1.2444 0.0
4.7867 -1.2444 0.0
5.1795 -1.2444 0.0
5.6424 -1.2444 0.0
6.1054 -1.2444 0.0
6.6511 -1.2444 0.0
7.1969 -1.2444 0.0
7.8401 -1.2444 0.0
8.4834 -1.2444 0.0
9.2417 -1.2444 0.0
10 -1.2444 0.0
0 -1.2889 0.0
0.0667 -1.2889 0.0
0.1333 -1.2889 0.0
0.2 -1.2889 0.0
0.2667 -1.2889 0.0
0.3333 -1.2889 0.0
0.4 -1.2889 0.0
0.4667 -1.2889 0.0
0.5333 -1.2889 0.0
0.6 -1.2889 0.0
0.6667 -1.2889 0.0
0.7333 -1.2889 0.0
0.8 -1.2889 0.0
0.8667 -1.2889 0.0
0.9333 -1.2889 0.0
1 -1.2889 0.0
1.1788 -1.2889 0.0
1.3895 -1.2889 0.0
1.6379 -1.2889 0.0
1.9307 -1.2889 0.0
2.2758 -1.2889 0.0
2.6827 -1.2889 0.0
3.1623 -1.2889 0.0
3.7276 -1.2889 0.0
4.394 -1.2889 0.0
5.1795 -1.2889 0.0
6.1054 -1.2889 0.0
7.1969 -1.2889 0.0
8.4834 -1.2889 0.0
10 -1.2889 0.0
0 -1.3333 0.0
0.0333 -1.3333 0.0
0.0667 -1.3333 0.0
0.1 -1.3333 0.0
0.1333 -1.3333 0.0
0.1667 -1.3333 0.0
0.2 -1.3333 0.0
0.2333 -1.3333 0.0
0.2667 -1.3333 0.0
0.3 -1.3333 0.0
0.3333 -1.3333 0.0
0.3667 -1.3333 0.0
0.4 -1.3333 0.0
0.4333 -1.3333 0.0
0.4667 -1.3333 0.0
0.5 -1.3333 0.0
0.5333 -1.3333 0.0
0.5667 -1.3333 0.0
0.6 -1.3333 0.0
0.6333 -1.3333 0.0
0.6667 -1.3333 0.0
0.7 -1.3333 0.0
0.7333 -1.3333 0.0
0.7667 -1.3333 0.0
0.8 -1.3333 0.0
0.8333 -1.3333 0.0
0.8667 -1.3333 0.0
0.9 -1.3333 0.0
0.9333 -1.3333 0.0
0.9667 -1.3333 0.0
1 -1.3333 0.0
1.0894 -1.3333 0.0
1.1788 -1.3333 0.0
1.2841 -1.3333 0.0
1.3895 -1.3333 0.0
1.5137 -1.3333 0.0
1.6379 -1.3333 0.0
1.7843 -1.3333 0.0
1.9307 -1.3333 0.0
2.1033 -1.3333 0.0
2.2758 -1.3333 0.0
2.4793 -1.3333 0.0
2.6827 -1.3333 0.0
2.9225 -1.3333 0.0
3.1623 -1.3333 0.0
3.4449 -1.3333 0.0
3.7276 -1.3333 0.0
4.0608 -1.3333 0.0
4.394 -1.3333 0.0
4.7867 -1.3333 0.0
5.1795 -1.3333 0.0
5.6424 -1.3333 0.0
6.1054 -1.3333 0.0
6.6511 -1.3333 0.0
7.1969 -1.3333 0.0
7.8401 -1.3333 0.0
8.4834 -1.3333 0.0
9.2417 -1.3333 0.0
10 -1.3333 0.0
0 -1.3778 0.0
0.0667 -1.3778 0.0
0.1333 -1.3778 0.0
0.2 -1.3778 0.0
0.2667 -1.3778 0.0
0.3333 -1.3778 0.0
0.4 -1.3778 0.0
0.4667 -1.3778 0.0
0.5333 -1.3778 0.0
0.6 -1.3778 0.0
0.6667 -1.3778 0.0
0.7333 -1.3778 0.0
0.8 -1.3778 0.0
0.8667 -1.3778 0.0
0.9333 -1.3778 0.0
1 -1.3778 0.0
1.1788 -1.3778 0.0
1.3895 -1.3778 0.0
1.6379 -1.3778 0.0
1.9307 -1.3778 0.0
2.2758 -1.3778 0.0
2.6827 -1.3778 0.0
3.1623 -1.3778 0.0
3.7276 -1.3778 0.0
4.394 -1.3778 0.0
5.1795 -1.3778 0.0
6.1054 -1.3778 0.0
7.1969 -1.3778 0.0
8.4834 -1.3778 0.0
10 -1.3778 0.0
0 -1.4222 0.0
0.0333 -1.4222 0.0
0.0667 -1.4222 0.0
0.1 -1.4222 0.0
0.1333 -1.4222 0.0
0.1667 -1.4222 0.0
0.2 -1.4222 0.0
0.2333 -1.4222 0.0
0.2667 -1.4222 0.0
0.3 -1.4222 0.0
0.3333 -1.4222 0.0
0.3667 -1.4222 0.0
0.4 -1.4222 0.0
0.4333 -1.4222 0.0
0.4667 -1.4222 0.0
0.5 -1.4222 0.0
0.5333 -1.4222 0.0
0.5667 -1.4222 0.0
0.6 -1.4222 0.0
0.6333 -1.4222 0.0
0.6667 -1.4222 0.0
0.7 -1.4222 0.0
0.7333 -1.4222 0.0
0.7667 -1.4222 0.0
0.8 -1.4222 0.0
0.8333 -1.4222 0.0
0.8667 -1.4222 0.0
0.9 -1.4222 0.0
0.9333 -1.4222 0.0
0.9667 -1.4222 0.0
1 -1.4222 0.0
1.0894 -1.4222 0.0
1.1788 -1.4222 0.0
1.2841 -1.4222 0.0
1.3895 -1.4222 0.0
1.5137 -1.4222 0.0
1.6379 -1.4222 0.0
1.7843 -1.4222 0.0
1.9307 -1.4222 0.0
2.1033 -1.4222 0.0
2.2758 -1.4222 0.0
2.4793 -1.4222 0.0
2.6827 -1.4222 0.0
2.9225 -1.4222 0.0
3.1623 -1.4222 0.0
3.4449 -1.4222 0.0
3.7276 -1.4222 0.0
4.0608 -1.4222 0.0
4.394 -1.4222 0.0
4.7867 -1.4222 0.0
5.1795 -1.4222 0.0
5.6424 -1.4222 0.0
6.1054 -1.4222 0.0
6.6511 -1.4222 0.0
7.1969 -1.4222 0.0
7.8401 -1.4222 0.0
8.4834 -1.4222 0.0
9.2417 -1.4222 0.0
10 -1.4222 0.0
0 -1.4667 0.0
0.0667 -1.4667 0.0
0.1333 -1.4667 0.0
0.2 -1.4667 0.0
0.2667 -1.4667 0.0
0.3333 -1.4667 0.0
0.4 -1.4667 0.0
0.4667 -1.4667 0.0
0.5333 -1.4667 0.0
0.6 -1.4667 0.0
0.6667 -1.4667 0.0
0.7333 -1.4667 0.0
0.8 -1.4667 0.0
0.8667 -1.4667 0.0
0.9333 -1.4667 0.0
1 -1.4667 0.0
1.1788 -1.4667 0.0
1.3895 -1.4667 0.0
1.6379 -1.4667 0.0
1.9307 -1.4667 0.0
2.2758 -1.4667 0.0
2.6827 -1.4667 0.0
3.1623 -1.4667 0.0
3.7276 -1.4667 0.0
4.394 -1.4667 0.0
5.1795 -1.4667 0.0
6.1054 -1.4667 0.0
7.1969 -1.4667 0.0
8.4834 -1.4667 0.0
10 -1.4667 0.0
0 -1.5111 0.0
0.0333 -1.5111 0.0
0.0667 -1.5111 0.0
0.1 -1.5111 0.0
0.1333 -1.5111 0.0
0.1667 -1.5111 0.0
0.2 -1.5111 0.0
0.2333 -1.5111 0.0
0.2667 -1.5111 0.0
0.3 -1.5111 0.0
0.3333 -1.5111 0.0
0.3667 -1.5111 0.0
0.4 -1.5111 0.0
0.4333 -1.5111 0.0
0.4667 -1.5111 0.0
0.5 -1.5111 0.0
0.5333 -1.5111 0.0
0.5667 -1.5111 0.0
0.6 -1.5111 0.0
0.6333 -1.5111 0.0
0.6667 -1.5111 0.0
0.7 -1.5111 0.0
0.7333 -1.5111 0.0
0.7667 -1.5111 0.0
0.8 -1.5111 0.0
0.8333 -1.5111 0.0
0.8667 -1.5111 0.0
0.9 -1.5111 0.0
0.9333 -1.5111 0.0
0.9667 -1.5111 0.0
1 -1.5111 0.0
1.0894 -1.5111 0.0
1.1788 -1.5111 0.0
1.2841 -1.5111 0.0
1.3895 -1.5111 0.0
1.5137 -1.5111 0.0
1.6379 -1.5111 0.0
1.7843 -1.5111 0.0
1.9307 -1.5111 0.0
2.1033 -1.5111 0.0
2.2758 -1.5111 0.0
2.4793 -1.5111 0.0
2.6827 -1.5111 0.0
2.9225 -1.5111 0.0
3.1623 -1.5111 0.0
3.4449 -1.5111 0.0
3.7276 -1.5111 0.0
4.0608 -1.5111 0.0
4.394 -1.5111 0.0
4.7867 -1.5111 0.0
5.1795 -1.5111 0.0
5.6424 -1.5111 0.0
6.1054 -1.5111 0.0
6.6511 -1.5111 0.0
7.1969 -1.5111 0.0
7.8401 -1.5111 0.0
8.4834 -1.5111 0.0
9.2417 -1.5111 0.0
10 -1.5111 0.0
0 -1.5556 0.0
0.0667 -1.5556 0.0
0.1333 -1.5556 0.0
0.2 -1.5556 0.0
0.2667 -1.5556 0.0
0.3333 -1.5556 0.0
0.4 -1.5556 0.0
0.4667 -1.5556 0.0
0.5333 -1.5556 0.0
0.6 -1.5556 0.0
0.6667 -1.5556 0.0
0.7333 -1.5556 0.0
0.8 -1.5556 0.0
0.8667 -1.5556 0.0
0.9333 -1.5556 0.0
1 -1.5556 0.0
1.1788 -1.5556 0.0
1.3895 -1.5556 0.0
1.6379 -1.5556 0.0
1.9307 -1.5556 0.0
2.2758 -1.5556 0.0
2.6827 -1.5556 0.0
3.1623 -1.5556 0.0
3.7276 -1.5556 0.0
4.394 -1.5556 0.0
5.1795 -1.5556 0.0
6.1054 -1.5556 0.0
7.1969 -1.5556 0.0
8.4834 -1.5556 0.0
10 -1.5556 0.0
0 -1.6 0.0
0.0333 -1.6 0.0
0.0667 -1.6 0.0
0.1 -1.6 0.0
0.1333 -1.6 0.0
0.1667 -1.6 0.0
0.2 -1.6 0.0
0.2333 -1.6 0.0
0.2667 -1.6 0.0
0.3 -1.6 0.0
0.3333 -1.6 0.0
0.3667 -1.6 0.0
0.4 -1.6 0.0
0.4333 -1.6 0.0
0.4667 -1.6 0.0
0.5 -1.6 0.0
0.5333 -1.6 0.0
0.5667 -1.6 0.0
0.6 -1.6 0.0
0.6333 -1.6 0.0
0.6667 -1.6 0.0
0.7 -1.6 0.0
0.7333 -1.6 0.0
0.7667 -1.6 0.0
0.8 -1.6 0.0
0.8333 -1.6 0.0
0.8667 -1.6 0.0
0.9 -1.6 0.0
0.9333 -1.6 0.0
0.9667 -1.6 0.0
1 -1.6 0.0
1.0894 -1.6 0.0
1.1788 -1.6 0.0
1.2841 -1.6 0.0
1.3895 -1.6 0.0
1.5137 -1.6 0.0
1.6379 -1.6 0.0
1.7843 -1.6 0.0
1.9307 -1.6 0.0
2.1033 -1.6 0.0
2.2758 -1.6 0.0
2.4793 -1.6 0.0
2.6827 -1.6 0.0
2.9225 -1.6 0.0
3.1623 -1.6 0.0
3.4449 -1.6 0.0
3.7276 -1.6 0.0
4.0608 -1.6 0.0
4.394 -1.6 0.0
4.7867 -1.6 0.0
5.1795 -1.6 0.0
5.6424 -1.6 0.0
6.1054 -1.6 0.0
6.6511 -1.6 0.0
7.1969 -1.6 0.0
7.8401 -1.6 0.0
8.4834 -1.6 0.0
9.2417 -1.6 0.0
10 -1.6 0.0
0 -1.6444 0.0
0.0667 -1.6444 0.0
0.1333 -1.6444 0.0
0.2 -1.6444 0.0
0.2667 -1.6444 0.0
0.3333 -1.6444 0.0
0.4 -1.6444 0.0
0.4667 -1.6444 0.0
0.5333 -1.6444 0.0
0.6 -1.6444 0.0
0.6667 -1.6444 0.0
0.7333 -1.6444 0.0
0.8 -1.6444 0.0
0.8667 -1.6444 0.0
0.9333 -1.6444 0.0
1 -1.6444 0.0
1.1788 -1.6444 0.0
1.3895 -1.6444 0.0
1.6379 -1.6444 0.0
1.9307 -1.6444 0.0
2.2758 -1.6444 0.0
2.6827 -1.6444 0.0
3.1623 -1.6444 0.0
3.7276 -1.6444 0.0
4.394 -1.6444 0.0
5.1795 -1.6444 0.0
6.1054 -1.6444 0.0
7.1969 -1.6444 0.0
8.4834 -1.6444 0.0
10 -1.6444 0.0
0 -1.6889 0.0
0.0333 -1.6889 0.0
0.0667 -1.6889 0.0
0.1 -1.6889 0.0
0.1333 -1.6889 0.0
0.1667 -1.6889 0.0
0.2 -1.6889 0.0
0.2333 -1.6889 0.0
0.2667 -1.6889 0.0
0.3 -1.6889 0.0
0.3333 -1.6889 0.0
0.3667 -1.6889 0.0
0.4 -1.6889 0.0
0.4333 -1.6889 0.0
0.4667 -1.6889 0.0
0.5 -1.6889 0.0
0.5333 -1.6889 0.0
0.5667 -1.6889 0.0
0.6 -1.6889 0.0
0.6333 -1.6889 0.0
0.6667 -1.6889 0.0
0.7 -1.6889 0.0
0.7333 -1.6889 0.0
0.7667 -1.6889 0.0
0.8 -1.6889 0.0
0.8333 -1.6889 0.0
0.8667 -1.6889 0.0
0.9 -1.6889 0.0
0.9333 -1.6889 0.0
0.9667 -1.6889 0.0
1 -1.6889 0.0
1.0894 -1.6889 0.0
1.1788 -1.6889 0.0
1.2841 -1.6889 0.0
1.3895 -1.6889 0.0
1.5137 -1.6889 0.0
1.6379 -1.6889 0.0
1.7843 -1.6889 0.0
1.9307 -1.6889 0.0
2.1033 -1.6889 0.0
2.2758 -1.6889 0.0
2.4793 -1.6889 0.0
2.6827 -1.6889 0.0
2.9225 -1.6889 0.0
3.1623 -1.6889 0.0
3.4449 -1.6889 0.0
3.7276 -1.6889 0.0
4.0608 -1.6889 0.0
4.394 -1.6889 0.0
4.7867 -1.6889 0.0
5.1795 -1.6889 0.0
5.6424 -1.6889 0.0
6.1054 -1.6889 0.0
6.6511 -1.6889 0.0
7.1969 -1.6889 0.0
7.8401 -1.6889 0.0
8.4834 -1.6889 0.0
9.2417 -1.6889 0.0
10 -1.6889 0.0
0 -1.7333 0.0
0.0667 -1.7333 0.0
0.1333 -1.7333 0.0
0.2 -1.7333 0.0
0.2667 -1.7333 0.0
0.3333 -1.7333 0.0
0.4 -1.7333 0.0
0.4667 -1.7333 0.0
0.5333 -1.7333 0.0
0.6 -1.7333 0.0
0.6667 -1.7333 0.0
0.7333 -1.7333 0.0
0.8 -1.7333 0.0
0.8667 -1.7333 0.0
0.9333 -1.7333 0.0
1 -1.7333 0.0
1.1788 -1.7333 0.0
1.3895 -1.7333 0.0
1.6379 -1.7333 0.0
1.9307 -1.7333 0.0
2.2758 -1.7333 0.0
2.6827 -1.7333 0.0
3.1623 -1.7333 0.0
3.7276 -1.7333 0.0
4.394 -1.7333 0.0
5.1795 -1.7333 0.0
6.1054 -1.7333 0.0
7.1969 -1.7333 0.0
8.4834 -1.7333 0.0
10 -1.7333 0.0
0 -1.7778 0.0
0.0333 -1.7778 0.0
0.0667 -1.7778 0.0
0.1 -1.7778 0.0
0.1333 -1.7778 0.0
0.1667 -1.7778 0.0
0.2 -1.7778 0.0
0.2333 -1.7778 0.0
0.2667 -1.7778 0.0
0.3 -1.7778 0.0
0.3333 -1.7778 0.0
0.3667 -1.7778 0.0
0.4 -1.7778 0.0
0.4333 -1.7778 0.0
0.4667 -1.7778 0.0
0.5 -1.7778 0.0
0.5333 -1.7778 0.0
0.5667 -1.7778 0.0
0.6 -1.7778 0.0
0.6333 -1.7778 0.0
0.6667 -1.7778 0.0
0.7 -1.7778 0.0
0.7333 -1.7778 0.0
0.7667 -1.7778 0.0
0.8 -1.7778 0.0
0.8333 -1.7778 0.0
0.8667 -1.7778 0.0
0.9 -1.7778 0.0
0.9333 -1.7778 0.0
0.9667 -1.7778 0.0
1 -1.7778 0.0
1.0894 -1.7778 0.0
1.1788 -1.7778 0.0
1.2841 -1.7778 0.0
1.3895 -1.7778 0.0
1.5137 -1.7778 0.0
1.6379 -1.7778 0.0
1.7843 -1.7778 0.0
1.9307 -1.7778 0.0
2.1033 -1.7778 0.0
2.2758 -1.7778 0.0
2.4793 -1.7778 0.0
2.6827 -1.7778 0.0
2.9225 -1.7778 0.0
3.1623 -1.7778 0.0
3.4449 -1.7778 0.0
3.7276 -1.7778 0.0
4.0608 -1.7778 0.0
4.394 -1.7778 0.0
4.7867 -1.7778 0.0
5.1795 -1.7778 0.0
5.6424 -1.7778 0.0
6.1054 -1.7778 0.0
6.6511 -1.7778 0.0
7.1969 -1.7778 0.0
7.8401 -1.7778 0.0
8.4834 -1.7778 0.0
9.2417 -1.7778 0.0
10 -1.7778 0.0
0 -1.8222 0.0
0.0667 -1.8222 0.0
0.1333 -1.8222 0.0
0.2 -1.8222 0.0
0.2667 -1.8222 0.0
0.3333 -1.8222 0.0
0.4 -1.8222 0.0
0.4667 -1.8222 0.0
0.5333 -1.8222 0.0
0.6 -1.8222 0.0
0.6667 -1.8222 0.0
0.7333 -1.8222 0.0
0.8 -1.8222 0.0
0.8667 -1.8222 0.0
0.9333 -1.8222 0.0
1 -1.8222 0.0
1.1788 -1.8222 0.0
1.3895 -1.8222 0.0
1.6379 -1.8222 0.0
1.9307 -1.8222 0.0
2.2758 -1.8222 0.0
2.6827 -1.8222 0.0
3.1623 -1.8222 0.0
3.7276 -1.8222 0.0
4.394 -1.8222 0.0
5.1795 -1.8222 0.0
6.1054 -1.8222 0.0
7.1969 -1.8222 0.0
8.4834 -1.8222 0.0
10 -1.8222 0.0
0 -1.8667 0.0
0.0333 -1.8667 0.0
0.0667 -1.8667 0.0
0.1 -1.8667 0.0
0.1333 -1.8667 0.0
0.1667 -1.8667 0.0
0.2 -1.8667 0.0
0.2333 -1.8667 0.0
0.2667 -1.8667 0.0
0.3 -1.8667 0.0
0.3333 -1.8667 0.0
0.3667 -1.8667 0.0
0.4 -1.8667 0.0
0.4333 -1.8667 0.0
0.4667 -1.8667 0.0
0.5 -1.8667 0.0
0.5333 -1.8667 0.0
0.5667 -1.8667 0.0
0.6 -1.8667 0.0
0.6333 -1.8667 0.0
0.6667 -1.8667 0.0
0.7 -1.8667 0.0
0.7333 -1.8667 0.0
0.7667 -1.8667 0.0
0.8 -1.8667 0.0
0.8333 -1.8667 0.0
0.8667 -1.8667 0.0
0.9 -1.8667 0.0
0.9333 -1.8667 0.0
0.9667 -1.8667 0.0
1 -1.8667 0.0
1.0894 -1.8667 0.0
1.1788 -1.8667 0.0
1.2841 -1.8667 0.0
1.3895 -1.8667 0.0
1.5137 -1.8667 0.0
1.6379 -1.8667 0.0
1.7843 -1.8667 0.0
1.9307 -1.8667 0.0
2.1033 -1.8667 0.0
2.2758 -1.8667 0.0
2.4793 -1.8667 0.0
2.6827 -1.8667 0.0
2.9225 -1.8667 0.0
3.1623 -1.8667 0.0
3.4449 -1.8667 0.0
3.7276 -1.8667 0.0
4.0608 -1.8667 0.0
4.394 -1.8667 0.0
4.7867 -1.8667 0.0
5.1795 -1.8667 0.0
5.6424 -1.8667 0.0
6.1054 -1.8667 0.0
6.6511 -1.8667 0.0
7.1969 -1.8667 0.0
7.8401 -1.8667 0.0
8.4834 -1.8667 0.0
9.2417 -1.8667 0.0
10 -1.8667 0.0
0 -1.9111 0.0
0.0667 -1.9111 0.0
0.1333 -1.9111 0.0
0.2 -1.9111 0.0
0.2667 -1.9111 0.0
0.3333 -1.9111 0.0
0.4 -1.9111 0.0
0.4667 -1.9111 0.0
0.5333 -1.9111 0.0
0.6 -1.9111 0.0
0.6667 -1.9111 0.0
0.7333 -1.9111 0.0
0.8 -1.9111 0.0
0.8667 -1.9111 0.0
0.9333 -1.9111 0.0
1 -1.9111 0.0
1.1788 -1.9111 0.0
1.3895 -1.9111 0.0
1.6379 -1.9111 0.0
1.9307 -1.9111 0.0
2.2758 -1.9111 0.0
2.6827 -1.9111 0.0
3.1623 -1.9111 0.0
3.7276 -1.9111 0.0
4.394 -1.9111 0.0
5.1795 -1.9111 0.0
6.1054 -1.9111 0.0
7.1969 -1.9111 0.0
8.4834 -1.9111 0.0
10 -1.9111 0.0
0 -1.9556 0.0
0.0333 -1.9556 0.0
0.0667 -1.9556 0.0
0.1 -1.9556 0.0
0.1333 -1.9556 0.0
0.1667 -1.9556 0.0
0.2 -1.9556 0.0
0.2333 -1.9556 0.0
0.2667 -1.9556 0.0
0.3 -1.9556 0.0
0.3333 -1.9556 0.0
0.3667 -1.9556 0.0
0.4 -1.9556 0.0
0.4333 -1.9556 0.0
0.4667 -1.9556 0.0
0.5 -1.9556 0.0
0.5333 -1.9556 0.0
0.5667 -1.9556 0.0
0.6 -1.9556 0.0
0.6333 -1.9556 0.0
0.6667 -1.9556 0.0
0.7 -1.9556 0.0
0.7333 -1.9556 0.0
0.7667 -1.9556 0.0
0.8 -1.9556 0.0
0.8333 -1.9556 0.0
0.8667 -1.9556 0.0
0.9 -1.9556 0.0
0.9333 -1.9556 0.0
0.9667 -1.9556 0.0
1 -1.9556 0.0
1.0894 -1.9556 0.0
1.1788 -1.9556 0.0
1.2841 -1.9556 0.0
1.3895 -1.9556 0.0
1.5137 -1.9556 0.0
1.6379 -1.9556 0.0
1.7843 -1.9556 0.0
1.9307 -1.9556 0.0
2.1033 -1.9556 0.0
2.2758 -1.9556 0.0
2.4793 -1.9556 0.0
2.6827 -1.9556 0.0
2.9225 -1.9556 0.0
3.1623 -1.9556 0.0
3.4449 -1.9556 0.0
3.7276 -1.9556 0.0
4.0608 -1.9556 0.0
4.394 -1.9556 0.0
4.7867 -1.9556 0.0
5.1795 -1.9556 0.0
5.6424 -1.9556 0.0
6.1054 -1.9556 0.0
6.6511 -1.9556 0.0
7.1969 -1.9556 0.0
7.8401 -1.9556 0.0
8.4834 -1.9556 0.0
9.2417 -1.9556 0.0
10 -1.9556 0.0
0 -2 0.0
0.0667 -2 0.0
0.1333 -2 0.0
0.2 -2 0.0
0.2667 -2 0.0
0.3333 -2 0.0
0.4 -2 0.0
0.4667 -2 0.0
0.5333 -2 0.0
0.6 -2 0.0
0.6667 -2 0.0
0.7333 -2 0.0
0.8 -2 0.0
0.8667 -2 0.0
0.9333 -2 0.0
1 -2 0.0
1.1788 -2 0.0
1.3895 -2 0.0
1.6379 -2 0.0
1.9307 -2 0.0
2.2758 -2 0.0
2.6827 -2 0.0
3.1623 -2 0.0
3.7276 -2 0.0
4.394 -2 0.0
5.1795 -2 0.0
6.1054 -2 0.0
7.1969 -2 0.0
8.4834 -2 0.0
10 -2 0.0
0 -2.0444 0.0
0.0333 -2.0444 0.0
0.0667 -2.0444 0.0
0.1 -2.0444 0.0
0.1333 -2.0444 0.0
0.1667 -2.0444 0.0
0.2 -2.0444 0.0
0.2333 -2.0444 0.0
0.2667 -2.0444 0.0
0.3 -2.0444 0.0
0.3333 -2.0444 0.0
0.3667 -2.0444 0.0
0.4 -2.0444 0.0
0.4333 -2.0444 0.0
0.4667 -2.0444 0.0
0.5 -2.0444 0.0
0.5333 -2.0444 0.0
0.5667 -2.0444 0.0
0.6 -2.0444 0.0
0.6333 -2.0444 0.0
0.6667 -2.0444 0.0
0.7 -2.0444 0.0
0.7333 -2.0444 0.0
0.7667 -2.0444 0.0
0.8 -2.0444 0.0
0.8333 -2.0444 0.0
0.8667 -2.0444 0.0
0.9 -2.0444 0.0
0.9333 -2.0444 0.0
0.9667 -2.0444 0.0
1 -2.0444 0.0
1.0894 -2.0444 0.0
1.1788 -2.0444 0.0
1.2841 -2.0444 0.0
1.3895 -2.0444 0.0
1.5137 -2.0444 0.0
1.6379 -2.0444 0.0
1.7843 -2.0444 0.0
1.9307 -2.0444 0.0
2.1033 -2.0444 0.0
2.2758 -2.0444 0.0
2.4793 -2.0444 0.0
2.6827 -2.0444 0.0
2.9225 -2.0444 0.0
3.1623 -2.0444 0.0
3.4449 -2.0444 0.0
3.7276 -2.0444 0.0
4.0608 -2.0444 0.0
4.394 -2.0444 0.0
4.7867 -2.0444 0.0
5.1795 -2.0444 0.0
5.6424 -2.0444 0.0
6.1054 -2.0444 0.0
6.6511 -2.0444 0.0
7.1969 -2.0444 0.0
7.8401 -2.0444 0.0
8.4834 -2.0444 0.0
9.2417 -2.0444 0.0
10 -2.0444 0.0
0 -2.0889 0.0
0.0667 -2.0889 0.0
0.1333 -2.0889 0.0
0.2 -2.0889 0.0
0.2667 -2.0889 0.0
0.3333 -2.0889 0.0
0.4 -2.0889 0.0
0.4667 -2.0889 0.0
0.5333 -2.0889 0.0
0.6 -2.0889 0.0
0.6667 -2.0889 0.0
0.7333 -2.0889 0.0
0.8 -2.0889 0.0
0.8667 -2.0889 0.0
0.9333 -2.0889 0.0
1 -2.0889 0.0
1.1788 -2.0889 0.0
1.3895 -2.0889 0.0
1.6379 -2.0889 0.0
1.9307 -2.0889 0.0
2.2758 -2.0889 0.0
2.6827 -2.0889 0.0
3.1623 -2.0889 0.0
3.7276 -2.0889 0.0
4.394 -2.0889 0.0
5.1795 -2.0889 0.0
6.1054 -2.0889 0.0
7.1969 -2.0889 0.0
8.4834 -2.0889 0.0
10 -2.0889 0.0
0 -2.1333 0.0
0.0333 -2.1333 0.0
0.0667 -2.1333 0.0
0.1 -2.1333 0.0
0.1333 -2.1333 0.0
0.1667 -2.1333 0.0
0.2 -2.1333 0.0
0.2333 -2.1333 0.0
0.2667 -2.1333 0.0
0.3 -2.1333 0.0
0.3333 -2.1333 0.0
0.3667 -2.1333 0.0
0.4 -2.1333 0.0
0.4333 -2.1333 0.0
0.4667 -2.1333 0.0
0.5 -2.1333 0.0
0.5333 -2.1333 0.0
0.5667 -2.1333 0.0
0.6 -2.1333 0.0
0.6333 -2.1333 0.0
0.6667 -2.1333 0.0
0.7 -2.1333 0.0
0.7333 -2.1333 0.0
0.7667 -2.1333 0.0
0.8 -2.1333 0.0
0.8333 -2.1333 0.0
0.8667 -2.1333 0.0
0.9 -2.1333 0.0
0.9333 -2.1333 0.0
0.9667 -2.1333 0.0
1 -2.1333 0.0
1.0894 -2.1333 0.0
1.1788 -2.1333 0.0
1.2841 -2.1333 0.0
1.3895 -2.1333 0.0
1.5137 -2.1333 0.0
1.6379 -2.1333 0.0
1.7843 -2.1333 0.0
1.9307 -2.1333 0.0
2.1033 -2.1333 0.0
2.2758 -2.1333 0.0
2.4793 -2.1333 0.0
2.6827 -2.1333 0.0
2.9225 -2.1333 0.0
3.1623 -2.1333 0.0
3.4449 -2.1333 0.0
3.7276 -2.1333 0.0
4.0608 -2.1333 0.0
4.394 -2.1333 0.0
4.7867 -2.1333 0.0
5.1795 -2.1333 0.0
5.6424 -2.1333 0.0
6.1054 -2.1333 0.0
6.6511 -2.1333 0.0
7.1969 -2.1333 0.0
7.8401 -2.1333 0.0
8.4834 -2.1333 0.0
9.2417 -2.1333 0.0
10 -2.1333 0.0
0 -2.1778 0.0
0.0667 -2.1778 0.0
0.1333 -2.1778 0.0
0.2 -2.1778 0.0
0.2667 -2.1778 0.0
0.3333 -2.1778 0.0
0.4 -2.1778 0.0
0.4667 -2.1778 0.0
0.5333 -2.1778 0.0
0.6 -2.1778 0.0
0.6667 -2.1778 0.0
0.7333 -2.1778 0.0
0.8 -2.1778 0.0
0.8667 -2.1778 0.0
0.9333 -2.1778 0.0
1 -2.1778 0.0
1.1788 -2.1778 0.0
1.3895 -2.1778 0.0
1.6379 -2.1778 0.0
1.9307 -2.1778 0.0
2.2758 -2.1778 0.0
2.6827 -2.1778 0.0
3.1623 -2.1778 0.0
3.7276 -2.1778 0.0
4.394 -2.1778 0.0
5.1795 -2.1778 0.0
6.1054 -2.1778 0.0
7.1969 -2.1778 0.0
8.4834 -2.1778 0.0
10 -2.1778 0.0
0 -2.2222 0.0
0.0333 -2.2222 0.0
0.0667 -2.2222 0.0
0.1 -2.2222 0.0
0.1333 -2.2222 0.0
0.1667 -2.2222 0.0
0.2 -2.2222 0.0
0.2333 -2.2222 0.0
0.2667 -2.2222 0.0
0.3 -2.2222 0.0
0.3333 -2.2222 0.0
0.3667 -2.2222 0.0
0.4 -2.2222 0.0
0.4333 -2.2222 0.0
0.4667 -2.2222 0.0
0.5 -2.2222 0.0
0.5333 -2.2222 0.0
0.5667 -2.2222 0.0
0.6 -2.2222 0.0
0.6333 -2.2222 0.0
0.6667 -2.2222 0.0
0.7 -2.2222 0.0
0.7333 -2.2222 0.0
0.7667 -2.2222 0.0
0.8 -2.2222 0.0
0.8333 -2.2222 0.0
0.8667 -2.2222 0.0
0.9 -2.2222 0.0
0.9333 -2.2222 0.0
0.9667 -2.2222 0.0
1 -2.2222 0.0
1.0894 -2.2222 0.0
1.1788 -2.2222 0.0
1.2841 -2.2222 0.0
1.3895 -2.2222 0.0
1.5137 -2.2222 0.0
1.6379 -2.2222 0.0
1.7843 -2.2222 0.0
1.9307 -2.2222 0.0
2.1033 -2.2222 0.0
2.2758 -2.2222 0.0
2.4793 -2.2222 0.0
2.6827 -2.2222 0.0
2.9225 -2.2222 0.0
3.1623 -2.2222 0.0
3.4449 -2.2222 0.0
3.7276 -2.2222 0.0
4.0608 -2.2222 0.0
4.394 -2.2222 0.0
4.7867 -2.2222 0.0
5.1795 -2.2222 0.0
5.6424 -2.2222 0.0
6.1054 -2.2222 0.0
6.6511 -2.2222 0.0
7.1969 -2.2222 0.0
7.8401 -2.2222 0.0
8.4834 -2.2222 0.0
9.2417 -2.2222 0.0
10 -2.2222 0.0
0 -2.2667 0.0
0.0667 -2.2667 0.0
0.1333 -2.2667 0.0
0.2 -2.2667 0.0
0.2667 -2.2667 0.0
0.3333 -2.2667 0.0
0.4 -2.2667 0.0
0.4667 -2.2667 0.0
0.5333 -2.2667 0.0
0.6 -2.2667 0.0
0.6667 -2.2667 0.0
0.7333 -2.2667 0.0
0.8 -2.2667 0.0
0.8667 -2.2667 0.0
0.9333 -2.2667 0.0
1 -2.2667 0.0
1.1788 -2.2667 0.0
1.3895 -2.2667 0.0
1.6379 -2.2667 0.0
1.9307 -2.2667 0.0
2.2758 -2.2667 0.0
2.6827 -2.2667 0.0
3.1623 -2.2667 0.0
3.7276 -2.2667 0.0
4.394 -2.2667 0.0
5.1795 -2.2667 0.0
6.1054 -2.2667 0.0
7.1969 -2.2667 0.0
8.4834 -2.2667 0.0
10 -2.2667 0.0
0 -2.3111 0.0
0.0333 -2.3111 0.0
0.0667 -2.3111 0.0
0.1 -2.3111 0.0
0.1333 -2.3111 0.0
0.1667 -2.3111 0.0
0.2 -2.3111 0.0
0.2333 -2.3111 0.0
0.2667 -2.3111 0.0
0.3 -2.3111 0.0
0.3333 -2.3111 0.0
0.3667 -2.3111 0.0
0.4 -2.3111 0.0
0.4333 -2.3111 0.0
0.4667 -2.3111 0.0
0.5 -2.3111 0.0
0.5333 -2.3111 0.0
0.5667 -2.3111 0.0
0.6 -2.3111 0.0
0.6333 -2.3111 0.0
0.6667 -2.3111 0.0
0.7 -2.3111 0.0
0.7333 -2.3111 0.0
0.7667 -2.3111 0.0
0.8 -2.3111 0.0
0.8333 -2.3111 0.0
0.8667 -2.3111 0.0
0.9 -2.3111 0.0
0.9333 -2.3111 0.0
0.9667 -2.3111 0.0
1 -2.3111 0.0
1.0894 -2.3111 0.0
1.1788 -2.3111 0.0
1.2841 -2.3111 0.0
1.3895 -2.3111 0.0
1.5137 -2.3111 0.0
1.6379 -2.3111 0.0
1.7843 -2.3111 0.0
1.9307 -2.3111 0.0
2.1033 -2.3111 0.0
2.2758 -2.3111 0.0
2.4793 -2.3111 0.0
2.6827 -2.3111 0.0
2.9225 -2.3111 0.0
3.1623 -2.3111 0.0
3.4449 -2.3111 0.0
3.7276 -2.3111 0.0
4.0608 -2.3111 0.0
4.394 -2.3111 0.0
4.7867 -2.3111 0.0
5.1795 -2.3111 0.0
5.6424 -2.3111 0.0
6.1054 -2.3111 0.0
6.6511 -2.3111 0.0
7.1969 -2.3111 0.0
7.8401 -2.3111 0.0
8.4834 -2.3111 0.0
9.2417 -2.3111 0.0
10 -2.3111 0.0
0 -2.3556 0.0
0.0667 -2.3556 0.0
0.1333 -2.3556 0.0
0.2 -2.3556 0.0
0.2667 -2.3556 0.0
0.3333 -2.3556 0.0
0.4 -2.3556 0.0
0.4667 -2.3556 0.0
0.5333 -2.3556 0.0
0.6 -2.3556 0.0
0.6667 -2.3556 0.0
0.7333 -2.3556 0.0
0.8 -2.3556 0.0
0.8667 -2.3556 0.0
0.9333 -2.3556 0.0
1 -2.3556 0.0
1.1788 -2.3556 0.0
1.3895 -2.3556 0.0
1.6379 -2.3556 0.0
1.9307 -2.3556 0.0
2.2758 -2.3556 0.0
2.6827 -2.3556 0.0
3.1623 -2.3556 0.0
3.7276 -2.3556 0.0
4.394 -2.3556 0.0
5.1795 -2.3556 0.0
6.1054 -2.3556 0.0
7.1969 -2.3556 0.0
8.4834 -2.3556 0.0
10 -2.3556 0.0
0 -2.4 0.0
0.0333 -2.4 0.0
0.0667 -2.4 0.0
0.1 -2.4 0.0
0.1333 -2.4 0.0
0.1667 -2.4 0.0
0.2 -2.4 0.0
0.2333 -2.4 0.0
0.2667 -2.4 0.0
0.3 -2.4 0.0
0.3333 -2.4 0.0
0.3667 -2.4 0.0
0.4 -2.4 0.0
0.4333 -2.4 0.0
0.4667 -2.4 0.0
0.5 -2.4 0.0
0.5333 -2.4 0.0
0.5667 -2.4 0.0
0.6 -2.4 0.0
0.6333 -2.4 0.0
0.6667 -2.4 0.0
0.7 -2.4 0.0
0.7333 -2.4 0.0
0.7667 -2.4 0.0
0.8 -2.4 0.0
0.8333 -2.4 0.0
0.8667 -2.4 0.0
0.9 -2.4 0.0
0.9333 -2.4 0.0
0.9667 -2.4 0.0
1 -2.4 0.0
1.0894 -2.4 0.0
1.1788 -2.4 0.0
1.2841 -2.4 0.0
1.3895 -2.4 0.0
1.5137 -2.4 0.0
1.6379 -2.4 0.0
1.7843 -2.4 0.0
1.9307 -2.4 0.0
2.1033 -2.4 0.0
2.2758 -2.4 0.0
2.4793 -2.4 0.0
2.6827 -2.4 0.0
2.9225 -2.4 0.0
3.1623 -2.4 0.0
3.4449 -2.4 0.0
3.7276 -2.4 0.0
4.0608 -2.4 0.0
4.394 -2.4 0.0
4.7867 -2.4 0.0
5.1795 -2.4 0.0
5.6424 -2.4 0.0
6.1054 -2.4 0.0
6.6511 -2.4 0.0
7.1969 -2.4 0.0
7.8401 -2.4 0.0
8.4834 -2.4 0.0
9.2417 -2.4 0.0
10 -2.4 0.0
0 -2.4444 0.0
0.0667 -2.4444 0.0
0.1333 -2.4444 0.0
0.2 -2.4444 0.0
0.2667 -2.4444 0.0
0.3333 -2.4444 0.0
0.4 -2.4444 0.0
0.4667 -2.4444 0.0
0.5333 -2.4444 0.0
0.6 -2.4444 0.0
0.6667 -2.4444 0.0
0.7333 -2.4444 0.0
0.8 -2.4444 0.0
0.8667 -2.4444 0.0
0.9333 -2.4444 0.0
1 -2.4444 0.0
1.1788 -2.4444 0.0
1.3895 -2.4444 0.0
1.6379 -2.4444 0.0
1.9307 -2.4444 0.0
2.2758 -2.4444 0.0
2.6827 -2.4444 0.0
3.1623 -2.4444 0.0
3.7276 -2.4444 0.0
4.394 -2.4444 0.0
5.1795 -2.4444 0.0
6.1054 -2.4444 0.0
7.1969 -2.4444 0.0
8.4834 -2.4444 0.0
10 -2.4444 0.0
0 -2.4889 0.0
0.0333 -2.4889 0.0
0.0667 -2.4889 0.0
0.1 -2.4889 0.0
0.1333 -2.4889 0.0
0.1667 -2.4889 0.0
0.2 -2.4889 0.0
0.2333 -2.4889 0.0
0.2667 -2.4889 0.0
0.3 -2.4889 0.0
0.3333 -2.4889 0.0
0.3667 -2.4889 0.0
0.4 -2.4889 0.0
0.4333 -2.4889 0.0
0.4667 -2.4889 0.0
0.5 -2.4889 0.0
0.5333 -2.4889 0.0
0.5667 -2.4889 0.0
0.6 -2.4889 0.0
0.6333 -2.4889 0.0
0.6667 -2.4889 0.0
0.7 -2.4889 0.0
0.7333 -2.4889 0.0
0.7667 -2.4889 0.0
0.8 -2.4889 0.0
0.8333 -2.4889 0.0
0.8667 -2.4889 0.0
0.9 -2.4889 0.0
0.9333 -2.4889 0.0
0.9667 -2.4889 0.0
1 -2.4889 0.0
1.0894 -2.4889 0.0
1.1788 -2.4889 0.0
1.2841 -2.4889 0.0
1.3895 -2.4889 0.0
1.5137 -2.4889 0.0
1.6379 -2.4889 0.0
1.7843 -2.4889 0.0
1.9307 -2.4889 0.0
2.1033 -2.4889 0.0
2.2758 -2.4889 0.0
2.4793 -2.4889 0.0
2.6827 -2.4889 0.0
2.9225 -2.4889 0.0
3.1623 -2.4889 0.0
3.4449 -2.4889 0.0
3.7276 -2.4889 0.0
4.0608 -2.4889 0.0
4.394 -2.4889 0.0
4.7867 -2.4889 0.0
5.1795 -2.4889 0.0
5.6424 -2.4889 0.0
6.1054 -2.4889 0.0
6.6511 -2.4889 0.0
7.1969 -2.4889 0.0
7.8401 -2.4889 0.0
8.4834 -2.4889 0.0
9.2417 -2.4889 0.0
10 -2.4889 0.0
0 -2.5333 0.0
0.0667 -2.5333 0.0
0.1333 -2.5333 0.0
0.2 -2.5333 0.0
0.2667 -2.5333 0.0
0.3333 -2.5333 0.0
0.4 -2.5333 0.0
0.4667 -2.5333 0.0
0.5333 -2.5333 0.0
0.6 -2.5333 0.0
0.6667 -2.5333 0.0
0.7333 -2.5333 0.0
0.8 -2.5333 0.0
0.8667 -2.5333 0.0
0.9333 -2.5333 0.0
1 -2.5333 0.0
1.1788 -2.5333 0.0
1.3895 -2.5333 0.0
1.6379 -2.5333 0.0
1.9307 -2.5333 0.0
2.2758 -2.5333 0.0
2.6827 -2.5333 0.0
3.1623 -2.5333 0.0
3.7276 -2.5333 0.0
4.394 -2.5333 0.0
5.1795 -2.5333 0.0
6.1054 -2.5333 0.0
7.1969 -2.5333 0.0
8.4834 -2.5333 0.0
10 -2.5333 0.0
0 -2.5778 0.0
0.0333 -2.5778 0.0
0.0667 -2.5778 0.0
0.1 -2.5778 0.0
0.1333 -2.5778 0.0
0.1667 -2.5778 0.0
0.2 -2.5778 0.0
0.2333 -2.5778 0.0
0.2667 -2.5778 0.0
0.3 -2.5778 0.0
0.3333 -2.5778 0.0
0.3667 -2.5778 0.0
0.4 -2.5778 0.0
0.4333 -2.5778 0.0
0.4667 -2.5778 0.0
0.5 -2.5778 0.0
0.5333 -2.5778 0.0
0.5667 -2.5778 0.0
0.6 -2.5778 0.0
0.6333 -2.5778 0.0
0.6667 -2.5778 0.0
0.7 -2.5778 0.0
0.7333 -2.5778 0.0
0.7667 -2.5778 0.0
0.8 -2.5778 0.0
0.8333 -2.5778 0.0
0.8667 -2.5778 0.0
0.9 -2.5778 0.0
0.9333 -2.5778 0.0
0.9667 -2.5778 0.0
1 -2.5778 0.0
1.0894 -2.5778 0.0
1.1788 -2.5778 0.0
1.2841 -2.5778 0.0
1.3895 -2.5778 0.0
1.5137 -2.5778 0.0
1.6379 -2.5778 0.0
1.7843 -2.5778 0.0
1.9307 -2.5778 0.0
2.1033 -2.5778 0.0
2.2758 -2.5778 0.0
2.4793 -2.5778 0.0
2.6827 -2.5778 0.0
2.9225 -2.5778 0.0
3.1623 -2.5778 0.0
3.4449 -2.5778 0.0
3.7276 -2.5778 0.0
4.0608 -2.5778 0.0
4.394 -2.5778 0.0
4.7867 -2.5778 0.0
5.1795 -2.5778 0.0
5.6424 -2.5778 0.0
6.1054 -2.5778 0.0
6.6511 -2.5778 0.0
7.1969 -2.5778 0.0
7.8401 -2.5778 0.0
8.4834 -2.5778 0.0
9.2417 -2.5778 0.0
10 -2.5778 0.0
0 -2.6222 0.0
0.0667 -2.6222 0.0
0.1333 -2.6222 0.0
0.2 -2.6222 0.0
0.2667 -2.6222 0.0
0.3333 -2.6222 0.0
0.4 -2.6222 0.0
0.4667 -2.6222 0.0
0.5333 -2.6222 0.0
0.6 -2.6222 0.0
0.6667 -2.6222 0.0
0.7333 -2.6222 0.0
0.8 -2.6222 0.0
0.8667 -2.6222 0.0
0.9333 -2.6222 0.0
1 -2.6222 0.0
1.1788 -2.6222 0.0
1.3895 -2.6222 0.0
1.6379 -2.6222 0.0
1.9307 -2.6222 0.0
2.2758 -2.6222 0.0
2.6827 -2.6222 0.0
3.1623 -2.6222 0.0
3.7276 -2.6222 0.0
4.394 -2.6222 0.0
5.1795 -2.6222 0.0
6.1054 -2.6222 0.0
7.1969 -2.6222 0.0
8.4834 -2.6222 0.0
10 -2.6222 0.0
0 -2.6667 0.0
0.0333 -2.6667 0.0
0.0667 -2.6667 0.0
0.1 -2.6667 0.0
0.1333 -2.6667 0.0
0.1667 -2.6667 0.0
0.2 -2.6667 0.0
0.2333 -2.6667 0.0
0.2667 -2.6667 0.0
0.3 -2.6667 0.0
0.3333 -2.6667 0.0
0.3667 -2.6667 0.0
0.4 -2.6667 0.0
0.4333 -2.6667 0.0
0.4667 -2.6667 0.0
0.5 -2.6667 0.0
0.5333 -2.6667 0.0
0.5667 -2.6667 0.0
0.6 -2.6667 0.0
0.6333 -2.6667 0.0
0.6667 -2.6667 0.0
0.7 -2.6667 0.0
0.7333 -2.6667 0.0
0.7667 -2.6667 0.0
0.8 -2.6667 0.0
0.8333 -2.6667 0.0
0.8667 -2.6667 0.0
0.9 -2.6667 0.0
0.9333 -2.6667 0.0
0.9667 -2.6667 0.0
1 -2.6667 0.0
1.0894 -2.6667 0.0
1.1788 -2.6667 0.0
1.2841 -2.6667 0.0
1.3895 -2.6667 0.0
1.5137 -2.6667 0.0
1.6379 -2.6667 0.0
1.7843 -2.6667 0.0
1.9307 -2.6667 0.0
2.1033 -2.6667 0.0
2.2758 -2.6667 0.0
2.4793 -2.6667 0.0
2.6827 -2.6667 0.0
2.9225 -2.6667 0.0
3.1623 -2.6667 0.0
3.4449 -2.6667 0.0
3.7276 -2.6667 0.0
4.0608 -2.6667 0.0
4.394 -2.6667 0.0
4.7867 -2.6667 0.0
5.1795 -2.6667 0.0
5.6424 -2.6667 0.0
6.1054 -2.6667 0.0
6.6511 -2.6667 0.0
7.1969 -2.6667 0.0
7.8401 -2.6667 0.0
8.4834 -2.6667 0.0
9.2417 -2.6667 0.0
10 -2.6667 0.0
0 -2.7111 0.0
0.0667 -2.7111 0.0
0.1333 -2.7111 0.0
0.2 -2.7111 0.0
0.2667 -2.7111 0.0
0.3333 -2.7111 0.0
0.4 -2.7111 0.0
0.4667 -2.7111 0.0
0.5333 -2.7111 0.0
0.6 -2.7111 0.0
0.6667 -2.7111 0.0
0.7333 -2.7111 0.0
0.8 -2.7111 0.0
0.8667 -2.7111 0.0
0.9333 -2.7111 0.0
1 -2.7111 0.0
1.1788 -2.7111 0.0
1.3895 -2.7111 0.0
1.6379 -2.7111 0.0
1.9307 -2.7111 0.0
2.2758 -2.7111 0.0
2.6827 -2.7111 0.0
3.1623 -2.7111 0.0
3.7276 -2.7111 0.0
4.394 -2.7111 0.0
5.1795 -2.7111 0.0
6.1054 -2.7111 0.0
7.1969 -2.7111 0.0
8.4834 -2.7111 0.0
10 -2.7111 0.0
0 -2.7556 0.0
0.0333 -2.7556 0.0
0.0667 -2.7556 0.0
0.1 -2.7556 0.0
0.1333 -2.7556 0.0
0.1667 -2.7556 0.0
0.2 -2.7556 0.0
0.2333 -2.7556 0.0
0.2667 -2.7556 0.0
0.3 -2.7556 0.0
0.3333 -2.7556 0.0
0.3667 -2.7556 0.0
0.4 -2.7556 0.0
0.4333 -2.7556 0.0
0.4667 -2.7556 0.0
0.5 -2.7556 0.0
0.5333 -2.7556 0.0
0.5667 -2.7556 0.0
0.6 -2.7556 0.0
0.6333 -2.7556 0.0
0.6667 -2.7556 0.0
0.7 -2.7556 0.0
0.7333 -2.7556 0.0
0.7667 -2.7556 0.0
0.8 -2.7556 0.0
0.8333 -2.7556 0.0
0.8667 -2.7556 0.0
0.9 -2.7556 0.0
0.9333 -2.7556 0.0
0.9667 -2.7556 0.0
1 -2.7556 0.0
1.0894 -2.7556 0.0
1.1788 -2.7556 0.0
1.2841 -2.7556 0.0
1.3895 -2.7556 0.0
1.5137 -2.7556 0.0
1.6379 -2.7556 0.0
1.7843 -2.7556 0.0
1.9307 -2.7556 0.0
2.1033 -2.7556 0.0
2.2758 -2.7556 0.0
2.4793 -2.7556 0.0
2.6827 -2.7556 0.0
2.9225 -2.7556 0.0
3.1623 -2.7556 0.0
3.4449 -2.7556 0.0
3.7276 -2.7556 0.0
4.0608 -2.7556 0.0
4.394 -2.7556 0.0
4.7867 -2.7556 0.0
5.1795 -2.7556 0.0
5.6424 -2.7556 0.0
6.1054 -2.7556 0.0
6.6511 -2.7556 0.0
7.1969 -2.7556 0.0
7.8401 -2.7556 0.0
8.4834 -2.7556 0.0
9.2417 -2.7556 0.0
10 -2.7556 0.0
0 -2.8 0.0
0.0667 -2.8 0.0
0.1333 -2.8 0.0
0.2 -2.8 0.0
0.2667 -2.8 0.0
0.3333 -2.8 0.0
0.4 -2.8 0.0
0.4667 -2.8 0.0
0.5333 -2.8 0.0
0.6 -2.8 0.0
0.6667 -2.8 0.0
0.7333 -2.8 0.0
0.8 -2.8 0.0
0.8667 -2.8 0.0
0.9333 -2.8 0.0
1 -2.8 0.0
1.1788 -2.8 0.0
1.3895 -2.8 0.0
1.6379 -2.8 0.0
1.9307 -2.8 0.0
2.2758 -2.8 0.0
2.6827 -2.8 0.0
3.1623 -2.8 0.0
3.7276 -2.8 0.0
4.394 -2.8 0.0
5.1795 -2.8 0.0
6.1054 -2.8 0.0
7.1969 -2.8 0.0
8.4834 -2.8 0.0
10 -2.8 0.0
0 -2.8444 0.0
0.0333 -2.8444 0.0
0.0667 -2.8444 0.0
0.1 -2.8444 0.0
0.1333 -2.8444 0.0
0.1667 -2.8444 0.0
0.2 -2.8444 0.0
0.2333 -2.8444 0.0
0.2667 -2.8444 0.0
0.3 -2.8444 0.0
0.3333 -2.8444 0.0
0.3667 -2.8444 0.0
0.4 -2.8444 0.0
0.4333 -2.8444 0.0
0.4667 -2.8444 0.0
0.5 -2.8444 0.0
0.5333 -2.8444 0.0
0.5667 -2.8444 0.0
0.6 -2.8444 0.0
0.6333 -2.8444 0.0
0.6667 -2.8444 0.0
0.7 -2.8444 0.0
0.7333 -2.8444 0.0
0.7667 -2.8444 0.0
0.8 -2.8444 0.0
0.8333 -2.8444 0.0
0.8667 -2.8444 0.0
0.9 -2.8444 0.0
0.9333 -2.8444 0.0
0.9667 -2.8444 0.0
1 -2.8444 0.0
1.0894 -2.8444 0.0
1.1788 -2.8444 0.0
1.2841 -2.8444 0.0
1.3895 -2.8444 0.0
1.5137 -2.8444 0.0
1.6379 -2.8444 0.0
1.7843 -2.8444 0.0
1.9307 -2.8444 0.0
2.1033 -2.8444 0.0
2.2758 -2.8444 0.0
2.4793 -2.8444 0.0
2.6827 -2.8444 0.0
2.9225 -2.8444 0.0
3.1623 -2.8444 0.0
3.4449 -2.8444 0.0
3.7276 -2.8444 0.0
4.0608 -2.8444 0.0
4.394 -2.8444 0.0
4.7867 -2.8444 0.0
5.1795 -2.8444 0.0
5.6424 -2.8444 0.0
6.1054 -2.8444 0.0
6.6511 -2.8444 0.0
7.1969 -2.8444 0.0
7.8401 -2.8444 0.0
8.4834 -2.8444 0.0
9.2417 -2.8444 0.0
10 -2.8444 0.0
0 -2.8889 0.0
0.0667 -2.8889 0.0
0.1333 -2.8889 0.0
0.2 -2.8889 0.0
0.2667 -2.8889 0.0
0.3333 -2.8889 0.0
0.4 -2.8889 0.0
0.4667 -2.8889 0.0
0.5333 -2.8889 0.0
0.6 -2.8889 0.0
0.6667 -2.8889 0.0
0.7333 -2.8889 0.0
0.8 -2.8889 0.0
0.8667 -2.8889 0.0
0.9333 -2.8889 0.0
1 -2.8889 0.0
1.1788 -2.8889 0.0
1.3895 -2.8889 0.0
1.6379 -2.8889 0.0
1.9307 -2.8889 0.0
2.2758 -2.8889 0.0
2.6827 -2.8889 0.0
3.1623 -2.8889 0.0
3.7276 -2.8889 0.0
4.394 -2.8889 0.0
5.1795 -2.8889 0.0
6.1054 -2.8889 0.0
7.1969 -2.8889 0.0
8.4834 -2.8889 0.0
10 -2.8889 0.0
0 -2.9333 0.0
0.0333 -2.9333 0.0
0.0667 -2.9333 0.0
0.1 -2.9333 0.0
0.1333 -2.9333 0.0
0.1667 -2.9333 0.0
0.2 -2.9333 0.0
0.2333 -2.9333 0.0
0.2667 -2.9333 0.0
0.3 -2.9333 0.0
0.3333 -2.9333 0.0
0.3667 -2.9333 0.0
0.4 -2.9333 0.0
0.4333 -2.9333 0.0
0.4667 -2.9333 0.0
0.5 -2.9333 0.0
0.5333 -2.9333 0.0
0.5667 -2.9333 0.0
0.6 -2.9333 0.0
0.6333 -2.9333 0.0
0.6667 -2.9333 0.0
0.7 -2.9333 0.0
0.7333 -2.9333 0.0
0.7667 -2.9333 0.0
0.8 -2.9333 0.0
0.8333 -2.9333 0.0
0.8667 -2.9333 0.0
0.9 -2.9333 0.0
0.9333 -2.9333 0.0
0.9667 -2.9333 0.0
1 -2.9333 0.0
1.0894 -2.9333 0.0
1.1788 -2.9333 0.0
1.2841 -2.9333 0.0
1.3895 -2.9333 0.0
1.5137 -2.9333 0.0
1.6379 -2.9333 0.0
1.7843 -2.9333 0.0
1.9307 -2.9333 0.0
2.1033 -2.9333 0.0
2.2758 -2.9333 0.0
2.4793 -2.9333 0.0
2.6827 -2.9333 0.0
2.9225 -2.9333 0.0
3.1623 -2.9333 0.0
3.4449 -2.9333 0.0
3.7276 -2.9333 0.0
4.0608 -2.9333 0.0
4.394 -2.9333 0.0
4.7867 -2.9333 0.0
5.1795 -2.9333 0.0
5.6424 -2.9333 0.0
6.1054 -2.9333 0.0
6.6511 -2.9333 0.0
7.1969 -2.9333 0.0
7.8401 -2.9333 0.0
8.4834 -2.9333 0.0
9.2417 -2.9333 0.0
10 -2.9333 0.0
0 -2.9778 0.0
0.0667 -2.9778 0.0
0.1333 -2.9778 0.0
0.2 -2.9778 0.0
0.2667 -2.9778 0.0
0.3333 -2.9778 0.0
0.4 -2.9778 0.0
0.4667 -2.9778 0.0
0.5333 -2.9778 0.0
0.6 -2.9778 0.0
0.6667 -2.9778 0.0
0.7333 -2.9778 0.0
0.8 -2.9778 0.0
0.8667 -2.9778 0.0
0.9333 -2.9778 0.0
1 -2.9778 0.0
1.1788 -2.9778 0.0
1.3895 -2.9778 0.0
1.6379 -2.9778 0.0
1.9307 -2.9778 0.0
2.2758 -2.9778 0.0
2.6827 -2.9778 0.0
3.1623 -2.9778 0.0
3.7276 -2.9778 0.0
4.394 -2.9778 0.0
5.1795 -2.9778 0.0
6.1054 -2.9778 0.0
7.1969 -2.9778 0.0
8.4834 -2.9778 0.0
10 -2.9778 0.0
0 -3.0222 0.0
0.0333 -3.0222 0.0
0.0667 -3.0222 0.0
0.1 -3.0222 0.0
0.1333 -3.0222 0.0
0.1667 -3.0222 0.0
0.2 -3.0222 0.0
0.2333 -3.0222 0.0
0.2667 -3.0222 0.0
0.3 -3.0222 0.0
0.3333 -3.0222 0.0
0.3667 -3.0222 0.0
0.4 -3.0222 0.0
0.4333 -3.0222 0.0
0.4667 -3.0222 0.0
0.5 -3.0222 0.0
0.5333 -3.0222 0.0
0.5667 -3.0222 0.0
0.6 -3.0222 0.0
0.6333 -3.0222 0.0
0.6667 -3.0222 0.0
0.7 -3.0222 0.0
0.7333 -3.0222 0.0
0.7667 -3.0222 0.0
0.8 -3.0222 0.0
0.8333 -3.0222 0.0
0.8667 -3.0222 0.0
0.9 -3.0222 0.0
0.9333 -3.0222 0.0
0.9667 -3.0222 0.0
1 -3.0222 0.0
1.0894 -3.0222 0.0
1.1788 -3.0222 0.0
1.2841 -3.0222 0.0
1.3895 -3.0222 0.0
1.5137 -3.0222 0.0
1.6379 -3.0222 0.0
1.7843 -3.0222 0.0
1.9307 -3.0222 0.0
2.1033 -3.0222 0.0
2.2758 -3.0222 0.0
2.4793 -3.0222 0.0
2.6827 -3.0222 0.0
2.9225 -3.0222 0.0
3.1623 -3.0222 0.0
3.4449 -3.0222 0.0
3.7276 -3.0222 0.0
4.0608 -3.0222 0.0
4.394 -3.0222 0.0
4.7867 -3.0222 0.0
5.1795 -3.0222 0.0
5.6424 -3.0222 0.0
6.1054 -3.0222 0.0
6.6511 -3.0222 0.0
7.1969 -3.0222 0.0
7.8401 -3.0222 0.0
8.4834 -3.0222 0.0
9.2417 -3.0222 0.0
10 -3.0222 0.0
0 -3.0667 0.0
0.0667 -3.0667 0.0
0.1333 -3.0667 0.0
0.2 -3.0667 0.0
0.2667 -3.0667 0.0
0.3333 -3.0667 0.0
0.4 -3.0667 0.0
0.4667 -3.0667 0.0
0.5333 -3.0667 0.0
0.6 -3.0667 0.0
0.6667 -3.0667 0.0
0.7333 -3.0667 0.0
0.8 -3.0667 0.0
0.8667 -3.0667 0.0
0.9333 -3.0667 0.0
1 -3.0667 0.0
1.1788 -3.0667 0.0
1.3895 -3.0667 0.0
1.6379 -3.0667 0.0
1.9307 -3.0667 0.0
2.2758 -3.0667 0.0
2.6827 -3.0667 0.0
3.1623 -3.0667 0.0
3.7276 -3.0667 0.0
4.394 -3.0667 0.0
5.1795 -3.0667 0.0
6.1054 -3.0667 0.0
7.1969 -3.0667 0.0
8.4834 -3.0667 0.0
10 -3.0667 0.0
0 -3.1111 0.0
0.0333 -3.1111 0.0
0.0667 -3.1111 0.0
0.1 -3.1111 0.0
0.1333 -3.1111 0.0
0.1667 -3.1111 0.0
0.2 -3.1111 0.0
0.2333 -3.1111 0.0
0.2667 -3.1111 0.0
0.3 -3.1111 0.0
0.3333 -3.1111 0.0
0.3667 -3.1111 0.0
0.4 -3.1111 0.0
0.4333 -3.1111 0.0
0.4667 -3.1111 0.0
0.5 -3.1111 0.0
0.5333 -3.1111 0.0
0.5667 -3.1111 0.0
0.6 -3.1111 0.0
0.6333 -3.1111 0.0
0.6667 -3.1111 0.0
0.7 -3.1111 0.0
0.7333 -3.1111 0.0
0.7667 -3.1111 0.0
0.8 -3.1111 0.0
0.8333 -3.1111 0.0
0.8667 -3.1111 0.0
0.9 -3.1111 0.0
0.9333 -3.1111 0.0
0.9667 -3.1111 0.0
1 -3.1111 0.0
1.0894 -3.1111 0.0
1.1788 -3.1111 0.0
1.2841 -3.1111 0.0
1.3895 -3.1111 0.0
1.5137 -3.1111 0.0
1.6379 -3.1111 0.0
1.7843 -3.1111 0.0
1.9307 -3.1111 0.0
2.1033 -3.1111 0.0
2.2758 -3.1111 0.0
2.4793 -3.1111 0.0
2.6827 -3.1111 0.0
2.9225 -3.1111 0.0
3.1623 -3.1111 0.0
3.4449 -3.1111 0.0
3.7276 -3.1111 0.0
4.0608 -3.1111 0.0
4.394 -3.1111 0.0
4.7867 -3.1111 0.0
5.1795 -3.1111 0.0
5.6424 -3.1111 0.0
6.1054 -3.1111 0.0
6.6511 -3.1111 0.0
7.1969 -3.1111 0.0
7.8401 -3.1111 0.0
8.4834 -3.1111 0.0
9.2417 -3.1111 0.0
10 -3.1111 0.0
0 -3.1556 0.0
0.0667 -3.1556 0.0
0.1333 -3.1556 0.0
0.2 -3.1556 0.0
0.2667 -3.1556 0.0
0.3333 -3.1556 0.0
0.4 -3.1556 0.0
0.4667 -3.1556 0.0
0.5333 -3.1556 0.0
0.6 -3.1556 0.0
0.6667 -3.1556 0.0
0.7333 -3.1556 0.0
0.8 -3.1556 0.0
0.8667 -3.1556 0.0
0.9333 -3.1556 0.0
1 -3.1556 0.0
1.1788 -3.1556 0.0
1.3895 -3.1556 0.0
1.6379 -3.1556 0.0
1.9307 -3.1556 0.0
2.2758 -3.1556 0.0
2.6827 -3.1556 0.0
3.1623 -3.1556 0.0
3.7276 -3.1556 0.0
4.394 -3.1556 0.0
5.1795 -3.1556 0.0
6.1054 -3.1556 0.0
7.1969 -3.1556 0.0
8.4834 -3.1556 0.0
10 -3.1556 0.0
0 -3.2 0.0
0.0333 -3.2 0.0
0.0667 -3.2 0.0
0.1 -3.2 0.0
0.1333 -3.2 0.0
0.1667 -3.2 0.0
0.2 -3.2 0.0
0.2333 -3.2 0.0
0.2667 -3.2 0.0
0.3 -3.2 0.0
0.3333 -3.2 0.0
0.3667 -3.2 0.0
0.4 -3.2 0.0
0.4333 -3.2 0.0
0.4667 -3.2 0.0
0.5 -3.2 0.0
0.5333 -3.2 0.0
0.5667 -3.2 0.0
0.6 -3.2 0.0
0.6333 -3.2 0.0
0.6667 -3.2 0.0
0.7 -3.2 0.0
0.7333 -3.2 0.0
0.7667 -3.2 0.0
0.8 -3.2 0.0
0.8333 -3.2 0.0
0.8667 -3.2 0.0
0.9 -3.2 0.0
0.9333 -3.2 0.0
0.9667 -3.2 0.0
1 -3.2 0.0
1.0894 -3.2 0.0
1.1788 -3.2 0.0
1.2841 -3.2 0.0
1.3895 -3.2 0.0
1.5137 -3.2 0.0
1.6379 -3.2 0.0
1.7843 -3.2 0.0
1.9307 -3.2 0.0
2.1033 -3.2 0.0
2.2758 -3.2 0.0
2.4793 -3.2 0.0
2.6827 -3.2 0.0
2.9225 -3.2 0.0
3.1623 -3.2 0.0
3.4449 -3.2 0.0
3.7276 -3.2 0.0
4.0608 -3.2 0.0
4.394 -3.2 0.0
4.7867 -3.2 0.0
5.1795 -3.2 0.0
5.6424 -3.2 0.0
6.1054 -3.2 0.0
6.6511 -3.2 0.0
7.1969 -3.2 0.0
7.8401 -3.2 0.0
8.4834 -3.2 0.0
9.2417 -3.2 0.0
10 -3.2 0.0
0 -3.2444 0.0
0.0667 -3.2444 0.0
0.1333 -3.2444 0.0
0.2 -3.2444 0.0
0.2667 -3.2444 0.0
0.3333 -3.2444 0.0
0.4 -3.2444 0.0
0.4667 -3.2444 0.0
0.5333 -3.2444 0.0
0.6 -3.2444 0.0
0.6667 -3.2444 0.0
0.7333 -3.2444 0.0
0.8 -3.2444 0.0
0.8667 -3.2444 0.0
0.9333 -3.2444 0.0
1 -3.2444 0.0
1.1788 -3.2444 0.0
1.3895 -3.2444 0.0
1.6379 -3.2444 0.0
1.9307 -3.2444 0.0
2.2758 -3.2444 0.0
2.6827 -3.2444 0.0
3.1623 -3.2444 0.0
3.7276 -3.2444 0.0
4.394 -3.2444 0.0
5.1795 -3.2444 0.0
6.1054 -3.2444 0.0
7.1969 -3.2444 0.0
8.4834 -3.2444 0.0
10 -3.2444 0.0
0 -3.2889 0.0
0.0333 -3.2889 0.0
0.0667 -3.2889 0.0
0.1 -3.2889 0.0
0.1333 -3.2889 0.0
0.1667 -3.2889 0.0
0.2 -3.2889 0.0
0.2333 -3.2889 0.0
0.2667 -3.2889 0.0
0.3 -3.2889 0.0
0.3333 -3.2889 0.0
0.3667 -3.2889 0.0
0.4 -3.2889 0.0
0.4333 -3.2889 0.0
0.4667 -3.2889 0.0
0.5 -3.2889 0.0
0.5333 -3.2889 0.0
0.5667 -3.2889 0.0
0.6 -3.2889 0.0
0.6333 -3.2889 0.0
0.6667 -3.2889 0.0
0.7 -3.2889 0.0
0.7333 -3.2889 0.0
0.7667 -3.2889 0.0
0.8 -3.2889 0.0
0.8333 -3.2889 0.0
0.8667 -3.2889 0.0
0.9 -3.2889 0.0
0.9333 -3.2889 0.0
0.9667 -3.2889 0.0
1 -3.2889 0.0
1.0894 -3.2889 0.0
1.1788 -3.2889 0.0
1.2841 -3.2889 0.0
1.3895 -3.2889 0.0
1.5137 -3.2889 0.0
1.6379 -3.2889 0.0
1.7843 -3.2889 0.0
1.9307 -3.2889 0.0
2.1033 -3.2889 0.0
2.2758 -3.2889 0.0
2.4793 -3.2889 0.0
2.6827 -3.2889 0.0
2.9225 -3.2889 0.0
3.1623 -3.2889 0.0
3.4449 -3.2889 0.0
3.7276 -3.2889 0.0
4.0608 -3.2889 0.0
4.394 -3.2889 0.0
4.7867 -3.2889 0.0
5.1795 -3.2889 0.0
5.6424 -3.2889 0.0
6.1054 -3.2889 0.0
6.6511 -3.2889 0.0
7.1969 -3.2889 0.0
7.8401 -3.2889 0.0
8.4834 -3.2889 0.0
9.2417 -3.2889 0.0
10 -3.2889 0.0
0 -3.3333 0.0
0.0667 -3.3333 0.0
0.1333 -3.3333 0.0
0.2 -3.3333 0.0
0.2667 -3.3333 0.0
0.3333 -3.3333 0.0
0.4 -3.3333 0.0
0.4667 -3.3333 0.0
0.5333 -3.3333 0.0
0.6 -3.3333 0.0
0.6667 -3.3333 0.0
0.7333 -3.3333 0.0
0.8 -3.3333 0.0
0.8667 -3.3333 0.0
0.9333 -3.3333 0.0
1 -3.3333 0.0
1.1788 -3.3333 0.0
1.3895 -3.3333 0.0
1.6379 -3.3333 0.0
1.9307 -3.3333 0.0
2.2758 -3.3333 0.0
2.6827 -3.3333 0.0
3.1623 -3.3333 0.0
3.7276 -3.3333 0.0
4.394 -3.3333 0.0
5.1795 -3.3333 0.0
6.1054 -3.3333 0.0
7.1969 -3.3333 0.0
8.4834 -3.3333 0.0
10 -3.3333 0.0
0 -3.3778 0.0
0.0333 -3.3778 0.0
0.0667 -3.3778 0.0
0.1 -3.3778 0.0
0.1333 -3.3778 0.0
0.1667 -3.3778 0.0
0.2 -3.3778 0.0
0.2333 -3.3778 0.0
0.2667 -3.3778 0.0
0.3 -3.3778 0.0
0.3333 -3.3778 0.0
0.3667 -3.3778 0.0
0.4 -3.3778 0.0
0.4333 -3.3778 0.0
0.4667 -3.3778 0.0
0.5 -3.3778 0.0
0.5333 -3.3778 0.0
0.5667 -3.3778 0.0
0.6 -3.3778 0.0
0.6333 -3.3778 0.0
0.6667 -3.3778 0.0
0.7 -3.3778 0.0
0.7333 -3.3778 0.0
0.7667 -3.3778 0.0
0.8 -3.3778 0.0
0.8333 -3.3778 0.0
0.8667 -3.3778 0.0
0.9 -3.3778 0.0
0.9333 -3.3778 0.0
0.9667 -3.3778 0.0
1 -3.3778 0.0
1.0894 -3.3778 0.0
1.1788 -3.3778 0.0
1.2841 -3.3778 0.0
1.3895 -3.3778 0.0
1.5137 -3.3778 0.0
1.6379 -3.3778 0.0
1.7843 -3.3778 0.0
1.9307 -3.3778 0.0
2.1033 -3.3778 0.0
2.2758 -3.3778 0.0
2.4793 -3.3778 0.0
2.6827 -3.3778 0.0
2.9225 -3.3778 0.0
3.1623 -3.3778 0.0
3.4449 -3.3778 0.0
3.7276 -3.3778 0.0
4.0608 -3.3778 0.0
4.394 -3.3778 0.0
4.7867 -3.3778 0.0
5.1795 -3.3778 0.0
5.6424 -3.3778 0.0
6.1054 -3.3778 0.0
6.6511 -3.3778 0.0
7.1969 -3.3778 0.0
7.8401 -3.3778 0.0
8.4834 -3.3778 0.0
9.2417 -3.3778 0.0
10 -3.3778 0.0
0 -3.4222 0.0
0.0667 -3.4222 0.0
0.1333 -3.4222 0.0
0.2 -3.4222 0.0
0.2667 -3.4222 0.0
0.3333 -3.4222 0.0
0.4 -3.4222 0.0
0.4667 -3.4222 0.0
0.5333 -3.4222 0.0
0.6 -3.4222 0.0
0.6667 -3.4222 0.0
0.7333 -3.4222 0.0
0.8 -3.4222 0.0
0.8667 -3.4222 0.0
0.9333 -3.4222 0.0
1 -3.4222 0.0
1.1788 -3.4222 0.0
1.3895 -3.4222 0.0
1.6379 -3.4222 0.0
1.9307 -3.4222 0.0
2.2758 -3.4222 0.0
2.6827 -3.4222 0.0
3.1623 -3.4222 0.0
3.7276 -3.4222 0.0
4.394 -3.4222 0.0
5.1795 -3.4222 0.0
6.1054 -3.4222 0.0
7.1969 -3.4222 0.0
8.4834 -3.4222 0.0
10 -3.4222 0.0
0 -3.4667 0.0
0.0333 -3.4667 0.0
0.0667 -3.4667 0.0
0.1 -3.4667 0.0
0.1333 -3.4667 0.0
0.1667 -3.4667 0.0
0.2 -3.4667 0.0
0.2333 -3.4667 0.0
0.2667 -3.4667 0.0
0.3 -3.4667 0.0
0.3333 -3.4667 0.0
0.3667 -3.4667 0.0
0.4 -3.4667 0.0
0.4333 -3.4667 0.0
0.4667 -3.4667 0.0
0.5 -3.4667 0.0
0.5333 -3.4667 0.0
0.5667 -3.4667 0.0
0.6 -3.4667 0.0
0.6333 -3.4667 0.0
0.6667 -3.4667 0.0
0.7 -3.4667 0.0
0.7333 -3.4667 0.0
0.7667 -3.4667 0.0
0.8 -3.4667 0.0
0.8333 -3.4667 0.0
0.8667 -3.4667 0.0
0.9 -3.4667 0.0
0.9333 -3.4667 0.0
0.9667 -3.4667 0.0
1 -3.4667 0.0
1.0894 -3.4667 0.0
1.1788 -3.4667 0.0
1.2841 -3.4667 0.0
1.3895 -3.4667 0.0
1.5137 -3.4667 0.0
1.6379 -3.4667 0.0
1.7843 -3.4667 0.0
1.9307 -3.4667 0.0
2.1033 -3.4667 0.0
2.2758 -3.4667 0.0
2.4793 -3.4667 0.0
2.6827 -3.4667 0.0
2.9225 -3.4667 0.0
3.1623 -3.4667 0.0
3.4449 -3.4667 0.0
3.7276 -3.4667 0.0
4.0608 -3.4667 0.0
4.394 -3.4667 0.0
4.7867 -3.4667 0.0
5.1795 -3.4667 0.0
5.6424 -3.4667 0.0
6.1054 -3.4667 0.0
6.6511 -3.4667 0.0
7.1969 -3.4667 0.0
7.8401 -3.4667 0.0
8.4834 -3.4667 0.0
9.2417 -3.4667 0.0
10 -3.4667 0.0
0 -3.5111 0.0
0.0667 -3.5111 0.0
0.1333 -3.5111 0.0
0.2 -3.5111 0.0
0.2667 -3.5111 0.0
0.3333 -3.5111 0.0
0.4 -3.5111 0.0
0.4667 -3.5111 0.0
0.5333 -3.5111 0.0
0.6 -3.5111 0.0
0.6667 -3.5111 0.0
0.7333 -3.5111 0.0
0.8 -3.5111 0.0
0.8667 -3.5111 0.0
0.9333 -3.5111 0.0
1 -3.5111 0.0
1.1788 -3.5111 0.0
1.3895 -3.5111 0.0
1.6379 -3.5111 0.0
1.9307 -3.5111 0.0
2.2758 -3.5111 0.0
2.6827 -3.5111 0.0
3.1623 -3.5111 0.0
3.7276 -3.5111 0.0
4.394 -3.5111 0.0
5.1795 -3.5111 0.0
6.1054 -3.5111 0.0
7.1969 -3.5111 0.0
8.4834 -3.5111 0.0
10 -3.5111 0.0
0 -3.5556 0.0
0.0333 -3.5556 0.0
0.0667 -3.5556 0.0
0.1 -3.5556 0.0
0.1333 -3.5556 0.0
0.1667 -3.5556 0.0
0.2 -3.5556 0.0
0.2333 -3.5556 0.0
0.2667 -3.5556 0.0
0.3 -3.5556 0.0
0.3333 -3.5556 0.0
0.3667 -3.5556 0.0
0.4 -3.5556 0.0
0.4333 -3.5556 0.0
0.4667 -3.5556 0.0
0.5 -3.5556 0.0
0.5333 -3.5556 0.0
0.5667 -3.5556 0.0
0.6 -3.5556 0.0
0.6333 -3.5556 0.0
0.6667 -3.5556 0.0
0.7 -3.5556 0.0
0.7333 -3.5556 0.0
0.7667 -3.5556 0.0
0.8 -3.5556 0.0
0.8333 -3.5556 0.0
0.8667 -3.5556 0.0
0.9 -3.5556 0.0
0.9333 -3.5556 0.0
0.9667 -3.5556 0.0
1 -3.5556 0.0
1.0894 -3.5556 0.0
1.1788 -3.5556 0.0
1.2841 -3.5556 0.0
1.3895 -3.5556 0.0
1.5137 -3.5556 0.0
1.6379 -3.5556 0.0
1.7843 -3.5556 0.0
1.9307 -3.5556 0.0
2.1033 -3.5556 0.0
2.2758 -3.5556 0.0
2.4793 -3.5556 0.0
2.6827 -3.5556 0.0
2.9225 -3.5556 0.0
3.1623 -3.5556 0.0
3.4449 -3.5556 0.0
3.7276 -3.5556 0.0
4.0608 -3.5556 0.0
4.394 -3.5556 0.0
4.7867 -3.5556 0.0
5.1795 -3.5556 0.0
5.6424 -3.5556 0.0
6.1054 -3.5556 0.0
6.6511 -3.5556 0.0
7.1969 -3.5556 0.0
7.8401 -3.5556 0.0
8.4834 -3.5556 0.0
9.2417 -3.5556 0.0
10 -3.5556 0.0
0 -3.6 0.0
0.0667 -3.6 0.0
0.1333 -3.6 0.0
0.2 -3.6 0.0
0.2667 -3.6 0.0
0.3333 -3.6 0.0
0.4 -3.6 0.0
0.4667 -3.6 0.0
0.5333 -3.6 0.0
0.6 -3.6 0.0
0.6667 -3.6 0.0
0.7333 -3.6 0.0
0.8 -3.6 0.0
0.8667 -3.6 0.0
0.9333 -3.6 0.0
1 -3.6 0.0
1.1788 -3.6 0.0
1.3895 -3.6 0.0
1.6379 -3.6 0.0
1.9307 -3.6 0.0
2.2758 -3.6 0.0
2.6827 -3.6 0.0
3.1623 -3.6 0.0
3.7276 -3.6 0.0
4.394 -3.6 0.0
5.1795 -3.6 0.0
6.1054 -3.6 0.0
7.1969 -3.6 0.0
8.4834 -3.6 0.0
10 -3.6 0.0
0 -3.6444 0.0
0.0333 -3.6444 0.0
0.0667 -3.6444 0.0
0.1 -3.6444 0.0
0.1333 -3.6444 0.0
0.1667 -3.6444 0.0
0.2 -3.6444 0.0
0.2333 -3.6444 0.0
0.2667 -3.6444 0.0
0.3 -3.6444 0.0
0.3333 -3.6444 0.0
0.3667 -3.6444 0.0
0.4 -3.6444 0.0
0.4333 -3.6444 0.0
0.4667 -3.6444 0.0
0.5 -3.6444 0.0
0.5333 -3.6444 0.0
0.5667 -3.6444 0.0
0.6 -3.6444 0.0
0.6333 -3.6444 0.0
0.6667 -3.6444 0.0
0.7 -3.6444 0.0
0.7333 -3.6444 0.0
0.7667 -3.6444 0.0
0.8 -3.6444 0.0
0.8333 -3.6444 0.0
0.8667 -3.6444 0.0
0.9 -3.6444 0.0
0.9333 -3.6444 0.0
0.9667 -3.6444 0.0
1 -3.6444 0.0
1.0894 -3.6444 0.0
1.1788 -3.6444 0.0
1.2841 -3.6444 0.0
1.3895 -3.6444 0.0
1.5137 -3.6444 0.0
1.6379 -3.6444 0.0
1.7843 -3.6444 0.0
1.9307 -3.6444 0.0
2.1033 -3.6444 0.0
2.2758 -3.6444 0.0
2.4793 -3.6444 0.0
2.6827 -3.6444 0.0
2.9225 -3.6444 0.0
3.1623 -3.6444 0.0
3.4449 -3.6444 0.0
3.7276 -3.6444 0.0
4.0608 -3.6444 0.0
4.394 -3.6444 0.0
4.7867 -3.6444 0.0
5.1795 -3.6444 0.0
5.6424 -3.6444 0.0
6.1054 -3.6444 0.0
6.6511 -3.6444 0.0
7.1969 -3.6444 0.0
7.8401 -3.6444 0.0
8.4834 -3.6444 0.0
9.2417 -3.6444 0.0
10 -3.6444 0.0
0 -3.6889 0.0
0.0667 -3.6889 0.0
0.1333 -3.6889 0.0
0.2 -3.6889 0.0
0.2667 -3.6889 0.0
0.3333 -3.6889 0.0
0.4 -3.6889 0.0
0.4667 -3.6889 0.0
0.5333 -3.6889 0.0
0.6 -3.6889 0.0
0.6667 -3.6889 0.0
0.7333 -3.6889 0.0
0.8 -3.6889 0.0
0.8667 -3.6889 0.0
0.9333 -3.6889 0.0
1 -3.6889 0.0
1.1788 -3.6889 0.0
1.3895 -3.6889 0.0
1.6379 -3.6889 0.0
1.9307 -3.6889 0.0
2.2758 -3.6889 0.0
2.6827 -3.6889 0.0
3.1623 -3.6889 0.0
3.7276 -3.6889 0.0
4.394 -3.6889 0.0
5.1795 -3.6889 0.0
6.1054 -3.6889 0.0
7.1969 -3.6889 0.0
8.4834 -3.6889 0.0
10 -3.6889 0.0
0 -3.7333 0.0
0.0333 -3.7333 0.0
0.0667 -3.7333 0.0
0.1 -3.7333 0.0
0.1333 -3.7333 0.0
0.1667 -3.7333 0.0
0.2 -3.7333 0.0
0.2333 -3.7333 0.0
0.2667 -3.7333 0.0
0.3 -3.7333 0.0
0.3333 -3.7333 0.0
0.3667 -3.7333 0.0
0.4 -3.7333 0.0
0.4333 -3.7333 0.0
0.4667 -3.7333 0.0
0.5 -3.7333 0.0
0.5333 -3.7333 0.0
0.5667 -3.7333 0.0
0.6 -3.7333 0.0
0.6333 -3.7333 0.0
0.6667 -3.7333 0.0
0.7 -3.7333 0.0
0.7333 -3.7333 0.0
0.7667 -3.7333 0.0
0.8 -3.7333 0.0
0.8333 -3.7333 0.0
0.8667 -3.7333 0.0
0.9 -3.7333 0.0
0.9333 -3.7333 0.0
0.9667 -3.7333 0.0
1 -3.7333 0.0
1.0894 -3.7333 0.0
1.1788 -3.7333 0.0
1.2841 -3.7333 0.0
1.3895 -3.7333 0.0
1.5137 -3.7333 0.0
1.6379 -3.7333 0.0
1.7843 -3.7333 0.0
1.9307 -3.7333 0.0
2.1033 -3.7333 0.0
2.2758 -3.7333 0.0
2.4793 -3.7333 0.0
2.6827 -3.7333 0.0
2.9225 -3.7333 0.0
3.1623 -3.7333 0.0
3.4449 -3.7333 0.0
3.7276 -3.7333 0.0
4.0608 -3.7333 0.0
4.394 -3.7333 0.0
4.7867 -3.7333 0.0
5.1795 -3.7333 0.0
5.6424 -3.7333 0.0
6.1054 -3.7333 0.0
6.6511 -3.7333 0.0
7.1969 -3.7333 0.0
7.8401 -3.7333 0.0
8.4834 -3.7333 0.0
9.2417 -3.7333 0.0
10 -3.7333 0.0
0 -3.7778 0.0
0.0667 -3.7778 0.0
0.1333 -3.7778 0.0
0.2 -3.7778 0.0
0.2667 -3.7778 0.0
0.3333 -3.7778 0.0
0.4 -3.7778 0.0
0.4667 -3.7778 0.0
0.5333 -3.7778 0.0
0.6 -3.7778 0.0
0.6667 -3.7778 0.0
0.7333 -3.7778 0.0
0.8 -3.7778 0.0
0.8667 -3.7778 0.0
0.9333 -3.7778 0.0
1 -3.7778 0.0
1.1788 -3.7778 0.0
1.3895 -3.7778 0.0
1.6379 -3.7778 0.0
1.9307 -3.7778 0.0
2.2758 -3.7778 0.0
2.6827 -3.7778 0.0
3.1623 -3.7778 0.0
3.7276 -3.7778 0.0
4.394 -3.7778 0.0
5.1795 -3.7778 0.0
6.1054 -3.7778 0.0
7.1969 -3.7778 0.0
8.4834 -3.7778 0.0
10 -3.7778 0.0
0 -3.8222 0.0
0.0333 -3.8222 0.0
0.0667 -3.8222 0.0
0.1 -3.8222 0.0
0.1333 -3.8222 0.0
0.1667 -3.8222 0.0
0.2 -3.8222 0.0
0.2333 -3.8222 0.0
0.2667 -3.8222 0.0
0.3 -3.8222 0.0
0.3333 -3.8222 0.0
0.3667 -3.8222 0.0
0.4 -3.8222 0.0
0.4333 -3.8222 0.0
0.4667 -3.8222 0.0
0.5 -3.8222 0.0
0.5333 -3.8222 0.0
0.5667 -3.8222 0.0
0.6 -3.8222 0.0
0.6333 -3.8222 0.0
0.6667 -3.8222 0.0
0.7 -3.8222 0.0
0.7333 -3.8222 0.0
0.7667 -3.8222 0.0
0.8 -3.8222 0.0
0.8333 -3.8222 0.0
0.8667 -3.8222 0.0
0.9 -3.8222 0.0
0.9333 -3.8222 0.0
0.9667 -3.8222 0.0
1 -3.8222 0.0
1.0894 -3.8222 0.0
1.1788 -3.8222 0.0
1.2841 -3.8222 0.0
1.3895 -3.8222 0.0
1.5137 -3.8222 0.0
1.6379 -3.8222 0.0
1.7843 -3.8222 0.0
1.9307 -3.8222 0.0
2.1033 -3.8222 0.0
2.2758 -3.8222 0.0
2.4793 -3.8222 0.0
2.6827 -3.8222 0.0
2.9225 -3.8222 0.0
3.1623 -3.8222 0.0
3.4449 -3.8222 0.0
3.7276 -3.8222 0.0
4.0608 -3.8222 0.0
4.394 -3.8222 0.0
4.7867 -3.8222 0.0
5.1795 -3.8222 0.0
5.6424 -3.8222 0.0
6.1054 -3.8222 0.0
6.6511 -3.8222 0.0
7.1969 -3.8222 0.0
7.8401 -3.8222 0.0
8.4834 -3.8222 0.0
9.2417 -3.8222 0.0
10 -3.8222 0.0
0 -3.8667 0.0
0.0667 -3.8667 0.0
0.1333 -3.8667 0.0
0.2 -3.8667 0.0
0.2667 -3.8667 0.0
0.3333 -3.8667 0.0
0.4 -3.8667 0.0
0.4667 -3.8667 0.0
0.5333 -3.8667 0.0
0.6 -3.8667 0.0
0.6667 -3.8667 0.0
0.7333 -3.8667 0.0
0.8 -3.8667 0.0
0.8667 -3.8667 0.0
0.9333 -3.8667 0.0
1 -3.8667 0.0
1.1788 -3.8667 0.0
1.3895 -3.8667 0.0
1.6379 -3.8667 0.0
1.9307 -3.8667 0.0
2.2758 -3.8667 0.0
2.6827 -3.8667 0.0
3.1623 -3.8667 0.0
3.7276 -3.8667 0.0
4.394 -3.8667 0.0
5.1795 -3.8667 0.0
6.1054 -3.8667 0.0
7.1969 -3.8667 0.0
8.4834 -3.8667 0.0
10 -3.8667 0.0
0 -3.9111 0.0
0.0333 -3.9111 0.0
0.0667 -3.9111 0.0
0.1 -3.9111 0.0
0.1333 -3.9111 0.0
0.1667 -3.9111 0.0
0.2 -3.9111 0.0
0.2333 -3.9111 0.0
0.2667 -3.9111 0.0
0.3 -3.9111 0.0
0.3333 -3.9111 0.0
0.3667 -3.9111 0.0
0.4 -3.9111 0.0
0.4333 -3.9111 0.0
0.4667 -3.9111 0.0
0.5 -3.9111 0.0
0.5333 -3.9111 0.0
0.5667 -3.9111 0.0
0.6 -3.9111 0.0
0.6333 -3.9111 0.0
0.6667 -3.9111 0.0
0.7 -3.9111 0.0
0.7333 -3.9111 0.0
0.7667 -3.9111 0.0
0.8 -3.9111 0.0
0.8333 -3.9111 0.0
0.8667 -3.9111 0.0
0.9 -3.9111 0.0
0.9333 -3.9111 0.0
0.9667 -3.9111 0.0
1 -3.9111 0.0
1.0894 -3.9111 0.0
1.1788 -3.9111 0.0
1.2841 -3.9111 0.0
1.3895 -3.9111 0.0
1.5137 -3.9111 0.0
1.6379 -3.9111 0.0
1.7843 -3.9111 0.0
1.9307 -3.9111 0.0
2.1033 -3.9111 0.0
2.2758 -3.9111 0.0
2.4793 -3.9111 0.0
2.6827 -3.9111 0.0
2.9225 -3.9111 0.0
3.1623 -3.9111 0.0
3.4449 -3.9111 0.0
3.7276 -3.9111 0.0
4.0608 -3.9111 0.0
4.394 -3.9111 0.0
4.7867 -3.9111 0.0
5.1795 -3.9111 0.0
5.6424 -3.9111 0.0
6.1054 -3.9111 0.0
6.6511 -3.9111 0.0
7.1969 -3.9111 0.0
7.8401 -3.9111 0.0
8.4834 -3.9111 0.0
9.2417 -3.9111 0.0
10 -3.9111 0.0
0 -3.9556 0.0
0.0667 -3.9556 0.0
0.1333 -3.9556 0.0
0.2 -3.9556 0.0
0.2667 -3.9556 0.0
0.3333 -3.9556 0.0
0.4 -3.9556 0.0
0.4667 -3.9556 0.0
0.5333 -3.9556 0.0
0.6 -3.9556 0.0
0.6667 -3.9556 0.0
0.7333 -3.9556 0.0
0.8 -3.9556 0.0
0.8667 -3.9556 0.0
0.9333 -3.9556 0.0
1 -3.9556 0.0
1.1788 -3.9556 0.0
1.3895 -3.9556 0.0
1.6379 -3.9556 0.0
1.9307 -3.9556 0.0
2.2758 -3.9556 0.0
2.6827 -3.9556 0.0
3.1623 -3.9556 0.0
3.7276 -3.9556 0.0
4.394 -3.9556 0.0
5.1795 -3.9556 0.0
6.1054 -3.9556 0.0
7.1969 -3.9556 0.0
8.4834 -3.9556 0.0
10 -3.9556 0.0
0 -4 0.0
0.0333 -4 0.0
0.0667 -4 0.0
0.1 -4 0.0
0.1333 -4 0.0
0.1667 -4 0.0
0.2 -4 0.0
0.2333 -4 0.0
0.2667 -4 0.0
0.3 -4 0.0
0.3333 -4 0.0
0.3667 -4 0.0
0.4 -4 0.0
0.4333 -4 0.0
0.4667 -4 0.0
0.5 -4 0.0
0.5333 -4 0.0
0.5667 -4 0.0
0.6 -4 0.0
0.6333 -4 0.0
0.6667 -4 0.0
0.7 -4 0.0
0.7333 -4 0.0
0.7667 -4 0.0
0.8 -4 0.0
0.8333 -4 0.0
0.8667 -4 0.0
0.9 -4 0.0
0.9333 -4 0.0
0.9667 -4 0.0
1 -4 0.0
1.0894 -4 0.0
1.1788 -4 0.0
1.2841 -4 0.0
1.3895 -4 0.0
1.5137 -4 0.0
1.6379 -4 0.0
1.7843 -4 0.0
1.9307 -4 0.0
2.1033 -4 0.0
2.2758 -4 0.0
2.4793 -4 0.0
2.6827 -4 0.0
2.9225 -4 0.0
3.1623 -4 0.0
3.4449 -4 0.0
3.7276 -4 0.0
4.0608 -4 0.0
4.394 -4 0.0
4.7867 -4 0.0
5.1795 -4 0.0
5.6424 -4 0.0
6.1054 -4 0.0
6.6511 -4 0.0
7.1969 -4 0.0
7.8401 -4 0.0
8.4834 -4 0.0
9.2417 -4 0.0
10 -4 0.0
0 -4.0667 0.0
0.0667 -4.0667 0.0
0.1333 -4.0667 0.0
0.2 -4.0667 0.0
0.2667 -4.0667 0.0
0.3333 -4.0667 0.0
0.4 -4.0667 0.0
0.4667 -4.0667 0.0
0.5333 -4.0667 0.0
0.6 -4.0667 0.0
0.6667 -4.0667 0.0
0.7333 -4.0667 0.0
0.8 -4.0667 0.0
0.8667 -4.0667 0.0
0.9333 -4.0667 0.0
1 -4.0667 0.0
1.1788 -4.0667 0.0
1.3895 -4.0667 0.0
1.6379 -4.0667 0.0
1.9307 -4.0667 0.0
2.2758 -4.0667 0.0
2.6827 -4.0667 0.0
3.1623 -4.0667 0.0
3.7276 -4.0667 0.0
4.394 -4.0667 0.0
5.1795 -4.0667 0.0
6.1054 -4.0667 0.0
7.1969 -4.0667 0.0
8.4834 -4.0667 0.0
10 -4.0667 0.0
0 -4.1333 0.0
0.0333 -4.1333 0.0
0.0667 -4.1333 0.0
0.1 -4.1333 0.0
0.1333 -4.1333 0.0
0.1667 -4.1333 0.0
0.2 -4.1333 0.0
0.2333 -4.1333 0.0
0.2667 -4.1333 0.0
0.3 -4.1333 0.0
0.3333 -4.1333 0.0
0.3667 -4.1333 0.0
0.4 -4.1333 0.0
0.4333 -4.1333 0.0
0.4667 -4.1333 0.0
0.5 -4.1333 0.0
0.5333 -4.1333 0.0
0.5667 -4.1333 0.0
0.6 -4.1333 0.0
0.6333 -4.1333 0.0
0.6667 -4.1333 0.0
0.7 -4.1333 0.0
0.7333 -4.1333 0.0
0.7667 -4.1333 0.0
0.8 -4.1333 0.0
0.8333 -4.1333 0.0
0.8667 -4.1333 0.0
0.9 -4.1333 0.0
0.9333 -4.1333 0.0
0.9667 -4.1333 0.0
1 -4.1333 0.0
1.0894 -4.1333 0.0
1.1788 -4.1333 0.0
1.2841 -4.1333 0.0
1.3895 -4.1333 0.0
1.5137 -4.1333 0.0
1.6379 -4.1333 0.0
1.7843 -4.1333 0.0
1.9307 -4.1333 0.0
2.1033 -4.1333 0.0
2.2758 -4.1333 0.0
2.4793 -4.1333 0.0
2.6827 -4.1333 0.0
2.9225 -4.1333 0.0
3.1623 -4.1333 0.0
3.4449 -4.1333 0.0
3.7276 -4.1333 0.0
4.0608 -4.1333 0.0
4.394 -4.1333 0.0
4.7867 -4.1333 0.0
5.1795 -4.1333 0.0
5.6424 -4.1333 0.0
6.1054 -4.1333 0.0
6.6511 -4.1333 0.0
7.1969 -4.1333 0.0
7.8401 -4.1333 0.0
8.4834 -4.1333 0.0
9.2417 -4.1333 0.0
10 -4.1333 0.0
0 -4.2 0.0
0.0667 -4.2 0.0
0.1333 -4.2 0.0
0.2 -4.2 0.0
0.2667 -4.2 0.0
0.3333 -4.2 0.0
0.4 -4.2 0.0
0.4667 -4.2 0.0
0.5333 -4.2 0.0
0.6 -4.2 0.0
0.6667 -4.2 0.0
0.7333 -4.2 0.0
0.8 -4.2 0.0
0.8667 -4.2 0.0
0.9333 -4.2 0.0
1 -4.2 0.0
1.1788 -4.2 0.0
1.3895 -4.2 0.0
1.6379 -4.2 0.0
1.9307 -4.2 0.0
2.2758 -4.2 0.0
2.6827 -4.2 0.0
3.1623 -4.2 0.0
3.7276 -4.2 0.0
4.394 -4.2 0.0
5.1795 -4.2 0.0
6.1054 -4.2 0.0
7.1969 -4.2 0.0
8.4834 -4.2 0.0
10 -4.2 0.0
0 -4.2667 0.0
0.0333 -4.2667 0.0
0.0667 -4.2667 0.0
0.1 -4.2667 0.0
0.1333 -4.2667 0.0
0.1667 -4.2667 0.0
0.2 -4.2667 0.0
0.2333 -4.2667 0.0
0.2667 -4.2667 0.0
0.3 -4.2667 0.0
0.3333 -4.2667 0.0
0.3667 -4.2667 0.0
0.4 -4.2667 0.0
0.4333 -4.2667 0.0
0.4667 -4.2667 0.0
0.5 -4.2667 0.0
0.5333 -4.2667 0.0
0.5667 -4.2667 0.0
0.6 -4.2667 0.0
0.6333 -4.2667 0.0
0.6667 -4.2667 0.0
0.7 -4.2667 0.0
0.7333 -4.2667 0.0
0.7667 -4.2667 0.0
0.8 -4.2667 0.0
0.8333 -4.2667 0.0
0.8667 -4.2667 0.0
0.9 -4.2667 0.0
0.9333 -4.2667 0.0
0.9667 -4.2667 0.0
1 -4.2667 0.0
1.0894 -4.2667 0.0
1.1788 -4.2667 0.0
1.2841 -4.2667 0.0
1.3895 -4.2667 0.0
1.5137 -4.2667 0.0
1.6379 -4.2667 0.0
1.7843 -4.2667 0.0
1.9307 -4.2667 0.0
2.1033 -4.2667 0.0
2.2758 -4.2667 0.0
2.4793 -4.2667 0.0
2.6827 -4.2667 0.0
2.9225 -4.2667 0.0
3.1623 -4.2667 0.0
3.4449 -4.2667 0.0
3.7276 -4.2667 0.0
4.0608 -4.2667 0.0
4.394 -4.2667 0.0
4.7867 -4.2667 0.0
5.1795 -4.2667 0.0
5.6424 -4.2667 0.0
6.1054 -4.2667 0.0
6.6511 -4.2667 0.0
7.1969 -4.2667 0.0
7.8401 -4.2667 0.0
8.4834 -4.2667 0.0
9.2417 -4.2667 0.0
10 -4.2667 0.0
0 -4.3333 0.0
0.0667 -4.3333 0.0
0.1333 -4.3333 0.0
0.2 -4.3333 0.0
0.2667 -4.3333 0.0
0.3333 -4.3333 0.0
0.4 -4.3333 0.0
0.4667 -4.3333 0.0
0.5333 -4.3333 0.0
0.6 -4.3333 0.0
0.6667 -4.3333 0.0
0.7333 -4.3333 0.0
0.8 -4.3333 0.0
0.8667 -4.3333 0.0
0.9333 -4.3333 0.0
1 -4.3333 0.0
1.1788 -4.3333 0.0
1.3895 -4.3333 0.0
1.6379 -4.3333 0.0
1.9307 -4.3333 0.0
2.2758 -4.3333 0.0
2.6827 -4.3333 0.0
3.1623 -4.3333 0.0
3.7276 -4.3333 0.0
4.394 -4.3333 0.0
5.1795 -4.3333 0.0
6.1054 -4.3333 0.0
7.1969 -4.3333 0.0
8.4834 -4.3333 0.0
10 -4.3333 0.0
0 -4.4 0.0
0.0333 -4.4 0.0
0.0667 -4.4 0.0
0.1 -4.4 0.0
0.1333 -4.4 0.0
0.1667 -4.4 0.0
0.2 -4.4 0.0
0.2333 -4.4 0.0
0.2667 -4.4 0.0
0.3 -4.4 0.0
0.3333 -4.4 0.0
0.3667 -4.4 0.0
0.4 -4.4 0.0
0.4333 -4.4 0.0
0.4667 -4.4 0.0
0.5 -4.4 0.0
0.5333 -4.4 0.0
0.5667 -4.4 0.0
0.6 -4.4 0.0
0.6333 -4.4 0.0
0.6667 -4.4 0.0
0.7 -4.4 0.0
0.7333 -4.4 0.0
0.7667 -4.4 0.0
0.8 -4.4 0.0
0.8333 -4.4 0.0
0.8667 -4.4 0.0
0.9 -4.4 0.0
0.9333 -4.4 0.0
0.9667 -4.4 0.0
1 -4.4 0.0
1.0894 -4.4 0.0
1.1788 -4.4 0.0
1.2841 -4.4 0.0
1.3895 -4.4 0.0
1.5137 -4.4 0.0
1.6379 -4.4 0.0
1.7843 -4.4 0.0
1.9307 -4.4 0.0
2.1033 -4.4 0.0
2.2758 -4.4 0.0
2.4793 -4.4 0.0
2.6827 -4.4 0.0
2.9225 -4.4 0.0
3.1623 -4.4 0.0
3.4449 -4.4 0.0
3.7276 -4.4 0.0
4.0608 -4.4 0.0
4.394 -4.4 0.0
4.7867 -4.4 0.0
5.1795 -4.4 0.0
5.6424 -4.4 0.0
6.1054 -4.4 0.0
6.6511 -4.4 0.0
7.1969 -4.4 0.0
7.8401 -4.4 0.0
8.4834 -4.4 0.0
9.2417 -4.4 0.0
10 -4.4 0.0
0 -4.4667 0.0
0.0667 -4.4667 0.0
0.1333 -4.4667 0.0
0.2 -4.4667 0.0
0.2667 -4.4667 0.0
0.3333 -4.4667 0.0
0.4 -4.4667 0.0
0.4667 -4.4667 0.0
0.5333 -4.4667 0.0
0.6 -4.4667 0.0
0.6667 -4.4667 0.0
0.7333 -4.4667 0.0
0.8 -4.4667 0.0
0.8667 -4.4667 0.0
0.9333 -4.4667 0.0
1 -4.4667 0.0
1.1788 -4.4667 0.0
1.3895 -4.4667 0.0
1.6379 -4.4667 0.0
1.9307 -4.4667 0.0
2.2758 -4.4667 0.0
2.6827 -4.4667 0.0
3.1623 -4.4667 0.0
3.7276 -4.4667 0.0
4.394 -4.4667 0.0
5.1795 -4.4667 0.0
6.1054 -4.4667 0.0
7.1969 -4.4667 0.0
8.4834 -4.4667 0.0
10 -4.4667 0.0
0 -4.5333 0.0
0.0333 -4.5333 0.0
0.0667 -4.5333 0.0
0.1 -4.5333 0.0
0.1333 -4.5333 0.0
0.1667 -4.5333 0.0
0.2 -4.5333 0.0
0.2333 -4.5333 0.0
0.2667 -4.5333 0.0
0.3 -4.5333 0.0
0.3333 -4.5333 0.0
0.3667 -4.5333 0.0
0.4 -4.5333 0.0
0.4333 -4.5333 0.0
0.4667 -4.5333 0.0
0.5 -4.5333 0.0
0.5333 -4.5333 0.0
0.5667 -4.5333 0.0
0.6 -4.5333 0.0
0.6333 -4.5333 0.0
0.6667 -4.5333 0.0
0.7 -4.5333 0.0
0.7333 -4.5333 0.0
0.7667 -4.5333 0.0
0.8 -4.5333 0.0
0.8333 -4.5333 0.0
0.8667 -4.5333 0.0
0.9 -4.5333 0.0
0.9333 -4.5333 0.0
0.9667 -4.5333 0.0
1 -4.5333 0.0
1.0894 -4.5333 0.0
1.1788 -4.5333 0.0
1.2841 -4.5333 0.0
1.3895 -4.5333 0.0
1.5137 -4.5333 0.0
1.6379 -4.5333 0.0
1.7843 -4.5333 0.0
1.9307 -4.5333 0.0
2.1033 -4.5333 0.0
2.2758 -4.5333 0.0
2.4793 -4.5333 0.0
2.6827 -4.5333 0.0
2.9225 -4.5333 0.0
3.1623 -4.5333 0.0
3.4449 -4.5333 0.0
3.7276 -4.5333 0.0
4.0608 -4.5333 0.0
4.394 -4.5333 0.0
4.7867 -4.5333 0.0
5.1795 -4.5333 0.0
5.6424 -4.5333 0.0
6.1054 -4.5333 0.0
6.6511 -4.5333 0.0
7.1969 -4.5333 0.0
7.8401 -4.5333 0.0
8.4834 -4.5333 0.0
9.2417 -4.5333 0.0
10 -4.5333 0.0
0 -4.6 0.0
0.0667 -4.6 0.0
0.1333 -4.6 0.0
0.2 -4.6 0.0
0.2667 -4.6 0.0
0.3333 -4.6 0.0
0.4 -4.6 0.0
0.4667 -4.6 0.0
0.5333 -4.6 0.0
0.6 -4.6 0.0
0.6667 -4.6 0.0
0.7333 -4.6 0.0
0.8 -4.6 0.0
0.8667 -4.6 0.0
0.9333 -4.6 0.0
1 -4.6 0.0
1.1788 -4.6 0.0
1.3895 -4.6 0.0
1.6379 -4.6 0.0
1.9307 -4.6 0.0
2.2758 -4.6 0.0
2.6827 -4.6 0.0
3.1623 -4.6 0.0
3.7276 -4.6 0.0
4.394 -4.6 0.0
5.1795 -4.6 0.0
6.1054 -4.6 0.0
7.1969 -4.6 0.0
8.4834 -4.6 0.0
10 -4.6 0.0
0 -4.6667 0.0
0.0333 -4.6667 0.0
0.0667 -4.6667 0.0
0.1 -4.6667 0.0
0.1333 -4.6667 0.0
0.1667 -4.6667 0.0
0.2 -4.6667 0.0
0.2333 -4.6667 0.0
0.2667 -4.6667 0.0
0.3 -4.6667 0.0
0.3333 -4.6667 0.0
0.3667 -4.6667 0.0
0.4 -4.6667 0.0
0.4333 -4.6667 0.0
0.4667 -4.6667 0.0
0.5 -4.6667 0.0
0.5333 -4.6667 0.0
0.5667 -4.6667 0.0
0.6 -4.6667 0.0
0.6333 -4.6667 0.0
0.6667 -4.6667 0.0
0.7 -4.6667 0.0
0.7333 -4.6667 0.0
0.7667 -4.6667 0.0
0.8 -4.6667 0.0
0.8333 -4.6667 0.0
0.8667 -4.6667 0.0
0.9 -4.6667 0.0
0.9333 -4.6667 0.0
0.9667 -4.6667 0.0
1 -4.6667 0.0
1.0894 -4.6667 0.0
1.1788 -4.6667 0.0
1.2841 -4.6667 0.0
1.3895 -4.6667 0.0
1.5137 -4.6667 0.0
1.6379 -4.6667 0.0
1.7843 -4.6667 0.0
1.9307 -4.6667 0.0
2.1033 -4.6667 0.0
2.2758 -4.6667 0.0
2.4793 -4.6667 0.0
2.6827 -4.6667 0.0
2.9225 -4.6667 0.0
3.1623 -4.6667 0.0
3.4449 -4.6667 0.0
3.7276 -4.6667 0.0
4.0608 -4.6667 0.0
4.394 -4.6667 0.0
4.7867 -4.6667 0.0
5.1795 -4.6667 0.0
5.6424 -4.6667 0.0
6.1054 -4.6667 0.0
6.6511 -4.6667 0.0
7.1969 -4.6667 0.0
7.8401 -4.6667 0.0
8.4834 -4.6667 0.0
9.2417 -4.6667 0.0
10 -4.6667 0.0
0 -4.7333 0.0
0.0667 -4.7333 0.0
0.1333 -4.7333 0.0
0.2 -4.7333 0.0
0.2667 -4.7333 0.0
0.3333 -4.7333 0.0
0.4 -4.7333 0.0
0.4667 -4.7333 0.0
0.5333 -4.7333 0.0
0.6 -4.7333 0.0
0.6667 -4.7333 0.0
0.7333 -4.7333 0.0
0.8 -4.7333 0.0
0.8667 -4.7333 0.0
0.9333 -4.7333 0.0
1 -4.7333 0.0
1.1788 -4.7333 0.0
1.3895 -4.7333 0.0
1.6379 -4.7333 0.0
1.9307 -4.7333 0.0
2.2758 -4.7333 0.0
2.6827 -4.7333 0.0
3.1623 -4.7333 0.0
3.7276 -4.7333 0.0
4.394 -4.7333 0.0
5.1795 -4.7333 0.0
6.1054 -4.7333 0.0
7.1969 -4.7333 0.0
8.4834 -4.7333 0.0
10 -4.7333 0.0
0 -4.8 0.0
0.0333 -4.8 0.0
0.0667 -4.8 0.0
0.1 -4.8 0.0
0.1333 -4.8 0.0
0.1667 -4.8 0.0
0.2 -4.8 0.0
0.2333 -4.8 0.0
0.2667 -4.8 0.0
0.3 -4.8 0.0
0.3333 -4.8 0.0
0.3667 -4.8 0.0
0.4 -4.8 0.0
0.4333 -4.8 0.0
0.4667 -4.8 0.0
0.5 -4.8 0.0
0.5333 -4.8 0.0
0.5667 -4.8 0.0
0.6 -4.8 0.0
0.6333 -4.8 0.0
0.6667 -4.8 0.0
0.7 -4.8 0.0
0.7333 -4.8 0.0
0.7667 -4.8 0.0
0.8 -4.8 0.0
0.8333 -4.8 0.0
0.8667 -4.8 0.0
0.9 -4.8 0.0
0.9333 -4.8 0.0
0.9667 -4.8 0.0
1 -4.8 0.0
1.0894 -4.8 0.0
1.1788 -4.8 0.0
1.2841 -4.8 0.0
1.3895 -4.8 0.0
1.5137 -4.8 0.0
1.6379 -4.8 0.0
1.7843 -4.8 0.0
1.9307 -4.8 0.0
2.1033 -4.8 0.0
2.2758 -4.8 0.0
2.4793 -4.8 0.0
2.6827 -4.8 0.0
2.9225 -4.8 0.0
3.1623 -4.8 0.0
3.4449 -4.8 0.0
3.7276 -4.8 0.0
4.0608 -4.8 0.0
4.394 -4.8 0.0
4.7867 -4.8 0.0
5.1795 -4.8 0.0
5.6424 -4.8 0.0
6.1054 -4.8 0.0
6.6511 -4.8 0.0
7.1969 -4.8 0.0
7.8401 -4.8 0.0
8.4834 -4.8 0.0
9.2417 -4.8 0.0
10 -4.8 0.0
0 -4.8667 0.0
0.0667 -4.8667 0.0
0.1333 -4.8667 0.0
0.2 -4.8667 0.0
0.2667 -4.8667 0.0
0.3333 -4.8667 0.0
0.4 -4.8667 0.0
0.4667 -4.8667 0.0
0.5333 -4.8667 0.0
0.6 -4.8667 0.0
0.6667 -4.8667 0.0
0.7333 -4.8667 0.0
0.8 -4.8667 0.0
0.8667 -4.8667 0.0
0.9333 -4.8667 0.0
1 -4.8667 0.0
1.1788 -4.8667 0.0
1.3895 -4.8667 0.0
1.6379 -4.8667 0.0
1.9307 -4.8667 0.0
2.2758 -4.8667 0.0
2.6827 -4.8667 0.0
3.1623 -4.8667 0.0
3.7276 -4.8667 0.0
4.394 -4.8667 0.0
5.1795 -4.8667 0.0
6.1054 -4.8667 0.0
7.1969 -4.8667 0.0
8.4834 -4.8667 0.0
10 -4.8667 0.0
0 -4.9333 0.0
0.0333 -4.9333 0.0
0.0667 -4.9333 0.0
0.1 -4.9333 0.0
0.1333 -4.9333 0.0
0.1667 -4.9333 0.0
0.2 -4.9333 0.0
0.2333 -4.9333 0.0
0.2667 -4.9333 0.0
0.3 -4.9333 0.0
0.3333 -4.9333 0.0
0.3667 -4.9333 0.0
0.4 -4.9333 0.0
0.4333 -4.9333 0.0
0.4667 -4.9333 0.0
0.5 -4.9333 0.0
0.5333 -4.9333 0.0
0.5667 -4.9333 0.0
0.6 -4.9333 0.0
0.6333 -4.9333 0.0
0.6667 -4.9333 0.0
0.7 -4.9333 0.0
0.7333 -4.9333 0.0
0.7667 -4.9333 0.0
0.8 -4.9333 0.0
0.8333 -4.9333 0.0
0.8667 -4.9333 0.0
0.9 -4.9333 0.0
0.9333 -4.9333 0.0
0.9667 -4.9333 0.0
1 -4.9333 0.0
1.0894 -4.9333 0.0
1.1788 -4.9333 0.0
1.2841 -4.9333 0.0
1.3895 -4.9333 0.0
1.5137 -4.9333 0.0
1.6379 -4.9333 0.0
1.7843 -4.9333 0.0
1.9307 -4.9333 0.0
2.1033 -4.9333 0.0
2.2758 -4.9333 0.0
2.4793 -4.9333 0.0
2.6827 -4.9333 0.0
2.9225 -4.9333 0.0
3.1623 -4.9333 0.0
3.4449 -4.9333 0.0
3.7276 -4.9333 0.0
4.0608 -4.9333 0.0
4.394 -4.9333 0.0
4.7867 -4.9333 0.0
5.1795 -4.9333 0.0
5.6424 -4.9333 0.0
6.1054 -4.9333 0.0
6.6511 -4.9333 0.0
7.1969 -4.9333 0.0
7.8401 -4.9333 0.0
8.4834 -4.9333 0.0
9.2417 -4.9333 0.0
10 -4.9333 0.0
0 -5 0.0
0.0667 -5 0.0
0.1333 -5 0.0
0.2 -5 0.0
0.2667 -5 0.0
0.3333 -5 0.0
0.4 -5 0.0
0.4667 -5 0.0
0.5333 -5 0.0
0.6 -5 0.0
0.6667 -5 0.0
0.7333 -5 0.0
0.8 -5 0.0
0.8667 -5 0.0
0.9333 -5 0.0
1 -5 0.0
1.1788 -5 0.0
1.3895 -5 0.0
1.6379 -5 0.0
1.9307 -5 0.0
2.2758 -5 0.0
2.6827 -5 0.0
3.1623 -5 0.0
3.7276 -5 0.0
4.394 -5 0.0
5.1795 -5 0.0
6.1054 -5 0.0
7.1969 -5 0.0
8.4834 -5 0.0
10 -5 0.0
0 -5.0667 0.0
0.0333 -5.0667 0.0
0.0667 -5.0667 0.0
0.1 -5.0667 0.0
0.1333 -5.0667 0.0
0.1667 -5.0667 0.0
0.2 -5.0667 0.0
0.2333 -5.0667 0.0
0.2667 -5.0667 0.0
0.3 -5.0667 0.0
0.3333 -5.0667 0.0
0.3667 -5.0667 0.0
0.4 -5.0667 0.0
0.4333 -5.0667 0.0
0.4667 -5.0667 0.0
0.5 -5.0667 0.0
0.5333 -5.0667 0.0
0.5667 -5.0667 0.0
0.6 -5.0667 0.0
0.6333 -5.0667 0.0
0.6667 -5.0667 0.0
0.7 -5.0667 0.0
0.7333 -5.0667 0.0
0.7667 -5.0667 0.0
0.8 -5.0667 0.0
0.8333 -5.0667 0.0
0.8667 -5.0667 0.0
0.9 -5.0667 0.0
0.9333 -5.0667 0.0
0.9667 -5.0667 0.0
1 -5.0667 0.0
1.0894 -5.0667 0.0
1.1788 -5.0667 0.0
1.2841 -5.0667 0.0
1.3895 -5.0667 0.0
1.5137 -5.0667 0.0
1.6379 -5.0667 0.0
1.7843 -5.0667 0.0
1.9307 -5.0667 0.0
2.1033 -5.0667 0.0
2.2758 -5.0667 0.0
2.4793 -5.0667 0.0
2.6827 -5.0667 0.0
2.9225 -5.0667 0.0
3.1623 -5.0667 0.0
3.4449 -5.0667 0.0
3.7276 -5.0667 0.0
4.0608 -5.0667 0.0
4.394 -5.0667 0.0
4.7867 -5.0667 0.0
5.1795 -5.0667 0.0
5.6424 -5.0667 0.0
6.1054 -5.0667 0.0
6.6511 -5.0667 0.0
7.1969 -5.0667 0.0
7.8401 -5.0667 0.0
8.4834 -5.0667 0.0
9.2417 -5.0667 0.0
10 -5.0667 0.0
0 -5.1333 0.0
0.0667 -5.1333 0.0
0.1333 -5.1333 0.0
0.2 -5.1333 0.0
0.2667 -5.1333 0.0
0.3333 -5.1333 0.0
0.4 -5.1333 0.0
0.4667 -5.1333 0.0
0.5333 -5.1333 0.0
0.6 -5.1333 0.0
0.6667 -5.1333 0.0
0.7333 -5.1333 0.0
0.8 -5.1333 0.0
0.8667 -5.1333 0.0
0.9333 -5.1333 0.0
1 -5.1333 0.0
1.1788 -5.1333 0.0
1.3895 -5.1333 0.0
1.6379 -5.1333 0.0
1.9307 -5.1333 0.0
2.2758 -5.1333 0.0
2.6827 -5.1333 0.0
3.1623 -5.1333 0.0
3.7276 -5.1333 0.0
4.394 -5.1333 0.0
5.1795 -5.1333 0.0
6.1054 -5.1333 0.0
7.1969 -5.1333 0.0
8.4834 -5.1333 0.0
10 -5.1333 0.0
0 -5.2 0.0
0.0333 -5.2 0.0
0.0667 -5.2 0.0
0.1 -5.2 0.0
0.1333 -5.2 0.0
0.1667 -5.2 0.0
0.2 -5.2 0.0
0.2333 -5.2 0.0
0.2667 -5.2 0.0
0.3 -5.2 0.0
0.3333 -5.2 0.0
0.3667 -5.2 0.0
0.4 -5.2 0.0
0.4333 -5.2 0.0
0.4667 -5.2 0.0
0.5 -5.2 0.0
0.5333 -5.2 0.0
0.5667 -5.2 0.0
0.6 -5.2 0.0
0.6333 -5.2 0.0
0.6667 -5.2 0.0
0.7 -5.2 0.0
0.7333 -5.2 0.0
0.7667 -5.2 0.0
0.8 -5.2 0.0
0.8333 -5.2 0.0
0.8667 -5.2 0.0
0.9 -5.2 0.0
0.9333 -5.2 0.0
0.9667 -5.2 0.0
1 -5.2 0.0
1.0894 -5.2 0.0
1.1788 -5.2 0.0
1.2841 -5.2 0.0
1.3895 -5.2 0.0
1.5137 -5.2 0.0
1.6379 -5.2 0.0
1.7843 -5.2 0.0
1.9307 -5.2 0.0
2.1033 -5.2 0.0
2.2758 -5.2 0.0
2.4793 -5.2 0.0
2.6827 -5.2 0.0
2.9225 -5.2 0.0
3.1623 -5.2 0.0
3.4449 -5.2 0.0
3.7276 -5.2 0.0
4.0608 -5.2 0.0
4.394 -5.2 0.0
4.7867 -5.2 0.0
5.1795 -5.2 0.0
5.6424 -5.2 0.0
6.1054 -5.2 0.0
6.6511 -5.2 0.0
7.1969 -5.2 0.0
7.8401 -5.2 0.0
8.4834 -5.2 0.0
9.2417 -5.2 0.0
10 -5.2 0.0
0 -5.2667 0.0
0.0667 -5.2667 0.0
0.1333 -5.2667 0.0
0.2 -5.2667 0.0
0.2667 -5.2667 0.0
0.3333 -5.2667 0.0
0.4 -5.2667 0.0
0.4667 -5.2667 0.0
0.5333 -5.2667 0.0
0.6 -5.2667 0.0
0.6667 -5.2667 0.0
0.7333 -5.2667 0.0
0.8 -5.2667 0.0
0.8667 -5.2667 0.0
0.9333 -5.2667 0.0
1 -5.2667 0.0
1.1788 -5.2667 0.0
1.3895 -5.2667 0.0
1.6379 -5.2667 0.0
1.9307 -5.2667 0.0
2.2758 -5.2667 0.0
2.6827 -5.2667 0.0
3.1623 -5.2667 0.0
3.7276 -5.2667 0.0
4.394 -5.2667 0.0
5.1795 -5.2667 0.0
6.1054 -5.2667 0.0
7.1969 -5.2667 0.0
8.4834 -5.2667 0.0
10 -5.2667 0.0
0 -5.3333 0.0
0.0333 -5.3333 0.0
0.0667 -5.3333 0.0
0.1 -5.3333 0.0
0.1333 -5.3333 0.0
0.1667 -5.3333 0.0
0.2 -5.3333 0.0
0.2333 -5.3333 0.0
0.2667 -5.3333 0.0
0.3 -5.3333 0.0
0.3333 -5.3333 0.0
0.3667 -5.3333 0.0
0.4 -5.3333 0.0
0.4333 -5.3333 0.0
0.4667 -5.3333 0.0
0.5 -5.3333 0.0
0.5333 -5.3333 0.0
0.5667 -5.3333 0.0
0.6 -5.3333 0.0
0.6333 -5.3333 0.0
0.6667 -5.3333 0.0
0.7 -5.3333 0.0
0.7333 -5.3333 0.0
0.7667 -5.3333 0.0
0.8 -5.3333 0.0
0.8333 -5.3333 0.0
0.8667 -5.3333 0.0
0.9 -5.3333 0.0
0.9333 -5.3333 0.0
0.9667 -5.3333 0.0
1 -5.3333 0.0
1.0894 -5.3333 0.0
1.1788 -5.3333 0.0
1.2841 -5.3333 0.0
1.3895 -5.3333 0.0
1.5137 -5.3333 0.0
1.6379 -5.3333 0.0
1.7843 -5.3333 0.0
1.9307 -5.3333 0.0
2.1033 -5.3333 0.0
2.2758 -5.3333 0.0
2.4793 -5.3333 0.0
2.6827 -5.3333 0.0
2.9225 -5.3333 0.0
3.1623 -5.3333 0.0
3.4449 -5.3333 0.0
3.7276 -5.3333 0.0
4.0608 -5.3333 0.0
4.394 -5.3333 0.0
4.7867 -5.3333 0.0
5.1795 -5.3333 0.0
5.6424 -5.3333 0.0
6.1054 -5.3333 0.0
6.6511 -5.3333 0.0
7.1969 -5.3333 0.0
7.8401 -5.3333 0.0
8.4834 -5.3333 0.0
9.2417 -5.3333 0.0
10 -5.3333 0.0
0 -5.4 0.0
0.0667 -5.4 0.0
0.1333 -5.4 0.0
0.2 -5.4 0.0
0.2667 -5.4 0.0
0.3333 -5.4 0.0
0.4 -5.4 0.0
0.4667 -5.4 0.0
0.5333 -5.4 0.0
0.6 -5.4 0.0
0.6667 -5.4 0.0
0.7333 -5.4 0.0
0.8 -5.4 0.0
0.8667 -5.4 0.0
0.9333 -5.4 0.0
1 -5.4 0.0
1.1788 -5.4 0.0
1.3895 -5.4 0.0
1.6379 -5.4 0.0
1.9307 -5.4 0.0
2.2758 -5.4 0.0
2.6827 -5.4 0.0
3.1623 -5.4 0.0
3.7276 -5.4 0.0
4.394 -5.4 0.0
5.1795 -5.4 0.0
6.1054 -5.4 0.0
7.1969 -5.4 0.0
8.4834 -5.4 0.0
10 -5.4 0.0
0 -5.4667 0.0
0.0333 -5.4667 0.0
0.0667 -5.4667 0.0
0.1 -5.4667 0.0
0.1333 -5.4667 0.0
0.1667 -5.4667 0.0
0.2 -5.4667 0.0
0.2333 -5.4667 0.0
0.2667 -5.4667 0.0
0.3 -5.4667 0.0
0.3333 -5.4667 0.0
0.3667 -5.4667 0.0
0.4 -5.4667 0.0
0.4333 -5.4667 0.0
0.4667 -5.4667 0.0
0.5 -5.4667 0.0
0.5333 -5.4667 0.0
0.5667 -5.4667 0.0
0.6 -5.4667 0.0
0.6333 -5.4667 0.0
0.6667 -5.4667 0.0
0.7 -5.4667 0.0
0.7333 -5.4667 0.0
0.7667 -5.4667 0.0
0.8 -5.4667 0.0
0.8333 -5.4667 0.0
0.8667 -5.4667 0.0
0.9 -5.4667 0.0
0.9333 -5.4667 0.0
0.9667 -5.4667 0.0
1 -5.4667 0.0
1.0894 -5.4667 0.0
1.1788 -5.4667 0.0
1.2841 -5.4667 0.0
1.3895 -5.4667 0.0
1.5137 -5.4667 0.0
1.6379 -5.4667 0.0
1.7843 -5.4667 0.0
1.9307 -5.4667 0.0
2.1033 -5.4667 0.0
2.2758 -5.4667 0.0
2.4793 -5.4667 0.0
2.6827 -5.4667 0.0
2.9225 -5.4667 0.0
3.1623 -5.4667 0.0
3.4449 -5.4667 0.0
3.7276 -5.4667 0.0
4.0608 -5.4667 0.0
4.394 -5.4667 0.0
4.7867 -5.4667 0.0
5.1795 -5.4667 0.0
5.6424 -5.4667 0.0
6.1054 -5.4667 0.0
6.6511 -5.4667 0.0
7.1969 -5.4667 0.0
7.8401 -5.4667 0.0
8.4834 -5.4667 0.0
9.2417 -5.4667 0.0
10 -5.4667 0.0
0 -5.5333 0.0
0.0667 -5.5333 0.0
0.1333 -5.5333 0.0
0.2 -5.5333 0.0
0.2667 -5.5333 0.0
0.3333 -5.5333 0.0
0.4 -5.5333 0.0
0.4667 -5.5333 0.0
0.5333 -5.5333 0.0
0.6 -5.5333 0.0
0.6667 -5.5333 0.0
0.7333 -5.5333 0.0
0.8 -5.5333 0.0
0.8667 -5.5333 0.0
0.9333 -5.5333 0.0
1 -5.5333 0.0
1.1788 -5.5333 0.0
1.3895 -5.5333 0.0
1.6379 -5.5333 0.0
1.9307 -5.5333 0.0
2.2758 -5.5333 0.0
2.6827 -5.5333 0.0
3.1623 -5.5333 0.0
3.7276 -5.5333 0.0
4.394 -5.5333 0.0
5.1795 -5.5333 0.0
6.1054 -5.5333 0.0
7.1969 -5.5333 0.0
8.4834 -5.5333 0.0
10 -5.5333 0.0
0 -5.6 0.0
0.0333 -5.6 0.0
0.0667 -5.6 0.0
0.1 -5.6 0.0
0.1333 -5.6 0.0
0.1667 -5.6 0.0
0.2 -5.6 0.0
0.2333 -5.6 0.0
0.2667 -5.6 0.0
0.3 -5.6 0.0
0.3333 -5.6 0.0
0.3667 -5.6 0.0
0.4 -5.6 0.0
0.4333 -5.6 0.0
0.4667 -5.6 0.0
0.5 -5.6 0.0
0.5333 -5.6 0.0
0.5667 -5.6 0.0
0.6 -5.6 0.0
0.6333 -5.6 0.0
0.6667 -5.6 0.0
0.7 -5.6 0.0
0.7333 -5.6 0.0
0.7667 -5.6 0.0
0.8 -5.6 0.0
0.8333 -5.6 0.0
0.8667 -5.6 0.0
0.9 -5.6 0.0
0.9333 -5.6 0.0
0.9667 -5.6 0.0
1 -5.6 0.0
1.0894 -5.6 0.0
1.1788 -5.6 0.0
1.2841 -5.6 0.0
1.3895 -5.6 0.0
1.5137 -5.6 0.0
1.6379 -5.6 0.0
1.7843 -5.6 0.0
1.9307 -5.6 0.0
2.1033 -5.6 0.0
2.2758 -5.6 0.0
2.4793 -5.6 0.0
2.6827 -5.6 0.0
2.9225 -5.6 0.0
3.1623 -5.6 0.0
3.4449 -5.6 0.0
3.7276 -5.6 0.0
4.0608 -5.6 0.0
4.394 -5.6 0.0
4.7867 -5.6 0.0
5.1795 -5.6 0.0
5.6424 -5.6 0.0
6.1054 -5.6 0.0
6.6511 -5.6 0.0
7.1969 -5.6 0.0
7.8401 -5.6 0.0
8.4834 -5.6 0.0
9.2417 -5.6 0.0
10 -5.6 0.0
0 -5.6667 0.0
0.0667 -5.6667 0.0
0.1333 -5.6667 0.0
0.2 -5.6667 0.0
0.2667 -5.6667 0.0
0.3333 -5.6667 0.0
0.4 -5.6667 0.0
0.4667 -5.6667 0.0
0.5333 -5.6667 0.0
0.6 -5.6667 0.0
0.6667 -5.6667 0.0
0.7333 -5.6667 0.0
0.8 -5.6667 0.0
0.8667 -5.6667 0.0
0.9333 -5.6667 0.0
1 -5.6667 0.0
1.1788 -5.6667 0.0
1.3895 -5.6667 0.0
1.6379 -5.6667 0.0
1.9307 -5.6667 0.0
2.2758 -5.6667 0.0
2.6827 -5.6667 0.0
3.1623 -5.6667 0.0
3.7276 -5.6667 0.0
4.394 -5.6667 0.0
5.1795 -5.6667 0.0
6.1054 -5.6667 0.0
7.1969 -5.6667 0.0
8.4834 -5.6667 0.0
10 -5.6667 0.0
0 -5.7333 0.0
0.0333 -5.7333 0.0
0.0667 -5.7333 0.0
0.1 -5.7333 0.0
0.1333 -5.7333 0.0
0.1667 -5.7333 0.0
0.2 -5.7333 0.0
0.2333 -5.7333 0.0
0.2667 -5.7333 0.0
0.3 -5.7333 0.0
0.3333 -5.7333 0.0
0.3667 -5.7333 0.0
0.4 -5.7333 0.0
0.4333 -5.7333 0.0
0.4667 -5.7333 0.0
0.5 -5.7333 0.0
0.5333 -5.7333 0.0
0.5667 -5.7333 0.0
0.6 -5.7333 0.0
0.6333 -5.7333 0.0
0.6667 -5.7333 0.0
0.7 -5.7333 0.0
0.7333 -5.7333 0.0
0.7667 -5.7333 0.0
0.8 -5.7333 0.0
0.8333 -5.7333 0.0
0.8667 -5.7333 0.0
0.9 -5.7333 0.0
0.9333 -5.7333 0.0
0.9667 -5.7333 0.0
1 -5.7333 0.0
1.0894 -5.7333 0.0
1.1788 -5.7333 0.0
1.2841 -5.7333 0.0
1.3895 -5.7333 0.0
1.5137 -5.7333 0.0
1.6379 -5.7333 0.0
1.7843 -5.7333 0.0
1.9307 -5.7333 0.0
2.1033 -5.7333 0.0
2.2758 -5.7333 0.0
2.4793 -5.7333 0.0
2.6827 -5.7333 0.0
2.9225 -5.7333 0.0
3.1623 -5.7333 0.0
3.4449 -5.7333 0.0
3.7276 -5.7333 0.0
4.0608 -5.7333 0.0
4.394 -5.7333 0.0
4.7867 -5.7333 0.0
5.1795 -5.7333 0.0
5.6424 -5.7333 0.0
6.1054 -5.7333 0.0
6.6511 -5.7333 0.0
7.1969 -5.7333 0.0
7.8401 -5.7333 0.0
8.4834 -5.7333 0.0
9.2417 -5.7333 0.0
10 -5.7333 0.0
0 -5.8 0.0
0.0667 -5.8 0.0
0.1333 -5.8 0.0
0.2 -5.8 0.0
0.2667 -5.8 0.0
0.3333 -5.8 0.0
0.4 -5.8 0.0
0.4667 -5.8 0.0
0.5333 -5.8 0.0
0.6 -5.8 0.0
0.6667 -5.8 0.0
0.7333 -5.8 0.0
0.8 -5.8 0.0
0.8667 -5.8 0.0
0.9333 -5.8 0.0
1 -5.8 0.0
1.1788 -5.8 0.0
1.3895 -5.8 0.0
1.6379 -5.8 0.0
1.9307 -5.8 0.0
2.2758 -5.8 0.0
2.6827 -5.8 0.0
3.1623 -5.8 0.0
3.7276 -5.8 0.0
4.394 -5.8 0.0
5.1795 -5.8 0.0
6.1054 -5.8 0.0
7.1969 -5.8 0.0
8.4834 -5.8 0.0
10 -5.8 0.0
0 -5.8667 0.0
0.0333 -5.8667 0.0
0.0667 -5.8667 0.0
0.1 -5.8667 0.0
0.1333 -5.8667 0.0
0.1667 -5.8667 0.0
0.2 -5.8667 0.0
0.2333 -5.8667 0.0
0.2667 -5.8667 0.0
0.3 -5.8667 0.0
0.3333 -5.8667 0.0
0.3667 -5.8667 0.0
0.4 -5.8667 0.0
0.4333 -5.8667 0.0
0.4667 -5.8667 0.0
0.5 -5.8667 0.0
0.5333 -5.8667 0.0
0.5667 -5.8667 0.0
0.6 -5.8667 0.0
0.6333 -5.8667 0.0
0.6667 -5.8667 0.0
0.7 -5.8667 0.0
0.7333 -5.8667 0.0
0.7667 -5.8667 0.0
0.8 -5.8667 0.0
0.8333 -5.8667 0.0
0.8667 -5.8667 0.0
0.9 -5.8667 0.0
0.9333 -5.8667 0.0
0.9667 -5.8667 0.0
1 -5.8667 0.0
1.0894 -5.8667 0.0
1.1788 -5.8667 0.0
1.2841 -5.8667 0.0
1.3895 -5.8667 0.0
1.5137 -5.8667 0.0
1.6379 -5.8667 0.0
1.7843 -5.8667 0.0
1.9307 -5.8667 0.0
2.1033 -5.8667 0.0
2.2758 -5.8667 0.0
2.4793 -5.8667 0.0
2.6827 -5.8667 0.0
2.9225 -5.8667 0.0
3.1623 -5.8667 0.0
3.4449 -5.8667 0.0
3.7276 -5.8667 0.0
4.0608 -5.8667 0.0
4.394 -5.8667 0.0
4.7867 -5.8667 0.0
5.1795 -5.8667 0.0
5.6424 -5.8667 0.0
6.1054 -5.8667 0.0
6.6511 -5.8667 0.0
7.1969 -5.8667 0.0
7.8401 -5.8667 0.0
8.4834 -5.8667 0.0
9.2417 -5.8667 0.0
10 -5.8667 0.0
0 -5.9333 0.0
0.0667 -5.9333 0.0
0.1333 -5.9333 0.0
0.2 -5.9333 0.0
0.2667 -5.9333 0.0
0.3333 -5.9333 0.0
0.4 -5.9333 0.0
0.4667 -5.9333 0.0
0.5333 -5.9333 0.0
0.6 -5.9333 0.0
0.6667 -5.9333 0.0
0.7333 -5.9333 0.0
0.8 -5.9333 0.0
0.8667 -5.9333 0.0
0.9333 -5.9333 0.0
1 -5.9333 0.0
1.1788 -5.9333 0.0
1.3895 -5.9333 0.0
1.6379 -5.9333 0.0
1.9307 -5.9333 0.0
2.2758 -5.9333 0.0
2.6827 -5.9333 0.0
3.1623 -5.9333 0.0
3.7276 -5.9333 0.0
4.394 -5.9333 0.0
5.1795 -5.9333 0.0
6.1054 -5.9333 0.0
7.1969 -5.9333 0.0
8.4834 -5.9333 0.0
10 -5.9333 0.0
0 -6 0.0
0.0333 -6 0.0
0.0667 -6 0.0
0.1 -6 0.0
0.1333 -6 0.0
0.1667 -6 0.0
0.2 -6 0.0
0.2333 -6 0.0
0.2667 -6 0.0
0.3 -6 0.0
0.3333 -6 0.0
0.3667 -6 0.0
0.4 -6 0.0
0.4333 -6 0.0
0.4667 -6 0.0
0.5 -6 0.0
0.5333 -6 0.0
0.5667 -6 0.0
0.6 -6 0.0
0.6333 -6 0.0
0.6667 -6 0.0
0.7 -6 0.0
0.7333 -6 0.0
0.7667 -6 0.0
0.8 -6 0.0
0.8333 -6 0.0
0.8667 -6 0.0
0.9 -6 0.0
0.9333 -6 0.0
0.9667 -6 0.0
1 -6 0.0
1.0894 -6 0.0
1.1788 -6 0.0
1.2841 -6 0.0
1.3895 -6 0.0
1.5137 -6 0.0
1.6379 -6 0.0
1.7843 -6 0.0
1.9307 -6 0.0
2.1033 -6 0.0
2.2758 -6 0.0
2.4793 -6 0.0
2.6827 -6 0.0
2.9225 -6 0.0
3.1623 -6 0.0
3.4449 -6 0.0
3.7276 -6 0.0
4.0608 -6 0.0
4.394 -6 0.0
4.7867 -6 0.0
5.1795 -6 0.0
5.6424 -6 0.0
6.1054 -6 0.0
6.6511 -6 0.0
7.1969 -6 0.0
7.8401 -6 0.0
8.4834 -6 0.0
9.2417 -6 0.0
10 -6 0.0
0 -6.0667 0.0
0.0667 -6.0667 0.0
0.1333 -6.0667 0.0
0.2 -6.0667 0.0
0.2667 -6.0667 0.0
0.3333 -6.0667 0.0
0.4 -6.0667 0.0
0.4667 -6.0667 0.0
0.5333 -6.0667 0.0
0.6 -6.0667 0.0
0.6667 -6.0667 0.0
0.7333 -6.0667 0.0
0.8 -6.0667 0.0
0.8667 -6.0667 0.0
0.9333 -6.0667 0.0
1 -6.0667 0.0
1.1788 -6.0667 0.0
1.3895 -6.0667 0.0
1.6379 -6.0667 0.0
1.9307 -6.0667 0.0
2.2758 -6.0667 0.0
2.6827 -6.0667 0.0
3.1623 -6.0667 0.0
3.7276 -6.0667 0.0
4.394 -6.0667 0.0
5.1795 -6.0667 0.0
6.1054 -6.0667 0.0
7.1969 -6.0667 0.0
8.4834 -6.0667 0.0
10 -6.0667 0.0
0 -6.1333 0.0
0.0333 -6.1333 0.0
0.0667 -6.1333 0.0
0.1 -6.1333 0.0
0.1333 -6.1333 0.0
0.1667 -6.1333 0.0
0.2 -6.1333 0.0
0.2333 -6.1333 0.0
0.2667 -6.1333 0.0
0.3 -6.1333 0.0
0.3333 -6.1333 0.0
0.3667 -6.1333 0.0
0.4 -6.1333 0.0
0.4333 -6.1333 0.0
0.4667 -6.1333 0.0
0.5 -6.1333 0.0
0.5333 -6.1333 0.0
0.5667 -6.1333 0.0
0.6 -6.1333 0.0
0.6333 -6.1333 0.0
0.6667 -6.1333 0.0
0.7 -6.1333 0.0
0.7333 -6.1333 0.0
0.7667 -6.1333 0.0
0.8 -6.1333 0.0
0.8333 -6.1333 0.0
0.8667 -6.1333 0.0
0.9 -6.1333 0.0
0.9333 -6.1333 0.0
0.9667 -6.1333 0.0
1 -6.1333 0.0
1.0894 -6.1333 0.0
1.1788 -6.1333 0.0
1.2841 -6.1333 0.0
1.3895 -6.1333 0.0
1.5137 -6.1333 0.0
1.6379 -6.1333 0.0
1.7843 -6.1333 0.0
1.9307 -6.1333 0.0
2.1033 -6.1333 0.0
2.2758 -6.1333 0.0
2.4793 -6.1333 0.0
2.6827 -6.1333 0.0
2.9225 -6.1333 0.0
3.1623 -6.1333 0.0
3.4449 -6.1333 0.0
3.7276 -6.1333 0.0
4.0608 -6.1333 0.0
4.394 -6.1333 0.0
4.7867 -6.1333 0.0
5.1795 -6.1333 0.0
5.6424 -6.1333 0.0
6.1054 -6.1333 0.0
6.6511 -6.1333 0.0
7.1969 -6.1333 0.0
7.8401 -6.1333 0.0
8.4834 -6.1333 0.0
9.2417 -6.1333 0.0
10 -6.1333 0.0
0 -6.2 0.0
0.0667 -6.2 0.0
0.1333 -6.2 0.0
0.2 -6.2 0.0
0.2667 -6.2 0.0
0.3333 -6.2 0.0
0.4 -6.2 0.0
0.4667 -6.2 0.0
0.5333 -6.2 0.0
0.6 -6.2 0.0
0.6667 -6.2 0.0
0.7333 -6.2 0.0
0.8 -6.2 0.0
0.8667 -6.2 0.0
0.9333 -6.2 0.0
1 -6.2 0.0
1.1788 -6.2 0.0
1.3895 -6.2 0.0
1.6379 -6.2 0.0
1.9307 -6.2 0.0
2.2758 -6.2 0.0
2.6827 -6.2 0.0
3.1623 -6.2 0.0
3.7276 -6.2 0.0
4.394 -6.2 0.0
5.1795 -6.2 0.0
6.1054 -6.2 0.0
7.1969 -6.2 0.0
8.4834 -6.2 0.0
10 -6.2 0.0
0 -6.2667 0.0
0.0333 -6.2667 0.0
0.0667 -6.2667 0.0
0.1 -6.2667 0.0
0.1333 -6.2667 0.0
0.1667 -6.2667 0.0
0.2 -6.2667 0.0
0.2333 -6.2667 0.0
0.2667 -6.2667 0.0
0.3 -6.2667 0.0
0.3333 -6.2667 0.0
0.3667 -6.2667 0.0
0.4 -6.2667 0.0
0.4333 -6.2667 0.0
0.4667 -6.2667 0.0
0.5 -6.2667 0.0
0.5333 -6.2667 0.0
0.5667 -6.2667 0.0
0.6 -6.2667 0.0
0.6333 -6.2667 0.0
0.6667 -6.2667 0.0
0.7 -6.2667 0.0
0.7333 -6.2667 0.0
0.7667 -6.2667 0.0
0.8 -6.2667 0.0
0.8333 -6.2667 0.0
0.8667 -6.2667 0.0
0.9 -6.2667 0.0
0.9333 -6.2667 0.0
0.9667 -6.2667 0.0
1 -6.2667 0.0
1.0894 -6.2667 0.0
1.1788 -6.2667 0.0
1.2841 -6.2667 0.0
1.3895 -6.2667 0.0
1.5137 -6.2667 0.0
1.6379 -6.2667 0.0
1.7843 -6.2667 0.0
1.9307 -6.2667 0.0
2.1033 -6.2667 0.0
2.2758 -6.2667 0.0
2.4793 -6.2667 0.0
2.6827 -6.2667 0.0
2.9225 -6.2667 0.0
3.1623 -6.2667 0.0
3.4449 -6.2667 0.0
3.7276 -6.2667 0.0
4.0608 -6.2667 0.0
4.394 -6.2667 0.0
4.7867 -6.2667 0.0
5.1795 -6.2667 0.0
5.6424 -6.2667 0.0
6.1054 -6.2667 0.0
6.6511 -6.2667 0.0
7.1969 -6.2667 0.0
7.8401 -6.2667 0.0
8.4834 -6.2667 0.0
9.2417 -6.2667 0.0
10 -6.2667 0.0
0 -6.3333 0.0
0.0667 -6.3333 0.0
0.1333 -6.3333 0.0
0.2 -6.3333 0.0
0.2667 -6.3333 0.0
0.3333 -6.3333 0.0
0.4 -6.3333 0.0
0.4667 -6.3333 0.0
0.5333 -6.3333 0.0
0.6 -6.3333 0.0
0.6667 -6.3333 0.0
0.7333 -6.3333 0.0
0.8 -6.3333 0.0
0.8667 -6.3333 0.0
0.9333 -6.3333 0.0
1 -6.3333 0.0
1.1788 -6.3333 0.0
1.3895 -6.3333 0.0
1.6379 -6.3333 0.0
1.9307 -6.3333 0.0
2.2758 -6.3333 0.0
2.6827 -6.3333 0.0
3.1623 -6.3333 0.0
3.7276 -6.3333 0.0
4.394 -6.3333 0.0
5.1795 -6.3333 0.0
6.1054 -6.3333 0.0
7.1969 -6.3333 0.0
8.4834 -6.3333 0.0
10 -6.3333 0.0
0 -6.4 0.0
0.0333 -6.4 0.0
0.0667 -6.4 0.0
0.1 -6.4 0.0
0.1333 -6.4 0.0
0.1667 -6.4 0.0
0.2 -6.4 0.0
0.2333 -6.4 0.0
0.2667 -6.4 0.0
0.3 -6.4 0.0
0.3333 -6.4 0.0
0.3667 -6.4 0.0
0.4 -6.4 0.0
0.4333 -6.4 0.0
0.4667 -6.4 0.0
0.5 -6.4 0.0
0.5333 -6.4 0.0
0.5667 -6.4 0.0
0.6 -6.4 0.0
0.6333 -6.4 0.0
0.6667 -6.4 0.0
0.7 -6.4 0.0
0.7333 -6.4 0.0
0.7667 -6.4 0.0
0.8 -6.4 0.0
0.8333 -6.4 0.0
0.8667 -6.4 0.0
0.9 -6.4 0.0
0.9333 -6.4 0.0
0.9667 -6.4 0.0
1 -6.4 0.0
1.0894 -6.4 0.0
1.1788 -6.4 0.0
1.2841 -6.4 0.0
1.3895 -6.4 0.0
1.5137 -6.4 0.0
1.6379 -6.4 0.0
1.7843 -6.4 0.0
1.9307 -6.4 0.0
2.1033 -6.4 0.0
2.2758 -6.4 0.0
2.4793 -6.4 0.0
2.6827 -6.4 0.0
2.9225 -6.4 0.0
3.1623 -6.4 0.0
3.4449 -6.4 0.0
3.7276 -6.4 0.0
4.0608 -6.4 0.0
4.394 -6.4 0.0
4.7867 -6.4 0.0
5.1795 -6.4 0.0
5.6424 -6.4 0.0
6.1054 -6.4 0.0
6.6511 -6.4 0.0
7.1969 -6.4 0.0
7.8401 -6.4 0.0
8.4834 -6.4 0.0
9.2417 -6.4 0.0
10 -6.4 0.0
0 -6.4667 0.0
0.0667 -6.4667 0.0
0.1333 -6.4667 0.0
0.2 -6.4667 0.0
0.2667 -6.4667 0.0
0.3333 -6.4667 0.0
0.4 -6.4667 0.0
0.4667 -6.4667 0.0
0.5333 -6.4667 0.0
0.6 -6.4667 0.0
0.6667 -6.4667 0.0
0.7333 -6.4667 0.0
0.8 -6.4667 0.0
0.8667 -6.4667 0.0
0.9333 -6.4667 0.0
1 -6.4667 0.0
1.1788 -6.4667 0.0
1.3895 -6.4667 0.0
1.6379 -6.4667 0.0
1.9307 -6.4667 0.0
2.2758 -6.4667 0.0
2.6827 -6.4667 0.0
3.1623 -6.4667 0.0
3.7276 -6.4667 0.0
4.394 -6.4667 0.0
5.1795 -6.4667 0.0
6.1054 -6.4667 0.0
7.1969 -6.4667 0.0
8.4834 -6.4667 0.0
10 -6.4667 0.0
0 -6.5333 0.0
0.0333 -6.5333 0.0
0.0667 -6.5333 0.0
0.1 -6.5333 0.0
0.1333 -6.5333 0.0
0.1667 -6.5333 0.0
0.2 -6.5333 0.0
0.2333 -6.5333 0.0
0.2667 -6.5333 0.0
0.3 -6.5333 0.0
0.3333 -6.5333 0.0
0.3667 -6.5333 0.0
0.4 -6.5333 0.0
0.4333 -6.5333 0.0
0.4667 -6.5333 0.0
0.5 -6.5333 0.0
0.5333 -6.5333 0.0
0.5667 -6.5333 0.0
0.6 -6.5333 0.0
0.6333 -6.5333 0.0
0.6667 -6.5333 0.0
0.7 -6.5333 0.0
0.7333 -6.5333 0.0
0.7667 -6.5333 0.0
0.8 -6.5333 0.0
0.8333 -6.5333 0.0
0.8667 -6.5333 0.0
0.9 -6.5333 0.0
0.9333 -6.5333 0.0
0.9667 -6.5333 0.0
1 -6.5333 0.0
1.0894 -6.5333 0.0
1.1788 -6.5333 0.0
1.2841 -6.5333 0.0
1.3895 -6.5333 0.0
1.5137 -6.5333 0.0
1.6379 -6.5333 0.0
1.7843 -6.5333 0.0
1.9307 -6.5333 0.0
2.1033 -6.5333 0.0
2.2758 -6.5333 0.0
2.4793 -6.5333 0.0
2.6827 -6.5333 0.0
2.9225 -6.5333 0.0
3.1623 -6.5333 0.0
3.4449 -6.5333 0.0
3.7276 -6.5333 0.0
4.0608 -6.5333 0.0
4.394 -6.5333 0.0
4.7867 -6.5333 0.0
5.1795 -6.5333 0.0
5.6424 -6.5333 0.0
6.1054 -6.5333 0.0
6.6511 -6.5333 0.0
7.1969 -6.5333 0.0
7.8401 -6.5333 0.0
8.4834 -6.5333 0.0
9.2417 -6.5333 0.0
10 -6.5333 0.0
0 -6.6 0.0
0.0667 -6.6 0.0
0.1333 -6.6 0.0
0.2 -6.6 0.0
0.2667 -6.6 0.0
0.3333 -6.6 0.0
0.4 -6.6 0.0
0.4667 -6.6 0.0
0.5333 -6.6 0.0
0.6 -6.6 0.0
0.6667 -6.6 0.0
0.7333 -6.6 0.0
0.8 -6.6 0.0
0.8667 -6.6 0.0
0.9333 -6.6 0.0
1 -6.6 0.0
1.1788 -6.6 0.0
1.3895 -6.6 0.0
1.6379 -6.6 0.0
1.9307 -6.6 0.0
2.2758 -6.6 0.0
2.6827 -6.6 0.0
3.1623 -6.6 0.0
3.7276 -6.6 0.0
4.394 -6.6 0.0
5.1795 -6.6 0.0
6.1054 -6.6 0.0
7.1969 -6.6 0.0
8.4834 -6.6 0.0
10 -6.6 0.0
0 -6.6667 0.0
0.0333 -6.6667 0.0
0.0667 -6.6667 0.0
0.1 -6.6667 0.0
0.1333 -6.6667 0.0
0.1667 -6.6667 0.0
0.2 -6.6667 0.0
0.2333 -6.6667 0.0
0.2667 -6.6667 0.0
0.3 -6.6667 0.0
0.3333 -6.6667 0.0
0.3667 -6.6667 0.0
0.4 -6.6667 0.0
0.4333 -6.6667 0.0
0.4667 -6.6667 0.0
0.5 -6.6667 0.0
0.5333 -6.6667 0.0
0.5667 -6.6667 0.0
0.6 -6.6667 0.0
0.6333 -6.6667 0.0
0.6667 -6.6667 0.0
0.7 -6.6667 0.0
0.7333 -6.6667 0.0
0.7667 -6.6667 0.0
0.8 -6.6667 0.0
0.8333 -6.6667 0.0
0.8667 -6.6667 0.0
0.9 -6.6667 0.0
0.9333 -6.6667 0.0
0.9667 -6.6667 0.0
1 -6.6667 0.0
1.0894 -6.6667 0.0
1.1788 -6.6667 0.0
1.2841 -6.6667 0.0
1.3895 -6.6667 0.0
1.5137 -6.6667 0.0
1.6379 -6.6667 0.0
1.7843 -6.6667 0.0
1.9307 -6.6667 0.0
2.1033 -6.6667 0.0
2.2758 -6.6667 0.0
2.4793 -6.6667 0.0
2.6827 -6.6667 0.0
2.9225 -6.6667 0.0
3.1623 -6.6667 0.0
3.4449 -6.6667 0.0
3.7276 -6.6667 0.0
4.0608 -6.6667 0.0
4.394 -6.6667 0.0
4.7867 -6.6667 0.0
5.1795 -6.6667 0.0
5.6424 -6.6667 0.0
6.1054 -6.6667 0.0
6.6511 -6.6667 0.0
7.1969 -6.6667 0.0
7.8401 -6.6667 0.0
8.4834 -6.6667 0.0
9.2417 -6.6667 0.0
10 -6.6667 0.0
0 -6.7333 0.0
0.0667 -6.7333 0.0
0.1333 -6.7333 0.0
0.2 -6.7333 0.0
0.2667 -6.7333 0.0
0.3333 -6.7333 0.0
0.4 -6.7333 0.0
0.4667 -6.7333 0.0
0.5333 -6.7333 0.0
0.6 -6.7333 0.0
0.6667 -6.7333 0.0
0.7333 -6.7333 0.0
0.8 -6.7333 0.0
0.8667 -6.7333 0.0
0.9333 -6.7333 0.0
1 -6.7333 0.0
1.1788 -6.7333 0.0
1.3895 -6.7333 0.0
1.6379 -6.7333 0.0
1.9307 -6.7333 0.0
2.2758 -6.7333 0.0
2.6827 -6.7333 0.0
3.1623 -6.7333 0.0
3.7276 -6.7333 0.0
4.394 -6.7333 0.0
5.1795 -6.7333 0.0
6.1054 -6.7333 0.0
7.1969 -6.7333 0.0
8.4834 -6.7333 0.0
10 -6.7333 0.0
0 -6.8 0.0
0.0333 -6.8 0.0
0.0667 -6.8 0.0
0.1 -6.8 0.0
0.1333 -6.8 0.0
0.1667 -6.8 0.0
0.2 -6.8 0.0
0.2333 -6.8 0.0
0.2667 -6.8 0.0
0.3 -6.8 0.0
0.3333 -6.8 0.0
0.3667 -6.8 0.0
0.4 -6.8 0.0
0.4333 -6.8 0.0
0.4667 -6.8 0.0
0.5 -6.8 0.0
0.5333 -6.8 0.0
0.5667 -6.8 0.0
0.6 -6.8 0.0
0.6333 -6.8 0.0
0.6667 -6.8 0.0
0.7 -6.8 0.0
0.7333 -6.8 0.0
0.7667 -6.8 0.0
0.8 -6.8 0.0
0.8333 -6.8 0.0
0.8667 -6.8 0.0
0.9 -6.8 0.0
0.9333 -6.8 0.0
0.9667 -6.8 0.0
1 -6.8 0.0
1.0894 -6.8 0.0
1.1788 -6.8 0.0
1.2841 -6.8 0.0
1.3895 -6.8 0.0
1.5137 -6.8 0.0
1.6379 -6.8 0.0
1.7843 -6.8 0.0
1.9307 -6.8 0.0
2.1033 -6.8 0.0
2.2758 -6.8 0.0
2.4793 -6.8 0.0
2.6827 -6.8 0.0
2.9225 -6.8 0.0
3.1623 -6.8 0.0
3.4449 -6.8 0.0
3.7276 -6.8 0.0
4.0608 -6.8 0.0
4.394 -6.8 0.0
4.7867 -6.8 0.0
5.1795 -6.8 0.0
5.6424 -6.8 0.0
6.1054 -6.8 0.0
6.6511 -6.8 0.0
7.1969 -6.8 0.0
7.8401 -6.8 0.0
8.4834 -6.8 0.0
9.2417 -6.8 0.0
10 -6.8 0.0
0 -6.8667 0.0
0.0667 -6.8667 0.0
0.1333 -6.8667 0.0
0.2 -6.8667 0.0
0.2667 -6.8667 0.0
0.3333 -6.8667 0.0
0.4 -6.8667 0.0
0.4667 -6.8667 0.0
0.5333 -6.8667 0.0
0.6 -6.8667 0.0
0.6667 -6.8667 0.0
0.7333 -6.8667 0.0
0.8 -6.8667 0.0
0.8667 -6.8667 0.0
0.9333 -6.8667 0.0
1 -6.8667 0.0
1.1788 -6.8667 0.0
1.3895 -6.8667 0.0
1.6379 -6.8667 0.0
1.9307 -6.8667 0.0
2.2758 -6.8667 0.0
2.6827 -6.8667 0.0
3.1623 -6.8667 0.0
3.7276 -6.8667 0.0
4.394 -6.8667 0.0
5.1795 -6.8667 0.0
6.1054 -6.8667 0.0
7.1969 -6.8667 0.0
8.4834 -6.8667 0.0
10 -6.8667 0.0
0 -6.9333 0.0
0.0333 -6.9333 0.0
0.0667 -6.9333 0.0
0.1 -6.9333 0.0
0.1333 -6.9333 0.0
0.1667 -6.9333 0.0
0.2 -6.9333 0.0
0.2333 -6.9333 0.0
0.2667 -6.9333 0.0
0.3 -6.9333 0.0
0.3333 -6.9333 0.0
0.3667 -6.9333 0.0
0.4 -6.9333 0.0
0.4333 -6.9333 0.0
0.4667 -6.9333 0.0
0.5 -6.9333 0.0
0.5333 -6.9333 0.0
0.5667 -6.9333 0.0
0.6 -6.9333 0.0
0.6333 -6.9333 0.0
0.6667 -6.9333 0.0
0.7 -6.9333 0.0
0.7333 -6.9333 0.0
0.7667 -6.9333 0.0
0.8 -6.9333 0.0
0.8333 -6.9333 0.0
0.8667 -6.9333 0.0
0.9 -6.9333 0.0
0.9333 -6.9333 0.0
0.9667 -6.9333 0.0
1 -6.9333 0.0
1.0894 -6.9333 0.0
1.1788 -6.9333 0.0
1.2841 -6.9333 0.0
1.3895 -6.9333 0.0
1.5137 -6.9333 0.0
1.6379 -6.9333 0.0
1.7843 -6.9333 0.0
1.9307 -6.9333 0.0
2.1033 -6.9333 0.0
2.2758 -6.9333 0.0
2.4793 -6.9333 0.0
2.6827 -6.9333 0.0
2.9225 -6.9333 0.0
3.1623 -6.9333 0.0
3.4449 -6.9333 0.0
3.7276 -6.9333 0.0
4.0608 -6.9333 0.0
4.394 -6.9333 0.0
4.7867 -6.9333 0.0
5.1795 -6.9333 0.0
5.6424 -6.9333 0.0
6.1054 -6.9333 0.0
6.6511 -6.9333 0.0
7.1969 -6.9333 0.0
7.8401 -6.9333 0.0
8.4834 -6.9333 0.0
9.2417 -6.9333 0.0
10 -6.9333 0.0
0 -7 0.0
0.0667 -7 0.0
0.1333 -7 0.0
0.2 -7 0.0
0.2667 -7 0.0
0.3333 -7 0.0
0.4 -7 0.0
0.4667 -7 0.0
0.5333 -7 0.0
0.6 -7 0.0
0.6667 -7 0.0
0.7333 -7 0.0
0.8 -7 0.0
0.8667 -7 0.0
0.9333 -7 0.0
1 -7 0.0
1.1788 -7 0.0
1.3895 -7 0.0
1.6379 -7 0.0
1.9307 -7 0.0
2.2758 -7 0.0
2.6827 -7 0.0
3.1623 -7 0.0
3.7276 -7 0.0
4.394 -7 0.0
5.1795 -7 0.0
6.1054 -7 0.0
7.1969 -7 0.0
8.4834 -7 0.0
10 -7 0.0
0 -7.0667 0.0
0.0333 -7.0667 0.0
0.0667 -7.0667 0.0
0.1 -7.0667 0.0
0.1333 -7.0667 0.0
0.1667 -7.0667 0.0
0.2 -7.0667 0.0
0.2333 -7.0667 0.0
0.2667 -7.0667 0.0
0.3 -7.0667 0.0
0.3333 -7.0667 0.0
0.3667 -7.0667 0.0
0.4 -7.0667 0.0
0.4333 -7.0667 0.0
0.4667 -7.0667 0.0
0.5 -7.0667 0.0
0.5333 -7.0667 0.0
0.5667 -7.0667 0.0
0.6 -7.0667 0.0
0.6333 -7.0667 0.0
0.6667 -7.0667 0.0
0.7 -7.0667 0.0
0.7333 -7.0667 0.0
0.7667 -7.0667 0.0
0.8 -7.0667 0.0
0.8333 -7.0667 0.0
0.8667 -7.0667 0.0
0.9 -7.0667 0.0
0.9333 -7.0667 0.0
0.9667 -7.0667 0.0
1 -7.0667 0.0
1.0894 -7.0667 0.0
1.1788 -7.0667 0.0
1.2841 -7.0667 0.0
1.3895 -7.0667 0.0
1.5137 -7.0667 0.0
1.6379 -7.0667 0.0
1.7843 -7.0667 0.0
1.9307 -7.0667 0.0
2.1033 -7.0667 0.0
2.2758 -7.0667 0.0
2.4793 -7.0667 0.0
2.6827 -7.0667 0.0
2.9225 -7.0667 0.0
3.1623 -7.0667 0.0
3.4449 -7.0667 0.0
3.7276 -7.0667 0.0
4.0608 -7.0667 0.0
4.394 -7.0667 0.0
4.7867 -7.0667 0.0
5.1795 -7.0667 0.0
5.6424 -7.0667 0.0
6.1054 -7.0667 0.0
6.6511 -7.0667 0.0
7.1969 -7.0667 0.0
7.8401 -7.0667 0.0
8.4834 -7.0667 0.0
9.2417 -7.0667 0.0
10 -7.0667 0.0
0 -7.1333 0.0
0.0667 -7.1333 0.0
0.1333 -7.1333 0.0
0.2 -7.1333 0.0
0.2667 -7.1333 0.0
0.3333 -7.1333 0.0
0.4 -7.1333 0.0
0.4667 -7.1333 0.0
0.5333 -7.1333 0.0
0.6 -7.1333 0.0
0.6667 -7.1333 0.0
0.7333 -7.1333 0.0
0.8 -7.1333 0.0
0.8667 -7.1333 0.0
0.9333 -7.1333 0.0
1 -7.1333 0.0
1.1788 -7.1333 0.0
1.3895 -7.1333 0.0
1.6379 -7.1333 0.0
1.9307 -7.1333 0.0
2.2758 -7.1333 0.0
2.6827 -7.1333 0.0
3.1623 -7.1333 0.0
3.7276 -7.1333 0.0
4.394 -7.1333 0.0
5.1795 -7.1333 0.0
6.1054 -7.1333 0.0
7.1969 -7.1333 0.0
8.4834 -7.1333 0.0
10 -7.1333 0.0
0 -7.2 0.0
0.0333 -7.2 0.0
0.0667 -7.2 0.0
0.1 -7.2 0.0
0.1333 -7.2 0.0
0.1667 -7.2 0.0
0.2 -7.2 0.0
0.2333 -7.2 0.0
0.2667 -7.2 0.0
0.3 -7.2 0.0
0.3333 -7.2 0.0
0.3667 -7.2 0.0
0.4 -7.2 0.0
0.4333 -7.2 0.0
0.4667 -7.2 0.0
0.5 -7.2 0.0
0.5333 -7.2 0.0
0.5667 -7.2 0.0
0.6 -7.2 0.0
0.6333 -7.2 0.0
0.6667 -7.2 0.0
0.7 -7.2 0.0
0.7333 -7.2 0.0
0.7667 -7.2 0.0
0.8 -7.2 0.0
0.8333 -7.2 0.0
0.8667 -7.2 0.0
0.9 -7.2 0.0
0.9333 -7.2 0.0
0.9667 -7.2 0.0
1 -7.2 0.0
1.0894 -7.2 0.0
1.1788 -7.2 0.0
1.2841 -7.2 0.0
1.3895 -7.2 0.0
1.5137 -7.2 0.0
1.6379 -7.2 0.0
1.7843 -7.2 0.0
1.9307 -7.2 0.0
2.1033 -7.2 0.0
2.2758 -7.2 0.0
2.4793 -7.2 0.0
2.6827 -7.2 0.0
2.9225 -7.2 0.0
3.1623 -7.2 0.0
3.4449 -7.2 0.0
3.7276 -7.2 0.0
4.0608 -7.2 0.0
4.394 -7.2 0.0
4.7867 -7.2 0.0
5.1795 -7.2 0.0
5.6424 -7.2 0.0
6.1054 -7.2 0.0
6.6511 -7.2 0.0
7.1969 -7.2 0.0
7.8401 -7.2 0.0
8.4834 -7.2 0.0
9.2417 -7.2 0.0
10 -7.2 0.0
0 -7.2667 0.0
0.0667 -7.2667 0.0
0.1333 -7.2667 0.0
0.2 -7.2667 0.0
0.2667 -7.2667 0.0
0.3333 -7.2667 0.0
0.4 -7.2667 0.0
0.4667 -7.2667 0.0
0.5333 -7.2667 0.0
0.6 -7.2667 0.0
0.6667 -7.2667 0.0
0.7333 -7.2667 0.0
0.8 -7.2667 0.0
0.8667 -7.2667 0.0
0.9333 -7.2667 0.0
1 -7.2667 0.0
1.1788 -7.2667 0.0
1.3895 -7.2667 0.0
1.6379 -7.2667 0.0
1.9307 -7.2667 0.0
2.2758 -7.2667 0.0
2.6827 -7.2667 0.0
3.1623 -7.2667 0.0
3.7276 -7.2667 0.0
4.394 -7.2667 0.0
5.1795 -7.2667 0.0
6.1054 -7.2667 0.0
7.1969 -7.2667 0.0
8.4834 -7.2667 0.0
10 -7.2667 0.0
0 -7.3333 0.0
0.0333 -7.3333 0.0
0.0667 -7.3333 0.0
0.1 -7.3333 0.0
0.1333 -7.3333 0.0
0.1667 -7.3333 0.0
0.2 -7.3333 0.0
0.2333 -7.3333 0.0
0.2667 -7.3333 0.0
0.3 -7.3333 0.0
0.3333 -7.3333 0.0
0.3667 -7.3333 0.0
0.4 -7.3333 0.0
0.4333 -7.3333 0.0
0.4667 -7.3333 0.0
0.5 -7.3333 0.0
0.5333 -7.3333 0.0
0.5667 -7.3333 0.0
0.6 -7.3333 0.0
0.6333 -7.3333 0.0
0.6667 -7.3333 0.0
0.7 -7.3333 0.0
0.7333 -7.3333 0.0
0.7667 -7.3333 0.0
0.8 -7.3333 0.0
0.8333 -7.3333 0.0
0.8667 -7.3333 0.0
0.9 -7.3333 0.0
0.9333 -7.3333 0.0
0.9667 -7.3333 0.0
1 -7.3333 0.0
1.0894 -7.3333 0.0
1.1788 -7.3333 0.0
1.2841 -7.3333 0.0
1.3895 -7.3333 0.0
1.5137 -7.3333 0.0
1.6379 -7.3333 0.0
1.7843 -7.3333 0.0
1.9307 -7.3333 0.0
2.1033 -7.3333 0.0
2.2758 -7.3333 0.0
2.4793 -7.3333 0.0
2.6827 -7.3333 0.0
2.9225 -7.3333 0.0
3.1623 -7.3333 0.0
3.4449 -7.3333 0.0
3.7276 -7.3333 0.0
4.0608 -7.3333 0.0
4.394 -7.3333 0.0
4.7867 -7.3333 0.0
5.1795 -7.3333 0.0
5.6424 -7.3333 0.0
6.1054 -7.3333 0.0
6.6511 -7.3333 0.0
7.1969 -7.3333 0.0
7.8401 -7.3333 0.0
8.4834 -7.3333 0.0
9.2417 -7.3333 0.0
10 -7.3333 0.0
0 -7.4 0.0
0.0667 -7.4 0.0
0.1333 -7.4 0.0
0.2 -7.4 0.0
0.2667 -7.4 0.0
0.3333 -7.4 0.0
0.4 -7.4 0.0
0.4667 -7.4 0.0
0.5333 -7.4 0.0
0.6 -7.4 0.0
0.6667 -7.4 0.0
0.7333 -7.4 0.0
0.8 -7.4 0.0
0.8667 -7.4 0.0
0.9333 -7.4 0.0
1 -7.4 0.0
1.1788 -7.4 0.0
1.3895 -7.4 0.0
1.6379 -7.4 0.0
1.9307 -7.4 0.0
2.2758 -7.4 0.0
2.6827 -7.4 0.0
3.1623 -7.4 0.0
3.7276 -7.4 0.0
4.394 -7.4 0.0
5.1795 -7.4 0.0
6.1054 -7.4 0.0
7.1969 -7.4 0.0
8.4834 -7.4 0.0
10 -7.4 0.0
0 -7.4667 0.0
0.0333 -7.4667 0.0
0.0667 -7.4667 0.0
0.1 -7.4667 0.0
0.1333 -7.4667 0.0
0.1667 -7.4667 0.0
0.2 -7.4667 0.0
0.2333 -7.4667 0.0
0.2667 -7.4667 0.0
0.3 -7.4667 0.0
0.3333 -7.4667 0.0
0.3667 -7.4667 0.0
0.4 -7.4667 0.0
0.4333 -7.4667 0.0
0.4667 -7.4667 0.0
0.5 -7.4667 0.0
0.5333 -7.4667 0.0
0.5667 -7.4667 0.0
0.6 -7.4667 0.0
0.6333 -7.4667 0.0
0.6667 -7.4667 0.0
0.7 -7.4667 0.0
0.7333 -7.4667 0.0
0.7667 -7.4667 0.0
0.8 -7.4667 0.0
0.8333 -7.4667 0.0
0.8667 -7.4667 0.0
0.9 -7.4667 0.0
0.9333 -7.4667 0.0
0.9667 -7.4667 0.0
1 -7.4667 0.0
1.0894 -7.4667 0.0
1.1788 -7.4667 0.0
1.2841 -7.4667 0.0
1.3895 -7.4667 0.0
1.5137 -7.4667 0.0
1.6379 -7.4667 0.0
1.7843 -7.4667 0.0
1.9307 -7.4667 0.0
2.1033 -7.4667 0.0
2.2758 -7.4667 0.0
2.4793 -7.4667 0.0
2.6827 -7.4667 0.0
2.9225 -7.4667 0.0
3.1623 -7.4667 0.0
3.4449 -7.4667 0.0
3.7276 -7.4667 0.0
4.0608 -7.4667 0.0
4.394 -7.4667 0.0
4.7867 -7.4667 0.0
5.1795 -7.4667 0.0
5.6424 -7.4667 0.0
6.1054 -7.4667 0.0
6.6511 -7.4667 0.0
7.1969 -7.4667 0.0
7.8401 -7.4667 0.0
8.4834 -7.4667 0.0
9.2417 -7.4667 0.0
10 -7.4667 0.0
0 -7.5333 0.0
0.0667 -7.5333 0.0
0.1333 -7.5333 0.0
0.2 -7.5333 0.0
0.2667 -7.5333 0.0
0.3333 -7.5333 0.0
0.4 -7.5333 0.0
0.4667 -7.5333 0.0
0.5333 -7.5333 0.0
0.6 -7.5333 0.0
0.6667 -7.5333 0.0
0.7333 -7.5333 0.0
0.8 -7.5333 0.0
0.8667 -7.5333 0.0
0.9333 -7.5333 0.0
1 -7.5333 0.0
1.1788 -7.5333 0.0
1.3895 -7.5333 0.0
1.6379 -7.5333 0.0
1.9307 -7.5333 0.0
2.2758 -7.5333 0.0
2.6827 -7.5333 0.0
3.1623 -7.5333 0.0
3.7276 -7.5333 0.0
4.394 -7.5333 0.0
5.1795 -7.5333 0.0
6.1054 -7.5333 0.0
7.1969 -7.5333 0.0
8.4834 -7.5333 0.0
10 -7.5333 0.0
0 -7.6 0.0
0.0333 -7.6 0.0
0.0667 -7.6 0.0
0.1 -7.6 0.0
0.1333 -7.6 0.0
0.1667 -7.6 0.0
0.2 -7.6 0.0
0.2333 -7.6 0.0
0.2667 -7.6 0.0
0.3 -7.6 0.0
0.3333 -7.6 0.0
0.3667 -7.6 0.0
0.4 -7.6 0.0
0.4333 -7.6 0.0
0.4667 -7.6 0.0
0.5 -7.6 0.0
0.5333 -7.6 0.0
0.5667 -7.6 0.0
0.6 -7.6 0.0
0.6333 -7.6 0.0
0.6667 -7.6 0.0
0.7 -7.6 0.0
0.7333 -7.6 0.0
0.7667 -7.6 0.0
0.8 -7.6 0.0
0.8333 -7.6 0.0
0.8667 -7.6 0.0
0.9 -7.6 0.0
0.9333 -7.6 0.0
0.9667 -7.6 0.0
1 -7.6 0.0
1.0894 -7.6 0.0
1.1788 -7.6 0.0
1.2841 -7.6 0.0
1.3895 -7.6 0.0
1.5137 -7.6 0.0
1.6379 -7.6 0.0
1.7843 -7.6 0.0
1.9307 -7.6 0.0
2.1033 -7.6 0.0
2.2758 -7.6 0.0
2.4793 -7.6 0.0
2.6827 -7.6 0.0
2.9225 -7.6 0.0
3.1623 -7.6 0.0
3.4449 -7.6 0.0
3.7276 -7.6 0.0
4.0608 -7.6 0.0
4.394 -7.6 0.0
4.7867 -7.6 0.0
5.1795 -7.6 0.0
5.6424 -7.6 0.0
6.1054 -7.6 0.0
6.6511 -7.6 0.0
7.1969 -7.6 0.0
7.8401 -7.6 0.0
8.4834 -7.6 0.0
9.2417 -7.6 0.0
10 -7.6 0.0
0 -7.6667 0.0
0.0667 -7.6667 0.0
0.1333 -7.6667 0.0
0.2 -7.6667 0.0
0.2667 -7.6667 0.0
0.3333 -7.6667 0.0
0.4 -7.6667 0.0
0.4667 -7.6667 0.0
0.5333 -7.6667 0.0
0.6 -7.6667 0.0
0.6667 -7.6667 0.0
0.7333 -7.6667 0.0
0.8 -7.6667 0.0
0.8667 -7.6667 0.0
0.9333 -7.6667 0.0
1 -7.6667 0.0
1.1788 -7.6667 0.0
1.3895 -7.6667 0.0
1.6379 -7.6667 0.0
1.9307 -7.6667 0.0
2.2758 -7.6667 0.0
2.6827 -7.6667 0.0
3.1623 -7.6667 0.0
3.7276 -7.6667 0.0
4.394 -7.6667 0.0
5.1795 -7.6667 0.0
6.1054 -7.6667 0.0
7.1969 -7.6667 0.0
8.4834 -7.6667 0.0
10 -7.6667 0.0
0 -7.7333 0.0
0.0333 -7.7333 0.0
0.0667 -7.7333 0.0
0.1 -7.7333 0.0
0.1333 -7.7333 0.0
0.1667 -7.7333 0.0
0.2 -7.7333 0.0
0.2333 -7.7333 0.0
0.2667 -7.7333 0.0
0.3 -7.7333 0.0
0.3333 -7.7333 0.0
0.3667 -7.7333 0.0
0.4 -7.7333 0.0
0.4333 -7.7333 0.0
0.4667 -7.7333 0.0
0.5 -7.7333 0.0
0.5333 -7.7333 0.0
0.5667 -7.7333 0.0
0.6 -7.7333 0.0
0.6333 -7.7333 0.0
0.6667 -7.7333 0.0
0.7 -7.7333 0.0
0.7333 -7.7333 0.0
0.7667 -7.7333 0.0
0.8 -7.7333 0.0
0.8333 -7.7333 0.0
0.8667 -7.7333 0.0
0.9 -7.7333 0.0
0.9333 -7.7333 0.0
0.9667 -7.7333 0.0
1 -7.7333 0.0
1.0894 -7.7333 0.0
1.1788 -7.7333 0.0
1.2841 -7.7333 0.0
1.3895 -7.7333 0.0
1.5137 -7.7333 0.0
1.6379 -7.7333 0.0
1.7843 -7.7333 0.0
1.9307 -7.7333 0.0
2.1033 -7.7333 0.0
2.2758 -7.7333 0.0
2.4793 -7.7333 0.0
2.6827 -7.7333 0.0
2.9225 -7.7333 0.0
3.1623 -7.7333 0.0
3.4449 -7.7333 0.0
3.7276 -7.7333 0.0
4.0608 -7.7333 0.0
4.394 -7.7333 0.0
4.7867 -7.7333 0.0
5.1795 -7.7333 0.0
5.6424 -7.7333 0.0
6.1054 -7.7333 0.0
6.6511 -7.7333 0.0
7.1969 -7.7333 0.0
7.8401 -7.7333 0.0
8.4834 -7.7333 0.0
9.2417 -7.7333 0.0
10 -7.7333 0.0
0 -7.8 0.0
0.0667 -7.8 0.0
0.1333 -7.8 0.0
0.2 -7.8 0.0
0.2667 -7.8 0.0
0.3333 -7.8 0.0
0.4 -7.8 0.0
0.4667 -7.8 0.0
0.5333 -7.8 0.0
0.6 -7.8 0.0
0.6667 -7.8 0.0
0.7333 -7.8 0.0
0.8 -7.8 0.0
0.8667 -7.8 0.0
0.9333 -7.8 0.0
1 -7.8 0.0
1.1788 -7.8 0.0
1.3895 -7.8 0.0
1.6379 -7.8 0.0
1.9307 -7.8 0.0
2.2758 -7.8 0.0
2.6827 -7.8 0.0
3.1623 -7.8 0.0
3.7276 -7.8 0.0
4.394 -7.8 0.0
5.1795 -7.8 0.0
6.1054 -7.8 0.0
7.1969 -7.8 0.0
8.4834 -7.8 0.0
10 -7.8 0.0
0 -7.8667 0.0
0.0333 -7.8667 0.0
0.0667 -7.8667 0.0
0.1 -7.8667 0.0
0.1333 -7.8667 0.0
0.1667 -7.8667 0.0
0.2 -7.8667 0.0
0.2333 -7.8667 0.0
0.2667 -7.8667 0.0
0.3 -7.8667 0.0
0.3333 -7.8667 0.0
0.3667 -7.8667 0.0
0.4 -7.8667 0.0
0.4333 -7.8667 0.0
0.4667 -7.8667 0.0
0.5 -7.8667 0.0
0.5333 -7.8667 0.0
0.5667 -7.8667 0.0
0.6 -7.8667 0.0
0.6333 -7.8667 0.0
0.6667 -7.8667 0.0
0.7 -7.8667 0.0
0.7333 -7.8667 0.0
0.7667 -7.8667 0.0
0.8 -7.8667 0.0
0.8333 -7.8667 0.0
0.8667 -7.8667 0.0
0.9 -7.8667 0.0
0.9333 -7.8667 0.0
0.9667 -7.8667 0.0
1 -7.8667 0.0
1.0894 -7.8667 0.0
1.1788 -7.8667 0.0
1.2841 -7.8667 0.0
1.3895 -7.8667 0.0
1.5137 -7.8667 0.0
1.6379 -7.8667 0.0
1.7843 -7.8667 0.0
1.9307 -7.8667 0.0
2.1033 -7.8667 0.0
2.2758 -7.8667 0.0
2.4793 -7.8667 0.0
2.6827 -7.8667 0.0
2.9225 -7.8667 0.0
3.1623 -7.8667 0.0
3.4449 -7.8667 0.0
3.7276 -7.8667 0.0
4.0608 -7.8667 0.0
4.394 -7.8667 0.0
4.7867 -7.8667 0.0
5.1795 -7.8667 0.0
5.6424 -7.8667 0.0
6.1054 -7.8667 0.0
6.6511 -7.8667 0.0
7.1969 -7.8667 0.0
7.8401 -7.8667 0.0
8.4834 -7.8667 0.0
9.2417 -7.8667 0.0
10 -7.8667 0.0
0 -7.9333 0.0
0.0667 -7.9333 0.0
0.1333 -7.9333 0.0
0.2 -7.9333 0.0
0.2667 -7.9333 0.0
0.3333 -7.9333 0.0
0.4 -7.9333 0.0
0.4667 -7.9333 0.0
0.5333 -7.9333 0.0
0.6 -7.9333 0.0
0.6667 -7.9333 0.0
0.7333 -7.9333 0.0
0.8 -7.9333 0.0
0.8667 -7.9333 0.0
0.9333 -7.9333 0.0
1 -7.9333 0.0
1.1788 -7.9333 0.0
1.3895 -7.9333 0.0
1.6379 -7.9333 0.0
1.9307 -7.9333 0.0
2.2758 -7.9333 0.0
2.6827 -7.9333 0.0
3.1623 -7.9333 0.0
3.7276 -7.9333 0.0
4.394 -7.9333 0.0
5.1795 -7.9333 0.0
6.1054 -7.9333 0.0
7.1969 -7.9333 0.0
8.4834 -7.9333 0.0
10 -7.9333 0.0
0 -8 0.0
0.0333 -8 0.0
0.0667 -8 0.0
0.1 -8 0.0
0.1333 -8 0.0
0.1667 -8 0.0
0.2 -8 0.0
0.2333 -8 0.0
0.2667 -8 0.0
0.3 -8 0.0
0.3333 -8 0.0
0.3667 -8 0.0
0.4 -8 0.0
0.4333 -8 0.0
0.4667 -8 0.0
0.5 -8 0.0
0.5333 -8 0.0
0.5667 -8 0.0
0.6 -8 0.0
0.6333 -8 0.0
0.6667 -8 0.0
0.7 -8 0.0
0.7333 -8 0.0
0.7667 -8 0.0
0.8 -8 0.0
0.8333 -8 0.0
0.8667 -8 0.0
0.9 -8 0.0
0.9333 -8 0.0
0.9667 -8 0.0
1 -8 0.0
1.0894 -8 0.0
1.1788 -8 0.0
1.2841 -8 0.0
1.3895 -8 0.0
1.5137 -8 0.0
1.6379 -8 0.0
1.7843 -8 0.0
1.9307 -8 0.0
2.1033 -8 0.0
2.2758 -8 0.0
2.4793 -8 0.0
2.6827 -8 0.0
2.9225 -8 0.0
3.1623 -8 0.0
3.4449 -8 0.0
3.7276 -8 0.0
4.0608 -8 0.0
4.394 -8 0.0
4.7867 -8 0.0
5.1795 -8 0.0
5.6424 -8 0.0
6.1054 -8 0.0
6.6511 -8 0.0
7.1969 -8 0.0
7.8401 -8 0.0
8.4834 -8 0.0
9.2417 -8 0.0
10 -8 0.0
0 -8.2 0.0
0.0667 -8.2 0.0
0.1333 -8.2 0.0
0.2 -8.2 0.0
0.2667 -8.2 0.0
0.3333 -8.2 0.0
0.4 -8.2 0.0
0.4667 -8.2 0.0
0.5333 -8.2 0.0
0.6 -8.2 0.0
0.6667 -8.2 0.0
0.7333 -8.2 0.0
0.8 -8.2 0.0
0.8667 -8.2 0.0
0.9333 -8.2 0.0
1 -8.2 0.0
1.1788 -8.2 0.0
1.3895 -8.2 0.0
1.6379 -8.2 0.0
1.9307 -8.2 0.0
2.2758 -8.2 0.0
2.6827 -8.2 0.0
3.1623 -8.2 0.0
3.7276 -8.2 0.0
4.394 -8.2 0.0
5.1795 -8.2 0.0
6.1054 -8.2 0.0
7.1969 -8.2 0.0
8.4834 -8.2 0.0
10 -8.2 0.0
0 -8.4 0.0
0.0333 -8.4 0.0
0.0667 -8.4 0.0
0.1 -8.4 0.0
0.1333 -8.4 0.0
0.1667 -8.4 0.0
0.2 -8.4 0.0
0.2333 -8.4 0.0
0.2667 -8.4 0.0
0.3 -8.4 0.0
0.3333 -8.4 0.0
0.3667 -8.4 0.0
0.4 -8.4 0.0
0.4333 -8.4 0.0
0.4667 -8.4 0.0
0.5 -8.4 0.0
0.5333 -8.4 0.0
0.5667 -8.4 0.0
0.6 -8.4 0.0
0.6333 -8.4 0.0
0.6667 -8.4 0.0
0.7 -8.4 0.0
0.7333 -8.4 0.0
0.7667 -8.4 0.0
0.8 -8.4 0.0
0.8333 -8.4 0.0
0.8667 -8.4 0.0
0.9 -8.4 0.0
0.9333 -8.4 0.0
0.9667 -8.4 0.0
1 -8.4 0.0
1.0894 -8.4 0.0
1.1788 -8.4 0.0
1.2841 -8.4 0.0
1.3895 -8.4 0.0
1.5137 -8.4 0.0
1.6379 -8.4 0.0
1.7843 -8.4 0.0
1.9307 -8.4 0.0
2.1033 -8.4 0.0
2.2758 -8.4 0.0
2.4793 -8.4 0.0
2.6827 -8.4 0.0
2.9225 -8.4 0.0
3.1623 -8.4 0.0
3.4449 -8.4 0.0
3.7276 -8.4 0.0
4.0608 -8.4 0.0
4.394 -8.4 0.0
4.7867 -8.4 0.0
5.1795 -8.4 0.0
5.6424 -8.4 0.0
6.1054 -8.4 0.0
6.6511 -8.4 0.0
7.1969 -8.4 0.0
7.8401 -8.4 0.0
8.4834 -8.4 0.0
9.2417 -8.4 0.0
10 -8.4 0.0
0 -8.6 0.0
0.0667 -8.6 0.0
0.1333 -8.6 0.0
0.2 -8.6 0.0
0.2667 -8.6 0.0
0.3333 -8.6 0.0
0.4 -8.6 0.0
0.4667 -8.6 0.0
0.5333 -8.6 0.0
0.6 -8.6 0.0
0.6667 -8.6 0.0
0.7333 -8.6 0.0
0.8 -8.6 0.0
0.8667 -8.6 0.0
0.9333 -8.6 0.0
1 -8.6 0.0
1.1788 -8.6 0.0
1.3895 -8.6 0.0
1.6379 -8.6 0.0
1.9307 -8.6 0.0
2.2758 -8.6 0.0
2.6827 -8.6 0.0
3.1623 -8.6 0.0
3.7276 -8.6 0.0
4.394 -8.6 0.0
5.1795 -8.6 0.0
6.1054 -8.6 0.0
7.1969 -8.6 0.0
8.4834 -8.6 0.0
10 -8.6 0.0
0 -8.8 0.0
0.0333 -8.8 0.0
0.0667 -8.8 0.0
0.1 -8.8 0.0
0.1333 -8.8 0.0
0.1667 -8.8 0.0
0.2 -8.8 0.0
0.2333 -8.8 0.0
0.2667 -8.8 0.0
0.3 -8.8 0.0
0.3333 -8.8 0.0
0.3667 -8.8 0.0
0.4 -8.8 0.0
0.4333 -8.8 0.0
0.4667 -8.8 0.0
0.5 -8.8 0.0
0.5333 -8.8 0.0
0.5667 -8.8 0.0
0.6 -8.8 0.0
0.6333 -8.8 0.0
0.6667 -8.8 0.0
0.7 -8.8 0.0
0.7333 -8.8 0.0
0.7667 -8.8 0.0
0.8 -8.8 0.0
0.8333 -8.8 0.0
0.8667 -8.8 0.0
0.9 -8.8 0.0
0.9333 -8.8 0.0
0.9667 -8.8 0.0
1 -8.8 0.0
1.0894 -8.8 0.0
1.1788 -8.8 0.0
1.2841 -8.8 0.0
1.3895 -8.8 0.0
1.5137 -8.8 0.0
1.6379 -8.8 0.0
1.7843 -8.8 0.0
1.9307 -8.8 0.0
2.1033 -8.8 0.0
2.2758 -8.8 0.0
2.4793 -8.8 0.0
2.6827 -8.8 0.0
2.9225 -8.8 0.0
3.1623 -8.8 0.0
3.4449 -8.8 0.0
3.7276 -8.8 0.0
4.0608 -8.8 0.0
4.394 -8.8 0.0
4.7867 -8.8 0.0
5.1795 -8.8 0.0
5.6424 -8.8 0.0
6.1054 -8.8 0.0
6.6511 -8.8 0.0
7.1969 -8.8 0.0
7.8401 -8.8 0.0
8.4834 -8.8 0.0
9.2417 -8.8 0.0
10 -8.8 0.0
0 -9 0.0
0.0667 -9 0.0
0.1333 -9 0.0
0.2 -9 0.0
0.2667 -9 0.0
0.3333 -9 0.0
0.4 -9 0.0
0.4667 -9 0.0
0.5333 -9 0.0
0.6 -9 0.0
0.6667 -9 0.0
0.7333 -9 0.0
0.8 -9 0.0
0.8667 -9 0.0
0.9333 -9 0.0
1 -9 0.0
1.1788 -9 0.0
1.3895 -9 0.0
1.6379 -9 0.0
1.9307 -9 0.0
2.2758 -9 0.0
2.6827 -9 0.0
3.1623 -9 0.0
3.7276 -9 0.0
4.394 -9 0.0
5.1795 -9 0.0
6.1054 -9 0.0
7.1969 -9 0.0
8.4834 -9 0.0
10 -9 0.0
0 -9.2 0.0
0.0333 -9.2 0.0
0.0667 -9.2 0.0
0.1 -9.2 0.0
0.1333 -9.2 0.0
0.1667 -9.2 0.0
0.2 -9.2 0.0
0.2333 -9.2 0.0
0.2667 -9.2 0.0
0.3 -9.2 0.0
0.3333 -9.2 0.0
0.3667 -9.2 0.0
0.4 -9.2 0.0
0.4333 -9.2 0.0
0.4667 -9.2 0.0
0.5 -9.2 0.0
0.5333 -9.2 0.0
0.5667 -9.2 0.0
0.6 -9.2 0.0
0.6333 -9.2 0.0
0.6667 -9.2 0.0
0.7 -9.2 0.0
0.7333 -9.2 0.0
0.7667 -9.2 0.0
0.8 -9.2 0.0
0.8333 -9.2 0.0
0.8667 -9.2 0.0
0.9 -9.2 0.0
0.9333 -9.2 0.0
0.9667 -9.2 0.0
1 -9.2 0.0
1.0894 -9.2 0.0
1.1788 -9.2 0.0
1.2841 -9.2 0.0
1.3895 -9.2 0.0
1.5137 -9.2 0.0
1.6379 -9.2 0.0
1.7843 -9.2 0.0
1.9307 -9.2 0.0
2.1033 -9.2 0.0
2.2758 -9.2 0.0
2.4793 -9.2 0.0
2.6827 -9.2 0.0
2.9225 -9.2 0.0
3.1623 -9.2 0.0
3.4449 -9.2 0.0
3.7276 -9.2 0.0
4.0608 -9.2 0.0
4.394 -9.2 0.0
4.7867 -9.2 0.0
5.1795 -9.2 0.0
5.6424 -9.2 0.0
6.1054 -9.2 0.0
6.6511 -9.2 0.0
7.1969 -9.2 0.0
7.8401 -9.2 0.0
8.4834 -9.2 0.0
9.2417 -9.2 0.0
10 -9.2 0.0
0 -9.4 0.0
0.0667 -9.4 0.0
0.1333 -9.4 0.0
0.2 -9.4 0.0
0.2667 -9.4 0.0
0.3333 -9.4 0.0
0.4 -9.4 0.0
0.4667 -9.4 0.0
0.5333 -9.4 0.0
0.6 -9.4 0.0
0.6667 -9.4 0.0
0.7333 -9.4 0.0
0.8 -9.4 0.0
0.8667 -9.4 0.0
0.9333 -9.4 0.0
1 -9.4 0.0
1.1788 -9.4 0.0
1.3895 -9.4 0.0
1.6379 -9.4 0.0
1.9307 -9.4 0.0
2.2758 -9.4 0.0
2.6827 -9.4 0.0
3.1623 -9.4 0.0
3.7276 -9.4 0.0
4.394 -9.4 0.0
5.1795 -9.4 0.0
6.1054 -9.4 0.0
7.1969 -9.4 0.0
8.4834 -9.4 0.0
10 -9.4 0.0
0 -9.6 0.0
0.0333 -9.6 0.0
0.0667 -9.6 0.0
0.1 -9.6 0.0
0.1333 -9.6 0.0
0.1667 -9.6 0.0
0.2 -9.6 0.0
0.2333 -9.6 0.0
0.2667 -9.6 0.0
0.3 -9.6 0.0
0.3333 -9.6 0.0
0.3667 -9.6 0.0
0.4 -9.6 0.0
0.4333 -9.6 0.0
0.4667 -9.6 0.0
0.5 -9.6 0.0
0.5333 -9.6 0.0
0.5667 -9.6 0.0
0.6 -9.6 0.0
0.6333 -9.6 0.0
0.6667 -9.6 0.0
0.7 -9.6 0.0
0.7333 -9.6 0.0
0.7667 -9.6 0.0
0.8 -9.6 0.0
0.8333 -9.6 0.0
0.8667 -9.6 0.0
0.9 -9.6 0.0
0.9333 -9.6 0.0
0.9667 -9.6 0.0
1 -9.6 0.0
1.0894 -9.6 0.0
1.1788 -9.6 0.0
1.2841 -9.6 0.0
1.3895 -9.6 0.0
1.5137 -9.6 0.0
1.6379 -9.6 0.0
1.7843 -9.6 0.0
1.9307 -9.6 0.0
2.1033 -9.6 0.0
2.2758 -9.6 0.0
2.4793 -9.6 0.0
2.6827 -9.6 0.0
2.9225 -9.6 0.0
3.1623 -9.6 0.0
3.4449 -9.6 0.0
3.7276 -9.6 0.0
4.0608 -9.6 0.0
4.394 -9.6 0.0
4.7867 -9.6 0.0
5.1795 -9.6 0.0
5.6424 -9.6 0.0
6.1054 -9.6 0.0
6.6511 -9.6 0.0
7.1969 -9.6 0.0
7.8401 -9.6 0.0
8.4834 -9.6 0.0
9.2417 -9.6 0.0
10 -9.6 0.0
0 -9.8 0.0
0.0667 -9.8 0.0
0.1333 -9.8 0.0
0.2 -9.8 0.0
0.2667 -9.8 0.0
0.3333 -9.8 0.0
0.4 -9.8 0.0
0.4667 -9.8 0.0
0.5333 -9.8 0.0
0.6 -9.8 0.0
0.6667 -9.8 0.0
0.7333 -9.8 0.0
0.8 -9.8 0.0
0.8667 -9.8 0.0
0.9333 -9.8 0.0
1 -9.8 0.0
1.1788 -9.8 0.0
1.3895 -9.8 0.0
1.6379 -9.8 0.0
1.9307 -9.8 0.0
2.2758 -9.8 0.0
2.6827 -9.8 0.0
3.1623 -9.8 0.0
3.7276 -9.8 0.0
4.394 -9.8 0.0
5.1795 -9.8 0.0
6.1054 -9.8 0.0
7.1969 -9.8 0.0
8.4834 -9.8 0.0
10 -9.8 0.0
0 -10 0.0
0.0333 -10 0.0
0.0667 -10 0.0
0.1 -10 0.0
0.1333 -10 0.0
0.1667 -10 0.0
0.2 -10 0.0
0.2333 -10 0.0
0.2667 -10 0.0
0.3 -10 0.0
0.3333 -10 0.0
0.3667 -10 0.0
0.4 -10 0.0
0.4333 -10 0.0
0.4667 -10 0.0
0.5 -10 0.0
0.5333 -10 0.0
0.5667 -10 0.0
0.6 -10 0.0
0.6333 -10 0.0
0.6667 -10 0.0
0.7 -10 0.0
0.7333 -10 0.0
0.7667 -10 0.0
0.8 -10 0.0
0.8333 -10 0.0
0.8667 -10 0.0
0.9 -10 0.0
0.9333 -10 0.0
0.9667 -10 0.0
1 -10 0.0
1.0894 -10 0.0
1.1788 -10 0.0
1.2841 -10 0.0
1.3895 -10 0.0
1.5137 -10 0.0
1.6379 -10 0.0
1.7843 -10 0.0
1.9307 -10 0.0
2.1033 -10 0.0
2.2758 -10 0.0
2.4793 -10 0.0
2.6827 -10 0.0
2.9225 -10 0.0
3.1623 -10 0.0
3.4449 -10 0.0
3.7276 -10 0.0
4.0608 -10 0.0
4.394 -10 0.0
4.7867 -10 0.0
5.1795 -10 0.0
5.6424 -10 0.0
6.1054 -10 0.0
6.6511 -10 0.0
7.1969 -10 0.0
7.8401 -10 0.0
8.4834 -10 0.0
9.2417 -10 0.0
10 -10 0.0
0 -10.2 0.0
0.0667 -10.2 0.0
0.1333 -10.2 0.0
0.2 -10.2 0.0
0.2667 -10.2 0.0
0.3333 -10.2 0.0
0.4 -10.2 0.0
0.4667 -10.2 0.0
0.5333 -10.2 0.0
0.6 -10.2 0.0
0.6667 -10.2 0.0
0.7333 -10.2 0.0
0.8 -10.2 0.0
0.8667 -10.2 0.0
0.9333 -10.2 0.0
1 -10.2 0.0
1.1788 -10.2 0.0
1.3895 -10.2 0.0
1.6379 -10.2 0.0
1.9307 -10.2 0.0
2.2758 -10.2 0.0
2.6827 -10.2 0.0
3.1623 -10.2 0.0
3.7276 -10.2 0.0
4.394 -10.2 0.0
5.1795 -10.2 0.0
6.1054 -10.2 0.0
7.1969 -10.2 0.0
8.4834 -10.2 0.0
10 -10.2 0.0
0 -10.4 0.0
0.0333 -10.4 0.0
0.0667 -10.4 0.0
0.1 -10.4 0.0
0.1333 -10.4 0.0
0.1667 -10.4 0.0
0.2 -10.4 0.0
0.2333 -10.4 0.0
0.2667 -10.4 0.0
0.3 -10.4 0.0
0.3333 -10.4 0.0
0.3667 -10.4 0.0
0.4 -10.4 0.0
0.4333 -10.4 0.0
0.4667 -10.4 0.0
0.5 -10.4 0.0
0.5333 -10.4 0.0
0.5667 -10.4 0.0
0.6 -10.4 0.0
0.6333 -10.4 0.0
0.6667 -10.4 0.0
0.7 -10.4 0.0
0.7333 -10.4 0.0
0.7667 -10.4 0.0
0.8 -10.4 0.0
0.8333 -10.4 0.0
0.8667 -10.4 0.0
0.9 -10.4 0.0
0.9333 -10.4 0.0
0.9667 -10.4 0.0
1 -10.4 0.0
1.0894 -10.4 0.0
1.1788 -10.4 0.0
1.2841 -10.4 0.0
1.3895 -10.4 0.0
1.5137 -10.4 0.0
1.6379 -10.4 0.0
1.7843 -10.4 0.0
1.9307 -10.4 0.0
2.1033 -10.4 0.0
2.2758 -10.4 0.0
2.4793 -10.4 0.0
2.6827 -10.4 0.0
2.9225 -10.4 0.0
3.1623 -10.4 0.0
3.4449 -10.4 0.0
3.7276 -10.4 0.0
4.0608 -10.4 0.0
4.394 -10.4 0.0
4.7867 -10.4 0.0
5.1795 -10.4 0.0
5.6424 -10.4 0.0
6.1054 -10.4 0.0
6.6511 -10.4 0.0
7.1969 -10.4 0.0
7.8401 -10.4 0.0
8.4834 -10.4 0.0
9.2417 -10.4 0.0
10 -10.4 0.0
0 -10.6 0.0
0.0667 -10.6 0.0
0.1333 -10.6 0.0
0.2 -10.6 0.0
0.2667 -10.6 0.0
0.3333 -10.6 0.0
0.4 -10.6 0.0
0.4667 -10.6 0.0
0.5333 -10.6 0.0
0.6 -10.6 0.0
0.6667 -10.6 0.0
0.7333 -10.6 0.0
0.8 -10.6 0.0
0.8667 -10.6 0.0
0.9333 -10.6 0.0
1 -10.6 0.0
1.1788 -10.6 0.0
1.3895 -10.6 0.0
1.6379 -10.6 0.0
1.9307 -10.6 0.0
2.2758 -10.6 0.0
2.6827 -10.6 0.0
3.1623 -10.6 0.0
3.7276 -10.6 0.0
4.394 -10.6 0.0
5.1795 -10.6 0.0
6.1054 -10.6 0.0
7.1969 -10.6 0.0
8.4834 -10.6 0.0
10 -10.6 0.0
0 -10.8 0.0
0.0333 -10.8 0.0
0.0667 -10.8 0.0
0.1 -10.8 0.0
0.1333 -10.8 0.0
0.1667 -10.8 0.0
0.2 -10.8 0.0
0.2333 -10.8 0.0
0.2667 -10.8 0.0
0.3 -10.8 0.0
0.3333 -10.8 0.0
0.3667 -10.8 0.0
0.4 -10.8 0.0
0.4333 -10.8 0.0
0.4667 -10.8 0.0
0.5 -10.8 0.0
0.5333 -10.8 0.0
0.5667 -10.8 0.0
0.6 -10.8 0.0
0.6333 -10.8 0.0
0.6667 -10.8 0.0
0.7 -10.8 0.0
0.7333 -10.8 0.0
0.7667 -10.8 0.0
0.8 -10.8 0.0
0.8333 -10.8 0.0
0.8667 -10.8 0.0
0.9 -10.8 0.0
0.9333 -10.8 0.0
0.9667 -10.8 0.0
1 -10.8 0.0
1.0894 -10.8 0.0
1.1788 -10.8 0.0
1.2841 -10.8 0.0
1.3895 -10.8 0.0
1.5137 -10.8 0.0
1.6379 -10.8 0.0
1.7843 -10.8 0.0
1.9307 -10.8 0.0
2.1033 -10.8 0.0
2.2758 -10.8 0.0
2.4793 -10.8 0.0
2.6827 -10.8 0.0
2.9225 -10.8 0.0
3.1623 -10.8 0.0
3.4449 -10.8 0.0
3.7276 -10.8 0.0
4.0608 -10.8 0.0
4.394 -10.8 0.0
4.7867 -10.8 0.0
5.1795 -10.8 0.0
5.6424 -10.8 0.0
6.1054 -10.8 0.0
6.6511 -10.8 0.0
7.1969 -10.8 0.0
7.8401 -10.8 0.0
8.4834 -10.8 0.0
9.2417 -10.8 0.0
10 -10.8 0.0
0 -11 0.0
0.0667 -11 0.0
0.1333 -11 0.0
0.2 -11 0.0
0.2667 -11 0.0
0.3333 -11 0.0
0.4 -11 0.0
0.4667 -11 0.0
0.5333 -11 0.0
0.6 -11 0.0
0.6667 -11 0.0
0.7333 -11 0.0
0.8 -11 0.0
0.8667 -11 0.0
0.9333 -11 0.0
1 -11 0.0
1.1788 -11 0.0
1.3895 -11 0.0
1.6379 -11 0.0
1.9307 -11 0.0
2.2758 -11 0.0
2.6827 -11 0.0
3.1623 -11 0.0
3.7276 -11 0.0
4.394 -11 0.0
5.1795 -11 0.0
6.1054 -11 0.0
7.1969 -11 0.0
8.4834 -11 0.0
10 -11 0.0
0 -11.2 0.0
0.0333 -11.2 0.0
0.0667 -11.2 0.0
0.1 -11.2 0.0
0.1333 -11.2 0.0
0.1667 -11.2 0.0
0.2 -11.2 0.0
0.2333 -11.2 0.0
0.2667 -11.2 0.0
0.3 -11.2 0.0
0.3333 -11.2 0.0
0.3667 -11.2 0.0
0.4 -11.2 0.0
0.4333 -11.2 0.0
0.4667 -11.2 0.0
0.5 -11.2 0.0
0.5333 -11.2 0.0
0.5667 -11.2 0.0
0.6 -11.2 0.0
0.6333 -11.2 0.0
0.6667 -11.2 0.0
0.7 -11.2 0.0
0.7333 -11.2 0.0
0.7667 -11.2 0.0
0.8 -11.2 0.0
0.8333 -11.2 0.0
0.8667 -11.2 0.0
0.9 -11.2 0.0
0.9333 -11.2 0.0
0.9667 -11.2 0.0
1 -11.2 0.0
1.0894 -11.2 0.0
1.1788 -11.2 0.0
1.2841 -11.2 0.0
1.3895 -11.2 0.0
1.5137 -11.2 0.0
1.6379 -11.2 0.0
1.7843 -11.2 0.0
1.9307 -11.2 0.0
2.1033 -11.2 0.0
2.2758 -11.2 0.0
2.4793 -11.2 0.0
2.6827 -11.2 0.0
2.9225 -11.2 0.0
3.1623 -11.2 0.0
3.4449 -11.2 0.0
3.7276 -11.2 0.0
4.0608 -11.2 0.0
4.394 -11.2 0.0
4.7867 -11.2 0.0
5.1795 -11.2 0.0
5.6424 -11.2 0.0
6.1054 -11.2 0.0
6.6511 -11.2 0.0
7.1969 -11.2 0.0
7.8401 -11.2 0.0
8.4834 -11.2 0.0
9.2417 -11.2 0.0
10 -11.2 0.0
0 -11.4 0.0
0.0667 -11.4 0.0
0.1333 -11.4 0.0
0.2 -11.4 0.0
0.2667 -11.4 0.0
0.3333 -11.4 0.0
0.4 -11.4 0.0
0.4667 -11.4 0.0
0.5333 -11.4 0.0
0.6 -11.4 0.0
0.6667 -11.4 0.0
0.7333 -11.4 0.0
0.8 -11.4 0.0
0.8667 -11.4 0.0
0.9333 -11.4 0.0
1 -11.4 0.0
1.1788 -11.4 0.0
1.3895 -11.4 0.0
1.6379 -11.4 0.0
1.9307 -11.4 0.0
2.2758 -11.4 0.0
2.6827 -11.4 0.0
3.1623 -11.4 0.0
3.7276 -11.4 0.0
4.394 -11.4 0.0
5.1795 -11.4 0.0
6.1054 -11.4 0.0
7.1969 -11.4 0.0
8.4834 -11.4 0.0
10 -11.4 0.0
0 -11.6 0.0
0.0333 -11.6 0.0
0.0667 -11.6 0.0
0.1 -11.6 0.0
0.1333 -11.6 0.0
0.1667 -11.6 0.0
0.2 -11.6 0.0
0.2333 -11.6 0.0
0.2667 -11.6 0.0
0.3 -11.6 0.0
0.3333 -11.6 0.0
0.3667 -11.6 0.0
0.4 -11.6 0.0
0.4333 -11.6 0.0
0.4667 -11.6 0.0
0.5 -11.6 0.0
0.5333 -11.6 0.0
0.5667 -11.6 0.0
0.6 -11.6 0.0
0.6333 -11.6 0.0
0.6667 -11.6 0.0
0.7 -11.6 0.0
0.7333 -11.6 0.0
0.7667 -11.6 0.0
0.8 -11.6 0.0
0.8333 -11.6 0.0
0.8667 -11.6 0.0
0.9 -11.6 0.0
0.9333 -11.6 0.0
0.9667 -11.6 0.0
1 -11.6 0.0
1.0894 -11.6 0.0
1.1788 -11.6 0.0
1.2841 -11.6 0.0
1.3895 -11.6 0.0
1.5137 -11.6 0.0
1.6379 -11.6 0.0
1.7843 -11.6 0.0
1.9307 -11.6 0.0
2.1033 -11.6 0.0
2.2758 -11.6 0.0
2.4793 -11.6 0.0
2.6827 -11.6 0.0
2.9225 -11.6 0.0
3.1623 -11.6 0.0
3.4449 -11.6 0.0
3.7276 -11.6 0.0
4.0608 -11.6 0.0
4.394 -11.6 0.0
4.7867 -11.6 0.0
5.1795 -11.6 0.0
5.6424 -11.6 0.0
6.1054 -11.6 0.0
6.6511 -11.6 0.0
7.1969 -11.6 0.0
7.8401 -11.6 0.0
8.4834 -11.6 0.0
9.2417 -11.6 0.0
10 -11.6 0.0
0 -11.8 0.0
0.0667 -11.8 0.0
0.1333 -11.8 0.0
0.2 -11.8 0.0
0.2667 -11.8 0.0
0.3333 -11.8 0.0
0.4 -11.8 0.0
0.4667 -11.8 0.0
0.5333 -11.8 0.0
0.6 -11.8 0.0
0.6667 -11.8 0.0
0.7333 -11.8 0.0
0.8 -11.8 0.0
0.8667 -11.8 0.0
0.9333 -11.8 0.0
1 -11.8 0.0
1.1788 -11.8 0.0
1.3895 -11.8 0.0
1.6379 -11.8 0.0
1.9307 -11.8 0.0
2.2758 -11.8 0.0
2.6827 -11.8 0.0
3.1623 -11.8 0.0
3.7276 -11.8 0.0
4.394 -11.8 0.0
5.1795 -11.8 0.0
6.1054 -11.8 0.0
7.1969 -11.8 0.0
8.4834 -11.8 0.0
10 -11.8 0.0
0 -12 0.0
0.0333 -12 0.0
0.0667 -12 0.0
0.1 -12 0.0
0.1333 -12 0.0
0.1667 -12 0.0
0.2 -12 0.0
0.2333 -12 0.0
0.2667 -12 0.0
0.3 -12 0.0
0.3333 -12 0.0
0.3667 -12 0.0
0.4 -12 0.0
0.4333 -12 0.0
0.4667 -12 0.0
0.5 -12 0.0
0.5333 -12 0.0
0.5667 -12 0.0
0.6 -12 0.0
0.6333 -12 0.0
0.6667 -12 0.0
0.7 -12 0.0
0.7333 -12 0.0
0.7667 -12 0.0
0.8 -12 0.0
0.8333 -12 0.0
0.8667 -12 0.0
0.9 -12 0.0
0.9333 -12 0.0
0.9667 -12 0.0
1 -12 0.0
1.0894 -12 0.0
1.1788 -12 0.0
1.2841 -12 0.0
1.3895 -12 0.0
1.5137 -12 0.0
1.6379 -12 0.0
1.7843 -12 0.0
1.9307 -12 0.0
2.1033 -12 0.0
2.2758 -12 0.0
2.4793 -12 0.0
2.6827 -12 0.0
2.9225 -12 0.0
3.1623 -12 0.0
3.4449 -12 0.0
3.7276 -12 0.0
4.0608 -12 0.0
4.394 -12 0.0
4.7867 -12 0.0
5.1795 -12 0.0
5.6424 -12 0.0
6.1054 -12 0.0
6.6511 -12 0.0
7.1969 -12 0.0
7.8401 -12 0.0
8.4834 -12 0.0
9.2417 -12 0.0
10 -12 0.0
0 -12.2 0.0
0.0667 -12.2 0.0
0.1333 -12.2 0.0
0.2 -12.2 0.0
0.2667 -12.2 0.0
0.3333 -12.2 0.0
0.4 -12.2 0.0
0.4667 -12.2 0.0
0.5333 -12.2 0.0
0.6 -12.2 0.0
0.6667 -12.2 0.0
0.7333 -12.2 0.0
0.8 -12.2 0.0
0.8667 -12.2 0.0
0.9333 -12.2 0.0
1 -12.2 0.0
1.1788 -12.2 0.0
1.3895 -12.2 0.0
1.6379 -12.2 0.0
1.9307 -12.2 0.0
2.2758 -12.2 0.0
2.6827 -12.2 0.0
3.1623 -12.2 0.0
3.7276 -12.2 0.0
4.394 -12.2 0.0
5.1795 -12.2 0.0
6.1054 -12.2 0.0
7.1969 -12.2 0.0
8.4834 -12.2 0.0
10 -12.2 0.0
0 -12.4 0.0
0.0333 -12.4 0.0
0.0667 -12.4 0.0
0.1 -12.4 0.0
0.1333 -12.4 0.0
0.1667 -12.4 0.0
0.2 -12.4 0.0
0.2333 -12.4 0.0
0.2667 -12.4 0.0
0.3 -12.4 0.0
0.3333 -12.4 0.0
0.3667 -12.4 0.0
0.4 -12.4 0.0
0.4333 -12.4 0.0
0.4667 -12.4 0.0
0.5 -12.4 0.0
0.5333 -12.4 0.0
0.5667 -12.4 0.0
0.6 -12.4 0.0
0.6333 -12.4 0.0
0.6667 -12.4 0.0
0.7 -12.4 0.0
0.7333 -12.4 0.0
0.7667 -12.4 0.0
0.8 -12.4 0.0
0.8333 -12.4 0.0
0.8667 -12.4 0.0
0.9 -12.4 0.0
0.9333 -12.4 0.0
0.9667 -12.4 0.0
1 -12.4 0.0
1.0894 -12.4 0.0
1.1788 -12.4 0.0
1.2841 -12.4 0.0
1.3895 -12.4 0.0
1.5137 -12.4 0.0
1.6379 -12.4 0.0
1.7843 -12.4 0.0
1.9307 -12.4 0.0
2.1033 -12.4 0.0
2.2758 -12.4 0.0
2.4793 -12.4 0.0
2.6827 -12.4 0.0
2.9225 -12.4 0.0
3.1623 -12.4 0.0
3.4449 -12.4 0.0
3.7276 -12.4 0.0
4.0608 -12.4 0.0
4.394 -12.4 0.0
4.7867 -12.4 0.0
5.1795 -12.4 0.0
5.6424 -12.4 0.0
6.1054 -12.4 0.0
6.6511 -12.4 0.0
7.1969 -12.4 0.0
7.8401 -12.4 0.0
8.4834 -12.4 0.0
9.2417 -12.4 0.0
10 -12.4 0.0
0 -12.6 0.0
0.0667 -12.6 0.0
0.1333 -12.6 0.0
0.2 -12.6 0.0
0.2667 -12.6 0.0
0.3333 -12.6 0.0
0.4 -12.6 0.0
0.4667 -12.6 0.0
0.5333 -12.6 0.0
0.6 -12.6 0.0
0.6667 -12.6 0.0
0.7333 -12.6 0.0
0.8 -12.6 0.0
0.8667 -12.6 0.0
0.9333 -12.6 0.0
1 -12.6 0.0
1.1788 -12.6 0.0
1.3895 -12.6 0.0
1.6379 -12.6 0.0
1.9307 -12.6 0.0
2.2758 -12.6 0.0
2.6827 -12.6 0.0
3.1623 -12.6 0.0
3.7276 -12.6 0.0
4.394 -12.6 0.0
5.1795 -12.6 0.0
6.1054 -12.6 0.0
7.1969 -12.6 0.0
8.4834 -12.6 0.0
10 -12.6 0.0
0 -12.8 0.0
0.0333 -12.8 0.0
0.0667 -12.8 0.0
0.1 -12.8 0.0
0.1333 -12.8 0.0
0.1667 -12.8 0.0
0.2 -12.8 0.0
0.2333 -12.8 0.0
0.2667 -12.8 0.0
0.3 -12.8 0.0
0.3333 -12.8 0.0
0.3667 -12.8 0.0
0.4 -12.8 0.0
0.4333 -12.8 0.0
0.4667 -12.8 0.0
0.5 -12.8 0.0
0.5333 -12.8 0.0
0.5667 -12.8 0.0
0.6 -12.8 0.0
0.6333 -12.8 0.0
0.6667 -12.8 0.0
0.7 -12.8 0.0
0.7333 -12.8 0.0
0.7667 -12.8 0.0
0.8 -12.8 0.0
0.8333 -12.8 0.0
0.8667 -12.8 0.0
0.9 -12.8 0.0
0.9333 -12.8 0.0
0.9667 -12.8 0.0
1 -12.8 0.0
1.0894 -12.8 0.0
1.1788 -12.8 0.0
1.2841 -12.8 0.0
1.3895 -12.8 0.0
1.5137 -12.8 0.0
1.6379 -12.8 0.0
1.7843 -12.8 0.0
1.9307 -12.8 0.0
2.1033 -12.8 0.0
2.2758 -12.8 0.0
2.4793 -12.8 0.0
2.6827 -12.8 0.0
2.9225 -12.8 0.0
3.1623 -12.8 0.0
3.4449 -12.8 0.0
3.7276 -12.8 0.0
4.0608 -12.8 0.0
4.394 -12.8 0.0
4.7867 -12.8 0.0
5.1795 -12.8 0.0
5.6424 -12.8 0.0
6.1054 -12.8 0.0
6.6511 -12.8 0.0
7.1969 -12.8 0.0
7.8401 -12.8 0.0
8.4834 -12.8 0.0
9.2417 -12.8 0.0
10 -12.8 0.0
0 -13 0.0
0.0667 -13 0.0
0.1333 -13 0.0
0.2 -13 0.0
0.2667 -13 0.0
0.3333 -13 0.0
0.4 -13 0.0
0.4667 -13 0.0
0.5333 -13 0.0
0.6 -13 0.0
0.6667 -13 0.0
0.7333 -13 0.0
0.8 -13 0.0
0.8667 -13 0.0
0.9333 -13 0.0
1 -13 0.0
1.1788 -13 0.0
1.3895 -13 0.0
1.6379 -13 0.0
1.9307 -13 0.0
2.2758 -13 0.0
2.6827 -13 0.0
3.1623 -13 0.0
3.7276 -13 0.0
4.394 -13 0.0
5.1795 -13 0.0
6.1054 -13 0.0
7.1969 -13 0.0
8.4834 -13 0.0
10 -13 0.0
0 -13.2 0.0
0.0333 -13.2 0.0
0.0667 -13.2 0.0
0.1 -13.2 0.0
0.1333 -13.2 0.0
0.1667 -13.2 0.0
0.2 -13.2 0.0
0.2333 -13.2 0.0
0.2667 -13.2 0.0
0.3 -13.2 0.0
0.3333 -13.2 0.0
0.3667 -13.2 0.0
0.4 -13.2 0.0
0.4333 -13.2 0.0
0.4667 -13.2 0.0
0.5 -13.2 0.0
0.5333 -13.2 0.0
0.5667 -13.2 0.0
0.6 -13.2 0.0
0.6333 -13.2 0.0
0.6667 -13.2 0.0
0.7 -13.2 0.0
0.7333 -13.2 0.0
0.7667 -13.2 0.0
0.8 -13.2 0.0
0.8333 -13.2 0.0
0.8667 -13.2 0.0
0.9 -13.2 0.0
0.9333 -13.2 0.0
0.9667 -13.2 0.0
1 -13.2 0.0
1.0894 -13.2 0.0
1.1788 -13.2 0.0
1.2841 -13.2 0.0
1.3895 -13.2 0.0
1.5137 -13.2 0.0
1.6379 -13.2 0.0
1.7843 -13.2 0.0
1.9307 -13.2 0.0
2.1033 -13.2 0.0
2.2758 -13.2 0.0
2.4793 -13.2 0.0
2.6827 -13.2 0.0
2.9225 -13.2 0.0
3.1623 -13.2 0.0
3.4449 -13.2 0.0
3.7276 -13.2 0.0
4.0608 -13.2 0.0
4.394 -13.2 0.0
4.7867 -13.2 0.0
5.1795 -13.2 0.0
5.6424 -13.2 0.0
6.1054 -13.2 0.0
6.6511 -13.2 0.0
7.1969 -13.2 0.0
7.8401 -13.2 0.0
8.4834 -13.2 0.0
9.2417 -13.2 0.0
10 -13.2 0.0
0 -13.4 0.0
0.0667 -13.4 0.0
0.1333 -13.4 0.0
0.2 -13.4 0.0
0.2667 -13.4 0.0
0.3333 -13.4 0.0
0.4 -13.4 0.0
0.4667 -13.4 0.0
0.5333 -13.4 0.0
0.6 -13.4 0.0
0.6667 -13.4 0.0
0.7333 -13.4 0.0
0.8 -13.4 0.0
0.8667 -13.4 0.0
0.9333 -13.4 0.0
1 -13.4 0.0
1.1788 -13.4 0.0
1.3895 -13.4 0.0
1.6379 -13.4 0.0
1.9307 -13.4 0.0
2.2758 -13.4 0.0
2.6827 -13.4 0.0
3.1623 -13.4 0.0
3.7276 -13.4 0.0
4.394 -13.4 0.0
5.1795 -13.4 0.0
6.1054 -13.4 0.0
7.1969 -13.4 0.0
8.4834 -13.4 0.0
10 -13.4 0.0
0 -13.6 0.0
0.0333 -13.6 0.0
0.0667 -13.6 0.0
0.1 -13.6 0.0
0.1333 -13.6 0.0
0.1667 -13.6 0.0
0.2 -13.6 0.0
0.2333 -13.6 0.0
0.2667 -13.6 0.0
0.3 -13.6 0.0
0.3333 -13.6 0.0
0.3667 -13.6 0.0
0.4 -13.6 0.0
0.4333 -13.6 0.0
0.4667 -13.6 0.0
0.5 -13.6 0.0
0.5333 -13.6 0.0
0.5667 -13.6 0.0
0.6 -13.6 0.0
0.6333 -13.6 0.0
0.6667 -13.6 0.0
0.7 -13.6 0.0
0.7333 -13.6 0.0
0.7667 -13.6 0.0
0.8 -13.6 0.0
0.8333 -13.6 0.0
0.8667 -13.6 0.0
0.9 -13.6 0.0
0.9333 -13.6 0.0
0.9667 -13.6 0.0
1 -13.6 0.0
1.0894 -13.6 0.0
1.1788 -13.6 0.0
1.2841 -13.6 0.0
1.3895 -13.6 0.0
1.5137 -13.6 0.0
1.6379 -13.6 0.0
1.7843 -13.6 0.0
1.9307 -13.6 0.0
2.1033 -13.6 0.0
2.2758 -13.6 0.0
2.4793 -13.6 0.0
2.6827 -13.6 0.0
2.9225 -13.6 0.0
3.1623 -13.6 0.0
3.4449 -13.6 0.0
3.7276 -13.6 0.0
4.0608 -13.6 0.0
4.394 -13.6 0.0
4.7867 -13.6 0.0
5.1795 -13.6 0.0
5.6424 -13.6 0.0
6.1054 -13.6 0.0
6.6511 -13.6 0.0
7.1969 -13.6 0.0
7.8401 -13.6 0.0
8.4834 -13.6 0.0
9.2417 -13.6 0.0
10 -13.6 0.0
0 -13.8 0.0
0.0667 -13.8 0.0
0.1333 -13.8 0.0
0.2 -13.8 0.0
0.2667 -13.8 0.0
0.3333 -13.8 0.0
0.4 -13.8 0.0
0.4667 -13.8 0.0
0.5333 -13.8 0.0
0.6 -13.8 0.0
0.6667 -13.8 0.0
0.7333 -13.8 0.0
0.8 -13.8 0.0
0.8667 -13.8 0.0
0.9333 -13.8 0.0
1 -13.8 0.0
1.1788 -13.8 0.0
1.3895 -13.8 0.0
1.6379 -13.8 0.0
1.9307 -13.8 0.0
2.2758 -13.8 0.0
2.6827 -13.8 0.0
3.1623 -13.8 0.0
3.7276 -13.8 0.0
4.394 -13.8 0.0
5.1795 -13.8 0.0
6.1054 -13.8 0.0
7.1969 -13.8 0.0
8.4834 -13.8 0.0
10 -13.8 0.0
0 -14 0.0
0.0333 -14 0.0
0.0667 -14 0.0
0.1 -14 0.0
0.1333 -14 0.0
0.1667 -14 0.0
0.2 -14 0.0
0.2333 -14 0.0
0.2667 -14 0.0
0.3 -14 0.0
0.3333 -14 0.0
0.3667 -14 0.0
0.4 -14 0.0
0.4333 -14 0.0
0.4667 -14 0.0
0.5 -14 0.0
0.5333 -14 0.0
0.5667 -14 0.0
0.6 -14 0.0
0.6333 -14 0.0
0.6667 -14 0.0
0.7 -14 0.0
0.7333 -14 0.0
0.7667 -14 0.0
0.8 -14 0.0
0.8333 -14 0.0
0.8667 -14 0.0
0.9 -14 0.0
0.9333 -14 0.0
0.9667 -14 0.0
1 -14 0.0
1.0894 -14 0.0
1.1788 -14 0.0
1.2841 -14 0.0
1.3895 -14 0.0
1.5137 -14 0.0
1.6379 -14 0.0
1.7843 -14 0.0
1.9307 -14 0.0
2.1033 -14 0.0
2.2758 -14 0.0
2.4793 -14 0.0
2.6827 -14 0.0
2.9225 -14 0.0
3.1623 -14 0.0
3.4449 -14 0.0
3.7276 -14 0.0
4.0608 -14 0.0
4.394 -14 0.0
4.7867 -14 0.0
5.1795 -14 0.0
5.6424 -14 0.0
6.1054 -14 0.0
6.6511 -14 0.0
7.1969 -14 0.0
7.8401 -14 0.0
8.4834 -14 0.0
9.2417 -14 0.0
10 -14 0.0

CELLS 2610 23490
8  0  2 91 89  1 60 90 59
8  2  4 93 91  3 61 92 60
8  4  6 95 93  5 62 94 61
8  6  8 97 95  7 63 96 62
8  8 10 99 97  9 64 98 63
8  10  12 101  99  11  65 100  64
8  12  14 103 101  13  66 102  65
8  14  16 105 103  15  67 104  66
8  16  18 107 105  17  68 106  67
8  18  20 109 107  19  69 108  68
8  20  22 111 109  21  70 110  69
8  22  24 113 111  23  71 112  70
8  24  26 115 113  25  72 114  71
8  26  28 117 115  27  73 116  72
8  28  30 119 117  29  74 118  73
8  30  32 121 119  31  75 120  74
8  32  34 123 121  33  76 122  75
8  34  36 125 123  35  77 124  76
8  36  38 127 125  37  78 126  77
8  38  40 129 127  39  79 128  78
8  40  42 131 129  41  80 130  79
8  42  44 133 131  43  81 132  80
8  44  46 135 133  45  82 134  81
8  46  48 137 135  47  83 136  82
8  48  50 139 137  49  84 138  83
8  50  52 141 139  51  85 140  84
8  52  54 143 141  53  86 142  85
8  54  56 145 143  55  87 144  86
8  56  58 147 145  57  88 146  87
8  89  91 180 178  90 149 179 148
8  91  93 182 180  92 150 181 149
8  93  95 184 182  94 151 183 150
8  95  97 186 184  96 152 185 151
8  97  99 188 186  98 153 187 152
8  99 101 190 188 100 154 189 153
8 101 103 192 190 102 155 191 154
8 103 105 194 192 104 156 193 155
8 105 107 196 194 106 157 195 156
8 107 109 198 196 108 158 197 157
8 109 111 200 198 110 159 199 158
8 111 113 202 200 112 160 201 159
8 113 115 204 202 114 161 203 160
8 115 117 206 204 116 162 205 161
8 117 119 208 206 118 163 207 162
8 119 121 210 208 120 164 209 163
8 121 123 212 210 122 165 211 164
8 123 125 214 212 124 166 213 165
8 125 127 216 214 126 167 215 166
8 127 129 218 216 128 168 217 167
8 129 131 220 218 130 169 219 168
8 131 133 222 220 132 170 221 169
8 133 135 224 222 134 171 223 170
8 135 137 226 224 136 172 225 171
8 137 139 228 226 138 173 227 172
8 139 141 230 228 140 174 229 173
8 141 143 232 230 142 175 231 174
8 143 145 234 232 144 176 233 175
8 145 147 236 234 146 177 235 176
8 178 180 269 267 179 238 268 237
8 180 182 271 269 181 239 270 238
8 182 184 273 271 183 240 272 239
8 184 186 275 273 185 241 274 240
8 186 188 277 275 187 242 276 241
8 188 190 279 277 189 243 278 242
8 190 192 281 279 191 244 280 243
8 192 194 283 281 193 245 282 244
8 194 196 285 283 195 246 284 245
8 196 198 287 285 197 247 286 246
8 198 200 289 287 199 248 288 247
8 200 202 291 289 201 249 290 248
8 202 204 293 291 203 250 292 249
8 204 206 295 293 205 251 294 250
8 206 208 297 295 207 252 296 251
8 208 210 299 297 209 253 298 252
8 210 212 301 299 211 254 300 253
8 212 214 303 301 213 255 302 254
8 214 216 305 303 215 256 304 255
8 216 218 307 305 217 257 306 256
8 218 220 309 307 219 258 308 257
8 220 222 311 309 221 259 310 258
8 222 224 313 311 223 260 312 259
8 224 226 315 313 225 261 314 260
8 226 228 317 315 227 262 316 261
8 228 230 319 317 229 263 318 262
8 230 232 321 319 231 264 320 263
8 232 234 323 321 233 265 322 264
8 234 236 325 323 235 266 324 265
8 267 269 358 356 268 327 357 326
8 269 271 360 358 270 328 359 327
8 271 273 362 360 272 329 361 328
8 273 275 364 362 274 330 363 329
8 275 277 366 364 276 331 365 330
8 277 279 368 366 278 332 367 331
8 279 281 370 368 280 333 369 332
8 281 283 372 370 282 334 371 333
8 283 285 374 372 284 335 373 334
8 285 287 376 374 286 336 375 335
8 287 289 378 376 288 337 377 336
8 289 291 380 378 290 338 379 337
8 291 293 382 380 292 339 381 338
8 293 295 384 382 294 340 383 339
8 295 297 386 384 296 341 385 340
8 297 299 388 386 298 342 387 341
8 299 301 390 388 300 343 389 342
8 301 303 392 390 302 344 391 343
8 303 305 394 392 304 345 393 344
8 305 307 396 394 306 346 395 345
8 307 309 398 396 308 347 397 346
8 309 311 400 398 310 348 399 347
8 311 313 402 400 312 349 401 348
8 313 315 404 402 314 350 403 349
8 315 317 406 404 316 351 405 350
8 317 319 408 406 318 352 407 351
8 319 321 410 408 320 353 409 352
8 321 323 412 410 322 354 411 353
8 323 325 414 412 324 355 413 354
8 356 358 447 445 357 416 446 415
8 358 360 449 447 359 417 448 416
8 360 362 451 449 361 418 450 417
8 362 364 453 451 363 419 452 418
8 364 366 455 453 365 420 454 419
8 366 368 457 455 367 421 456 420
8 368 370 459 457 369 422 458 421
8 370 372 461 459 371 423 460 422
8 372 374 463 461 373 424 462 423
8 374 376 465 463 375 425 464 424
8 376 378 467 465 377 426 466 425
8 378 380 469 467 379 427 468 426
8 380 382 471 469 381 428 470 427
8 382 384 473 471 383 429 472 428
8 384 386 475 473 385 430 474 429
8 386 388 477 475 387 431 476 430
8 388 390 479 477 389 432 478 431
8 390 392 481 479 391 433 480 432
8 392 394 483 481 393 434 482 433
8 394 396 485 483 395 435 484 434
8 396 398 487 485 397 436 486 435
8 398 400 489 487 399 437 488 436
8 400 402 491 489 401 438 490 437
8 402 404 493 491 403 439 492 438
8 404 406 495 493 405 440 494 439
8 406 408 497 495 407 441 496 440
8 408 410 499 497 409 442 498 441
8 410 412 501 499 411 443 500 442
8 412 414 503 501 413 444 502 443
8 445 447 536 534 446 505 535 504
8 447 449 538 536 448 506 537 505
8 449 451 540 538 450 507 539 506
8 451 453 542 540 452 508 541 507
8 453 455 544 542 454 509 543 508
8 455 457 546 544 456 510 545 509
8 457 459 548 546 458 511 547 510
8 459 461 550 548 460 512 549 511
8 461 463 552 550 462 513 551 512
8 463 465 554 552 464 514 553 513
8 465 467 556 554 466 515 555 514
8 467 469 558 556 468 516 557 515
8 469 471 560 558 470 517 559 516
8 471 473 562 560 472 518 561 517
8 473 475 564 562 474 519 563 518
8 475 477 566 564 476 520 565 519
8 477 479 568 566 478 521 567 520
8 479 481 570 568 480 522 569 521
8 481 483 572 570 482 523 571 522
8 483 485 574 572 484 524 573 523
8 485 487 576 574 486 525 575 524
8 487 489 578 576 488 526 577 525
8 489 491 580 578 490 527 579 526
8 491 493 582 580 492 528 581 527
8 493 495 584 582 494 529 583 528
8 495 497 586 584 496 530 585 529
8 497 499 588 586 498 531 587 530
8 499 501 590 588 500 532 589 531
8 501 503 592 590 502 533 591 532
8 534 536 625 623 535 594 624 593
8 536 538 627 625 537 595 626 594
8 538 540 629 627 539 596 628 595
8 540 542 631 629 541 597 630 596
8 542 544 633 631 543 598 632 597
8 544 546 635 633 545 599 634 598
8 546 548 637 635 547 600 636 599
8 548 550 639 637 549 601 638 600
8 550 552 641 639 551 602 640 601
8 552 554 643 641 553 603 642 602
8 554 556 645 643 555 604 644 603
8 556 558 647 645 557 605 646 604
8 558 560 649 647 559 606 648 605
8 560 562 651 649 561 607 650 606
8 562 564 653 651 563 608 652 607
8 564 566 655 653 565 609 654 608
8 566 568 657 655 567 610 656 609
8 568 570 659 657 569 611 658 610
8 570 572 661 659 571 612 660 611
8 572 574 663 661 573 613 662 612
8 574 576 665 663 575 614 664 613
8 576 578 667 665 577 615 666 614
8 578 580 669 667 579 616 668 615
8 580 582 671 669 581 617 670 616
8 582 584 673 671 583 618 672 617
8 584 586 675 673 585 619 674 618
8 586 588 677 675 587 620 676 619
8 588 590 679 677 589 621 678 620
8 590 592 681 679 591 622 680 621
8 623 625 714 712 624 683 713 682
8 625 627 716 714 626 684 715 683
8 627 629 718 716 628 685 717 684
8 629 631 720 718 630 686 719 685
8 631 633 722 720 632 687 721 686
8 633 635 724 722 634 688 723 687
8 635 637 726 724 636 689 725 688
8 637 639 728 726 638 690 727 689
8 639 641 730 728 640 691 729 690
8 641 643 732 730 642 692 731 691
8 643 645 734 732 644 693 733 692
8 645 647 736 734 646 694 735 693
8 647 649 738 736 648 695 737 694
8 649 651 740 738 650 696 739 695
8 651 653 742 740 652 697 741 696
8 653 655 744 742 654 698 743 697
8 655 657 746 744 656 699 745 698
8 657 659 748 746 658 700 747 699
8 659 661 750 748 660 701 749 700
8 661 663 752 750 662 702 751 701
8 663 665 754 752 664 703 753 702
8 665 667 756 754 666 704 755 703
8 667 669 758 756 668 705 757 704
8 669 671 760 758 670 706 759 705
8 671 673 762 760 672 707 761 706
8 673 675 764 762 674 708 763 707
8 675 677 766 764 676 709 765 708
8 677 679 768 766 678 710 767 709
8 679 681 770 768 680 711 769 710
8 712 714 803 801 713 772 802 771
8 714 716 805 803 715 773 804 772
8 716 718 807 805 717 774 806 773
8 718 720 809 807 719 775 808 774
8 720 722 811 809 721 776 810 775
8 722 724 813 811 723 777 812 776
8 724 726 815 813 725 778 814 777
8 726 728 817 815 727 779 816 778
8 728 730 819 817 729 780 818 779
8 730 732 821 819 731 781 820 780
8 732 734 823 821 733 782 822 781
8 734 736 825 823 735 783 824 782
8 736 738 827 825 737 784 826 783
8 738 740 829 827 739 785 828 784
8 740 742 831 829 741 786 830 785
8 742 744 833 831 743 787 832 786
8 744 746 835 833 745 788 834 787
8 746 748 837 835 747 789 836 788
8 748 750 839 837 749 790 838 789
8 750 752 841 839 751 791 840 790
8 752 754 843 841 753 792 842 791
8 754 756 845 843 755 793 844 792
8 756 758 847 845 757 794 846 793
8 758 760 849 847 759 795 848 794
8 760 762 851 849 761 796 850 795
8 762 764 853 851 763 797 852 796
8 764 766 855 853 765 798 854 797
8 766 768 857 855 767 799 856 798
8 768 770 859 857 769 800 858 799
8 801 803 892 890 802 861 891 860
8 803 805 894 892 804 862 893 861
8 805 807 896 894 806 863 895 862
8 807 809 898 896 808 864 897 863
8 809 811 900 898 810 865 899 864
8 811 813 902 900 812 866 901 865
8 813 815 904 902 814 867 903 866
8 815 817 906 904 816 868 905 867
8 817 819 908 906 818 869 907 868
8 819 821 910 908 820 870 909 869
8 821 823 912 910 822 871 911 870
8 823 825 914 912 824 872 913 871
8 825 827 916 914 826 873 915 872
8 827 829 918 916 828 874 917 873
8 829 831 920 918 830 875 919 874
8 831 833 922 920 832 876 921 875
8 833 835 924 922 834 877 923 876
8 835 837 926 924 836 878 925 877
8 837 839 928 926 838 879 927 878
8 839 841 930 928 840 880 929 879
8 841 843 932 930 842 881 931 880
8 843 845 934 932 844 882 933 881
8 845 847 936 934 846 883 935 882
8 847 849 938 936 848 884 937 883
8 849 851 940 938 850 885 939 884
8 851 853 942 940 852 886 941 885
8 853 855 944 942 854 887 943 886
8 855 857 946 944 856 888 945 887
8 857 859 948 946 858 889 947 888
8 890 892 981 979 891 950 980 949
8 892 894 983 981 893 951 982 950
8 894 896 985 983 895 952 984 951
8 896 898 987 985 897 953 986 952
8 898 900 989 987 899 954 988 953
8 900 902 991 989 901 955 990 954
8 902 904 993 991 903 956 992 955
8 904 906 995 993 905 957 994 956
8 906 908 997 995 907 958 996 957
8 908 910 999 997 909 959 998 958
8  910  912 1001  999  911  960 1000  959
8  912  914 1003 1001  913  961 1002  960
8  914  916 1005 1003  915  962 1004  961
8  916  918 1007 1005  917  963 1006  962
8  918  920 1009 1007  919  964 1008  963
8  920  922 1011 1009  921  965 1010  964
8  922  924 1013 1011  923  966 1012  965
8  924  926 1015 1013  925  967 1014  966
8  926  928 1017 1015  927  968 1016  967
8  928  930 1019 1017  929  969 1018  968
8  930  932 1021 1019  931  970 1020  969
8  932  934 1023 1021  933  971 1022  970
8  934  936 1025 1023  935  972 1024  971
8  936  938 1027 1025  937  973 1026  972
8  938  940 1029 1027  939  974 1028  973
8  940  942 1031 1029  941  975 1030  974
8  942  944 1033 1031  943  976 1032  975
8  944  946 1035 1033  945  977 1034  976
8  946  948 1037 1035  947  978 1036  977
8  979  981 1070 1068  980 1039 1069 1038
8  981  983 1072 1070  982 1040 1071 1039
8  983  985 1074 1072  984 1041 1073 1040
8  985  987 1076 1074  986 1042 1075 1041
8  987  989 1078 1076  988 1043 1077 1042
8  989  991 1080 1078  990 1044 1079 1043
8  991  993 1082 1080  992 1045 1081 1044
8  993  995 1084 1082  994 1046 1083 1045
8  995  997 1086 1084  996 1047 1085 1046
8  997  999 1088 1086  998 1048 1087 1047
8  999 1001 1090 1088 1000 1049 1089 1048
8 1001 1003 1092 1090 1002 1050 1091 1049
8 1003 1005 1094 1092 1004 1051 1093 1050
8 1005 1007 1096 1094 1006 1052 1095 1051
8 1007 1009 1098 1096 1008 1053 1097 1052
8 1009 1011 1100 1098 1010 1054 1099 1053
8 1011 1013 1102 1100 1012 1055 1101 1054
8 1013 1015 1104 1102 1014 1056 1103 1055
8 1015 1017 1106 1104 1016 1057 1105 1056
8 1017 1019 1108 1106 1018 1058 1107 1057
8 1019 1021 1110 1108 1020 1059 1109 1058
8 1021 1023 1112 1110 1022 1060 1111 1059
8 1023 1025 1114 1112 1024 1061 1113 1060
8 1025 1027 1116 1114 1026 1062 1115 1061
8 1027 1029 1118 1116 1028 1063 1117 1062
8 1029 1031 1120 1118 1030 1064 1119 1063
8 1031 1033 1122 1120 1032 1065 1121 1064
8 1033 1035 1124 1122 1034 1066 1123 1065
8 1035 1037 1126 1124 1036 1067 1125 1066
8 1068 1070 1159 1157 1069 1128 1158 1127
8 1070 1072 1161 1159 1071 1129 1160 1128
8 1072 1074 1163 1161 1073 1130 1162 1129
8 1074 1076 1165 1163 1075 1131 1164 1130
8 1076 1078 1167 1165 1077 1132 1166 1131
8 1078 1080 1169 1167 1079 1133 1168 1132
8 1080 1082 1171 1169 1081 1134 1170 1133
8 1082 1084 1173 1171 1083 1135 1172 1134
8 1084 1086 1175 1173 1085 1136 1174 1135
8 1086 1088 1177 1175 1087 1137 1176 1136
8 1088 1090 1179 1177 1089 1138 1178 1137
8 1090 1092 1181 1179 1091 1139 1180 1138
8 1092 1094 1183 1181 1093 1140 1182 1139
8 1094 1096 1185 1183 1095 1141 1184 1140
8 1096 1098 1187 1185 1097 1142 1186 1141
8 1098 1100 1189 1187 1099 1143 1188 1142
8 1100 1102 1191 1189 1101 1144 1190 1143
8 1102 1104 1193 1191 1103 1145 1192 1144
8 1104 1106 1195 1193 1105 1146 1194 1145
8 1106 1108 1197 1195 1107 1147 1196 1146
8 1108 1110 1199 1197 1109 1148 1198 1147
8 1110 1112 1201 1199 1111 1149 1200 1148
8 1112 1114 1203 1201 1113 1150 1202 1149
8 1114 1116 1205 1203 1115 1151 1204 1150
8 1116 1118 1207 1205 1117 1152 1206 1151
8 1118 1120 1209 1207 1119 1153 1208 1152
8 1120 1122 1211 1209 1121 1154 1210 1153
8 1122 1124 1213 1211 1123 1155 1212 1154
8 1124 1126 1215 1213 1125 1156 1214 1155
8 1157 1159 1248 1246 1158 1217 1247 1216
8 1159 1161 1250 1248 1160 1218 1249 1217
8 1161 1163 1252 1250 1162 1219 1251 1218
8 1163 1165 1254 1252 1164 1220 1253 1219
8 1165 1167 1256 1254 1166 1221 1255 1220
8 1167 1169 1258 1256 1168 1222 1257 1221
8 1169 1171 1260 1258 1170 1223 1259 1222
8 1171 1173 1262 1260 1172 1224 1261 1223
8 1173 1175 1264 1262 1174 1225 1263 1224
8 1175 1177 1266 1264 1176 1226 1265 1225
8 1177 1179 1268 1266 1178 1227 1267 1226
8 1179 1181 1270 1268 1180 1228 1269 1227
8 1181 1183 1272 1270 1182 1229 1271 1228
8 1183 1185 1274 1272 1184 1230 1273 1229
8 1185 1187 1276 1274 1186 1231 1275 1230
8 1187 1189 1278 1276 1188 1232 1277 1231
8 1189 1191 1280 1278 1190 1233 1279 1232
8 1191 1193 1282 1280 1192 1234 1281 1233
8 1193 1195 1284 1282 1194 1235 1283 1234
8 1195 1197 1286 1284 1196 1236 1285 1235
8 1197 1199 1288 1286 1198 1237 1287 1236
8 1199 1201 1290 1288 1200 1238 1289 1237
8 1201 1203 1292 1290 1202 1239 1291 1238
8 1203 1205 1294 1292 1204 1240 1293 1239
8 1205 1207 1296 1294 1206 1241 1295 1240
8 1207 1209 1298 1296 1208 1242 1297 1241
8 1209 1211 1300 1298 1210 1243 1299 1242
8 1211 1213 1302 1300 1212 1244 1301 1243
8 1213 1215 1304 1302 1214 1245 1303 1244
8 1246 1248 1337 1335 1247 1306 1336 1305
8 1248 1250 1339 1337 1249 1307 1338 1306
8 1250 1252 1341 1339 1251 1308 1340 1307
8 1252 1254 1343 1341 1253 1309 1342 1308
8 1254 1256 1345 1343 1255 1310 1344 1309
8 1256 1258 1347 1345 1257 1311 1346 1310
8 1258 1260 1349 1347 1259 1312 1348 1311
8 1260 1262 1351 1349 1261 1313 1350 1312
8 1262 1264 1353 1351 1263 1314 1352 1313
8 1264 1266 1355 1353 1265 1315 1354 1314
8 1266 1268 1357 1355 1267 1316 1356 1315
8 1268 1270 1359 1357 1269 1317 1358 1316
8 1270 1272 1361 1359 1271 1318 1360 1317
8 1272 1274 1363 1361 1273 1319 1362 1318
8 1274 1276 1365 1363 1275 1320 1364 1319
8 1276 1278 1367 1365 1277 1321 1366 1320
8 1278 1280 1369 1367 1279 1322 1368 1321
8 1280 1282 1371 1369 1281 1323 1370 1322
8 1282 1284 1373 1371 1283 1324 1372 1323
8 1284 1286 1375 1373 1285 1325 1374 1324
8 1286 1288 1377 1375 1287 1326 1376 1325
8 1288 1290 1379 1377 1289 1327 1378 1326
8 1290 1292 1381 1379 1291 1328 1380 1327
8 1292 1294 1383 1381 1293 1329 1382 1328
8 1294 1296 1385 1383 1295 1330 1384 1329
8 1296 1298 1387 1385 1297 1331 1386 1330
8 1298 1300 1389 1387 1299 1332 1388 1331
8 1300 1302 1391 1389 1301 1333 1390 1332
8 1302 1304 1393 1391 1303 1334 1392 1333
8 1335 1337 1426 1424 1336 1395 1425 1394
8 1337 1339 1428 1426 1338 1396 1427 1395
8 1339 1341 1430 1428 1340 1397 1429 1396
8 1341 1343 1432 1430 1342 1398 1431 1397
8 1343 1345 1434 1432 1344 1399 1433 1398
8 1345 1347 1436 1434 1346 1400 1435 1399
8 1347 1349 1438 1436 1348 1401 1437 1400
8 1349 1351 1440 1438 1350 1402 1439 1401
8 1351 1353 1442 1440 1352 1403 1441 1402
8 1353 1355 1444 1442 1354 1404 1443 1403
8 1355 1357 1446 1444 1356 1405 1445 1404
8 1357 1359 1448 1446 1358 1406 1447 1405
8 1359 1361 1450 1448 1360 1407 1449 1406
8 1361 1363 1452 1450 1362 1408 1451 1407
8 1363 1365 1454 1452 1364 1409 1453 1408
8 1365 1367 1456 1454 1366 1410 1455 1409
8 1367 1369 1458 1456 1368 1411 1457 1410
8 1369 1371 1460 1458 1370 1412 1459 1411
8 1371 1373 1462 1460 1372 1413 1461 1412
8 1373 1375 1464 1462 1374 1414 1463 1413
8 1375 1377 1466 1464 1376 1415 1465 1414
8 1377 1379 1468 1466 1378 1416 1467 1415
8 1379 1381 1470 1468 1380 1417 1469 1416
8 1381 1383 1472 1470 1382 1418 1471 1417
8 1383 1385 1474 1472 1384 1419 1473 1418
8 1385 1387 1476 1474 1386 1420 1475 1419
8 1387 1389 1478 1476 1388 1421 1477 1420
8 1389 1391 1480 1478 1390 1422 1479 1421
8 1391 1393 1482 1480 1392 1423 1481 1422
8 1424 1426 1515 1513 1425 1484 1514 1483
8 1426 1428 1517 1515 1427 1485 1516 1484
8 1428 1430 1519 1517 1429 1486 1518 1485
8 1430 1432 1521 1519 1431 1487 1520 1486
8 1432 1434 1523 1521 1433 1488 1522 1487
8 1434 1436 1525 1523 1435 1489 1524 1488
8 1436 1438 1527 1525 1437 1490 1526 1489
8 1438 1440 1529 1527 1439 1491 1528 1490
8 1440 1442 1531 1529 1441 1492 1530 1491
8 1442 1444 1533 1531 1443 1493 1532 1492
8 1444 1446 1535 1533 1445 1494 1534 1493
8 1446 1448 1537 1535 1447 1495 1536 1494
8 1448 1450 1539 1537 1449 1496 1538 1495
8 1450 1452 1541 1539 1451 1497 1540 1496
8 1452 1454 1543 1541 1453 1498 1542 1497
8 1454 1456 1545 1543 1455 1499 1544 1498
8 1456 1458 1547 1545 1457 1500 1546 1499
8 1458 1460 1549 1547 1459 1501 1548 1500
8 1460 1462 1551 1549 1461 1502 1550 1501
8 1462 1464 1553 1551 1463 1503 1552 1502
8 1464 1466 1555 1553 1465 1504 1554 1503
8 1466 1468 1557 1555 1467 1505 1556 1504
8 1468 1470 1559 1557 1469 1506 1558 1505
8 1470 1472 1561 1559 1471 1507 1560 1506
8 1472 1474 1563 1561 1473 1508 1562 1507
8 1474 1476 1565 1563 1475 1509 1564 1508
8 1476 1478 1567 1565 1477 1510 1566 1509
8 1478 1480 1569 1567 1479 1511 1568 1510
8 1480 1482 1571 1569 1481 1512 1570 1511
8 1513 1515 1604 1602 1514 1573 1603 1572
8 1515 1517 1606 1604 1516 1574 1605 1573
8 1517 1519 1608 1606 1518 1575 1607 1574
8 1519 1521 1610 1608 1520 1576 1609 1575
8 1521 1523 1612 1610 1522 1577 1611 1576
8 1523 1525 1614 1612 1524 1578 1613 1577
8 1525 1527 1616 1614 1526 1579 1615 1578
8 1527 1529 1618 1616 1528 1580 1617 1579
8 1529 1531 1620 1618 1530 1581 1619 1580
8 1531 1533 1622 1620 1532 1582 1621 1581
8 1533 1535 1624 1622 1534 1583 1623 1582
8 1535 1537 1626 1624 1536 1584 1625 1583
8 1537 1539 1628 1626 1538 1585 1627 1584
8 1539 1541 1630 1628 1540 1586 1629 1585
8 1541 1543 1632 1630 1542 1587 1631 1586
8 1543 1545 1634 1632 1544 1588 1633 1587
8 1545 1547 1636 1634 1546 1589 1635 1588
8 1547 1549 1638 1636 1548 1590 1637 1589
8 1549 1551 1640 1638 1550 1591 1639 1590
8 1551 1553 1642 1640 1552 1592 1641 1591
8 1553 1555 1644 1642 1554 1593 1643 1592
8 1555 1557 1646 1644 1556 1594 1645 1593
8 1557 1559 1648 1646 1558 1595 1647 1594
8 1559 1561 1650 1648 1560 1596 1649 1595
8 1561 1563 1652 1650 1562 1597 1651 1596
8 1563 1565 1654 1652 1564 1598 1653 1597
8 1565 1567 1656 1654 1566 1599 1655 1598
8 1567 1569 1658 1656 1568 1600 1657 1599
8 1569 1571 1660 1658 1570 1601 1659 1600
8 1602 1604 1693 1691 1603 1662 1692 1661
8 1604 1606 1695 1693 1605 1663 1694 1662
8 1606 1608 1697 1695 1607 1664 1696 1663
8 1608 1610 1699 1697 1609 1665 1698 1664
8 1610 1612 1701 1699 1611 1666 1700 1665
8 1612 1614 1703 1701 1613 1667 1702 1666
8 1614 1616 1705 1703 1615 1668 1704 1667
8 1616 1618 1707 1705 1617 1669 1706 1668
8 1618 1620 1709 1707 1619 1670 1708 1669
8 1620 1622 1711 1709 1621 1671 1710 1670
8 1622 1624 1713 1711 1623 1672 1712 1671
8 1624 1626 1715 1713 1625 1673 1714 1672
8 1626 1628 1717 1715 1627 1674 1716 1673
8 1628 1630 1719 1717 1629 1675 1718 1674
8 1630 1632 1721 1719 1631 1676 1720 1675
8 1632 1634 1723 1721 1633 1677 1722 1676
8 1634 1636 1725 1723 1635 1678 1724 1677
8 1636 1638 1727 1725 1637 1679 1726 1678
8 1638 1640 1729 1727 1639 1680 1728 1679
8 1640 1642 1731 1729 1641 1681 1730 1680
8 1642 1644 1733 1731 1643 1682 1732 1681
8 1644 1646 1735 1733 1645 1683 1734 1682
8 1646 1648 1737 1735 1647 1684 1736 1683
8 1648 1650 1739 1737 1649 1685 1738 1684
8 1650 1652 1741 1739 1651 1686 1740 1685
8 1652 1654 1743 1741 1653 1687 1742 1686
8 1654 1656 1745 1743 1655 1688 1744 1687
8 1656 1658 1747 1745 1657 1689 1746 1688
8 1658 1660 1749 1747 1659 1690 1748 1689
8 1691 1693 1782 1780 1692 1751 1781 1750
8 1693 1695 1784 1782 1694 1752 1783 1751
8 1695 1697 1786 1784 1696 1753 1785 1752
8 1697 1699 1788 1786 1698 1754 1787 1753
8 1699 1701 1790 1788 1700 1755 1789 1754
8 1701 1703 1792 1790 1702 1756 1791 1755
8 1703 1705 1794 1792 1704 1757 1793 1756
8 1705 1707 1796 1794 1706 1758 1795 1757
8 1707 1709 1798 1796 1708 1759 1797 1758
8 1709 1711 1800 1798 1710 1760 1799 1759
8 1711 1713 1802 1800 1712 1761 1801 1760
8 1713 1715 1804 1802 1714 1762 1803 1761
8 1715 1717 1806 1804 1716 1763 1805 1762
8 1717 1719 1808 1806 1718 1764 1807 1763
8 1719 1721 1810 1808 1720 1765 1809 1764
8 1721 1723 1812 1810 1722 1766 1811 1765
8 1723 1725 1814 1812 1724 1767 1813 1766
8 1725 1727 1816 1814 1726 1768 1815 1767
8 1727 1729 1818 1816 1728 1769 1817 1768
8 1729 1731 1820 1818 1730 1770 1819 1769
8 1731 1733 1822 1820 1732 1771 1821 1770
8 1733 1735 1824 1822 1734 1772 1823 1771
8 1735 1737 1826 1824 1736 1773 1825 1772
8 1737 1739 1828 1826 1738 1774 1827 1773
8 1739 1741 1830 1828 1740 1775 1829 1774
8 1741 1743 1832 1830 1742 1776 1831 1775
8 1743 1745 1834 1832 1744 1777 1833 1776
8 1745 1747 1836 1834 1746 1778 1835 1777
8 1747 1749 1838 1836 1748 1779 1837 1778
8 1780 1782 1871 1869 1781 1840 1870 1839
8 1782 1784 1873 1871 1783 1841 1872 1840
8 1784 1786 1875 1873 1785 1842 1874 1841
8 1786 1788 1877 1875 1787 1843 1876 1842
8 1788 1790 1879 1877 1789 1844 1878 1843
8 1790 1792 1881 1879 1791 1845 1880 1844
8 1792 1794 1883 1881 1793 1846 1882 1845
8 1794 1796 1885 1883 1795 1847 1884 1846
8 1796 1798 1887 1885 1797 1848 1886 1847
8 1798 1800 1889 1887 1799 1849 1888 1848
8 1800 1802 1891 1889 1801 1850 1890 1849
8 1802 1804 1893 1891 1803 1851 1892 1850
8 1804 1806 1895 1893 1805 1852 1894 1851
8 1806 1808 1897 1895 1807 1853 1896 1852
8 1808 1810 1899 1897 1809 1854 1898 1853
8 1810 1812 1901 1899 1811 1855 1900 1854
8 1812 1814 1903 1901 1813 1856 1902 1855
8 1814 1816 1905 1903 1815 1857 1904 1856
8 1816 1818 1907 1905 1817 1858 1906 1857
8 1818 1820 1909 1907 1819 1859 1908 1858
8 1820 1822 1911 1909 1821 1860 1910 1859
8 1822 1824 1913 1911 1823 1861 1912 1860
8 1824 1826 1915 1913 1825 1862 1914 1861
8 1826 1828 1917 1915 1827 1863 1916 1862
8 1828 1830 1919 1917 1829 1864 1918 1863
8 1830 1832 1921 1919 1831 1865 1920 1864
8 1832 1834 1923 1921 1833 1866 1922 1865
8 1834 1836 1925 1923 1835 1867 1924 1866
8 1836 1838 1927 1925 1837 1868 1926 1867
8 1869 1871 1960 1958 1870 1929 1959 1928
8 1871 1873 1962 1960 1872 1930 1961 1929
8 1873 1875 1964 1962 1874 1931 1963 1930
8 1875 1877 1966 1964 1876 1932 1965 1931
8 1877 1879 1968 1966 1878 1933 1967 1932
8 1879 1881 1970 1968 1880 1934 1969 1933
8 1881 1883 1972 1970 1882 1935 1971 1934
8 1883 1885 1974 1972 1884 1936 1973 1935
8 1885 1887 1976 1974 1886 1937 1975 1936
8 1887 1889 1978 1976 1888 1938 1977 1937
8 1889 1891 1980 1978 1890 1939 1979 1938
8 1891 1893 1982 1980 1892 1940 1981 1939
8 1893 1895 1984 1982 1894 1941 1983 1940
8 1895 1897 1986 1984 1896 1942 1985 1941
8 1897 1899 1988 1986 1898 1943 1987 1942
8 1899 1901 1990 1988 1900 1944 1989 1943
8 1901 1903 1992 1990 1902 1945 1991 1944
8 1903 1905 1994 1992 1904 1946 1993 1945
8 1905 1907 1996 1994 1906 1947 1995 1946
8 1907 1909 1998 1996 1908 1948 1997 1947
8 1909 1911 2000 1998 1910 1949 1999 1948
8 1911 1913 2002 2000 1912 1950 2001 1949
8 1913 1915 2004 2002 1914 1951 2003 1950
8 1915 1917 2006 2004 1916 1952 2005 1951
8 1917 1919 2008 2006 1918 1953 2007 1952
8 1919 1921 2010 2008 1920 1954 2009 1953
8 1921 1923 2012 2010 1922 1955 2011 1954
8 1923 1925 2014 2012 1924 1956 2013 1955
8 1925 1927 2016 2014 1926 1957 2015 1956
8 1958 1960 2049 2047 1959 2018 2048 2017
8 1960 1962 2051 2049 1961 2019 2050 2018
8 1962 1964 2053 2051 1963 2020 2052 2019
8 1964 1966 2055 2053 1965 2021 2054 2020
8 1966 1968 2057 2055 1967 2022 2056 2021
8 1968 1970 2059 2057 1969 2023 2058 2022
8 1970 1972 2061 2059 1971 2024 2060 2023
8 1972 1974 2063 2061 1973 2025 2062 2024
8 1974 1976 2065 2063 1975 2026 2064 2025
8 1976 1978 2067 2065 1977 2027 2066 2026
8 1978 1980 2069 2067 1979 2028 2068 2027
8 1980 1982 2071 2069 1981 2029 2070 2028
8 1982 1984 2073 2071 1983 2030 2072 2029
8 1984 1986 2075 2073 1985 2031 2074 2030
8 1986 1988 2077 2075 1987 2032 2076 2031
8 1988 1990 2079 2077 1989 2033 2078 2032
8 1990 1992 2081 2079 1991 2034 2080 2033
8 1992 1994 2083 2081 1993 2035 2082 2034
8 1994 1996 2085 2083 1995 2036 2084 2035
8 1996 1998 2087 2085 1997 2037 2086 2036
8 1998 2000 2089 2087 1999 2038 2088 2037
8 2000 2002 2091 2089 2001 2039 2090 2038
8 2002 2004 2093 2091 2003 2040 2092 2039
8 2004 2006 2095 2093 2005 2041 2094 2040
8 2006 2008 2097 2095 2007 2042 2096 2041
8 2008 2010 2099 2097 2009 2043 2098 2042
8 2010 2012 2101 2099 2011 2044 2100 2043
8 2012 2014 2103 2101 2013 2045 2102 2044
8 2014 2016 2105 2103 2015 2046 2104 2045
8 2047 2049 2138 2136 2048 2107 2137 2106
8 2049 2051 2140 2138 2050 2108 2139 2107
8 2051 2053 2142 2140 2052 2109 2141 2108
8 2053 2055 2144 2142 2054 2110 2143 2109
8 2055 2057 2146 2144 2056 2111 2145 2110
8 2057 2059 2148 2146 2058 2112 2147 2111
8 2059 2061 2150 2148 2060 2113 2149 2112
8 2061 2063 2152 2150 2062 2114 2151 2113
8 2063 2065 2154 2152 2064 2115 2153 2114
8 2065 2067 2156 2154 2066 2116 2155 2115
8 2067 2069 2158 2156 2068 2117 2157 2116
8 2069 2071 2160 2158 2070 2118 2159 2117
8 2071 2073 2162 2160 2072 2119 2161 2118
8 2073 2075 2164 2162 2074 2120 2163 2119
8 2075 2077 2166 2164 2076 2121 2165 2120
8 2077 2079 2168 2166 2078 2122 2167 2121
8 2079 2081 2170 2168 2080 2123 2169 2122
8 2081 2083 2172 2170 2082 2124 2171 2123
8 2083 2085 2174 2172 2084 2125 2173 2124
8 2085 2087 2176 2174 2086 2126 2175 2125
8 2087 2089 2178 2176 2088 2127 2177 2126
8 2089 2091 2180 2178 2090 2128 2179 2127
8 2091 2093 2182 2180 2092 2129 2181 2128
8 2093 2095 2184 2182 2094 2130 2183 2129
8 2095 2097 2186 2184 2096 2131 2185 2130
8 2097 2099 2188 2186 2098 2132 2187 2131
8 2099 2101 2190 2188 2100 2133 2189 2132
8 2101 2103 2192 2190 2102 2134 2191 2133
8 2103 2105 2194 2192 2104 2135 2193 2134
8 2136 2138 2227 2225 2137 2196 2226 2195
8 2138 2140 2229 2227 2139 2197 2228 2196
8 2140 2142 2231 2229 2141 2198 2230 2197
8 2142 2144 2233 2231 2143 2199 2232 2198
8 2144 2146 2235 2233 2145 2200 2234 2199
8 2146 2148 2237 2235 2147 2201 2236 2200
8 2148 2150 2239 2237 2149 2202 2238 2201
8 2150 2152 2241 2239 2151 2203 2240 2202
8 2152 2154 2243 2241 2153 2204 2242 2203
8 2154 2156 2245 2243 2155 2205 2244 2204
8 2156 2158 2247 2245 2157 2206 2246 2205
8 2158 2160 2249 2247 2159 2207 2248 2206
8 2160 2162 2251 2249 2161 2208 2250 2207
8 2162 2164 2253 2251 2163 2209 2252 2208
8 2164 2166 2255 2253 2165 2210 2254 2209
8 2166 2168 2257 2255 2167 2211 2256 2210
8 2168 2170 2259 2257 2169 2212 2258 2211
8 2170 2172 2261 2259 2171 2213 2260 2212
8 2172 2174 2263 2261 2173 2214 2262 2213
8 2174 2176 2265 2263 2175 2215 2264 2214
8 2176 2178 2267 2265 2177 2216 2266 2215
8 2178 2180 2269 2267 2179 2217 2268 2216
8 2180 2182 2271 2269 2181 2218 2270 2217
8 2182 2184 2273 2271 2183 2219 2272 2218
8 2184 2186 2275 2273 2185 2220 2274 2219
8 2186 2188 2277 2275 2187 2221 2276 2220
8 2188 2190 2279 2277 2189 2222 2278 2221
8 2190 2192 2281 2279 2191 2223 2280 2222
8 2192 2194 2283 2281 2193 2224 2282 2223
8 2225 2227 2316 2314 2226 2285 2315 2284
8 2227 2229 2318 2316 2228 2286 2317 2285
8 2229 2231 2320 2318 2230 2287 2319 2286
8 2231 2233 2322 2320 2232 2288 2321 2287
8 2233 2235 2324 2322 2234 2289 2323 2288
8 2235 2237 2326 2324 2236 2290 2325 2289
8 2237 2239 2328 2326 2238 2291 2327 2290
8 2239 2241 2330 2328 2240 2292 2329 2291
8 2241 2243 2332 2330 2242 2293 2331 2292
8 2243 2245 2334 2332 2244 2294 2333 2293
8 2245 2247 2336 2334 2246 2295 2335 2294
8 2247 2249 2338 2336 2248 2296 2337 2295
8 2249 2251 2340 2338 2250 2297 2339 2296
8 2251 2253 2342 2340 2252 2298 2341 2297
8 2253 2255 2344 2342 2254 2299 2343 2298
8 2255 2257 2346 2344 2256 2300 2345 2299
8 2257 2259 2348 2346 2258 2301 2347 2300
8 2259 2261 2350 2348 2260 2302 2349 2301
8 2261 2263 2352 2350 2262 2303 2351 2302
8 2263 2265 2354 2352 2264 2304 2353 2303
8 2265 2267 2356 2354 2266 2305 2355 2304
8 2267 2269 2358 2356 2268 2306 2357 2305
8 2269 2271 2360 2358 2270 2307 2359 2306
8 2271 2273 2362 2360 2272 2308 2361 2307
8 2273 2275 2364 2362 2274 2309 2363 2308
8 2275 2277 2366 2364 2276 2310 2365 2309
8 2277 2279 2368 2366 2278 2311 2367 2310
8 2279 2281 2370 2368 2280 2312 2369 2311
8 2281 2283 2372 2370 2282 2313 2371 2312
8 2314 2316 2405 2403 2315 2374 2404 2373
8 2316 2318 2407 2405 2317 2375 2406 2374
8 2318 2320 2409 2407 2319 2376 2408 2375
8 2320 2322 2411 2409 2321 2377 2410 2376
8 2322 2324 2413 2411 2323 2378 2412 2377
8 2324 2326 2415 2413 2325 2379 2414 2378
8 2326 2328 2417 2415 2327 2380 2416 2379
8 2328 2330 2419 2417 2329 2381 2418 2380
8 2330 2332 2421 2419 2331 2382 2420 2381
8 2332 2334 2423 2421 2333 2383 2422 2382
8 2334 2336 2425 2423 2335 2384 2424 2383
8 2336 2338 2427 2425 2337 2385 2426 2384
8 2338 2340 2429 2427 2339 2386 2428 2385
8 2340 2342 2431 2429 2341 2387 2430 2386
8 2342 2344 2433 2431 2343 2388 2432 2387
8 2344 2346 2435 2433 2345 2389 2434 2388
8 2346 2348 2437 2435 2347 2390 2436 2389
8 2348 2350 2439 2437 2349 2391 2438 2390
8 2350 2352 2441 2439 2351 2392 2440 2391
8 2352 2354 2443 2441 2353 2393 2442 2392
8 2354 2356 2445 2443 2355 2394 2444 2393
8 2356 2358 2447 2445 2357 2395 2446 2394
8 2358 2360 2449 2447 2359 2396 2448 2395
8 2360 2362 2451 2449 2361 2397 2450 2396
8 2362 2364 2453 2451 2363 2398 2452 2397
8 2364 2366 2455 2453 2365 2399 2454 2398
8 2366 2368 2457 2455 2367 2400 2456 2399
8 2368 2370 2459 2457 2369 2401 2458 2400
8 2370 2372 2461 2459 2371 2402 2460 2401
8 2403 2405 2494 2492 2404 2463 2493 2462
8 2405 2407 2496 2494 2406 2464 2495 2463
8 2407 2409 2498 2496 2408 2465 2497 2464
8 2409 2411 2500 2498 2410 2466 2499 2465
8 2411 2413 2502 2500 2412 2467 2501 2466
8 2413 2415 2504 2502 2414 2468 2503 2467
8 2415 2417 2506 2504 2416 2469 2505 2468
8 2417 2419 2508 2506 2418 2470 2507 2469
8 2419 2421 2510 2508 2420 2471 2509 2470
8 2421 2423 2512 2510 2422 2472 2511 2471
8 2423 2425 2514 2512 2424 2473 2513 2472
8 2425 2427 2516 2514 2426 2474 2515 2473
8 2427 2429 2518 2516 2428 2475 2517 2474
8 2429 2431 2520 2518 2430 2476 2519 2475
8 2431 2433 2522 2520 2432 2477 2521 2476
8 2433 2435 2524 2522 2434 2478 2523 2477
8 2435 2437 2526 2524 2436 2479 2525 2478
8 2437 2439 2528 2526 2438 2480 2527 2479
8 2439 2441 2530 2528 2440 2481 2529 2480
8 2441 2443 2532 2530 2442 2482 2531 2481
8 2443 2445 2534 2532 2444 2483 2533 2482
8 2445 2447 2536 2534 2446 2484 2535 2483
8 2447 2449 2538 2536 2448 2485 2537 2484
8 2449 2451 2540 2538 2450 2486 2539 2485
8 2451 2453 2542 2540 2452 2487 2541 2486
8 2453 2455 2544 2542 2454 2488 2543 2487
8 2455 2457 2546 2544 2456 2489 2545 2488
8 2457 2459 2548 2546 2458 2490 2547 2489
8 2459 2461 2550 2548 2460 2491 2549 2490
8 2492 2494 2583 2581 2493 2552 2582 2551
8 2494 2496 2585 2583 2495 2553 2584 2552
8 2496 2498 2587 2585 2497 2554 2586 2553
8 2498 2500 2589 2587 2499 2555 2588 2554
8 2500 2502 2591 2589 2501 2556 2590 2555
8 2502 2504 2593 2591 2503 2557 2592 2556
8 2504 2506 2595 2593 2505 2558 2594 2557
8 2506 2508 2597 2595 2507 2559 2596 2558
8 2508 2510 2599 2597 2509 2560 2598 2559
8 2510 2512 2601 2599 2511 2561 2600 2560
8 2512 2514 2603 2601 2513 2562 2602 2561
8 2514 2516 2605 2603 2515 2563 2604 2562
8 2516 2518 2607 2605 2517 2564 2606 2563
8 2518 2520 2609 2607 2519 2565 2608 2564
8 2520 2522 2611 2609 2521 2566 2610 2565
8 2522 2524 2613 2611 2523 2567 2612 2566
8 2524 2526 2615 2613 2525 2568 2614 2567
8 2526 2528 2617 2615 2527 2569 2616 2568
8 2528 2530 2619 2617 2529 2570 2618 2569
8 2530 2532 2621 2619 2531 2571 2620 2570
8 2532 2534 2623 2621 2533 2572 2622 2571
8 2534 2536 2625 2623 2535 2573 2624 2572
8 2536 2538 2627 2625 2537 2574 2626 2573
8 2538 2540 2629 2627 2539 2575 2628 2574
8 2540 2542 2631 2629 2541 2576 2630 2575
8 2542 2544 2633 2631 2543 2577 2632 2576
8 2544 2546 2635 2633 2545 2578 2634 2577
8 2546 2548 2637 2635 2547 2579 2636 2578
8 2548 2550 2639 2637 2549 2580 2638 2579
8 2581 2583 2672 2670 2582 2641 2671 2640
8 2583 2585 2674 2672 2584 2642 2673 2641
8 2585 2587 2676 2674 2586 2643 2675 2642
8 2587 2589 2678 2676 2588 2644 2677 2643
8 2589 2591 2680 2678 2590 2645 2679 2644
8 2591 2593 2682 2680 2592 2646 2681 2645
8 2593 2595 2684 2682 2594 2647 2683 2646
8 2595 2597 2686 2684 2596 2648 2685 2647
8 2597 2599 2688 2686 2598 2649 2687 2648
8 2599 2601 2690 2688 2600 2650 2689 2649
8 2601 2603 2692 2690 2602 2651 2691 2650
8 2603 2605 2694 2692 2604 2652 2693 2651
8 2605 2607 2696 2694 2606 2653 2695 2652
8 2607 2609 2698 2696 2608 2654 2697 2653
8 2609 2611 2700 2698 2610 2655 2699 2654
8 2611 2613 2702 2700 2612 2656 2701 2655
8 2613 2615 2704 2702 2614 2657 2703 2656
8 2615 2617 2706 2704 2616 2658 2705 2657
8 2617 2619 2708 2706 2618 2659 2707 2658
8 2619 2621 2710 2708 2620 2660 2709 2659
8 2621 2623 2712 2710 2622 2661 2711 2660
8 2623 2625 2714 2712 2624 2662 2713 2661
8 2625 2627 2716 2714 2626 2663 2715 2662
8 2627 2629 2718 2716 2628 2664 2717 2663
8 2629 2631 2720 2718 2630 2665 2719 2664
8 2631 2633 2722 2720 2632 2666 2721 2665
8 2633 2635 2724 2722 2634 2667 2723 2666
8 2635 2637 2726 2724 2636 2668 2725 2667
8 2637 2639 2728 2726 2638 2669 2727 2668
8 2670 2672 2761 2759 2671 2730 2760 2729
8 2672 2674 2763 2761 2673 2731 2762 2730
8 2674 2676 2765 2763 2675 2732 2764 2731
8 2676 2678 2767 2765 2677 2733 2766 2732
8 2678 2680 2769 2767 2679 2734 2768 2733
8 2680 2682 2771 2769 2681 2735 2770 2734
8 2682 2684 2773 2771 2683 2736 2772 2735
8 2684 2686 2775 2773 2685 2737 2774 2736
8 2686 2688 2777 2775 2687 2738 2776 2737
8 2688 2690 2779 2777 2689 2739 2778 2738
8 2690 2692 2781 2779 2691 2740 2780 2739
8 2692 2694 2783 2781 2693 2741 2782 2740
8 2694 2696 2785 2783 2695 2742 2784 2741
8 2696 2698 2787 2785 2697 2743 2786 2742
8 2698 2700 2789 2787 2699 2744 2788 2743
8 2700 2702 2791 2789 2701 2745 2790 2744
8 2702 2704 2793 2791 2703 2746 2792 2745
8 2704 2706 2795 2793 2705 2747 2794 2746
8 2706 2708 2797 2795 2707 2748 2796 2747
8 2708 2710 2799 2797 2709 2749 2798 2748
8 2710 2712 2801 2799 2711 2750 2800 2749
8 2712 2714 2803 2801 2713 2751 2802 2750
8 2714 2716 2805 2803 2715 2752 2804 2751
8 2716 2718 2807 2805 2717 2753 2806 2752
8 2718 2720 2809 2807 2719 2754 2808 2753
8 2720 2722 2811 2809 2721 2755 2810 2754
8 2722 2724 2813 2811 2723 2756 2812 2755
8 2724 2726 2815 2813 2725 2757 2814 2756
8 2726 2728 2817 2815 2727 2758 2816 2757
8 2759 2761 2850 2848 2760 2819 2849 2818
8 2761 2763 2852 2850 2762 2820 2851 2819
8 2763 2765 2854 2852 2764 2821 2853 2820
8 2765 2767 2856 2854 2766 2822 2855 2821
8 2767 2769 2858 2856 2768 2823 2857 2822
8 2769 2771 2860 2858 2770 2824 2859 2823
8 2771 2773 2862 2860 2772 2825 2861 2824
8 2773 2775 2864 2862 2774 2826 2863 2825
8 2775 2777 2866 2864 2776 2827 2865 2826
8 2777 2779 2868 2866 2778 2828 2867 2827
8 2779 2781 2870 2868 2780 2829 2869 2828
8 2781 2783 2872 2870 2782 2830 2871 2829
8 2783 2785 2874 2872 2784 2831 2873 2830
8 2785 2787 2876 2874 2786 2832 2875 2831
8 2787 2789 2878 2876 2788 2833 2877 2832
8 2789 2791 2880 2878 2790 2834 2879 2833
8 2791 2793 2882 2880 2792 2835 2881 2834
8 2793 2795 2884 2882 2794 2836 2883 2835
8 2795 2797 2886 2884 2796 2837 2885 2836
8 2797 2799 2888 2886 2798 2838 2887 2837
8 2799 2801 2890 2888 2800 2839 2889 2838
8 2801 2803 2892 2890 2802 2840 2891 2839
8 2803 2805 2894 2892 2804 2841 2893 2840
8 2805 2807 2896 2894 2806 2842 2895 2841
8 2807 2809 2898 2896 2808 2843 2897 2842
8 2809 2811 2900 2898 2810 2844 2899 2843
8 2811 2813 2902 2900 2812 2845 2901 2844
8 2813 2815 2904 2902 2814 2846 2903 2845
8 2815 2817 2906 2904 2816 2847 2905 2846
8 2848 2850 2939 2937 2849 2908 2938 2907
8 2850 2852 2941 2939 2851 2909 2940 2908
8 2852 2854 2943 2941 2853 2910 2942 2909
8 2854 2856 2945 2943 2855 2911 2944 2910
8 2856 2858 2947 2945 2857 2912 2946 2911
8 2858 2860 2949 2947 2859 2913 2948 2912
8 2860 2862 2951 2949 2861 2914 2950 2913
8 2862 2864 2953 2951 2863 2915 2952 2914
8 2864 2866 2955 2953 2865 2916 2954 2915
8 2866 2868 2957 2955 2867 2917 2956 2916
8 2868 2870 2959 2957 2869 2918 2958 2917
8 2870 2872 2961 2959 2871 2919 2960 2918
8 2872 2874 2963 2961 2873 2920 2962 2919
8 2874 2876 2965 2963 2875 2921 2964 2920
8 2876 2878 2967 2965 2877 2922 2966 2921
8 2878 2880 2969 2967 2879 2923 2968 2922
8 2880 2882 2971 2969 2881 2924 2970 2923
8 2882 2884 2973 2971 2883 2925 2972 2924
8 2884 2886 2975 2973 2885 2926 2974 2925
8 2886 2888 2977 2975 2887 2927 2976 2926
8 2888 2890 2979 2977 2889 2928 2978 2927
8 2890 2892 2981 2979 2891 2929 2980 2928
8 2892 2894 2983 2981 2893 2930 2982 2929
8 2894 2896 2985 2983 2895 2931 2984 2930
8 2896 2898 2987 2985 2897 2932 2986 2931
8 2898 2900 2989 2987 2899 2933 2988 2932
8 2900 2902 2991 2989 2901 2934 2990 2933
8 2902 2904 2993 2991 2903 2935 2992 2934
8 2904 2906 2995 2993 2905 2936 2994 2935
8 2937 2939 3028 3026 2938 2997 3027 2996
8 2939 2941 3030 3028 2940 2998 3029 2997
8 2941 2943 3032 3030 2942 2999 3031 2998
8 2943 2945 3034 3032 2944 3000 3033 2999
8 2945 2947 3036 3034 2946 3001 3035 3000
8 2947 2949 3038 3036 2948 3002 3037 3001
8 2949 2951 3040 3038 2950 3003 3039 3002
8 2951 2953 3042 3040 2952 3004 3041 3003
8 2953 2955 3044 3042 2954 3005 3043 3004
8 2955 2957 3046 3044 2956 3006 3045 3005
8 2957 2959 3048 3046 2958 3007 3047 3006
8 2959 2961 3050 3048 2960 3008 3049 3007
8 2961 2963 3052 3050 2962 3009 3051 3008
8 2963 2965 3054 3052 2964 3010 3053 3009
8 2965 2967 3056 3054 2966 3011 3055 3010
8 2967 2969 3058 3056 2968 3012 3057 3011
8 2969 2971 3060 3058 2970 3013 3059 3012
8 2971 2973 3062 3060 2972 3014 3061 3013
8 2973 2975 3064 3062 2974 3015 3063 3014
8 2975 2977 3066 3064 2976 3016 3065 3015
8 2977 2979 3068 3066 2978 3017 3067 3016
8 2979 2981 3070 3068 2980 3018 3069 3017
8 2981 2983 3072 3070 2982 3019 3071 3018
8 2983 2985 3074 3072 2984 3020 3073 3019
8 2985 2987 3076 3074 2986 3021 3075 3020
8 2987 2989 3078 3076 2988 3022 3077 3021
8 2989 2991 3080 3078 2990 3023 3079 3022
8 2991 2993 3082 3080 2992 3024 3081 3023
8 2993 2995 3084 3082 2994 3025 3083 3024
8 3026 3028 3117 3115 3027 3086 3116 3085
8 3028 3030 3119 3117 3029 3087 3118 3086
8 3030 3032 3121 3119 3031 3088 3120 3087
8 3032 3034 3123 3121 3033 3089 3122 3088
8 3034 3036 3125 3123 3035 3090 3124 3089
8 3036 3038 3127 3125 3037 3091 3126 3090
8 3038 3040 3129 3127 3039 3092 3128 3091
8 3040 3042 3131 3129 3041 3093 3130 3092
8 3042 3044 3133 3131 3043 3094 3132 3093
8 3044 3046 3135 3133 3045 3095 3134 3094
8 3046 3048 3137 3135 3047 3096 3136 3095
8 3048 3050 3139 3137 3049 3097 3138 3096
8 3050 3052 3141 3139 3051 3098 3140 3097
8 3052 3054 3143 3141 3053 3099 3142 3098
8 3054 3056 3145 3143 3055 3100 3144 3099
8 3056 3058 3147 3145 3057 3101 3146 3100
8 3058 3060 3149 3147 3059 3102 3148 3101
8 3060 3062 3151 3149 3061 3103 3150 3102
8 3062 3064 3153 3151 3063 3104 3152 3103
8 3064 3066 3155 3153 3065 3105 3154 3104
8 3066 3068 3157 3155 3067 3106 3156 3105
8 3068 3070 3159 3157 3069 3107 3158 3106
8 3070 3072 3161 3159 3071 3108 3160 3107
8 3072 3074 3163 3161 3073 3109 3162 3108
8 3074 3076 3165 3163 3075 3110 3164 3109
8 3076 3078 3167 3165 3077 3111 3166 3110
8 3078 3080 3169 3167 3079 3112 3168 3111
8 3080 3082 3171 3169 3081 3113 3170 3112
8 3082 3084 3173 3171 3083 3114 3172 3113
8 3115 3117 3206 3204 3116 3175 3205 3174
8 3117 3119 3208 3206 3118 3176 3207 3175
8 3119 3121 3210 3208 3120 3177 3209 3176
8 3121 3123 3212 3210 3122 3178 3211 3177
8 3123 3125 3214 3212 3124 3179 3213 3178
8 3125 3127 3216 3214 3126 3180 3215 3179
8 3127 3129 3218 3216 3128 3181 3217 3180
8 3129 3131 3220 3218 3130 3182 3219 3181
8 3131 3133 3222 3220 3132 3183 3221 3182
8 3133 3135 3224 3222 3134 3184 3223 3183
8 3135 3137 3226 3224 3136 3185 3225 3184
8 3137 3139 3228 3226 3138 3186 3227 3185
8 3139 3141 3230 3228 3140 3187 3229 3186
8 3141 3143 3232 3230 3142 3188 3231 3187
8 3143 3145 3234 3232 3144 3189 3233 3188
8 3145 3147 3236 3234 3146 3190 3235 3189
8 3147 3149 3238 3236 3148 3191 3237 3190
8 3149 3151 3240 3238 3150 3192 3239 3191
8 3151 3153 3242 3240 3152 3193 3241 3192
8 3153 3155 3244 3242 3154 3194 3243 3193
8 3155 3157 3246 3244 3156 3195 3245 3194
8 3157 3159 3248 3246 3158 3196 3247 3195
8 3159 3161 3250 3248 3160 3197 3249 3196
8 3161 3163 3252 3250 3162 3198 3251 3197
8 3163 3165 3254 3252 3164 3199 3253 3198
8 3165 3167 3256 3254 3166 3200 3255 3199
8 3167 3169 3258 3256 3168 3201 3257 3200
8 3169 3171 3260 3258 3170 3202 3259 3201
8 3171 3173 3262 3260 3172 3203 3261 3202
8 3204 3206 3295 3293 3205 3264 3294 3263
8 3206 3208 3297 3295 3207 3265 3296 3264
8 3208 3210 3299 3297 3209 3266 3298 3265
8 3210 3212 3301 3299 3211 3267 3300 3266
8 3212 3214 3303 3301 3213 3268 3302 3267
8 3214 3216 3305 3303 3215 3269 3304 3268
8 3216 3218 3307 3305 3217 3270 3306 3269
8 3218 3220 3309 3307 3219 3271 3308 3270
8 3220 3222 3311 3309 3221 3272 3310 3271
8 3222 3224 3313 3311 3223 3273 3312 3272
8 3224 3226 3315 3313 3225 3274 3314 3273
8 3226 3228 3317 3315 3227 3275 3316 3274
8 3228 3230 3319 3317 3229 3276 3318 3275
8 3230 3232 3321 3319 3231 3277 3320 3276
8 3232 3234 3323 3321 3233 3278 3322 3277
8 3234 3236 3325 3323 3235 3279 3324 3278
8 3236 3238 3327 3325 3237 3280 3326 3279
8 3238 3240 3329 3327 3239 3281 3328 3280
8 3240 3242 3331 3329 3241 3282 3330 3281
8 3242 3244 3333 3331 3243 3283 3332 3282
8 3244 3246 3335 3333 3245 3284 3334 3283
8 3246 3248 3337 3335 3247 3285 3336 3284
8 3248 3250 3339 3337 3249 3286 3338 3285
8 3250 3252 3341 3339 3251 3287 3340 3286
8 3252 3254 3343 3341 3253 3288 3342 3287
8 3254 3256 3345 3343 3255 3289 3344 3288
8 3256 3258 3347 3345 3257 3290 3346 3289
8 3258 3260 3349 3347 3259 3291 3348 3290
8 3260 3262 3351 3349 3261 3292 3350 3291
8 3293 3295 3384 3382 3294 3353 3383 3352
8 3295 3297 3386 3384 3296 3354 3385 3353
8 3297 3299 3388 3386 3298 3355 3387 3354
8 3299 3301 3390 3388 3300 3356 3389 3355
8 3301 3303 3392 3390 3302 3357 3391 3356
8 3303 3305 3394 3392 3304 3358 3393 3357
8 3305 3307 3396 3394 3306 3359 3395 3358
8 3307 3309 3398 3396 3308 3360 3397 3359
8 3309 3311 3400 3398 3310 3361 3399 3360
8 3311 3313 3402 3400 3312 3362 3401 3361
8 3313 3315 3404 3402 3314 3363 3403 3362
8 3315 3317 3406 3404 3316 3364 3405 3363
8 3317 3319 3408 3406 3318 3365 3407 3364
8 3319 3321 3410 3408 3320 3366 3409 3365
8 3321 3323 3412 3410 3322 3367 3411 3366
8 3323 3325 3414 3412 3324 3368 3413 3367
8 3325 3327 3416 3414 3326 3369 3415 3368
8 3327 3329 3418 3416 3328 3370 3417 3369
8 3329 3331 3420 3418 3330 3371 3419 3370
8 3331 3333 3422 3420 3332 3372 3421 3371
8 3333 3335 3424 3422 3334 3373 3423 3372
8 3335 3337 3426 3424 3336 3374 3425 3373
8 3337 3339 3428 3426 3338 3375 3427 3374
8 3339 3341 3430 3428 3340 3376 3429 3375
8 3341 3343 3432 3430 3342 3377 3431 3376
8 3343 3345 3434 3432 3344 3378 3433 3377
8 3345 3347 3436 3434 3346 3379 3435 3378
8 3347 3349 3438 3436 3348 3380 3437 3379
8 3349 3351 3440 3438 3350 3381 3439 3380
8 3382 3384 3473 3471 3383 3442 3472 3441
8 3384 3386 3475 3473 3385 3443 3474 3442
8 3386 3388 3477 3475 3387 3444 3476 3443
8 3388 3390 3479 3477 3389 3445 3478 3444
8 3390 3392 3481 3479 3391 3446 3480 3445
8 3392 3394 3483 3481 3393 3447 3482 3446
8 3394 3396 3485 3483 3395 3448 3484 3447
8 3396 3398 3487 3485 3397 3449 3486 3448
8 3398 3400 3489 3487 3399 3450 3488 3449
8 3400 3402 3491 3489 3401 3451 3490 3450
8 3402 3404 3493 3491 3403 3452 3492 3451
8 3404 3406 3495 3493 3405 3453 3494 3452
8 3406 3408 3497 3495 3407 3454 3496 3453
8 3408 3410 3499 3497 3409 3455 3498 3454
8 3410 3412 3501 3499 3411 3456 3500 3455
8 3412 3414 3503 3501 3413 3457 3502 3456
8 3414 3416 3505 3503 3415 3458 3504 3457
8 3416 3418 3507 3505 3417 3459 3506 3458
8 3418 3420 3509 3507 3419 3460 3508 3459
8 3420 3422 3511 3509 3421 3461 3510 3460
8 3422 3424 3513 3511 3423 3462 3512 3461
8 3424 3426 3515 3513 3425 3463 3514 3462
8 3426 3428 3517 3515 3427 3464 3516 3463
8 3428 3430 3519 3517 3429 3465 3518 3464
8 3430 3432 3521 3519 3431 3466 3520 3465
8 3432 3434 3523 3521 3433 3467 3522 3466
8 3434 3436 3525 3523 3435 3468 3524 3467
8 3436 3438 3527 3525 3437 3469 3526 3468
8 3438 3440 3529 3527 3439 3470 3528 3469
8 3471 3473 3562 3560 3472 3531 3561 3530
8 3473 3475 3564 3562 3474 3532 3563 3531
8 3475 3477 3566 3564 3476 3533 3565 3532
8 3477 3479 3568 3566 3478 3534 3567 3533
8 3479 3481 3570 3568 3480 3535 3569 3534
8 3481 3483 3572 3570 3482 3536 3571 3535
8 3483 3485 3574 3572 3484 3537 3573 3536
8 3485 3487 3576 3574 3486 3538 3575 3537
8 3487 3489 3578 3576 3488 3539 3577 3538
8 3489 3491 3580 3578 3490 3540 3579 3539
8 3491 3493 3582 3580 3492 3541 3581 3540
8 3493 3495 3584 3582 3494 3542 3583 3541
8 3495 3497 3586 3584 3496 3543 3585 3542
8 3497 3499 3588 3586 3498 3544 3587 3543
8 3499 3501 3590 3588 3500 3545 3589 3544
8 3501 3503 3592 3590 3502 3546 3591 3545
8 3503 3505 3594 3592 3504 3547 3593 3546
8 3505 3507 3596 3594 3506 3548 3595 3547
8 3507 3509 3598 3596 3508 3549 3597 3548
8 3509 3511 3600 3598 3510 3550 3599 3549
8 3511 3513 3602 3600 3512 3551 3601 3550
8 3513 3515 3604 3602 3514 3552 3603 3551
8 3515 3517 3606 3604 3516 3553 3605 3552
8 3517 3519 3608 3606 3518 3554 3607 3553
8 3519 3521 3610 3608 3520 3555 3609 3554
8 3521 3523 3612 3610 3522 3556 3611 3555
8 3523 3525 3614 3612 3524 3557 3613 3556
8 3525 3527 3616 3614 3526 3558 3615 3557
8 3527 3529 3618 3616 3528 3559 3617 3558
8 3560 3562 3651 3649 3561 3620 3650 3619
8 3562 3564 3653 3651 3563 3621 3652 3620
8 3564 3566 3655 3653 3565 3622 3654 3621
8 3566 3568 3657 3655 3567 3623 3656 3622
8 3568 3570 3659 3657 3569 3624 3658 3623
8 3570 3572 3661 3659 3571 3625 3660 3624
8 3572 3574 3663 3661 3573 3626 3662 3625
8 3574 3576 3665 3663 3575 3627 3664 3626
8 3576 3578 3667 3665 3577 3628 3666 3627
8 3578 3580 3669 3667 3579 3629 3668 3628
8 3580 3582 3671 3669 3581 3630 3670 3629
8 3582 3584 3673 3671 3583 3631 3672 3630
8 3584 3586 3675 3673 3585 3632 3674 3631
8 3586 3588 3677 3675 3587 3633 3676 3632
8 3588 3590 3679 3677 3589 3634 3678 3633
8 3590 3592 3681 3679 3591 3635 3680 3634
8 3592 3594 3683 3681 3593 3636 3682 3635
8 3594 3596 3685 3683 3595 3637 3684 3636
8 3596 3598 3687 3685 3597 3638 3686 3637
8 3598 3600 3689 3687 3599 3639 3688 3638
8 3600 3602 3691 3689 3601 3640 3690 3639
8 3602 3604 3693 3691 3603 3641 3692 3640
8 3604 3606 3695 3693 3605 3642 3694 3641
8 3606 3608 3697 3695 3607 3643 3696 3642
8 3608 3610 3699 3697 3609 3644 3698 3643
8 3610 3612 3701 3699 3611 3645 3700 3644
8 3612 3614 3703 3701 3613 3646 3702 3645
8 3614 3616 3705 3703 3615 3647 3704 3646
8 3616 3618 3707 3705 3617 3648 3706 3647
8 3649 3651 3740 3738 3650 3709 3739 3708
8 3651 3653 3742 3740 3652 3710 3741 3709
8 3653 3655 3744 3742 3654 3711 3743 3710
8 3655 3657 3746 3744 3656 3712 3745 3711
8 3657 3659 3748 3746 3658 3713 3747 3712
8 3659 3661 3750 3748 3660 3714 3749 3713
8 3661 3663 3752 3750 3662 3715 3751 3714
8 3663 3665 3754 3752 3664 3716 3753 3715
8 3665 3667 3756 3754 3666 3717 3755 3716
8 3667 3669 3758 3756 3668 3718 3757 3717
8 3669 3671 3760 3758 3670 3719 3759 3718
8 3671 3673 3762 3760 3672 3720 3761 3719
8 3673 3675 3764 3762 3674 3721 3763 3720
8 3675 3677 3766 3764 3676 3722 3765 3721
8 3677 3679 3768 3766 3678 3723 3767 3722
8 3679 3681 3770 3768 3680 3724 3769 3723
8 3681 3683 3772 3770 3682 3725 3771 3724
8 3683 3685 3774 3772 3684 3726 3773 3725
8 3685 3687 3776 3774 3686 3727 3775 3726
8 3687 3689 3778 3776 3688 3728 3777 3727
8 3689 3691 3780 3778 3690 3729 3779 3728
8 3691 3693 3782 3780 3692 3730 3781 3729
8 3693 3695 3784 3782 3694 3731 3783 3730
8 3695 3697 3786 3784 3696 3732 3785 3731
8 3697 3699 3788 3786 3698 3733 3787 3732
8 3699 3701 3790 3788 3700 3734 3789 3733
8 3701 3703 3792 3790 3702 3735 3791 3734
8 3703 3705 3794 3792 3704 3736 3793 3735
8 3705 3707 3796 3794 3706 3737 3795 3736
8 3738 3740 3829 3827 3739 3798 3828 3797
8 3740 3742 3831 3829 3741 3799 3830 3798
8 3742 3744 3833 3831 3743 3800 3832 3799
8 3744 3746 3835 3833 3745 3801 3834 3800
8 3746 3748 3837 3835 3747 3802 3836 3801
8 3748 3750 3839 3837 3749 3803 3838 3802
8 3750 3752 3841 3839 3751 3804 3840 3803
8 3752 3754 3843 3841 3753 3805 3842 3804
8 3754 3756 3845 3843 3755 3806 3844 3805
8 3756 3758 3847 3845 3757 3807 3846 3806
8 3758 3760 3849 3847 3759 3808 3848 3807
8 3760 3762 3851 3849 3761 3809 3850 3808
8 3762 3764 3853 3851 3763 3810 3852 3809
8 3764 3766 3855 3853 3765 3811 3854 3810
8 3766 3768 3857 3855 3767 3812 3856 3811
8 3768 3770 3859 3857 3769 3813 3858 3812
8 3770 3772 3861 3859 3771 3814 3860 3813
8 3772 3774 3863 3861 3773 3815 3862 3814
8 3774 3776 3865 3863 3775 3816 3864 3815
8 3776 3778 3867 3865 3777 3817 3866 3816
8 3778 3780 3869 3867 3779 3818 3868 3817
8 3780 3782 3871 3869 3781 3819 3870 3818
8 3782 3784 3873 3871 3783 3820 3872 3819
8 3784 3786 3875 3873 3785 3821 3874 3820
8 3786 3788 3877 3875 3787 3822 3876 3821
8 3788 3790 3879 3877 3789 3823 3878 3822
8 3790 3792 3881 3879 3791 3824 3880 3823
8 3792 3794 3883 3881 3793 3825 3882 3824
8 3794 3796 3885 3883 3795 3826 3884 3825
8 3827 3829 3918 3916 3828 3887 3917 3886
8 3829 3831 3920 3918 3830 3888 3919 3887
8 3831 3833 3922 3920 3832 3889 3921 3888
8 3833 3835 3924 3922 3834 3890 3923 3889
8 3835 3837 3926 3924 3836 3891 3925 3890
8 3837 3839 3928 3926 3838 3892 3927 3891
8 3839 3841 3930 3928 3840 3893 3929 3892
8 3841 3843 3932 3930 3842 3894 3931 3893
8 3843 3845 3934 3932 3844 3895 3933 3894
8 3845 3847 3936 3934 3846 3896 3935 3895
8 3847 3849 3938 3936 3848 3897 3937 3896
8 3849 3851 3940 3938 3850 3898 3939 3897
8 3851 3853 3942 3940 3852 3899 3941 3898
8 3853 3855 3944 3942 3854 3900 3943 3899
8 3855 3857 3946 3944 3856 3901 3945 3900
8 3857 3859 3948 3946 3858 3902 3947 3901
8 3859 3861 3950 3948 3860 3903 3949 3902
8 3861 3863 3952 3950 3862 3904 3951 3903
8 3863 3865 3954 3952 3864 3905 3953 3904
8 3865 3867 3956 3954 3866 3906 3955 3905
8 3867 3869 3958 3956 3868 3907 3957 3906
8 3869 3871 3960 3958 3870 3908 3959 3907
8 3871 3873 3962 3960 3872 3909 3961 3908
8 3873 3875 3964 3962 3874 3910 3963 3909
8 3875 3877 3966 3964 3876 3911 3965 3910
8 3877 3879 3968 3966 3878 3912 3967 3911
8 3879 3881 3970 3968 3880 3913 3969 3912
8 3881 3883 3972 3970 3882 3914 3971 3913
8 3883 3885 3974 3972 3884 3915 3973 3914
8 3916 3918 4007 4005 3917 3976 4006 3975
8 3918 3920 4009 4007 3919 3977 4008 3976
8 3920 3922 4011 4009 3921 3978 4010 3977
8 3922 3924 4013 4011 3923 3979 4012 3978
8 3924 3926 4015 4013 3925 3980 4014 3979
8 3926 3928 4017 4015 3927 3981 4016 3980
8 3928 3930 4019 4017 3929 3982 4018 3981
8 3930 3932 4021 4019 3931 3983 4020 3982
8 3932 3934 4023 4021 3933 3984 4022 3983
8 3934 3936 4025 4023 3935 3985 4024 3984
8 3936 3938 4027 4025 3937 3986 4026 3985
8 3938 3940 4029 4027 3939 3987 4028 3986
8 3940 3942 4031 4029 3941 3988 4030 3987
8 3942 3944 4033 4031 3943 3989 4032 3988
8 3944 3946 4035 4033 3945 3990 4034 3989
8 3946 3948 4037 4035 3947 3991 4036 3990
8 3948 3950 4039 4037 3949 3992 4038 3991
8 3950 3952 4041 4039 3951 3993 4040 3992
8 3952 3954 4043 4041 3953 3994 4042 3993
8 3954 3956 4045 4043 3955 3995 4044 3994
8 3956 3958 4047 4045 3957 3996 4046 3995
8 3958 3960 4049 4047 3959 3997 4048 3996
8 3960 3962 4051 4049 3961 3998 4050 3997
8 3962 3964 4053 4051 3963 3999 4052 3998
8 3964 3966 4055 4053 3965 4000 4054 3999
8 3966 3968 4057 4055 3967 4001 4056 4000
8 3968 3970 4059 4057 3969 4002 4058 4001
8 3970 3972 4061 4059 3971 4003 4060 4002
8 3972 3974 4063 4061 3973 4004 4062 4003
8 4005 4007 4096 4094 4006 4065 4095 4064
8 4007 4009 4098 4096 4008 4066 4097 4065
8 4009 4011 4100 4098 4010 4067 4099 4066
8 4011 4013 4102 4100 4012 4068 4101 4067
8 4013 4015 4104 4102 4014 4069 4103 4068
8 4015 4017 4106 4104 4016 4070 4105 4069
8 4017 4019 4108 4106 4018 4071 4107 4070
8 4019 4021 4110 4108 4020 4072 4109 4071
8 4021 4023 4112 4110 4022 4073 4111 4072
8 4023 4025 4114 4112 4024 4074 4113 4073
8 4025 4027 4116 4114 4026 4075 4115 4074
8 4027 4029 4118 4116 4028 4076 4117 4075
8 4029 4031 4120 4118 4030 4077 4119 4076
8 4031 4033 4122 4120 4032 4078 4121 4077
8 4033 4035 4124 4122 4034 4079 4123 4078
8 4035 4037 4126 4124 4036 4080 4125 4079
8 4037 4039 4128 4126 4038 4081 4127 4080
8 4039 4041 4130 4128 4040 4082 4129 4081
8 4041 4043 4132 4130 4042 4083 4131 4082
8 4043 4045 4134 4132 4044 4084 4133 4083
8 4045 4047 4136 4134 4046 4085 4135 4084
8 4047 4049 4138 4136 4048 4086 4137 4085
8 4049 4051 4140 4138 4050 4087 4139 4086
8 4051 4053 4142 4140 4052 4088 4141 4087
8 4053 4055 4144 4142 4054 4089 4143 4088
8 4055 4057 4146 4144 4056 4090 4145 4089
8 4057 4059 4148 4146 4058 4091 4147 4090
8 4059 4061 4150 4148 4060 4092 4149 4091
8 4061 4063 4152 4150 4062 4093 4151 4092
8 4094 4096 4185 4183 4095 4154 4184 4153
8 4096 4098 4187 4185 4097 4155 4186 4154
8 4098 4100 4189 4187 4099 4156 4188 4155
8 4100 4102 4191 4189 4101 4157 4190 4156
8 4102 4104 4193 4191 4103 4158 4192 4157
8 4104 4106 4195 4193 4105 4159 4194 4158
8 4106 4108 4197 4195 4107 4160 4196 4159
8 4108 4110 4199 4197 4109 4161 4198 4160
8 4110 4112 4201 4199 4111 4162 4200 4161
8 4112 4114 4203 4201 4113 4163 4202 4162
8 4114 4116 4205 4203 4115 4164 4204 4163
8 4116 4118 4207 4205 4117 4165 4206 4164
8 4118 4120 4209 4207 4119 4166 4208 4165
8 4120 4122 4211 4209 4121 4167 4210 4166
8 4122 4124 4213 4211 4123 4168 4212 4167
8 4124 4126 4215 4213 4125 4169 4214 4168
8 4126 4128 4217 4215 4127 4170 4216 4169
8 4128 4130 4219 4217 4129 4171 4218 4170
8 4130 4132 4221 4219 4131 4172 4220 4171
8 4132 4134 4223 4221 4133 4173 4222 4172
8 4134 4136 4225 4223 4135 4174 4224 4173
8 4136 4138 4227 4225 4137 4175 4226 4174
8 4138 4140 4229 4227 4139 4176 4228 4175
8 4140 4142 4231 4229 4141 4177 4230 4176
8 4142 4144 4233 4231 4143 4178 4232 4177
8 4144 4146 4235 4233 4145 4179 4234 4178
8 4146 4148 4237 4235 4147 4180 4236 4179
8 4148 4150 4239 4237 4149 4181 4238 4180
8 4150 4152 4241 4239 4151 4182 4240 4181
8 4183 4185 4274 4272 4184 4243 4273 4242
8 4185 4187 4276 4274 4186 4244 4275 4243
8 4187 4189 4278 4276 4188 4245 4277 4244
8 4189 4191 4280 4278 4190 4246 4279 4245
8 4191 4193 4282 4280 4192 4247 4281 4246
8 4193 4195 4284 4282 4194 4248 4283 4247
8 4195 4197 4286 4284 4196 4249 4285 4248
8 4197 4199 4288 4286 4198 4250 4287 4249
8 4199 4201 4290 4288 4200 4251 4289 4250
8 4201 4203 4292 4290 4202 4252 4291 4251
8 4203 4205 4294 4292 4204 4253 4293 4252
8 4205 4207 4296 4294 4206 4254 4295 4253
8 4207 4209 4298 4296 4208 4255 4297 4254
8 4209 4211 4300 4298 4210 4256 4299 4255
8 4211 4213 4302 4300 4212 4257 4301 4256
8 4213 4215 4304 4302 4214 4258 4303 4257
8 4215 4217 4306 4304 4216 4259 4305 4258
8 4217 4219 4308 4306 4218 4260 4307 4259
8 4219 4221 4310 4308 4220 4261 4309 4260
8 4221 4223 4312 4310 4222 4262 4311 4261
8 4223 4225 4314 4312 4224 4263 4313 4262
8 4225 4227 4316 4314 4226 4264 4315 4263
8 4227 4229 4318 4316 4228 4265 4317 4264
8 4229 4231 4320 4318 4230 4266 4319 4265
8 4231 4233 4322 4320 4232 4267 4321 4266
8 4233 4235 4324 4322 4234 4268 4323 4267
8 4235 4237 4326 4324 4236 4269 4325 4268
8 4237 4239 4328 4326 4238 4270 4327 4269
8 4239 4241 4330 4328 4240 4271 4329 4270
8 4272 4274 4363 4361 4273 4332 4362 4331
8 4274 4276 4365 4363 4275 4333 4364 4332
8 4276 4278 4367 4365 4277 4334 4366 4333
8 4278 4280 4369 4367 4279 4335 4368 4334
8 4280 4282 4371 4369 4281 4336 4370 4335
8 4282 4284 4373 4371 4283 4337 4372 4336
8 4284 4286 4375 4373 4285 4338 4374 4337
8 4286 4288 4377 4375 4287 4339 4376 4338
8 4288 4290 4379 4377 4289 4340 4378 4339
8 4290 4292 4381 4379 4291 4341 4380 4340
8 4292 4294 4383 4381 4293 4342 4382 4341
8 4294 4296 4385 4383 4295 4343 4384 4342
8 4296 4298 4387 4385 4297 4344 4386 4343
8 4298 4300 4389 4387 4299 4345 4388 4344
8 4300 4302 4391 4389 4301 4346 4390 4345
8 4302 4304 4393 4391 4303 4347 4392 4346
8 4304 4306 4395 4393 4305 4348 4394 4347
8 4306 4308 4397 4395 4307 4349 4396 4348
8 4308 4310 4399 4397 4309 4350 4398 4349
8 4310 4312 4401 4399 4311 4351 4400 4350
8 4312 4314 4403 4401 4313 4352 4402 4351
8 4314 4316 4405 4403 4315 4353 4404 4352
8 4316 4318 4407 4405 4317 4354 4406 4353
8 4318 4320 4409 4407 4319 4355 4408 4354
8 4320 4322 4411 4409 4321 4356 4410 4355
8 4322 4324 4413 4411 4323 4357 4412 4356
8 4324 4326 4415 4413 4325 4358 4414 4357
8 4326 4328 4417 4415 4327 4359 4416 4358
8 4328 4330 4419 4417 4329 4360 4418 4359
8 4361 4363 4452 4450 4362 4421 4451 4420
8 4363 4365 4454 4452 4364 4422 4453 4421
8 4365 4367 4456 4454 4366 4423 4455 4422
8 4367 4369 4458 4456 4368 4424 4457 4423
8 4369 4371 4460 4458 4370 4425 4459 4424
8 4371 4373 4462 4460 4372 4426 4461 4425
8 4373 4375 4464 4462 4374 4427 4463 4426
8 4375 4377 4466 4464 4376 4428 4465 4427
8 4377 4379 4468 4466 4378 4429 4467 4428
8 4379 4381 4470 4468 4380 4430 4469 4429
8 4381 4383 4472 4470 4382 4431 4471 4430
8 4383 4385 4474 4472 4384 4432 4473 4431
8 4385 4387 4476 4474 4386 4433 4475 4432
8 4387 4389 4478 4476 4388 4434 4477 4433
8 4389 4391 4480 4478 4390 4435 4479 4434
8 4391 4393 4482 4480 4392 4436 4481 4435
8 4393 4395 4484 4482 4394 4437 4483 4436
8 4395 4397 4486 4484 4396 4438 4485 4437
8 4397 4399 4488 4486 4398 4439 4487 4438
8 4399 4401 4490 4488 4400 4440 4489 4439
8 4401 4403 4492 4490 4402 4441 4491 4440
8 4403 4405 4494 4492 4404 4442 4493 4441
8 4405 4407 4496 4494 4406 4443 4495 4442
8 4407 4409 4498 4496 4408 4444 4497 4443
8 4409 4411 4500 4498 4410 4445 4499 4444
8 4411 4413 4502 4500 4412 4446 4501 4445
8 4413 4415 4504 4502 4414 4447 4503 4446
8 4415 4417 4506 4504 4416 4448 4505 4447
8 4417 4419 4508 4506 4418 4449 4507 4448
8 4450 4452 4541 4539 4451 4510 4540 4509
8 4452 4454 4543 4541 4453 4511 4542 4510
8 4454 4456 4545 4543 4455 4512 4544 4511
8 4456 4458 4547 4545 4457 4513 4546 4512
8 4458 4460 4549 4547 4459 4514 4548 4513
8 4460 4462 4551 4549 4461 4515 4550 4514
8 4462 4464 4553 4551 4463 4516 4552 4515
8 4464 4466 4555 4553 4465 4517 4554 4516
8 4466 4468 4557 4555 4467 4518 4556 4517
8 4468 4470 4559 4557 4469 4519 4558 4518
8 4470 4472 4561 4559 4471 4520 4560 4519
8 4472 4474 4563 4561 4473 4521 4562 4520
8 4474 4476 4565 4563 4475 4522 4564 4521
8 4476 4478 4567 4565 4477 4523 4566 4522
8 4478 4480 4569 4567 4479 4524 4568 4523
8 4480 4482 4571 4569 4481 4525 4570 4524
8 4482 4484 4573 4571 4483 4526 4572 4525
8 4484 4486 4575 4573 4485 4527 4574 4526
8 4486 4488 4577 4575 4487 4528 4576 4527
8 4488 4490 4579 4577 4489 4529 4578 4528
8 4490 4492 4581 4579 4491 4530 4580 4529
8 4492 4494 4583 4581 4493 4531 4582 4530
8 4494 4496 4585 4583 4495 4532 4584 4531
8 4496 4498 4587 4585 4497 4533 4586 4532
8 4498 4500 4589 4587 4499 4534 4588 4533
8 4500 4502 4591 4589 4501 4535 4590 4534
8 4502 4504 4593 4591 4503 4536 4592 4535
8 4504 4506 4595 4593 4505 4537 4594 4536
8 4506 4508 4597 4595 4507 4538 4596 4537
8 4539 4541 4630 4628 4540 4599 4629 4598
8 4541 4543 4632 4630 4542 4600 4631 4599
8 4543 4545 4634 4632 4544 4601 4633 4600
8 4545 4547 4636 4634 4546 4602 4635 4601
8 4547 4549 4638 4636 4548 4603 4637 4602
8 4549 4551 4640 4638 4550 4604 4639 4603
8 4551 4553 4642 4640 4552 4605 4641 4604
8 4553 4555 4644 4642 4554 4606 4643 4605
8 4555 4557 4646 4644 4556 4607 4645 4606
8 4557 4559 4648 4646 4558 4608 4647 4607
8 4559 4561 4650 4648 4560 4609 4649 4608
8 4561 4563 4652 4650 4562 4610 4651 4609
8 4563 4565 4654 4652 4564 4611 4653 4610
8 4565 4567 4656 4654 4566 4612 4655 4611
8 4567 4569 4658 4656 4568 4613 4657 4612
8 4569 4571 4660 4658 4570 4614 4659 4613
8 4571 4573 4662 4660 4572 4615 4661 4614
8 4573 4575 4664 4662 4574 4616 4663 4615
8 4575 4577 4666 4664 4576 4617 4665 4616
8 4577 4579 4668 4666 4578 4618 4667 4617
8 4579 4581 4670 4668 4580 4619 4669 4618
8 4581 4583 4672 4670 4582 4620 4671 4619
8 4583 4585 4674 4672 4584 4621 4673 4620
8 4585 4587 4676 4674 4586 4622 4675 4621
8 4587 4589 4678 4676 4588 4623 4677 4622
8 4589 4591 4680 4678 4590 4624 4679 4623
8 4591 4593 4682 4680 4592 4625 4681 4624
8 4593 4595 4684 4682 4594 4626 4683 4625
8 4595 4597 4686 4684 4596 4627 4685 4626
8 4628 4630 4719 4717 4629 4688 4718 4687
8 4630 4632 4721 4719 4631 4689 4720 4688
8 4632 4634 4723 4721 4633 4690 4722 4689
8 4634 4636 4725 4723 4635 4691 4724 4690
8 4636 4638 4727 4725 4637 4692 4726 4691
8 4638 4640 4729 4727 4639 4693 4728 4692
8 4640 4642 4731 4729 4641 4694 4730 4693
8 4642 4644 4733 4731 4643 4695 4732 4694
8 4644 4646 4735 4733 4645 4696 4734 4695
8 4646 4648 4737 4735 4647 4697 4736 4696
8 4648 4650 4739 4737 4649 4698 4738 4697
8 4650 4652 4741 4739 4651 4699 4740 4698
8 4652 4654 4743 4741 4653 4700 4742 4699
8 4654 4656 4745 4743 4655 4701 4744 4700
8 4656 4658 4747 4745 4657 4702 4746 4701
8 4658 4660 4749 4747 4659 4703 4748 4702
8 4660 4662 4751 4749 4661 4704 4750 4703
8 4662 4664 4753 4751 4663 4705 4752 4704
8 4664 4666 4755 4753 4665 4706 4754 4705
8 4666 4668 4757 4755 4667 4707 4756 4706
8 4668 4670 4759 4757 4669 4708 4758 4707
8 4670 4672 4761 4759 4671 4709 4760 4708
8 4672 4674 4763 4761 4673 4710 4762 4709
8 4674 4676 4765 4763 4675 4711 4764 4710
8 4676 4678 4767 4765 4677 4712 4766 4711
8 4678 4680 4769 4767 4679 4713 4768 4712
8 4680 4682 4771 4769 4681 4714 4770 4713
8 4682 4684 4773 4771 4683 4715 4772 4714
8 4684 4686 4775 4773 4685 4716 4774 4715
8 4717 4719 4808 4806 4718 4777 4807 4776
8 4719 4721 4810 4808 4720 4778 4809 4777
8 4721 4723 4812 4810 4722 4779 4811 4778
8 4723 4725 4814 4812 4724 4780 4813 4779
8 4725 4727 4816 4814 4726 4781 4815 4780
8 4727 4729 4818 4816 4728 4782 4817 4781
8 4729 4731 4820 4818 4730 4783 4819 4782
8 4731 4733 4822 4820 4732 4784 4821 4783
8 4733 4735 4824 4822 4734 4785 4823 4784
8 4735 4737 4826 4824 4736 4786 4825 4785
8 4737 4739 4828 4826 4738 4787 4827 4786
8 4739 4741 4830 4828 4740 4788 4829 4787
8 4741 4743 4832 4830 4742 4789 4831 4788
8 4743 4745 4834 4832 4744 4790 4833 4789
8 4745 4747 4836 4834 4746 4791 4835 4790
8 4747 4749 4838 4836 4748 4792 4837 4791
8 4749 4751 4840 4838 4750 4793 4839 4792
8 4751 4753 4842 4840 4752 4794 4841 4793
8 4753 4755 4844 4842 4754 4795 4843 4794
8 4755 4757 4846 4844 4756 4796 4845 4795
8 4757 4759 4848 4846 4758 4797 4847 4796
8 4759 4761 4850 4848 4760 4798 4849 4797
8 4761 4763 4852 4850 4762 4799 4851 4798
8 4763 4765 4854 4852 4764 4800 4853 4799
8 4765 4767 4856 4854 4766 4801 4855 4800
8 4767 4769 4858 4856 4768 4802 4857 4801
8 4769 4771 4860 4858 4770 4803 4859 4802
8 4771 4773 4862 4860 4772 4804 4861 4803
8 4773 4775 4864 4862 4774 4805 4863 4804
8 4806 4808 4897 4895 4807 4866 4896 4865
8 4808 4810 4899 4897 4809 4867 4898 4866
8 4810 4812 4901 4899 4811 4868 4900 4867
8 4812 4814 4903 4901 4813 4869 4902 4868
8 4814 4816 4905 4903 4815 4870 4904 4869
8 4816 4818 4907 4905 4817 4871 4906 4870
8 4818 4820 4909 4907 4819 4872 4908 4871
8 4820 4822 4911 4909 4821 4873 4910 4872
8 4822 4824 4913 4911 4823 4874 4912 4873
8 4824 4826 4915 4913 4825 4875 4914 4874
8 4826 4828 4917 4915 4827 4876 4916 4875
8 4828 4830 4919 4917 4829 4877 4918 4876
8 4830 4832 4921 4919 4831 4878 4920 4877
8 4832 4834 4923 4921 4833 4879 4922 4878
8 4834 4836 4925 4923 4835 4880 4924 4879
8 4836 4838 4927 4925 4837 4881 4926 4880
8 4838 4840 4929 4927 4839 4882 4928 4881
8 4840 4842 4931 4929 4841 4883 4930 4882
8 4842 4844 4933 4931 4843 4884 4932 4883
8 4844 4846 4935 4933 4845 4885 4934 4884
8 4846 4848 4937 4935 4847 4886 4936 4885
8 4848 4850 4939 4937 4849 4887 4938 4886
8 4850 4852 4941 4939 4851 4888 4940 4887
8 4852 4854 4943 4941 4853 4889 4942 4888
8 4854 4856 4945 4943 4855 4890 4944 4889
8 4856 4858 4947 4945 4857 4891 4946 4890
8 4858 4860 4949 4947 4859 4892 4948 4891
8 4860 4862 4951 4949 4861 4893 4950 4892
8 4862 4864 4953 4951 4863 4894 4952 4893
8 4895 4897 4986 4984 4896 4955 4985 4954
8 4897 4899 4988 4986 4898 4956 4987 4955
8 4899 4901 4990 4988 4900 4957 4989 4956
8 4901 4903 4992 4990 4902 4958 4991 4957
8 4903 4905 4994 4992 4904 4959 4993 4958
8 4905 4907 4996 4994 4906 4960 4995 4959
8 4907 4909 4998 4996 4908 4961 4997 4960
8 4909 4911 5000 4998 4910 4962 4999 4961
8 4911 4913 5002 5000 4912 4963 5001 4962
8 4913 4915 5004 5002 4914 4964 5003 4963
8 4915 4917 5006 5004 4916 4965 5005 4964
8 4917 4919 5008 5006 4918 4966 5007 4965
8 4919 4921 5010 5008 4920 4967 5009 4966
8 4921 4923 5012 5010 4922 4968 5011 4967
8 4923 4925 5014 5012 4924 4969 5013 4968
8 4925 4927 5016 5014 4926 4970 5015 4969
8 4927 4929 5018 5016 4928 4971 5017 4970
8 4929 4931 5020 5018 4930 4972 5019 4971
8 4931 4933 5022 5020 4932 4973 5021 4972
8 4933 4935 5024 5022 4934 4974 5023 4973
8 4935 4937 5026 5024 4936 4975 5025 4974
8 4937 4939 5028 5026 4938 4976 5027 4975
8 4939 4941 5030 5028 4940 4977 5029 4976
8 4941 4943 5032 5030 4942 4978 5031 4977
8 4943 4945 5034 5032 4944 4979 5033 4978
8 4945 4947 5036 5034 4946 4980 5035 4979
8 4947 4949 5038 5036 4948 4981 5037 4980
8 4949 4951 5040 5038 4950 4982 5039 4981
8 4951 4953 5042 5040 4952 4983 5041 4982
8 4984 4986 5075 5073 4985 5044 5074 5043
8 4986 4988 5077 5075 4987 5045 5076 5044
8 4988 4990 5079 5077 4989 5046 5078 5045
8 4990 4992 5081 5079 4991 5047 5080 5046
8 4992 4994 5083 5081 4993 5048 5082 5047
8 4994 4996 5085 5083 4995 5049 5084 5048
8 4996 4998 5087 5085 4997 5050 5086 5049
8 4998 5000 5089 5087 4999 5051 5088 5050
8 5000 5002 5091 5089 5001 5052 5090 5051
8 5002 5004 5093 5091 5003 5053 5092 5052
8 5004 5006 5095 5093 5005 5054 5094 5053
8 5006 5008 5097 5095 5007 5055 5096 5054
8 5008 5010 5099 5097 5009 5056 5098 5055
8 5010 5012 5101 5099 5011 5057 5100 5056
8 5012 5014 5103 5101 5013 5058 5102 5057
8 5014 5016 5105 5103 5015 5059 5104 5058
8 5016 5018 5107 5105 5017 5060 5106 5059
8 5018 5020 5109 5107 5019 5061 5108 5060
8 5020 5022 5111 5109 5021 5062 5110 5061
8 5022 5024 5113 5111 5023 5063 5112 5062
8 5024 5026 5115 5113 5025 5064 5114 5063
8 5026 5028 5117 5115 5027 5065 5116 5064
8 5028 5030 5119 5117 5029 5066 5118 5065
8 5030 5032 5121 5119 5031 5067 5120 5066
8 5032 5034 5123 5121 5033 5068 5122 5067
8 5034 5036 5125 5123 5035 5069 5124 5068
8 5036 5038 5127 5125 5037 5070 5126 5069
8 5038 5040 5129 5127 5039 5071 5128 5070
8 5040 5042 5131 5129 5041 5072 5130 5071
8 5073 5075 5164 5162 5074 5133 5163 5132
8 5075 5077 5166 5164 5076 5134 5165 5133
8 5077 5079 5168 5166 5078 5135 5167 5134
8 5079 5081 5170 5168 5080 5136 5169 5135
8 5081 5083 5172 5170 5082 5137 5171 5136
8 5083 5085 5174 5172 5084 5138 5173 5137
8 5085 5087 5176 5174 5086 5139 5175 5138
8 5087 5089 5178 5176 5088 5140 5177 5139
8 5089 5091 5180 5178 5090 5141 5179 5140
8 5091 5093 5182 5180 5092 5142 5181 5141
8 5093 5095 5184 5182 5094 5143 5183 5142
8 5095 5097 5186 5184 5096 5144 5185 5143
8 5097 5099 5188 5186 5098 5145 5187 5144
8 5099 5101 5190 5188 5100 5146 5189 5145
8 5101 5103 5192 5190 5102 5147 5191 5146
8 5103 5105 5194 5192 5104 5148 5193 5147
8 5105 5107 5196 5194 5106 5149 5195 5148
8 5107 5109 5198 5196 5108 5150 5197 5149
8 5109 5111 5200 5198 5110 5151 5199 5150
8 5111 5113 5202 5200 5112 5152 5201 5151
8 5113 5115 5204 5202 5114 5153 5203 5152
8 5115 5117 5206 5204 5116 5154 5205 5153
8 5117 5119 5208 5206 5118 5155 5207 5154
8 5119 5121 5210 5208 5120 5156 5209 5155
8 5121 5123 5212 5210 5122 5157 5211 5156
8 5123 5125 5214 5212 5124 5158 5213 5157
8 5125 5127 5216 5214 5126 5159 5215 5158
8 5127 5129 5218 5216 5128 5160 5217 5159
8 5129 5131 5220 5218 5130 5161 5219 5160
8 5162 5164 5253 5251 5163 5222 5252 5221
8 5164 5166 5255 5253 5165 5223 5254 5222
8 5166 5168 5257 5255 5167 5224 5256 5223
8 5168 5170 5259 5257 5169 5225 5258 5224
8 5170 5172 5261 5259 5171 5226 5260 5225
8 5172 5174 5263 5261 5173 5227 5262 5226
8 5174 5176 5265 5263 5175 5228 5264 5227
8 5176 5178 5267 5265 5177 5229 5266 5228
8 5178 5180 5269 5267 5179 5230 5268 5229
8 5180 5182 5271 5269 5181 5231 5270 5230
8 5182 5184 5273 5271 5183 5232 5272 5231
8 5184 5186 5275 5273 5185 5233 5274 5232
8 5186 5188 5277 5275 5187 5234 5276 5233
8 5188 5190 5279 5277 5189 5235 5278 5234
8 5190 5192 5281 5279 5191 5236 5280 5235
8 5192 5194 5283 5281 5193 5237 5282 5236
8 5194 5196 5285 5283 5195 5238 5284 5237
8 5196 5198 5287 5285 5197 5239 5286 5238
8 5198 5200 5289 5287 5199 5240 5288 5239
8 5200 5202 5291 5289 5201 5241 5290 5240
8 5202 5204 5293 5291 5203 5242 5292 5241
8 5204 5206 5295 5293 5205 5243 5294 5242
8 5206 5208 5297 5295 5207 5244 5296 5243
8 5208 5210 5299 5297 5209 5245 5298 5244
8 5210 5212 5301 5299 5211 5246 5300 5245
8 5212 5214 5303 5301 5213 5247 5302 5246
8 5214 5216 5305 5303 5215 5248 5304 5247
8 5216 5218 5307 5305 5217 5249 5306 5248
8 5218 5220 5309 5307 5219 5250 5308 5249
8 5251 5253 5342 5340 5252 5311 5341 5310
8 5253 5255 5344 5342 5254 5312 5343 5311
8 5255 5257 5346 5344 5256 5313 5345 5312
8 5257 5259 5348 5346 5258 5314 5347 5313
8 5259 5261 5350 5348 5260 5315 5349 5314
8 5261 5263 5352 5350 5262 5316 5351 5315
8 5263 5265 5354 5352 5264 5317 5353 5316
8 5265 5267 5356 5354 5266 5318 5355 5317
8 5267 5269 5358 5356 5268 5319 5357 5318
8 5269 5271 5360 5358 5270 5320 5359 5319
8 5271 5273 5362 5360 5272 5321 5361 5320
8 5273 5275 5364 5362 5274 5322 5363 5321
8 5275 5277 5366 5364 5276 5323 5365 5322
8 5277 5279 5368 5366 5278 5324 5367 5323
8 5279 5281 5370 5368 5280 5325 5369 5324
8 5281 5283 5372 5370 5282 5326 5371 5325
8 5283 5285 5374 5372 5284 5327 5373 5326
8 5285 5287 5376 5374 5286 5328 5375 5327
8 5287 5289 5378 5376 5288 5329 5377 5328
8 5289 5291 5380 5378 5290 5330 5379 5329
8 5291 5293 5382 5380 5292 5331 5381 5330
8 5293 5295 5384 5382 5294 5332 5383 5331
8 5295 5297 5386 5384 5296 5333 5385 5332
8 5297 5299 5388 5386 5298 5334 5387 5333
8 5299 5301 5390 5388 5300 5335 5389 5334
8 5301 5303 5392 5390 5302 5336 5391 5335
8 5303 5305 5394 5392 5304 5337 5393 5336
8 5305 5307 5396 5394 5306 5338 5395 5337
8 5307 5309 5398 5396 5308 5339 5397 5338
8 5340 5342 5431 5429 5341 5400 5430 5399
8 5342 5344 5433 5431 5343 5401 5432 5400
8 5344 5346 5435 5433 5345 5402 5434 5401
8 5346 5348 5437 5435 5347 5403 5436 5402
8 5348 5350 5439 5437 5349 5404 5438 5403
8 5350 5352 5441 5439 5351 5405 5440 5404
8 5352 5354 5443 5441 5353 5406 5442 5405
8 5354 5356 5445 5443 5355 5407 5444 5406
8 5356 5358 5447 5445 5357 5408 5446 5407
8 5358 5360 5449 5447 5359 5409 5448 5408
8 5360 5362 5451 5449 5361 5410 5450 5409
8 5362 5364 5453 5451 5363 5411 5452 5410
8 5364 5366 5455 5453 5365 5412 5454 5411
8 5366 5368 5457 5455 5367 5413 5456 5412
8 5368 5370 5459 5457 5369 5414 5458 5413
8 5370 5372 5461 5459 5371 5415 5460 5414
8 5372 5374 5463 5461 5373 5416 5462 5415
8 5374 5376 5465 5463 5375 5417 5464 5416
8 5376 5378 5467 5465 5377 5418 5466 5417
8 5378 5380 5469 5467 5379 5419 5468 5418
8 5380 5382 5471 5469 5381 5420 5470 5419
8 5382 5384 5473 5471 5383 5421 5472 5420
8 5384 5386 5475 5473 5385 5422 5474 5421
8 5386 5388 5477 5475 5387 5423 5476 5422
8 5388 5390 5479 5477 5389 5424 5478 5423
8 5390 5392 5481 5479 5391 5425 5480 5424
8 5392 5394 5483 5481 5393 5426 5482 5425
8 5394 5396 5485 5483 5395 5427 5484 5426
8 5396 5398 5487 5485 5397 5428 5486 5427
8 5429 5431 5520 5518 5430 5489 5519 5488
8 5431 5433 5522 5520 5432 5490 5521 5489
8 5433 5435 5524 5522 5434 5491 5523 5490
8 5435 5437 5526 5524 5436 5492 5525 5491
8 5437 5439 5528 5526 5438 5493 5527 5492
8 5439 5441 5530 5528 5440 5494 5529 5493
8 5441 5443 5532 5530 5442 5495 5531 5494
8 5443 5445 5534 5532 5444 5496 5533 5495
8 5445 5447 5536 5534 5446 5497 5535 5496
8 5447 5449 5538 5536 5448 5498 5537 5497
8 5449 5451 5540 5538 5450 5499 5539 5498
8 5451 5453 5542 5540 5452 5500 5541 5499
8 5453 5455 5544 5542 5454 5501 5543 5500
8 5455 5457 5546 5544 5456 5502 5545 5501
8 5457 5459 5548 5546 5458 5503 5547 5502
8 5459 5461 5550 5548 5460 5504 5549 5503
8 5461 5463 5552 5550 5462 5505 5551 5504
8 5463 5465 5554 5552 5464 5506 5553 5505
8 5465 5467 5556 5554 5466 5507 5555 5506
8 5467 5469 5558 5556 5468 5508 5557 5507
8 5469 5471 5560 5558 5470 5509 5559 5508
8 5471 5473 5562 5560 5472 5510 5561 5509
8 5473 5475 5564 5562 5474 5511 5563 5510
8 5475 5477 5566 5564 5476 5512 5565 5511
8 5477 5479 5568 5566 5478 5513 5567 5512
8 5479 5481 5570 5568 5480 5514 5569 5513
8 5481 5483 5572 5570 5482 5515 5571 5514
8 5483 5485 5574 5572 5484 5516 5573 5515
8 5485 5487 5576 5574 5486 5517 5575 5516
8 5518 5520 5609 5607 5519 5578 5608 5577
8 5520 5522 5611 5609 5521 5579 5610 5578
8 5522 5524 5613 5611 5523 5580 5612 5579
8 5524 5526 5615 5613 5525 5581 5614 5580
8 5526 5528 5617 5615 5527 5582 5616 5581
8 5528 5530 5619 5617 5529 5583 5618 5582
8 5530 5532 5621 5619 5531 5584 5620 5583
8 5532 5534 5623 5621 5533 5585 5622 5584
8 5534 5536 5625 5623 5535 5586 5624 5585
8 5536 5538 5627 5625 5537 5587 5626 5586
8 5538 5540 5629 5627 5539 5588 5628 5587
8 5540 5542 5631 5629 5541 5589 5630 5588
8 5542 5544 5633 5631 5543 5590 5632 5589
8 5544 5546 5635 5633 5545 5591 5634 5590
8 5546 5548 5637 5635 5547 5592 5636 5591
8 5548 5550 5639 5637 5549 5593 5638 5592
8 5550 5552 5641 5639 5551 5594 5640 5593
8 5552 5554 5643 5641 5553 5595 5642 5594
8 5554 5556 5645 5643 5555 5596 5644 5595
8 5556 5558 5647 5645 5557 5597 5646 5596
8 5558 5560 5649 5647 5559 5598 5648 5597
8 5560 5562 5651 5649 5561 5599 5650 5598
8 5562 5564 5653 5651 5563 5600 5652 5599
8 5564 5566 5655 5653 5565 5601 5654 5600
8 5566 5568 5657 5655 5567 5602 5656 5601
8 5568 5570 5659 5657 5569 5603 5658 5602
8 5570 5572 5661 5659 5571 5604 5660 5603
8 5572 5574 5663 5661 5573 5605 5662 5604
8 5574 5576 5665 5663 5575 5606 5664 5605
8 5607 5609 5698 5696 5608 5667 5697 5666
8 5609 5611 5700 5698 5610 5668 5699 5667
8 5611 5613 5702 5700 5612 5669 5701 5668
8 5613 5615 5704 5702 5614 5670 5703 5669
8 5615 5617 5706 5704 5616 5671 5705 5670
8 5617 5619 5708 5706 5618 5672 5707 5671
8 5619 5621 5710 5708 5620 5673 5709 5672
8 5621 5623 5712 5710 5622 5674 5711 5673
8 5623 5625 5714 5712 5624 5675 5713 5674
8 5625 5627 5716 5714 5626 5676 5715 5675
8 5627 5629 5718 5716 5628 5677 5717 5676
8 5629 5631 5720 5718 5630 5678 5719 5677
8 5631 5633 5722 5720 5632 5679 5721 5678
8 5633 5635 5724 5722 5634 5680 5723 5679
8 5635 5637 5726 5724 5636 5681 5725 5680
8 5637 5639 5728 5726 5638 5682 5727 5681
8 5639 5641 5730 5728 5640 5683 5729 5682
8 5641 5643 5732 5730 5642 5684 5731 5683
8 5643 5645 5734 5732 5644 5685 5733 5684
8 5645 5647 5736 5734 5646 5686 5735 5685
8 5647 5649 5738 5736 5648 5687 5737 5686
8 5649 5651 5740 5738 5650 5688 5739 5687
8 5651 5653 5742 5740 5652 5689 5741 5688
8 5653 5655 5744 5742 5654 5690 5743 5689
8 5655 5657 5746 5744 5656 5691 5745 5690
8 5657 5659 5748 5746 5658 5692 5747 5691
8 5659 5661 5750 5748 5660 5693 5749 5692
8 5661 5663 5752 5750 5662 5694 5751 5693
8 5663 5665 5754 5752 5664 5695 5753 5694
8 5696 5698 5787 5785 5697 5756 5786 5755
8 5698 5700 5789 5787 5699 5757 5788 5756
8 5700 5702 5791 5789 5701 5758 5790 5757
8 5702 5704 5793 5791 5703 5759 5792 5758
8 5704 5706 5795 5793 5705 5760 5794 5759
8 5706 5708 5797 5795 5707 5761 5796 5760
8 5708 5710 5799 5797 5709 5762 5798 5761
8 5710 5712 5801 5799 5711 5763 5800 5762
8 5712 5714 5803 5801 5713 5764 5802 5763
8 5714 5716 5805 5803 5715 5765 5804 5764
8 5716 5718 5807 5805 5717 5766 5806 5765
8 5718 5720 5809 5807 5719 5767 5808 5766
8 5720 5722 5811 5809 5721 5768 5810 5767
8 5722 5724 5813 5811 5723 5769 5812 5768
8 5724 5726 5815 5813 5725 5770 5814 5769
8 5726 5728 5817 5815 5727 5771 5816 5770
8 5728 5730 5819 5817 5729 5772 5818 5771
8 5730 5732 5821 5819 5731 5773 5820 5772
8 5732 5734 5823 5821 5733 5774 5822 5773
8 5734 5736 5825 5823 5735 5775 5824 5774
8 5736 5738 5827 5825 5737 5776 5826 5775
8 5738 5740 5829 5827 5739 5777 5828 5776
8 5740 5742 5831 5829 5741 5778 5830 5777
8 5742 5744 5833 5831 5743 5779 5832 5778
8 5744 5746 5835 5833 5745 5780 5834 5779
8 5746 5748 5837 5835 5747 5781 5836 5780
8 5748 5750 5839 5837 5749 5782 5838 5781
8 5750 5752 5841 5839 5751 5783 5840 5782
8 5752 5754 5843 5841 5753 5784 5842 5783
8 5785 5787 5876 5874 5786 5845 5875 5844
8 5787 5789 5878 5876 5788 5846 5877 5845
8 5789 5791 5880 5878 5790 5847 5879 5846
8 5791 5793 5882 5880 5792 5848 5881 5847
8 5793 5795 5884 5882 5794 5849 5883 5848
8 5795 5797 5886 5884 5796 5850 5885 5849
8 5797 5799 5888 5886 5798 5851 5887 5850
8 5799 5801 5890 5888 5800 5852 5889 5851
8 5801 5803 5892 5890 5802 5853 5891 5852
8 5803 5805 5894 5892 5804 5854 5893 5853
8 5805 5807 5896 5894 5806 5855 5895 5854
8 5807 5809 5898 5896 5808 5856 5897 5855
8 5809 5811 5900 5898 5810 5857 5899 5856
8 5811 5813 5902 5900 5812 5858 5901 5857
8 5813 5815 5904 5902 5814 5859 5903 5858
8 5815 5817 5906 5904 5816 5860 5905 5859
8 5817 5819 5908 5906 5818 5861 5907 5860
8 5819 5821 5910 5908 5820 5862 5909 5861
8 5821 5823 5912 5910 5822 5863 5911 5862
8 5823 5825 5914 5912 5824 5864 5913 5863
8 5825 5827 5916 5914 5826 5865 5915 5864
8 5827 5829 5918 5916 5828 5866 5917 5865
8 5829 5831 5920 5918 5830 5867 5919 5866
8 5831 5833 5922 5920 5832 5868 5921 5867
8 5833 5835 5924 5922 5834 5869 5923 5868
8 5835 5837 5926 5924 5836 5870 5925 5869
8 5837 5839 5928 5926 5838 5871 5927 5870
8 5839 5841 5930 5928 5840 5872 5929 5871
8 5841 5843 5932 5930 5842 5873 5931 5872
8 5874 5876 5965 5963 5875 5934 5964 5933
8 5876 5878 5967 5965 5877 5935 5966 5934
8 5878 5880 5969 5967 5879 5936 5968 5935
8 5880 5882 5971 5969 5881 5937 5970 5936
8 5882 5884 5973 5971 5883 5938 5972 5937
8 5884 5886 5975 5973 5885 5939 5974 5938
8 5886 5888 5977 5975 5887 5940 5976 5939
8 5888 5890 5979 5977 5889 5941 5978 5940
8 5890 5892 5981 5979 5891 5942 5980 5941
8 5892 5894 5983 5981 5893 5943 5982 5942
8 5894 5896 5985 5983 5895 5944 5984 5943
8 5896 5898 5987 5985 5897 5945 5986 5944
8 5898 5900 5989 5987 5899 5946 5988 5945
8 5900 5902 5991 5989 5901 5947 5990 5946
8 5902 5904 5993 5991 5903 5948 5992 5947
8 5904 5906 5995 5993 5905 5949 5994 5948
8 5906 5908 5997 5995 5907 5950 5996 5949
8 5908 5910 5999 5997 5909 5951 5998 5950
8 5910 5912 6001 5999 5911 5952 6000 5951
8 5912 5914 6003 6001 5913 5953 6002 5952
8 5914 5916 6005 6003 5915 5954 6004 5953
8 5916 5918 6007 6005 5917 5955 6006 5954
8 5918 5920 6009 6007 5919 5956 6008 5955
8 5920 5922 6011 6009 5921 5957 6010 5956
8 5922 5924 6013 6011 5923 5958 6012 5957
8 5924 5926 6015 6013 5925 5959 6014 5958
8 5926 5928 6017 6015 5927 5960 6016 5959
8 5928 5930 6019 6017 5929 5961 6018 5960
8 5930 5932 6021 6019 5931 5962 6020 5961
8 5963 5965 6054 6052 5964 6023 6053 6022
8 5965 5967 6056 6054 5966 6024 6055 6023
8 5967 5969 6058 6056 5968 6025 6057 6024
8 5969 5971 6060 6058 5970 6026 6059 6025
8 5971 5973 6062 6060 5972 6027 6061 6026
8 5973 5975 6064 6062 5974 6028 6063 6027
8 5975 5977 6066 6064 5976 6029 6065 6028
8 5977 5979 6068 6066 5978 6030 6067 6029
8 5979 5981 6070 6068 5980 6031 6069 6030
8 5981 5983 6072 6070 5982 6032 6071 6031
8 5983 5985 6074 6072 5984 6033 6073 6032
8 5985 5987 6076 6074 5986 6034 6075 6033
8 5987 5989 6078 6076 5988 6035 6077 6034
8 5989 5991 6080 6078 5990 6036 6079 6035
8 5991 5993 6082 6080 5992 6037 6081 6036
8 5993 5995 6084 6082 5994 6038 6083 6037
8 5995 5997 6086 6084 5996 6039 6085 6038
8 5997 5999 6088 6086 5998 6040 6087 6039
8 5999 6001 6090 6088 6000 6041 6089 6040
8 6001 6003 6092 6090 6002 6042 6091 6041
8 6003 6005 6094 6092 6004 6043 6093 6042
8 6005 6007 6096 6094 6006 6044 6095 6043
8 6007 6009 6098 6096 6008 6045 6097 6044
8 6009 6011 6100 6098 6010 6046 6099 6045
8 6011 6013 6102 6100 6012 6047 6101 6046
8 6013 6015 6104 6102 6014 6048 6103 6047
8 6015 6017 6106 6104 6016 6049 6105 6048
8 6017 6019 6108 6106 6018 6050 6107 6049
8 6019 6021 6110 6108 6020 6051 6109 6050
8 6052 6054 6143 6141 6053 6112 6142 6111
8 6054 6056 6145 6143 6055 6113 6144 6112
8 6056 6058 6147 6145 6057 6114 6146 6113
8 6058 6060 6149 6147 6059 6115 6148 6114
8 6060 6062 6151 6149 6061 6116 6150 6115
8 6062 6064 6153 6151 6063 6117 6152 6116
8 6064 6066 6155 6153 6065 6118 6154 6117
8 6066 6068 6157 6155 6067 6119 6156 6118
8 6068 6070 6159 6157 6069 6120 6158 6119
8 6070 6072 6161 6159 6071 6121 6160 6120
8 6072 6074 6163 6161 6073 6122 6162 6121
8 6074 6076 6165 6163 6075 6123 6164 6122
8 6076 6078 6167 6165 6077 6124 6166 6123
8 6078 6080 6169 6167 6079 6125 6168 6124
8 6080 6082 6171 6169 6081 6126 6170 6125
8 6082 6084 6173 6171 6083 6127 6172 6126
8 6084 6086 6175 6173 6085 6128 6174 6127
8 6086 6088 6177 6175 6087 6129 6176 6128
8 6088 6090 6179 6177 6089 6130 6178 6129
8 6090 6092 6181 6179 6091 6131 6180 6130
8 6092 6094 6183 6181 6093 6132 6182 6131
8 6094 6096 6185 6183 6095 6133 6184 6132
8 6096 6098 6187 6185 6097 6134 6186 6133
8 6098 6100 6189 6187 6099 6135 6188 6134
8 6100 6102 6191 6189 6101 6136 6190 6135
8 6102 6104 6193 6191 6103 6137 6192 6136
8 6104 6106 6195 6193 6105 6138 6194 6137
8 6106 6108 6197 6195 6107 6139 6196 6138
8 6108 6110 6199 6197 6109 6140 6198 6139
8 6141 6143 6232 6230 6142 6201 6231 6200
8 6143 6145 6234 6232 6144 6202 6233 6201
8 6145 6147 6236 6234 6146 6203 6235 6202
8 6147 6149 6238 6236 6148 6204 6237 6203
8 6149 6151 6240 6238 6150 6205 6239 6204
8 6151 6153 6242 6240 6152 6206 6241 6205
8 6153 6155 6244 6242 6154 6207 6243 6206
8 6155 6157 6246 6244 6156 6208 6245 6207
8 6157 6159 6248 6246 6158 6209 6247 6208
8 6159 6161 6250 6248 6160 6210 6249 6209
8 6161 6163 6252 6250 6162 6211 6251 6210
8 6163 6165 6254 6252 6164 6212 6253 6211
8 6165 6167 6256 6254 6166 6213 6255 6212
8 6167 6169 6258 6256 6168 6214 6257 6213
8 6169 6171 6260 6258 6170 6215 6259 6214
8 6171 6173 6262 6260 6172 6216 6261 6215
8 6173 6175 6264 6262 6174 6217 6263 6216
8 6175 6177 6266 6264 6176 6218 6265 6217
8 6177 6179 6268 6266 6178 6219 6267 6218
8 6179 6181 6270 6268 6180 6220 6269 6219
8 6181 6183 6272 6270 6182 6221 6271 6220
8 6183 6185 6274 6272 6184 6222 6273 6221
8 6185 6187 6276 6274 6186 6223 6275 6222
8 6187 6189 6278 6276 6188 6224 6277 6223
8 6189 6191 6280 6278 6190 6225 6279 6224
8 6191 6193 6282 6280 6192 6226 6281 6225
8 6193 6195 6284 6282 6194 6227 6283 6226
8 6195 6197 6286 6284 6196 6228 6285 6227
8 6197 6199 6288 6286 6198 6229 6287 6228
8 6230 6232 6321 6319 6231 6290 6320 6289
8 6232 6234 6323 6321 6233 6291 6322 6290
8 6234 6236 6325 6323 6235 6292 6324 6291
8 6236 6238 6327 6325 6237 6293 6326 6292
8 6238 6240 6329 6327 6239 6294 6328 6293
8 6240 6242 6331 6329 6241 6295 6330 6294
8 6242 6244 6333 6331 6243 6296 6332 6295
8 6244 6246 6335 6333 6245 6297 6334 6296
8 6246 6248 6337 6335 6247 6298 6336 6297
8 6248 6250 6339 6337 6249 6299 6338 6298
8 6250 6252 6341 6339 6251 6300 6340 6299
8 6252 6254 6343 6341 6253 6301 6342 6300
8 6254 6256 6345 6343 6255 6302 6344 6301
8 6256 6258 6347 6345 6257 6303 6346 6302
8 6258 6260 6349 6347 6259 6304 6348 6303
8 6260 6262 6351 6349 6261 6305 6350 6304
8 6262 6264 6353 6351 6263 6306 6352 6305
8 6264 6266 6355 6353 6265 6307 6354 6306
8 6266 6268 6357 6355 6267 6308 6356 6307
8 6268 6270 6359 6357 6269 6309 6358 6308
8 6270 6272 6361 6359 6271 6310 6360 6309
8 6272 6274 6363 6361 6273 6311 6362 6310
8 6274 6276 6365 6363 6275 6312 6364 6311
8 6276 6278 6367 6365 6277 6313 6366 6312
8 6278 6280 6369 6367 6279 6314 6368 6313
8 6280 6282 6371 6369 6281 6315 6370 6314
8 6282 6284 6373 6371 6283 6316 6372 6315
8 6284 6286 6375 6373 6285 6317 6374 6316
8 6286 6288 6377 6375 6287 6318 6376 6317
8 6319 6321 6410 6408 6320 6379 6409 6378
8 6321 6323 6412 6410 6322 6380 6411 6379
8 6323 6325 6414 6412 6324 6381 6413 6380
8 6325 6327 6416 6414 6326 6382 6415 6381
8 6327 6329 6418 6416 6328 6383 6417 6382
8 6329 6331 6420 6418 6330 6384 6419 6383
8 6331 6333 6422 6420 6332 6385 6421 6384
8 6333 6335 6424 6422 6334 6386 6423 6385
8 6335 6337 6426 6424 6336 6387 6425 6386
8 6337 6339 6428 6426 6338 6388 6427 6387
8 6339 6341 6430 6428 6340 6389 6429 6388
8 6341 6343 6432 6430 6342 6390 6431 6389
8 6343 6345 6434 6432 6344 6391 6433 6390
8 6345 6347 6436 6434 6346 6392 6435 6391
8 6347 6349 6438 6436 6348 6393 6437 6392
8 6349 6351 6440 6438 6350 6394 6439 6393
8 6351 6353 6442 6440 6352 6395 6441 6394
8 6353 6355 6444 6442 6354 6396 6443 6395
8 6355 6357 6446 6444 6356 6397 6445 6396
8 6357 6359 6448 6446 6358 6398 6447 6397
8 6359 6361 6450 6448 6360 6399 6449 6398
8 6361 6363 6452 6450 6362 6400 6451 6399
8 6363 6365 6454 6452 6364 6401 6453 6400
8 6365 6367 6456 6454 6366 6402 6455 6401
8 6367 6369 6458 6456 6368 6403 6457 6402
8 6369 6371 6460 6458 6370 6404 6459 6403
8 6371 6373 6462 6460 6372 6405 6461 6404
8 6373 6375 6464 6462 6374 6406 6463 6405
8 6375 6377 6466 6464 6376 6407 6465 6406
8 6408 6410 6499 6497 6409 6468 6498 6467
8 6410 6412 6501 6499 6411 6469 6500 6468
8 6412 6414 6503 6501 6413 6470 6502 6469
8 6414 6416 6505 6503 6415 6471 6504 6470
8 6416 6418 6507 6505 6417 6472 6506 6471
8 6418 6420 6509 6507 6419 6473 6508 6472
8 6420 6422 6511 6509 6421 6474 6510 6473
8 6422 6424 6513 6511 6423 6475 6512 6474
8 6424 6426 6515 6513 6425 6476 6514 6475
8 6426 6428 6517 6515 6427 6477 6516 6476
8 6428 6430 6519 6517 6429 6478 6518 6477
8 6430 6432 6521 6519 6431 6479 6520 6478
8 6432 6434 6523 6521 6433 6480 6522 6479
8 6434 6436 6525 6523 6435 6481 6524 6480
8 6436 6438 6527 6525 6437 6482 6526 6481
8 6438 6440 6529 6527 6439 6483 6528 6482
8 6440 6442 6531 6529 6441 6484 6530 6483
8 6442 6444 6533 6531 6443 6485 6532 6484
8 6444 6446 6535 6533 6445 6486 6534 6485
8 6446 6448 6537 6535 6447 6487 6536 6486
8 6448 6450 6539 6537 6449 6488 6538 6487
8 6450 6452 6541 6539 6451 6489 6540 6488
8 6452 6454 6543 6541 6453 6490 6542 6489
8 6454 6456 6545 6543 6455 6491 6544 6490
8 6456 6458 6547 6545 6457 6492 6546 6491
8 6458 6460 6549 6547 6459 6493 6548 6492
8 6460 6462 6551 6549 6461 6494 6550 6493
8 6462 6464 6553 6551 6463 6495 6552 6494
8 6464 6466 6555 6553 6465 6496 6554 6495
8 6497 6499 6588 6586 6498 6557 6587 6556
8 6499 6501 6590 6588 6500 6558 6589 6557
8 6501 6503 6592 6590 6502 6559 6591 6558
8 6503 6505 6594 6592 6504 6560 6593 6559
8 6505 6507 6596 6594 6506 6561 6595 6560
8 6507 6509 6598 6596 6508 6562 6597 6561
8 6509 6511 6600 6598 6510 6563 6599 6562
8 6511 6513 6602 6600 6512 6564 6601 6563
8 6513 6515 6604 6602 6514 6565 6603 6564
8 6515 6517 6606 6604 6516 6566 6605 6565
8 6517 6519 6608 6606 6518 6567 6607 6566
8 6519 6521 6610 6608 6520 6568 6609 6567
8 6521 6523 6612 6610 6522 6569 6611 6568
8 6523 6525 6614 6612 6524 6570 6613 6569
8 6525 6527 6616 6614 6526 6571 6615 6570
8 6527 6529 6618 6616 6528 6572 6617 6571
8 6529 6531 6620 6618 6530 6573 6619 6572
8 6531 6533 6622 6620 6532 6574 6621 6573
8 6533 6535 6624 6622 6534 6575 6623 6574
8 6535 6537 6626 6624 6536 6576 6625 6575
8 6537 6539 6628 6626 6538 6577 6627 6576
8 6539 6541 6630 6628 6540 6578 6629 6577
8 6541 6543 6632 6630 6542 6579 6631 6578
8 6543 6545 6634 6632 6544 6580 6633 6579
8 6545 6547 6636 6634 6546 6581 6635 6580
8 6547 6549 6638 6636 6548 6582 6637 6581
8 6549 6551 6640 6638 6550 6583 6639 6582
8 6551 6553 6642 6640 6552 6584 6641 6583
8 6553 6555 6644 6642 6554 6585 6643 6584
8 6586 6588 6677 6675 6587 6646 6676 6645
8 6588 6590 6679 6677 6589 6647 6678 6646
8 6590 6592 6681 6679 6591 6648 6680 6647
8 6592 6594 6683 6681 6593 6649 6682 6648
8 6594 6596 6685 6683 6595 6650 6684 6649
8 6596 6598 6687 6685 6597 6651 6686 6650
8 6598 6600 6689 6687 6599 6652 6688 6651
8 6600 6602 6691 6689 6601 6653 6690 6652
8 6602 6604 6693 6691 6603 6654 6692 6653
8 6604 6606 6695 6693 6605 6655 6694 6654
8 6606 6608 6697 6695 6607 6656 6696 6655
8 6608 6610 6699 6697 6609 6657 6698 6656
8 6610 6612 6701 6699 6611 6658 6700 6657
8 6612 6614 6703 6701 6613 6659 6702 6658
8 6614 6616 6705 6703 6615 6660 6704 6659
8 6616 6618 6707 6705 6617 6661 6706 6660
8 6618 6620 6709 6707 6619 6662 6708 6661
8 6620 6622 6711 6709 6621 6663 6710 6662
8 6622 6624 6713 6711 6623 6664 6712 6663
8 6624 6626 6715 6713 6625 6665 6714 6664
8 6626 6628 6717 6715 6627 6666 6716 6665
8 6628 6630 6719 6717 6629 6667 6718 6666
8 6630 6632 6721 6719 6631 6668 6720 6667
8 6632 6634 6723 6721 6633 6669 6722 6668
8 6634 6636 6725 6723 6635 6670 6724 6669
8 6636 6638 6727 6725 6637 6671 6726 6670
8 6638 6640 6729 6727 6639 6672 6728 6671
8 6640 6642 6731 6729 6641 6673 6730 6672
8 6642 6644 6733 6731 6643 6674 6732 6673
8 6675 6677 6766 6764 6676 6735 6765 6734
8 6677 6679 6768 6766 6678 6736 6767 6735
8 6679 6681 6770 6768 6680 6737 6769 6736
8 6681 6683 6772 6770 6682 6738 6771 6737
8 6683 6685 6774 6772 6684 6739 6773 6738
8 6685 6687 6776 6774 6686 6740 6775 6739
8 6687 6689 6778 6776 6688 6741 6777 6740
8 6689 6691 6780 6778 6690 6742 6779 6741
8 6691 6693 6782 6780 6692 6743 6781 6742
8 6693 6695 6784 6782 6694 6744 6783 6743
8 6695 6697 6786 6784 6696 6745 6785 6744
8 6697 6699 6788 6786 6698 6746 6787 6745
8 6699 6701 6790 6788 6700 6747 6789 6746
8 6701 6703 6792 6790 6702 6748 6791 6747
8 6703 6705 6794 6792 6704 6749 6793 6748
8 6705 6707 6796 6794 6706 6750 6795 6749
8 6707 6709 6798 6796 6708 6751 6797 6750
8 6709 6711 6800 6798 6710 6752 6799 6751
8 6711 6713 6802 6800 6712 6753 6801 6752
8 6713 6715 6804 6802 6714 6754 6803 6753
8 6715 6717 6806 6804 6716 6755 6805 6754
8 6717 6719 6808 6806 6718 6756 6807 6755
8 6719 6721 6810 6808 6720 6757 6809 6756
8 6721 6723 6812 6810 6722 6758 6811 6757
8 6723 6725 6814 6812 6724 6759 6813 6758
8 6725 6727 6816 6814 6726 6760 6815 6759
8 6727 6729 6818 6816 6728 6761 6817 6760
8 6729 6731 6820 6818 6730 6762 6819 6761
8 6731 6733 6822 6820 6732 6763 6821 6762
8 6764 6766 6855 6853 6765 6824 6854 6823
8 6766 6768 6857 6855 6767 6825 6856 6824
8 6768 6770 6859 6857 6769 6826 6858 6825
8 6770 6772 6861 6859 6771 6827 6860 6826
8 6772 6774 6863 6861 6773 6828 6862 6827
8 6774 6776 6865 6863 6775 6829 6864 6828
8 6776 6778 6867 6865 6777 6830 6866 6829
8 6778 6780 6869 6867 6779 6831 6868 6830
8 6780 6782 6871 6869 6781 6832 6870 6831
8 6782 6784 6873 6871 6783 6833 6872 6832
8 6784 6786 6875 6873 6785 6834 6874 6833
8 6786 6788 6877 6875 6787 6835 6876 6834
8 6788 6790 6879 6877 6789 6836 6878 6835
8 6790 6792 6881 6879 6791 6837 6880 6836
8 6792 6794 6883 6881 6793 6838 6882 6837
8 6794 6796 6885 6883 6795 6839 6884 6838
8 6796 6798 6887 6885 6797 6840 6886 6839
8 6798 6800 6889 6887 6799 6841 6888 6840
8 6800 6802 6891 6889 6801 6842 6890 6841
8 6802 6804 6893 6891 6803 6843 6892 6842
8 6804 6806 6895 6893 6805 6844 6894 6843
8 6806 6808 6897 6895 6807 6845 6896 6844
8 6808 6810 6899 6897 6809 6846 6898 6845
8 6810 6812 6901 6899 6811 6847 6900 6846
8 6812 6814 6903 6901 6813 6848 6902 6847
8 6814 6816 6905 6903 6815 6849 6904 6848
8 6816 6818 6907 6905 6817 6850 6906 6849
8 6818 6820 6909 6907 6819 6851 6908 6850
8 6820 6822 6911 6909 6821 6852 6910 6851
8 6853 6855 6944 6942 6854 6913 6943 6912
8 6855 6857 6946 6944 6856 6914 6945 6913
8 6857 6859 6948 6946 6858 6915 6947 6914
8 6859 6861 6950 6948 6860 6916 6949 6915
8 6861 6863 6952 6950 6862 6917 6951 6916
8 6863 6865 6954 6952 6864 6918 6953 6917
8 6865 6867 6956 6954 6866 6919 6955 6918
8 6867 6869 6958 6956 6868 6920 6957 6919
8 6869 6871 6960 6958 6870 6921 6959 6920
8 6871 6873 6962 6960 6872 6922 6961 6921
8 6873 6875 6964 6962 6874 6923 6963 6922
8 6875 6877 6966 6964 6876 6924 6965 6923
8 6877 6879 6968 6966 6878 6925 6967 6924
8 6879 6881 6970 6968 6880 6926 6969 6925
8 6881 6883 6972 6970 6882 6927 6971 6926
8 6883 6885 6974 6972 6884 6928 6973 6927
8 6885 6887 6976 6974 6886 6929 6975 6928
8 6887 6889 6978 6976 6888 6930 6977 6929
8 6889 6891 6980 6978 6890 6931 6979 6930
8 6891 6893 6982 6980 6892 6932 6981 6931
8 6893 6895 6984 6982 6894 6933 6983 6932
8 6895 6897 6986 6984 6896 6934 6985 6933
8 6897 6899 6988 6986 6898 6935 6987 6934
8 6899 6901 6990 6988 6900 6936 6989 6935
8 6901 6903 6992 6990 6902 6937 6991 6936
8 6903 6905 6994 6992 6904 6938 6993 6937
8 6905 6907 6996 6994 6906 6939 6995 6938
8 6907 6909 6998 6996 6908 6940 6997 6939
8 6909 6911 7000 6998 6910 6941 6999 6940
8 6942 6944 7033 7031 6943 7002 7032 7001
8 6944 6946 7035 7033 6945 7003 7034 7002
8 6946 6948 7037 7035 6947 7004 7036 7003
8 6948 6950 7039 7037 6949 7005 7038 7004
8 6950 6952 7041 7039 6951 7006 7040 7005
8 6952 6954 7043 7041 6953 7007 7042 7006
8 6954 6956 7045 7043 6955 7008 7044 7007
8 6956 6958 7047 7045 6957 7009 7046 7008
8 6958 6960 7049 7047 6959 7010 7048 7009
8 6960 6962 7051 7049 6961 7011 7050 7010
8 6962 6964 7053 7051 6963 7012 7052 7011
8 6964 6966 7055 7053 6965 7013 7054 7012
8 6966 6968 7057 7055 6967 7014 7056 7013
8 6968 6970 7059 7057 6969 7015 7058 7014
8 6970 6972 7061 7059 6971 7016 7060 7015
8 6972 6974 7063 7061 6973 7017 7062 7016
8 6974 6976 7065 7063 6975 7018 7064 7017
8 6976 6978 7067 7065 6977 7019 7066 7018
8 6978 6980 7069 7067 6979 7020 7068 7019
8 6980 6982 7071 7069 6981 7021 7070 7020
8 6982 6984 7073 7071 6983 7022 7072 7021
8 6984 6986 7075 7073 6985 7023 7074 7022
8 6986 6988 7077 7075 6987 7024 7076 7023
8 6988 6990 7079 7077 6989 7025 7078 7024
8 6990 6992 7081 7079 6991 7026 7080 7025
8 6992 6994 7083 7081 6993 7027 7082 7026
8 6994 6996 7085 7083 6995 7028 7084 7027
8 6996 6998 7087 7085 6997 7029 7086 7028
8 6998 7000 7089 7087 6999 7030 7088 7029
8 7031 7033 7122 7120 7032 7091 7121 7090
8 7033 7035 7124 7122 7034 7092 7123 7091
8 7035 7037 7126 7124 7036 7093 7125 7092
8 7037 7039 7128 7126 7038 7094 7127 7093
8 7039 7041 7130 7128 7040 7095 7129 7094
8 7041 7043 7132 7130 7042 7096 7131 7095
8 7043 7045 7134 7132 7044 7097 7133 7096
8 7045 7047 7136 7134 7046 7098 7135 7097
8 7047 7049 7138 7136 7048 7099 7137 7098
8 7049 7051 7140 7138 7050 7100 7139 7099
8 7051 7053 7142 7140 7052 7101 7141 7100
8 7053 7055 7144 7142 7054 7102 7143 7101
8 7055 7057 7146 7144 7056 7103 7145 7102
8 7057 7059 7148 7146 7058 7104 7147 7103
8 7059 7061 7150 7148 7060 7105 7149 7104
8 7061 7063 7152 7150 7062 7106 7151 7105
8 7063 7065 7154 7152 7064 7107 7153 7106
8 7065 7067 7156 7154 7066 7108 7155 7107
8 7067 7069 7158 7156 7068 7109 7157 7108
8 7069 7071 7160 7158 7070 7110 7159 7109
8 7071 7073 7162 7160 7072 7111 7161 7110
8 7073 7075 7164 7162 7074 7112 7163 7111
8 7075 7077 7166 7164 7076 7113 7165 7112
8 7077 7079 7168 7166 7078 7114 7167 7113
8 7079 7081 7170 7168 7080 7115 7169 7114
8 7081 7083 7172 7170 7082 7116 7171 7115
8 7083 7085 7174 7172 7084 7117 7173 7116
8 7085 7087 7176 7174 7086 7118 7175 7117
8 7087 7089 7178 7176 7088 7119 7177 7118
8 7120 7122 7211 7209 7121 7180 7210 7179
8 7122 7124 7213 7211 7123 7181 7212 7180
8 7124 7126 7215 7213 7125 7182 7214 7181
8 7126 7128 7217 7215 7127 7183 7216 7182
8 7128 7130 7219 7217 7129 7184 7218 7183
8 7130 7132 7221 7219 7131 7185 7220 7184
8 7132 7134 7223 7221 7133 7186 7222 7185
8 7134 7136 7225 7223 7135 7187 7224 7186
8 7136 7138 7227 7225 7137 7188 7226 7187
8 7138 7140 7229 7227 7139 7189 7228 7188
8 7140 7142 7231 7229 7141 7190 7230 7189
8 7142 7144 7233 7231 7143 7191 7232 7190
8 7144 7146 7235 7233 7145 7192 7234 7191
8 7146 7148 7237 7235 7147 7193 7236 7192
8 7148 7150 7239 7237 7149 7194 7238 7193
8 7150 7152 7241 7239 7151 7195 7240 7194
8 7152 7154 7243 7241 7153 7196 7242 7195
8 7154 7156 7245 7243 7155 7197 7244 7196
8 7156 7158 7247 7245 7157 7198 7246 7197
8 7158 7160 7249 7247 7159 7199 7248 7198
8 7160 7162 7251 7249 7161 7200 7250 7199
8 7162 7164 7253 7251 7163 7201 7252 7200
8 7164 7166 7255 7253 7165 7202 7254 7201
8 7166 7168 7257 7255 7167 7203 7256 7202
8 7168 7170 7259 7257 7169 7204 7258 7203
8 7170 7172 7261 7259 7171 7205 7260 7204
8 7172 7174 7263 7261 7173 7206 7262 7205
8 7174 7176 7265 7263 7175 7207 7264 7206
8 7176 7178 7267 7265 7177 7208 7266 7207
8 7209 7211 7300 7298 7210 7269 7299 7268
8 7211 7213 7302 7300 7212 7270 7301 7269
8 7213 7215 7304 7302 7214 7271 7303 7270
8 7215 7217 7306 7304 7216 7272 7305 7271
8 7217 7219 7308 7306 7218 7273 7307 7272
8 7219 7221 7310 7308 7220 7274 7309 7273
8 7221 7223 7312 7310 7222 7275 7311 7274
8 7223 7225 7314 7312 7224 7276 7313 7275
8 7225 7227 7316 7314 7226 7277 7315 7276
8 7227 7229 7318 7316 7228 7278 7317 7277
8 7229 7231 7320 7318 7230 7279 7319 7278
8 7231 7233 7322 7320 7232 7280 7321 7279
8 7233 7235 7324 7322 7234 7281 7323 7280
8 7235 7237 7326 7324 7236 7282 7325 7281
8 7237 7239 7328 7326 7238 7283 7327 7282
8 7239 7241 7330 7328 7240 7284 7329 7283
8 7241 7243 7332 7330 7242 7285 7331 7284
8 7243 7245 7334 7332 7244 7286 7333 7285
8 7245 7247 7336 7334 7246 7287 7335 7286
8 7247 7249 7338 7336 7248 7288 7337 7287
8 7249 7251 7340 7338 7250 7289 7339 7288
8 7251 7253 7342 7340 7252 7290 7341 7289
8 7253 7255 7344 7342 7254 7291 7343 7290
8 7255 7257 7346 7344 7256 7292 7345 7291
8 7257 7259 7348 7346 7258 7293 7347 7292
8 7259 7261 7350 7348 7260 7294 7349 7293
8 7261 7263 7352 7350 7262 7295 7351 7294
8 7263 7265 7354 7352 7264 7296 7353 7295
8 7265 7267 7356 7354 7266 7297 7355 7296
8 7298 7300 7389 7387 7299 7358 7388 7357
8 7300 7302 7391 7389 7301 7359 7390 7358
8 7302 7304 7393 7391 7303 7360 7392 7359
8 7304 7306 7395 7393 7305 7361 7394 7360
8 7306 7308 7397 7395 7307 7362 7396 7361
8 7308 7310 7399 7397 7309 7363 7398 7362
8 7310 7312 7401 7399 7311 7364 7400 7363
8 7312 7314 7403 7401 7313 7365 7402 7364
8 7314 7316 7405 7403 7315 7366 7404 7365
8 7316 7318 7407 7405 7317 7367 7406 7366
8 7318 7320 7409 7407 7319 7368 7408 7367
8 7320 7322 7411 7409 7321 7369 7410 7368
8 7322 7324 7413 7411 7323 7370 7412 7369
8 7324 7326 7415 7413 7325 7371 7414 7370
8 7326 7328 7417 7415 7327 7372 7416 7371
8 7328 7330 7419 7417 7329 7373 7418 7372
8 7330 7332 7421 7419 7331 7374 7420 7373
8 7332 7334 7423 7421 7333 7375 7422 7374
8 7334 7336 7425 7423 7335 7376 7424 7375
8 7336 7338 7427 7425 7337 7377 7426 7376
8 7338 7340 7429 7427 7339 7378 7428 7377
8 7340 7342 7431 7429 7341 7379 7430 7378
8 7342 7344 7433 7431 7343 7380 7432 7379
8 7344 7346 7435 7433 7345 7381 7434 7380
8 7346 7348 7437 7435 7347 7382 7436 7381
8 7348 7350 7439 7437 7349 7383 7438 7382
8 7350 7352 7441 7439 7351 7384 7440 7383
8 7352 7354 7443 7441 7353 7385 7442 7384
8 7354 7356 7445 7443 7355 7386 7444 7385
8 7387 7389 7478 7476 7388 7447 7477 7446
8 7389 7391 7480 7478 7390 7448 7479 7447
8 7391 7393 7482 7480 7392 7449 7481 7448
8 7393 7395 7484 7482 7394 7450 7483 7449
8 7395 7397 7486 7484 7396 7451 7485 7450
8 7397 7399 7488 7486 7398 7452 7487 7451
8 7399 7401 7490 7488 7400 7453 7489 7452
8 7401 7403 7492 7490 7402 7454 7491 7453
8 7403 7405 7494 7492 7404 7455 7493 7454
8 7405 7407 7496 7494 7406 7456 7495 7455
8 7407 7409 7498 7496 7408 7457 7497 7456
8 7409 7411 7500 7498 7410 7458 7499 7457
8 7411 7413 7502 7500 7412 7459 7501 7458
8 7413 7415 7504 7502 7414 7460 7503 7459
8 7415 7417 7506 7504 7416 7461 7505 7460
8 7417 7419 7508 7506 7418 7462 7507 7461
8 7419 7421 7510 7508 7420 7463 7509 7462
8 7421 7423 7512 7510 7422 7464 7511 7463
8 7423 7425 7514 7512 7424 7465 7513 7464
8 7425 7427 7516 7514 7426 7466 7515 7465
8 7427 7429 7518 7516 7428 7467 7517 7466
8 7429 7431 7520 7518 7430 7468 7519 7467
8 7431 7433 7522 7520 7432 7469 7521 7468
8 7433 7435 7524 7522 7434 7470 7523 7469
8 7435 7437 7526 7524 7436 7471 7525 7470
8 7437 7439 7528 7526 7438 7472 7527 7471
8 7439 7441 7530 7528 7440 7473 7529 7472
8 7441 7443 7532 7530 7442 7474 7531 7473
8 7443 7445 7534 7532 7444 7475 7533 7474
8 7476 7478 7567 7565 7477 7536 7566 7535
8 7478 7480 7569 7567 7479 7537 7568 7536
8 7480 7482 7571 7569 7481 7538 7570 7537
8 7482 7484 7573 7571 7483 7539 7572 7538
8 7484 7486 7575 7573 7485 7540 7574 7539
8 7486 7488 7577 7575 7487 7541 7576 7540
8 7488 7490 7579 7577 7489 7542 7578 7541
8 7490 7492 7581 7579 7491 7543 7580 7542
8 7492 7494 7583 7581 7493 7544 7582 7543
8 7494 7496 7585 7583 7495 7545 7584 7544
8 7496 7498 7587 7585 7497 7546 7586 7545
8 7498 7500 7589 7587 7499 7547 7588 7546
8 7500 7502 7591 7589 7501 7548 7590 7547
8 7502 7504 7593 7591 7503 7549 7592 7548
8 7504 7506 7595 7593 7505 7550 7594 7549
8 7506 7508 7597 7595 7507 7551 7596 7550
8 7508 7510 7599 7597 7509 7552 7598 7551
8 7510 7512 7601 7599 7511 7553 7600 7552
8 7512 7514 7603 7601 7513 7554 7602 7553
8 7514 7516 7605 7603 7515 7555 7604 7554
8 7516 7518 7607 7605 7517 7556 7606 7555
8 7518 7520 7609 7607 7519 7557 7608 7556
8 7520 7522 7611 7609 7521 7558 7610 7557
8 7522 7524 7613 7611 7523 7559 7612 7558
8 7524 7526 7615 7613 7525 7560 7614 7559
8 7526 7528 7617 7615 7527 7561 7616 7560
8 7528 7530 7619 7617 7529 7562 7618 7561
8 7530 7532 7621 7619 7531 7563 7620 7562
8 7532 7534 7623 7621 7533 7564 7622 7563
8 7565 7567 7656 7654 7566 7625 7655 7624
8 7567 7569 7658 7656 7568 7626 7657 7625
8 7569 7571 7660 7658 7570 7627 7659 7626
8 7571 7573 7662 7660 7572 7628 7661 7627
8 7573 7575 7664 7662 7574 7629 7663 7628
8 7575 7577 7666 7664 7576 7630 7665 7629
8 7577 7579 7668 7666 7578 7631 7667 7630
8 7579 7581 7670 7668 7580 7632 7669 7631
8 7581 7583 7672 7670 7582 7633 7671 7632
8 7583 7585 7674 7672 7584 7634 7673 7633
8 7585 7587 7676 7674 7586 7635 7675 7634
8 7587 7589 7678 7676 7588 7636 7677 7635
8 7589 7591 7680 7678 7590 7637 7679 7636
8 7591 7593 7682 7680 7592 7638 7681 7637
8 7593 7595 7684 7682 7594 7639 7683 7638
8 7595 7597 7686 7684 7596 7640 7685 7639
8 7597 7599 7688 7686 7598 7641 7687 7640
8 7599 7601 7690 7688 7600 7642 7689 7641
8 7601 7603 7692 7690 7602 7643 7691 7642
8 7603 7605 7694 7692 7604 7644 7693 7643
8 7605 7607 7696 7694 7606 7645 7695 7644
8 7607 7609 7698 7696 7608 7646 7697 7645
8 7609 7611 7700 7698 7610 7647 7699 7646
8 7611 7613 7702 7700 7612 7648 7701 7647
8 7613 7615 7704 7702 7614 7649 7703 7648
8 7615 7617 7706 7704 7616 7650 7705 7649
8 7617 7619 7708 7706 7618 7651 7707 7650
8 7619 7621 7710 7708 7620 7652 7709 7651
8 7621 7623 7712 7710 7622 7653 7711 7652
8 7654 7656 7745 7743 7655 7714 7744 7713
8 7656 7658 7747 7745 7657 7715 7746 7714
8 7658 7660 7749 7747 7659 7716 7748 7715
8 7660 7662 7751 7749 7661 7717 7750 7716
8 7662 7664 7753 7751 7663 7718 7752 7717
8 7664 7666 7755 7753 7665 7719 7754 7718
8 7666 7668 7757 7755 7667 7720 7756 7719
8 7668 7670 7759 7757 7669 7721 7758 7720
8 7670 7672 7761 7759 7671 7722 7760 7721
8 7672 7674 7763 7761 7673 7723 7762 7722
8 7674 7676 7765 7763 7675 7724 7764 7723
8 7676 7678 7767 7765 7677 7725 7766 7724
8 7678 7680 7769 7767 7679 7726 7768 7725
8 7680 7682 7771 7769 7681 7727 7770 7726
8 7682 7684 7773 7771 7683 7728 7772 7727
8 7684 7686 7775 7773 7685 7729 7774 7728
8 7686 7688 7777 7775 7687 7730 7776 7729
8 7688 7690 7779 7777 7689 7731 7778 7730
8 7690 7692 7781 7779 7691 7732 7780 7731
8 7692 7694 7783 7781 7693 7733 7782 7732
8 7694 7696 7785 7783 7695 7734 7784 7733
8 7696 7698 7787 7785 7697 7735 7786 7734
8 7698 7700 7789 7787 7699 7736 7788 7735
8 7700 7702 7791 7789 7701 7737 7790 7736
8 7702 7704 7793 7791 7703 7738 7792 7737
8 7704 7706 7795 7793 7705 7739 7794 7738
8 7706 7708 7797 7795 7707 7740 7796 7739
8 7708 7710 7799 7797 7709 7741 7798 7740
8 7710 7712 7801 7799 7711 7742 7800 7741
8 7743 7745 7834 7832 7744 7803 7833 7802
8 7745 7747 7836 7834 7746 7804 7835 7803
8 7747 7749 7838 7836 7748 7805 7837 7804
8 7749 7751 7840 7838 7750 7806 7839 7805
8 7751 7753 7842 7840 7752 7807 7841 7806
8 7753 7755 7844 7842 7754 7808 7843 7807
8 7755 7757 7846 7844 7756 7809 7845 7808
8 7757 7759 7848 7846 7758 7810 7847 7809
8 7759 7761 7850 7848 7760 7811 7849 7810
8 7761 7763 7852 7850 7762 7812 7851 7811
8 7763 7765 7854 7852 7764 7813 7853 7812
8 7765 7767 7856 7854 7766 7814 7855 7813
8 7767 7769 7858 7856 7768 7815 7857 7814
8 7769 7771 7860 7858 7770 7816 7859 7815
8 7771 7773 7862 7860 7772 7817 7861 7816
8 7773 7775 7864 7862 7774 7818 7863 7817
8 7775 7777 7866 7864 7776 7819 7865 7818
8 7777 7779 7868 7866 7778 7820 7867 7819
8 7779 7781 7870 7868 7780 7821 7869 7820
8 7781 7783 7872 7870 7782 7822 7871 7821
8 7783 7785 7874 7872 7784 7823 7873 7822
8 7785 7787 7876 7874 7786 7824 7875 7823
8 7787 7789 7878 7876 7788 7825 7877 7824
8 7789 7791 7880 7878 7790 7826 7879 7825
8 7791 7793 7882 7880 7792 7827 7881 7826
8 7793 7795 7884 7882 7794 7828 7883 7827
8 7795 7797 7886 7884 7796 7829 7885 7828
8 7797 7799 7888 7886 7798 7830 7887 7829
8 7799 7801 7890 7888 7800 7831 7889 7830
8 7832 7834 7923 7921 7833 7892 7922 7891
8 7834 7836 7925 7923 7835 7893 7924 7892
8 7836 7838 7927 7925 7837 7894 7926 7893
8 7838 7840 7929 7927 7839 7895 7928 7894
8 7840 7842 7931 7929 7841 7896 7930 7895
8 7842 7844 7933 7931 7843 7897 7932 7896
8 7844 7846 7935 7933 7845 7898 7934 7897
8 7846 7848 7937 7935 7847 7899 7936 7898
8 7848 7850 7939 7937 7849 7900 7938 7899
8 7850 7852 7941 7939 7851 7901 7940 7900
8 7852 7854 7943 7941 7853 7902 7942 7901
8 7854 7856 7945 7943 7855 7903 7944 7902
8 7856 7858 7947 7945 7857 7904 7946 7903
8 7858 7860 7949 7947 7859 7905 7948 7904
8 7860 7862 7951 7949 7861 7906 7950 7905
8 7862 7864 7953 7951 7863 7907 7952 7906
8 7864 7866 7955 7953 7865 7908 7954 7907
8 7866 7868 7957 7955 7867 7909 7956 7908
8 7868 7870 7959 7957 7869 7910 7958 7909
8 7870 7872 7961 7959 7871 7911 7960 7910
8 7872 7874 7963 7961 7873 7912 7962 7911
8 7874 7876 7965 7963 7875 7913 7964 7912
8 7876 7878 7967 7965 7877 7914 7966 7913
8 7878 7880 7969 7967 7879 7915 7968 7914
8 7880 7882 7971 7969 7881 7916 7970 7915
8 7882 7884 7973 7971 7883 7917 7972 7916
8 7884 7886 7975 7973 7885 7918 7974 7917
8 7886 7888 7977 7975 7887 7919 7976 7918
8 7888 7890 7979 7977 7889 7920 7978 7919
8 7921 7923 8012 8010 7922 7981 8011 7980
8 7923 7925 8014 8012 7924 7982 8013 7981
8 7925 7927 8016 8014 7926 7983 8015 7982
8 7927 7929 8018 8016 7928 7984 8017 7983
8 7929 7931 8020 8018 7930 7985 8019 7984
8 7931 7933 8022 8020 7932 7986 8021 7985
8 7933 7935 8024 8022 7934 7987 8023 7986
8 7935 7937 8026 8024 7936 7988 8025 7987
8 7937 7939 8028 8026 7938 7989 8027 7988
8 7939 7941 8030 8028 7940 7990 8029 7989
8 7941 7943 8032 8030 7942 7991 8031 7990
8 7943 7945 8034 8032 7944 7992 8033 7991
8 7945 7947 8036 8034 7946 7993 8035 7992
8 7947 7949 8038 8036 7948 7994 8037 7993
8 7949 7951 8040 8038 7950 7995 8039 7994
8 7951 7953 8042 8040 7952 7996 8041 7995
8 7953 7955 8044 8042 7954 7997 8043 7996
8 7955 7957 8046 8044 7956 7998 8045 7997
8 7957 7959 8048 8046 7958 7999 8047 7998
8 7959 7961 8050 8048 7960 8000 8049 7999
8 7961 7963 8052 8050 7962 8001 8051 8000
8 7963 7965 8054 8052 7964 8002 8053 8001
8 7965 7967 8056 8054 7966 8003 8055 8002
8 7967 7969 8058 8056 7968 8004 8057 8003
8 7969 7971 8060 8058 7970 8005 8059 8004
8 7971 7973 8062 8060 7972 8006 8061 8005
8 7973 7975 8064 8062 7974 8007 8063 8006
8 7975 7977 8066 8064 7976 8008 8065 8007
8 7977 7979 8068 8066 7978 8009 8067 8008

CELL_TYPES 2610
23
23
23
23
23
23
23
23
23
23
23
23
23
23
23
23
23
23
23
23
23
23
23
23
23
23
23
23
23
23
23
23
23
23
23
23
23
23
23
23
23
23
23
23
23
23
23
23
23
23
23
23
23
23
23
23
23
23
23
23
23
23
23
23
23
23
23
23
23
23
23
23
23
23
23
23
23
23
23
23
23
23
23
23
23
23
23
23
23
23
23
23
23
23
23
23
23
23
23
23
23
23
23
23
23
23
23
23
23
23
23
23
23
23
23
23
23
23
23
23
23
23
23
23
23
23
23
23
23
23
23
23
23
23
23
23
23
23
23
23
23
23
23
23
23
23
23
23
23
23
23
23
23
23
23
23
23
23
23
23
23
23
23
23
23
23
23
23
23
23
23
23
23
23
23
23
23
23
23
23
23
23
23
23
23
23
23
23
23
23
23
23
23
23
23
23
23
23
23
23
23
23
23
23
23
23
23
23
23
23
23
23
23
23
23
23
23
23
23
23
23
23
23
23
23
23
23
23
23
23
23
23
23
23
23
23
23
23
23
23
23
23
23
23
23
23
23
23
23
23
23
23
23
23
23
23
23
23
23
23
23
23
23
23
23
23
23
23
23
23
23
23
23
23
23
23
23
23
23
23
23
23
23
23
23
23
23
23
23
23
23
23
23
23
23
23
23
23
23
23
23
23
23
23
23
23
23
23
23
23
23
23
23
23
23
23
23
23
23
23
23
23
23
23
23
23
23
23
23
23
23
23
23
23
23
23
23
23
23
23
23
23
23
23
23
23
23
23
23
23
23
23
23
23
23
23
23
23
23
23
23
23
23
23
23
23
23
23
23
23
23
23
23
23
23
23
23
23
23
23
23
23
23
23
23
23
23
23
23
23
23
23
23
23
23
23
23
23
23
23
23
23
23
23
23
23
23
23
23
23
23
23
23
23
23
23
23
23
23
23
23
23
23
23
23
23
23
23
23
23
23
23
23
23
23
23
23
23
23
23
23
23
23
23
23
23
23
23
23
23
23
23
23
23
23
23
23
23
23
23
23
23
23
23
23
23
23
23
23
23
23
23
23
23
23
23
23
23
23
23
23
23
23
23
23
23
23
23
23
23
23
23
23
23
23
23
23
23
23
23
23
23
23
23
23
23
23
23
23
23
23
23
23
23
23
23
23
23
23
23
23
23
23
23
23
23
23
23
23
23
23
23
23
23
23
23
23
23
23
23
23
23
23
23
23
23
23
23
23
23
23
23
23
23
23
23
23
23
23
23
23
23
23
23
23
23
23
23
23
23
23
23
23
23
23
23
23
23
23
23
23
23
23
23
23
23
23
23
23
23
23
23
23
23
23
23
23
23
23
23
23
23
23
23
23
23
23
23
23
23
23
23
23
23
23
23
23
23
23
23
23
23
23
23
23
23
23
23
23
23
23
23
23
23
23
23
23
23
23
23
23
23
23
23
23
23
23
23
23
23
23
23
23
23
23
23
23
23
23
23
23
23
23
23
23
23
23
23
23
23
23
23
23
23
23
23
23
23
23
23
23
23
23
23
23
23
23
23
23
23
23
23
23
23
23
23
23
23
23
23
23
23
23
23
23
23
23
23
23
23
23
23
23
23
23
23
23
23
23
23
23
23
23
23
23
23
23
23
23
23
23
23
23
23
23
23
23
23
23
23
23
23
23
23
23
23
23
23
23
23
23
23
23
23
23
23
23
23
23
23
23
23
23
23
23
23
23
23
23
23
23
23
23
23
23
23
23
23
23
23
23
23
23
23
23
23
23
23
23
23
23
23
23
23
23
23
23
23
23
23
23
23
23
23
23
23
23
23
23
23
23
23
23
23
23
23
23
23
23
23
23
23
23
23
23
23
23
23
23
23
23
23
23
23
23
23
23
23
23
23
23
23
23
23
23
23
23
23
23
23
23
23
23
23
23
23
23
23
23
23
23
23
23
23
23
23
23
23
23
23
23
23
23
23
23
23
23
23
23
23
23
23
23
23
23
23
23
23
23
23
23
23
23
23
23
23
23
23
23
23
23
23
23
23
23
23
23
23
23
23
23
23
23
23
23
23
23
23
23
23
23
23
23
23
23
23
23
23
23
23
23
23
23
23
23
23
23
23
23
23
23
23
23
23
23
23
23
23
23
23
23
23
23
23
23
23
23
23
23
23
23
23
23
23
23
23
23
23
23
23
23
23
23
23
23
23
23
23
23
23
23
23
23
23
23
23
23
23
23
23
23
23
23
23
23
23
23
23
23
23
23
23
23
23
23
23
23
23
23
23
23
23
23
23
23
23
23
23
23
23
23
23
23
23
23
23
23
23
23
23
23
23
23
23
23
23
23
23
23
23
23
23
23
23
23
23
23
23
23
23
23
23
23
23
23
23
23
23
23
23
23
23
23
23
23
23
23
23
23
23
23
23
23
23
23
23
23
23
23
23
23
23
23
23
23
23
23
23
23
23
23
23
23
23
23
23
23
23
23
23
23
23
23
23
23
23
23
23
23
23
23
23
23
23
23
23
23
23
23
23
23
23
23
23
23
23
23
23
23
23
23
23
23
23
23
23
23
23
23
23
23
23
23
23
23
23
23
23
23
23
23
23
23
23
23
23
23
23
23
23
23
23
23
23
23
23
23
23
23
23
23
23
23
23
23
23
23
23
23
23
23
23
23
23
23
23
23
23
23
23
23
23
23
23
23
23
23
23
23
23
23
23
23
23
23
23
23
23
23
23
23
23
23
23
23
23
23
23
23
23
23
23
23
23
23
23
23
23
23
23
23
23
23
23
23
23
23
23
23
23
23
23
23
23
23
23
23
23
23
23
23
23
23
23
23
23
23
23
23
23
23
23
23
23
23
23
23
23
23
23
23
23
23
23
23
23
23
23
23
23
23
23
23
23
23
23
23
23
23
23
23
23
23
23
23
23
23
23
23
23
23
23
23
23
23
23
23
23
23
23
23
23
23
23
23
23
23
23
23
23
23
23
23
23
23
23
23
23
23
23
23
23
23
23
23
23
23
23
23
23
23
23
23
23
23
23
23
23
23
23
23
23
23
23
23
23
23
23
23
23
23
23
23
23
23
23
23
23
23
23
23
23
23
23
23
23
23
23
23
23
23
23
23
23
23
23
23
23
23
23
23
23
23
23
23
23
23
23
23
23
23
23
23
23
23
23
23
23
23
23
23
23
23
23
23
23
23
23
23
23
23
23
23
23
23
23
23
23
23
23
23
23
23
23
23
23
23
23
23
23
23
23
23
23
23
23
23
23
23
23
23
23
23
23
23
23
23
23
23
23
23
23
23
23
23
23
23
23
23
23
23
23
23
23
23
23
23
23
23
23
23
23
23
23
23
23
23
23
23
23
23
23
23
23
23
23
23
23
23
23
23
23
23
23
23
23
23
23
23
23
23
23
23
23
23
23
23
23
23
23
23
23
23
23
23
23
23
23
23
23
23
23
23
23
23
23
23
23
23
23
23
23
23
23
23
23
23
23
23
23
23
23
23
23
23
23
23
23
23
23
23
23
23
23
23
23
23
23
23
23
23
23
23
23
23
23
23
23
23
23
23
23
23
23
23
23
23
23
23
23
23
23
23
23
23
23
23
23
23
23
23
23
23
23
23
23
23
23
23
23
23
23
23
23
23
23
23
23
23
23
23
23
23
23
23
23
23
23
23
23
23
23
23
23
23
23
23
23
23
23
23
23
23
23
23
23
23
23
23
23
23
23
23
23
23
23
23
23
23
23
23
23
23
23
23
23
23
23
23
23
23
23
23
23
23
23
23
23
23
23
23
23
23
23
23
23
23
23
23
23
23
23
23
23
23
23
23
23
23
23
23
23
23
23
23
23
23
23
23
23
23
23
23
23
23
23
23
23
23
23
23
23
23
23
23
23
23
23
23
23
23
23
23
23
23
23
23
23
23
23
23
23
23
23
23
23
23
23
23
23
23
23
23
23
23
23
23
23
23
23
23
23
23
23
23
23
23
23
23
23
23
23
23
23
23
23
23
23
23
23
23
23
23
23
23
23
23
23
23
23
23
23
23
23
23
23
23
23
23
23
23
23
23
23
23
23
23
23
23
23
23
23
23
23
23
23
23
23
23
23
23
23
23
23
23
23
23
23
23
23
23
23
23
23
23
23
23
23
23
23
23
23
23
23
23
23
23
23
23
23
23
23
23
23
23
23
23
23
23
23
23
23
23
23
23
23
23
23
23
23
23
23
23
23
23
23
23
23
23
23
23
23
23
23
23
23
23
23
23
23
23
23
23
23
23
23
23
23
23
23
23
23
23
23
23
23
23
23
23
23
23
23
23
23
23
23
23
23
23
23
23
23
23
23
23
23
23
23
23
23
23
23
23
23
23
23
23
23
23
23
23
23
23
23
23
23
23
23
23
23
23
23
23
23
23
23
23
23
23
23
23
23
23
23
23
23
23
23
23
23
23
23
23
23
23
23
23
23
23
23
23
23
23
23
23
23
23
23
23
23
23
23
23
23
23
23
23
23
23
23
23
23
23
23
23
23
23
23
23
23
23
23
23
23
23
23
23
23
23
23
23
23
23
23
23
23
23
23
23
23
23
23
23
23
23
23
23
23
23
23
23
23
23
23
23
23
23
23
23
23
23
23
23
23
23
23
23
23
23
23
23
23
23
23
23
23
23
23
23
23
23
23
23
23
23
23
23
23
23
23
23
23
23
23
23
23
23
23
23
23
23
23
23
23
23
23
23
23
23
23
23
23
23
23
23
23
23
23
23
23
23
23
23
23
23
23
23
23
23
23
23
23
23
23
23
23
23
23
23
23
23
23
23
23
23
23
23
23
23
23
23
23
23
23
23
23
23
23
23
23
23
23
23
23
23
23
23
23
23
23
23
23
23
23
23
23
23
23
23
23
23
23
23
23
23
23
23
23
23
23
23
23
23
23
23
23
23
23
23
23
23
23
23
23
23
23
23
23
23
23
23
23
23
23
23
23
23
23
23
23
23
23
23
23
23
23
23
23
23
23
23
23
23
23
23
23
23
23
23
23
23
23
23
23
23
23
23
23
23
23
23
23
23
23
23
23
23
23
23
23
23
23
23
23
23
23
23
23
23
23
23
23
23
23
23
23
23
23
23
23
23
23
23
23
23
23
23
23
23
23
23
23
23
23
23
23
23
23
23
23
23
23
23
23
23
23
23
23
23
23
23
23
23
23
23
23
23
23
23
23
23
23
23
23
23
23
23
23
23
23
23
23
23
23
23
23
23
23
23
23
23
23
23
23
23
23
23
23
23
23
23
23
23
23
23
23
23
23
23
23
23
23
23
23
23
23
23
23
23
23
23
23
23
23
23
23
23
23
23
23
23
23
23
23
23
23
23
23
23
23
23
23
23
23
23
23
23
23
23
23
23
23
23
23
23
23
23
23
23
23
23
23
23
23
23
23
23
23
23
23
23
23
23
23
23
23
23
23
23
23
23
23
23
23
23
23
23
23
23
23
23
23
23
23
23
23
23
23
23
23
23
23
23
23
23
23
23
23
23
23
23
23
23
23
23
23
23
23
23
23
23
23
23
23
23
23
23
23
23
23
23
23
23
23
23
23
23
23
23
23
23
23
23
23
23
23
23
23
23
23
23
23
23
23
23
23
23
23
23
23
23
23
23
23
23
23
23
23
23
23
23
23
23
23
23
23
23
23
23
23
23
23
23
23
23
23
23
23
23
23
23
23
23
23
23
23
23
23
23
23
23
23
23
23
23
23
23
23
23
23
23
23
23
23
23
23
23
23
23
23
23
23
23
23
23
23
23
23
23
23
23
23
23
23
23
23
23
23
23
23
23
23
23
23
23
23
23
23
23
23
23
23
23
23
23
23
23
23
23
23
23
23
23
23
23
23
23
23
23
23

POINT_DATA 8069
SCALARS Displacement_R double 1
LOOKUP_TABLE default
0
-1.38426
-2.3636
-2.47628
-2.4046
-2.43005
-2.41533
-2.42439
-2.41941
-2.4237
-2.42218
-2.4246
-2.42411
-2.42573
-2.42577
-2.42713
-2.42751
-2.42858
-2.429
-2.42994
-2.43043
-2.43137
-2.43195
-2.43281
-2.43327
-2.43427
-2.43477
-2.43725
-2.43734
-2.4365
-2.42754
-2.32274
-2.2048
-2.09616
-1.99638
-1.89205
-1.79815
-1.70155
-1.61487
-1.52529
-1.4448
-1.36157
-1.28552
-1.20911
-1.13143
-1.03988
-0.949794
-0.861075
-0.77983
-0.695629
-0.618493
-0.537052
-0.461869
-0.381602
-0.307202
-0.227396
-0.153377
-0.0737327
0
0
-0.219156
-0.960575
-1.33573
-1.56041
-1.70687
-1.80934
-1.88421
-1.94049
-1.98375
-2.01701
-2.04201
-2.05954
-2.06879
-2.06513
-2.04506
-1.95555
-1.81113
-1.66021
-1.51016
-1.36455
-1.22341
-1.08012
-0.916293
-0.755869
-0.601596
-0.450382
-0.300117
-0.150032
0
0
0.236743
0.0182598
-0.0752422
-0.240815
-0.455222
-0.640358
-0.798976
-0.932315
-1.04747
-1.14498
-1.23026
-1.3033
-1.36749
-1.42357
-1.47294
-1.51631
-1.55491
-1.58879
-1.61875
-1.6451
-1.66802
-1.68769
-1.70442
-1.71789
-1.72813
-1.73472
-1.73835
-1.73829
-1.73497
-1.73269
-1.73121
-1.7137
-1.67674
-1.63328
-1.579
-1.52565
-1.46473
-1.40765
-1.34407
-1.28566
-1.22092
-1.16207
-1.09444
-1.03055
-0.954662
-0.882693
-0.803653
-0.732022
-0.655135
-0.584728
-0.508907
-0.43892
-0.363187
-0.29304
-0.217068
-0.146687
-0.0704855
0
0
0.164643
0.0247673
-0.241255
-0.505027
-0.724358
-0.901074
-1.04229
-1.15508
-1.24533
-1.3168
-1.37201
-1.41254
-1.43929
-1.45419
-1.46476
-1.49183
-1.46348
-1.3957
-1.30766
-1.20811
-1.1009
-0.981744
-0.848718
-0.708084
-0.567884
-0.42747
-0.285964
-0.143334
0
0
0.0447937
0.160859
0.167177
0.13601
0.0704128
-0.0232538
-0.120035
-0.221836
-0.320952
-0.415513
-0.504271
-0.585959
-0.661375
-0.730278
-0.793231
-0.850201
-0.902288
-0.949006
-0.991332
-1.0292
-1.06305
-1.09283
-1.11919
-1.14186
-1.16136
-1.17804
-1.19232
-1.20517
-1.21739
-1.22923
-1.26179
-1.28815
-1.30249
-1.30167
-1.29017
-1.27027
-1.24206
-1.21027
-1.17163
-1.13211
-1.08626
-1.04083
-0.98673
-0.934289
-0.873582
-0.814913
-0.747342
-0.684248
-0.615209
-0.551092
-0.481106
-0.416048
-0.344971
-0.278897
-0.20684
-0.139984
-0.0672705
0
0
0.142535
0.177998
0.0999341
-0.0392128
-0.194947
-0.3453
-0.48061
-0.598056
-0.6981
-0.781675
-0.850125
-0.905318
-0.949502
-0.986232
-1.02022
-1.10348
-1.15084
-1.15082
-1.11651
-1.05849
-0.982374
-0.888269
-0.781561
-0.660644
-0.534423
-0.404691
-0.27186
-0.13664
0
0
0.0820275
0.127997
0.170472
0.18938
0.186403
0.164625
0.127003
0.0776804
0.0218386
-0.0387773
-0.10071
-0.162808
-0.223359
-0.282139
-0.337935
-0.390777
-0.440519
-0.486825
-0.529837
-0.569716
-0.606334
-0.639949
-0.670839
-0.699077
-0.725011
-0.74914
-0.771701
-0.793201
-0.814033
-0.834487
-0.887753
-0.935702
-0.979566
-1.00911
-1.02886
-1.03648
-1.03504
-1.02572
-1.00852
-0.986632
-0.95743
-0.925186
-0.884437
-0.843393
-0.795804
-0.748532
-0.691957
-0.637159
-0.575807
-0.517821
-0.453625
-0.393368
-0.326937
-0.264836
-0.196701
-0.133299
-0.0640831
0
0
0.119794
0.192224
0.19973
0.152389
0.0709729
-0.0262712
-0.126744
-0.223025
-0.311634
-0.390835
-0.460335
-0.521159
-0.574895
-0.623771
-0.67016
-0.784333
-0.877746
-0.928241
-0.938588
-0.917106
-0.869649
-0.799807
-0.716102
-0.613961
-0.501367
-0.382128
-0.257854
-0.129972
0
0
0.0549143
0.111738
0.155578
0.189375
0.209693
0.217631
0.213774
0.199518
0.176929
0.147509
0.113192
0.0753674
0.0355339
-0.00566086
-0.0469146
-0.0878822
-0.128068
-0.166975
-0.204419
-0.240404
-0.274615
-0.307191
-0.338265
-0.367788
-0.395995
-0.423176
-0.449377
-0.474863
-0.499903
-0.524381
-0.588268
-0.647393
-0.70751
-0.755627
-0.797257
-0.825417
-0.845399
-0.854666
-0.855904
-0.849515
-0.835271
-0.815463
-0.78739
-0.757255
-0.721254
-0.684084
-0.637704
-0.590911
-0.537002
-0.484993
-0.426486
-0.370927
-0.309089
-0.250887
-0.186648
-0.12665
-0.0609218
0
0
0.104255
0.1842
0.226313
0.229356
0.200718
0.150376
0.0876197
0.0196197
-0.0490592
-0.115452
-0.178077
-0.236848
-0.292186
-0.344924
-0.396058
-0.524321
-0.643285
-0.728824
-0.774586
-0.784362
-0.762957
-0.715901
-0.652714
-0.568174
-0.468782
-0.359819
-0.243968
-0.123346
0
0
0.0509895
0.0981167
0.1414
0.178308
0.207758
0.229105
0.242139
0.247429
0.245476
0.237164
0.223464
0.205255
0.183577
0.15899
0.132542
0.10462
0.0757993
0.0465443
0.0172127
-0.0121324
-0.0410542
-0.0696014
-0.0977381
-0.125334
-0.152453
-0.179251
-0.205607
-0.23166
-0.257511
-0.28303
-0.350105
-0.413681
-0.481508
-0.539866
-0.59537
-0.637901
-0.673999
-0.698022
-0.714546
-0.721412
-0.720398
-0.711962
-0.695608
-0.67561
-0.649991
-0.621879
-0.584846
-0.545666
-0.498915
-0.452699
-0.399748
-0.34878
-0.291458
-0.237084
-0.176697
-0.120054
-0.0577902
0
0
0.0931882
0.172565
0.228741
0.258011
0.261981
0.245257
0.213358
0.171497
0.123676
0.0729213
0.0212049
-0.0306138
-0.0820712
-0.133033
-0.183631
-0.314214
-0.444834
-0.552605
-0.625003
-0.660687
-0.662438
-0.636291
-0.591577
-0.523391
-0.436722
-0.337792
-0.23022
-0.116769
0
0
0.0449242
0.0888692
0.129733
0.166862
0.199216
0.226269
0.247577
0.263279
0.273311
0.278109
0.27807
0.273681
0.265521
0.25402
0.239836
0.223325
0.204943
0.185086
0.164102
0.142114
0.119538
0.0964167
0.0728634
0.0490696
0.0250731
0.000822396
-0.0234784
-0.0478759
-0.072399
-0.0968528
-0.162098
-0.22542
-0.295258
-0.358071
-0.421268
-0.472995
-0.520478
-0.555688
-0.584448
-0.602367
-0.612827
-0.614555
-0.608831
-0.598089
-0.581839
-0.561908
-0.53343
-0.501422
-0.461531
-0.420918
-0.373379
-0.326901
-0.274015
-0.223408
-0.16683
-0.113504
-0.054682
0
0
0.0849815
0.161309
0.222578
0.265064
0.28816
0.293596
0.284217
0.263308
0.233824
0.198286
0.158639
0.116081
0.0715459
0.0257151
-0.0210338
-0.145975
-0.278729
-0.398687
-0.489883
-0.546309
-0.568159
-0.560843
-0.53279
-0.47971
-0.405234
-0.316068
-0.216621
-0.110248
0
0
0.0411926
0.0814876
0.119975
0.155964
0.188869
0.218068
0.24323
0.26431
0.281036
0.293605
0.302146
0.306857
0.308047
0.305993
0.301059
0.293519
0.283695
0.271879
0.25836
0.243272
0.226961
0.209517
0.19108
0.171854
0.151932
0.131323
0.110263
0.0887561
0.0668292
0.0446851
-0.0154988
-0.0754195
-0.143408
-0.206661
-0.272939
-0.329706
-0.38452
-0.427701
-0.465822
-0.492662
-0.512808
-0.523398
-0.527114
-0.524686
-0.516863
-0.504321
-0.483639
-0.458325
-0.424959
-0.389732
-0.34744
-0.305338
-0.256795
-0.209887
-0.157063
-0.107013
-0.0516018
0
0
0.0783077
0.150838
0.213084
0.261842
0.295767
0.315189
0.321337
0.316077
0.30139
0.279153
0.251021
0.218221
0.181835
0.142782
0.101702
-0.0126118
-0.14105
-0.265604
-0.368907
-0.441265
-0.480122
-0.489477
-0.476412
-0.437216
-0.374362
-0.29467
-0.203181
-0.103788
0
0
0.0379383
0.0753676
0.111496
0.145905
0.178182
0.207794
0.234472
0.258124
0.278418
0.295427
0.309165
0.319654
0.327045
0.331511
0.333212
0.332347
0.329126
0.323743
0.316415
0.307268
0.296561
0.2844
0.270919
0.256308
0.240677
0.224071
0.206714
0.188646
0.169918
0.150729
0.0974214
0.0428561
-0.0207726
-0.0817377
-0.147771
-0.206384
-0.265211
-0.313585
-0.358474
-0.392243
-0.420329
-0.43846
-0.4504
-0.455333
-0.455045
-0.449159
-0.435562
-0.416453
-0.389254
-0.359182
-0.321956
-0.284108
-0.239808
-0.196531
-0.147402
-0.100585
-0.0485511
0
0
0.072611
0.141141
0.202333
0.253546
0.293281
0.321233
0.337726
0.343698
0.340388
0.329091
0.311097
0.287499
0.259335
0.227564
0.19292
0.0919611
-0.0279743
-0.151575
-0.261471
-0.34542
-0.398265
-0.422128
-0.422472
-0.395981
-0.344144
-0.273615
-0.18991
-0.0973934
0
0
0.0351882
0.0700195
0.103909
0.136551
0.167671
0.196794
0.223724
0.248361
0.270372
0.289771
0.306526
0.32056
0.331942
0.340773
0.347088
0.351026
0.35272
0.352279
0.349864
0.345579
0.339602
0.332038
0.323004
0.312657
0.301107
0.288411
0.274769
0.260234
0.24487
0.228859
0.183222
0.13506
0.0773001
0.0203984
-0.0430737
-0.101161
-0.161378
-0.212627
-0.262017
-0.300901
-0.335269
-0.35965
-0.378611
-0.389967
-0.396359
-0.396442
-0.38926
-0.37587
-0.354465
-0.329304
-0.296953
-0.26323
-0.223068
-0.183346
-0.137853
-0.0942249
-0.0455311
0
0
0.0675662
0.132123
0.191246
0.242777
0.285284
0.318206
0.34139
0.355202
0.36037
0.35773
0.348229
0.332766
0.312244
0.28755
0.259414
0.172898
0.0639579
-0.0547795
-0.166871
-0.258593
-0.322552
-0.358801
-0.371036
-0.356105
-0.314647
-0.252941
-0.176829
-0.0910752
0
0
0.0327346
0.065227
0.0969988
0.127834
0.157544
0.185712
0.212197
0.23691
0.259533
0.280058
0.29844
0.314547
0.328409
0.340083
0.349527
0.356839
0.362101
0.36536
0.366729
0.366295
0.364168
0.360442
0.355211
0.348599
0.340705
0.331589
0.321413
0.310241
0.298133
0.285251
0.247388
0.206023
0.154908
0.103136
0.0437627
-0.0121022
-0.0717019
-0.123951
-0.175915
-0.218304
-0.257423
-0.286826
-0.31165
-0.328519
-0.340771
-0.346172
-0.344772
-0.336623
-0.320633
-0.30013
-0.272454
-0.24272
-0.206585
-0.170342
-0.12842
-0.0879358
-0.0425433
0
0
0.0630006
0.123703
0.180261
0.230905
0.274342
0.30994
0.337308
0.356477
0.367839
0.371892
0.369297
0.360759
0.347013
0.328828
0.306873
0.234822
0.138165
0.0269255
-0.0839643
-0.180205
-0.252648
-0.29928
-0.321982
-0.31754
-0.285835
-0.23262
-0.163918
-0.0848229
0
0
0.0305191
0.0608676
0.0906481
0.119705
0.147907
0.174889
0.200549
0.224813
0.247389
0.26826
0.287383
0.3046
0.319921
0.333378
0.344887
0.354515
0.362314
0.368286
0.372511
0.375058
0.375985
0.375373
0.373297
0.369846
0.365105
0.359131
0.352052
0.343929
0.33482
0.324861
0.294438
0.25982
0.215603
0.169506
0.115176
0.0626908
0.0051898
-0.0465855
-0.0995277
-0.144026
-0.186515
-0.219798
-0.249391
-0.270908
-0.288234
-0.298334
-0.302117
-0.298749
-0.287791
-0.271685
-0.248476
-0.222591
-0.190368
-0.157526
-0.119109
-0.081721
-0.0395889
0
0
0.0588308
0.115857
0.169644
0.21873
0.261975
0.298762
0.328597
0.35132
0.367112
0.376234
0.379124
0.376315
0.368381
0.355957
0.339627
0.281355
0.19738
0.095277
-0.0118662
-0.109897
-0.18843
-0.243549
-0.27535
-0.280359
-0.257763
-0.212686
-0.151198
-0.0786464
0
0
0.028498
0.0568753
0.0847927
0.112138
0.138819
0.164515
0.189152
0.212673
0.234811
0.255548
0.274849
0.292545
0.308638
0.323148
0.335965
0.34714
0.356704
0.364626
0.370967
0.37578
0.379084
0.380949
0.381433
0.380593
0.378502
0.375212
0.370816
0.365374
0.358937
0.351614
0.328048
0.299845
0.262422
0.222171
0.173385
0.125017
0.0706619
0.0204816
-0.0321503
-0.077574
-0.122213
-0.158339
-0.191686
-0.217037
-0.238693
-0.252902
-0.261301
-0.262269
-0.255964
-0.243992
-0.225038
-0.202855
-0.174428
-0.144903
-0.109923
-0.0755835
-0.0366693
0
0
0.0550057
0.108563
0.159538
0.206711
0.249091
0.286109
0.317241
0.342227
0.361118
0.374014
0.381183
0.383023
0.379962
0.372507
0.361155
0.31558
0.244087
0.152009
0.0504407
-0.0471533
-0.129655
-0.191503
-0.231105
-0.244579
-0.230452
-0.193152
-0.138674
-0.0725486
0
0
0.0266477
0.0532097
0.0793916
0.105112
0.130309
0.154695
0.178221
0.200842
0.222315
0.242628
0.261751
0.279514
0.29592
0.310979
0.324571
0.336734
0.34749
0.356784
0.364664
0.371172
0.376297
0.380099
0.382625
0.383905
0.383999
0.382956
0.380838
0.3777
0.373588
0.368585
0.351176
0.328893
0.297931
0.263441
0.220376
0.176538
0.126027
0.0782639
0.0269543
-0.0184146
-0.06415
-0.10219
-0.138365
-0.166792
-0.192076
-0.209836
-0.222316
-0.227193
-0.225169
-0.217067
-0.202152
-0.183525
-0.158772
-0.13248
-0.100868
-0.0695261
-0.0337856
0
0
0.0514923
0.1018
0.150017
0.195116
0.236237
0.272874
0.30451
0.330839
0.351833
0.367486
0.377946
0.383499
0.384456
0.38121
0.374173
0.340028
0.280424
0.198709
0.103959
0.00857378
-0.0760518
-0.143022
-0.189204
-0.210205
-0.203915
-0.174026
-0.126353
-0.0665321
0
0
0.0249532
0.0498462
0.0744194
0.0986153
0.122391
0.145492
0.167883
0.189533
0.210221
0.229937
0.248661
0.266228
0.282638
0.297903
0.311893
0.324643
0.336167
0.346397
0.35537
0.363121
0.369618
0.374913
0.379043
0.382017
0.383887
0.384694
0.384477
0.383285
0.38116
0.378162
0.36617
0.349228
0.324253
0.295262
0.257859
0.21872
0.17247
0.127694
0.078475
0.0339532
-0.0119842
-0.051123
-0.0892908
-0.120097
-0.14835
-0.169134
-0.185182
-0.193558
-0.195448
-0.190951
-0.179855
-0.164628
-0.143423
-0.120276
-0.0919557
-0.0635577
-0.0309422
0
0
0.0482653
0.0955482
0.141114
0.184095
0.223742
0.259612
0.291217
0.318234
0.340592
0.358215
0.371165
0.379645
0.383872
0.384141
0.380789
0.356756
0.308217
0.236806
0.14965
0.0578449
-0.0273286
-0.0979701
-0.149592
-0.177231
-0.178162
-0.155319
-0.11424
-0.0605992
0
0
0.0233977
0.046754
0.0698378
0.092609
0.11504
0.136902
0.158172
0.178831
0.198674
0.217698
0.23589
0.253091
0.269303
0.284537
0.298665
0.311714
0.323698
0.334538
0.344265
0.352909
0.360424
0.366854
0.372231
0.376546
0.379843
0.382159
0.383513
0.383949
0.383503
0.382218
0.374935
0.362746
0.343228
0.319383
0.287443
0.253006
0.211231
0.169819
0.123256
0.0802086
0.0348114
-0.00472488
-0.0441475
-0.0767039
-0.107323
-0.130642
-0.149786
-0.16128
-0.166739
-0.165592
-0.158104
-0.146131
-0.128353
-0.108267
-0.0831706
-0.0576672
-0.0281335
0
0
0.0453032
0.0897815
0.132835
0.173723
0.211794
0.246664
0.277881
0.305122
0.328296
0.347284
0.362086
0.372845
0.379701
0.382873
0.382632
0.367425
0.32901
0.267569
0.188421
0.101219
0.0168194
-0.0562002
-0.112205
-0.145646
-0.153199
-0.137034
-0.102337
-0.0547518
0
0
0.021972
0.0439167
0.0656264
0.0870744
0.108245
0.12893
0.149118
0.168796
0.187779
0.206066
0.223651
0.240382
0.256265
0.27131
0.285392
0.298535
0.310751
0.321957
0.33218
0.341446
0.349699
0.356977
0.363307
0.368669
0.373099
0.376632
0.379268
0.38105
0.382007
0.382167
0.378928
0.370911
0.356294
0.33718
0.310397
0.280536
0.243285
0.205452
0.161938
0.120843
0.0765905
0.0372537
-0.00277543
-0.0365156
-0.0689449
-0.0943402
-0.116134
-0.130381
-0.13907
-0.141024
-0.13693
-0.128059
-0.113584
-0.0964717
-0.0745251
-0.0518634
-0.0253639
0
0
0.042586
0.0844723
0.125166
0.16403
0.200495
0.234232
0.264826
0.291967
0.315553
0.335442
0.351592
0.364101
0.37305
0.378595
0.380955
0.373376
0.344098
0.292118
0.22111
0.139244
0.0567046
-0.0175546
-0.0769709
-0.115427
-0.129025
-0.119176
-0.0906495
-0.0489919
0
0
0.0206657
0.0413148
0.0617593
0.0819829
0.101978
0.121556
0.140713
0.159443
0.177574
0.195111
0.212052
0.228254
0.243726
0.258477
0.272387
0.285478
0.297762
0.309154
0.319677
0.329355
0.338126
0.346024
0.353072
0.35924
0.36456
0.369063
0.372737
0.375621
0.37774
0.379109
0.379311
0.374922
0.364659
0.349839
0.327849
0.302356
0.269564
0.235397
0.195184
0.156395
0.113766
0.0751267
0.0350507
0.000630304
-0.033104
-0.0601527
-0.0841796
-0.100835
-0.112435
-0.117243
-0.116334
-0.110417
-0.0991185
-0.0848923
-0.0660218
-0.0461477
-0.022634
0
0
0.0400951
0.0795913
0.118081
0.155014
0.189891
0.22243
0.252253
0.279067
0.302771
0.323209
0.34031
0.354139
0.364736
0.372206
0.376723
0.37568
0.354566
0.31143
0.248489
0.172447
0.0926412
0.0181321
-0.0438105
-0.0865477
-0.105637
-0.101749
-0.0791792
-0.043321
0
0
0.0194693
0.03893
0.0582113
0.0773044
0.096209
0.114752
0.132936
0.150759
0.168064
0.184859
0.201146
0.21679
0.231801
0.246191
0.259844
0.272782
0.285016
0.29646
0.307136
0.317067
0.326185
0.334522
0.3421
0.348878
0.354888
0.360157
0.364663
0.368441
0.371516
0.373889
0.376998
0.375738
0.369309
0.358349
0.340763
0.319378
0.290895
0.260389
0.223616
0.187377
0.146743
0.109208
0.0695612
0.0349024
0.000317636
-0.0279966
-0.0538703
-0.0726132
-0.0868177
-0.0942463
-0.0963168
-0.0932047
-0.08496
-0.0735314
-0.0576627
-0.0405219
-0.0199447
0
0
0.0378148
0.0751131
0.111557
0.146665
0.180002
0.211324
0.240289
0.266625
0.290233
0.310951
0.328693
0.343499
0.355376
0.364391
0.370681
0.375197
0.361312
0.326337
0.271232
0.201296
0.124906
0.0509956
-0.0126721
-0.0590048
-0.0830536
-0.0847713
-0.0679408
-0.0377467
0
0
0.0183736
0.036745
0.0549576
0.0730091
0.090904
0.108484
0.125754
0.14272
0.159234
0.175307
0.190946
0.206023
0.220549
0.234539
0.24788
0.260594
0.272694
0.284093
0.294813
0.304874
0.314207
0.322842
0.330798
0.338031
0.344568
0.350434
0.355601
0.3601
0.363954
0.367155
0.372703
0.374127
0.371052
0.363534
0.349956
0.332389
0.308012
0.281093
0.247806
0.214275
0.175911
0.139805
0.100988
0.0664741
0.0314436
0.00221644
-0.0251483
-0.0456782
-0.0621998
-0.0720232
-0.0768748
-0.0764229
-0.0711092
-0.0623907
-0.0494493
-0.034987
-0.0172966
0
0
0.0357234
0.0709982
0.105543
0.138936
0.170794
0.200909
0.228971
0.254727
0.278085
0.298885
0.317027
0.332537
0.345397
0.355642
0.363385
0.372611
0.365099
0.337606
0.290019
0.226327
0.153878
0.0812848
0.0166056
-0.0326973
-0.0612124
-0.0682038
-0.0569104
-0.0322576
0
0
0.0173703
0.0347434
0.0519751
0.0690678
0.0860302
0.102716
0.119135
0.135293
0.151057
0.166438
0.181446
0.19596
0.209994
0.223562
0.236558
0.249002
0.260909
0.272193
0.282874
0.292974
0.302422
0.311244
0.31946
0.327021
0.333953
0.340279
0.345964
0.351039
0.355524
0.359403
0.366988
0.370701
0.370543
0.366076
0.356119
0.342071
0.321561
0.298103
0.268283
0.237545
0.201644
0.167222
0.129562
0.095521
0.0604019
0.0305797
0.00204972
-0.0199894
-0.0385576
-0.0505616
-0.0580027
-0.0600696
-0.0575664
-0.0514712
-0.0413829
-0.0295441
-0.0146903
0
0
0.0338076
0.0672232
0.100012
0.131803
0.162256
0.191194
0.218337
0.243451
0.266453
0.287184
0.305541
0.321536
0.335136
0.346352
0.355274
0.368467
0.366538
0.345848
0.305387
0.247944
0.179816
0.109138
0.0440815
-0.00761384
-0.0401252
-0.0520632
-0.0461014
-0.0268609
0
0
0.0164517
0.03291
0.0492416
0.0654528
0.0815552
0.0974132
0.113039
0.128444
0.1435
0.158223
0.172624
0.186589
0.200133
0.213273
0.225905
0.238051
0.249726
0.260845
0.27143
0.281499
0.290983
0.299908
0.30829
0.31608
0.3233
0.329974
0.336062
0.341592
0.346583
0.351015
0.360291
0.365947
0.368316
0.36654
0.359835
0.349007
0.332107
0.311952
0.285527
0.257608
0.224296
0.191748
0.155512
0.12222
0.0873234
0.0571902
0.027791
0.00449872
-0.0158639
-0.0298457
-0.0396928
-0.0441414
-0.0443307
-0.040773
-0.0334642
-0.0241939
-0.0121261
0
0
0.032053
0.0637614
0.0949285
0.125227
0.154355
0.182161
0.20839
0.232829
0.255401
0.275955
0.294384
0.310695
0.324838
0.33681
0.346681
0.363201
0.366144
0.351605
0.317838
0.266554
0.203004
0.13473
0.0698542
0.016293
-0.0197747
-0.0363453
-0.0355137
-0.0215572
0
0
0.0156107
0.031231
0.0467372
0.0621384
0.0774486
0.092542
0.107433
0.122134
0.136527
0.150628
0.164451
0.177886
0.190953
0.203666
0.215928
0.22776
0.239178
0.250099
0.260545
0.270534
0.279997
0.288957
0.297433
0.305372
0.312797
0.319727
0.326123
0.332009
0.337404
0.342283
0.352956
0.360256
0.364806
0.365394
0.361597
0.353698
0.340145
0.323113
0.299973
0.274855
0.244202
0.213663
0.17906
0.146747
0.112341
0.0821478
0.0521463
0.0278351
0.00591209
-0.00985689
-0.0219351
-0.0286331
-0.0314001
-0.030296
-0.0256936
-0.018937
-0.00960443
0
0
0.0304462
0.0605881
0.0902606
0.119174
0.147056
0.173782
0.199119
0.222869
0.244966
0.265266
0.28366
0.30015
0.314681
0.327233
0.337864
0.357162
0.364343
0.355339
0.327817
0.28253
0.223717
0.158239
0.0940249
0.0390739
-0.00014106
-0.0210444
-0.0251468
-0.0163471
0
0
0.0148417
0.0296953
0.0444456
0.059104
0.0736863
0.088075
0.102286
0.116335
0.130109
0.143626
0.156902
0.169833
0.182439
0.194735
0.206629
0.218141
0.229289
0.239991
0.250269
0.260142
0.26954
0.278487
0.287001
0.295027
0.302588
0.309703
0.316328
0.322489
0.328202
0.333439
0.345261
0.353946
0.360371
0.363028
0.361819
0.356572
0.3461
0.331998
0.312002
0.289629
0.261656
0.233214
0.200401
0.169252
0.135563
0.105529
0.075164
0.0500476
0.0267811
0.0094047
-0.00473663
-0.0135552
-0.018786
-0.0200506
-0.0180798
-0.0137796
-0.00712836
0
0
0.0289754
0.0576805
0.0859771
0.113607
0.140326
0.166028
0.190502
0.213567
0.235164
0.255155
0.273434
0.290001
0.304794
0.317784
0.329017
0.350628
0.361486
0.357449
0.335721
0.296218
0.242214
0.179834
0.116696
0.0607823
0.0187982
-0.00615343
-0.0149994
-0.0112308
0
0
0.0141372
0.0282883
0.0423452
0.0563213
0.0702338
0.0839728
0.0975557
0.110998
0.124195
0.137166
0.149927
0.16238
0.174544
0.186437
0.19797
0.209163
0.220034
0.230506
0.240597
0.250329
0.259631
0.268528
0.277037
0.285103
0.292747
0.299988
0.306782
0.313152
0.319114
0.324637
0.3374
0.347251
0.355289
0.359757
0.360852
0.358002
0.350362
0.338999
0.321998
0.302293
0.276988
0.250698
0.219791
0.189956
0.157174
0.12749
0.0969719
0.0712409
0.0468265
0.0280061
0.011955
0.00113405
-0.0064562
-0.0100121
-0.0106053
-0.0087101
-0.00469249
0
0
0.0276297
0.0550182
0.0820499
0.108493
0.134129
0.158868
0.182517
0.20491
0.225996
0.245644
0.263752
0.280316
0.295273
0.308585
0.320292
0.343822
0.357866
0.358275
0.341897
0.30793
0.258742
0.199687
0.137972
0.0814742
0.0370678
0.00833616
-0.00506953
-0.00620829
0
0
0.0134931
0.0270014
0.0404237
0.0537746
0.0670724
0.0802138
0.0932174
0.106099
0.118762
0.131224
0.143502
0.155504
0.16725
0.178757
0.189941
0.200822
0.211418
0.221653
0.231548
0.241122
0.250308
0.259128
0.2676
0.275668
0.283354
0.290677
0.29759
0.304115
0.310269
0.316017
0.329549
0.340379
0.3498
0.35585
0.358989
0.358298
0.35325
0.344432
0.330262
0.313128
0.29045
0.26633
0.237407
0.209
0.177281
0.148108
0.117621
0.0914465
0.066063
0.0459508
0.0281355
0.0154265
0.00557952
-0.000190191
-0.0032781
-0.00373441
-0.00229971
0
0
0.0263996
0.0525829
0.0784536
0.103803
0.128434
0.15227
0.175137
0.19688
0.217456
0.236742
0.254639
0.271142
0.286187
0.29973
0.311805
0.336925
0.353727
0.358109
0.346657
0.317955
0.273532
0.217961
0.157956
0.101207
0.0546942
0.0224339
0.00464502
-0.00127946
0
0
0.0129047
0.0258258
0.0386678
0.0514466
0.0641811
0.0767741
0.0892449
0.10161
0.113778
0.125768
0.137596
0.149177
0.160529
0.17167
0.18252
0.193098
0.203424
0.213424
0.223118
0.232525
0.241581
0.250306
0.258718
0.266762
0.274459
0.281828
0.28882
0.295458
0.301758
0.307684
0.32184
0.333492
0.3441
0.35153
0.356481
0.357733
0.355049
0.348589
0.337084
0.32241
0.302293
0.280335
0.253441
0.226545
0.196013
0.167486
0.13719
0.110723
0.0845312
0.0632664
0.0438219
0.0293324
0.0173265
0.00941781
0.00390276
0.0011477
4.99239e-05
0
0
0.0252767
0.0503586
0.0751655
0.0995091
0.123211
0.146206
0.168337
0.189458
0.209535
0.228452
0.246111
0.262512
0.277586
0.291288
0.303645
0.33008
0.349272
0.357202
0.350274
0.326553
0.286804
0.234816
0.176753
0.120042
0.0717059
0.0361506
0.0141471
0.00355598
0
0
0.0123682
0.0247536
0.037066
0.0493222
0.0615416
0.0736325
0.0856144
0.0975053
0.109217
0.12077
0.132182
0.143369
0.154352
0.165149
0.175682
0.185972
0.196037
0.205807
0.215301
0.224538
0.233456
0.242074
0.250411
0.258412
0.266097
0.273484
0.280526
0.287243
0.293653
0.299716
0.314379
0.32672
0.338346
0.346983
0.353541
0.356539
0.356011
0.351728
0.342721
0.330387
0.31275
0.292926
0.26808
0.24275
0.213499
0.185729
0.155758
0.129131
0.102274
0.079982
0.0590325
0.0428629
0.0287908
0.018815
0.0109385
0.00593663
0.00235647
0
0
0.0242547
0.0483332
0.0721691
0.0955915
0.118438
0.140655
0.162097
0.182631
0.202227
0.220776
0.238186
0.254455
0.269516
0.28332
0.295894
0.323415
0.344676
0.355772
0.352988
0.333957
0.298749
0.25039
0.194447
0.138018
0.0881145
0.049483
0.0234298
0.00829328
0
0
0.01188
0.023778
0.0356082
0.0473882
0.0591379
0.0707703
0.0823053
0.0937613
0.105055
0.116206
0.127233
0.138056
0.148696
0.159172
0.169407
0.179424
0.189241
0.198788
0.208087
0.217156
0.225933
0.234439
0.242691
0.250635
0.258291
0.265677
0.272745
0.279516
0.286007
0.292177
0.307251
0.320171
0.332674
0.342365
0.350351
0.354919
0.356353
0.354078
0.347405
0.33729
0.322039
0.304302
0.281497
0.257767
0.229866
0.202939
0.173405
0.146731
0.119334
0.096128
0.0737868
0.0560302
0.0399791
0.0280049
0.0178306
0.0106329
0.00462003
0
0
0.023325
0.04649
0.0694403
0.0920204
0.114082
0.135581
0.156383
0.176365
0.195503
0.213694
0.230849
0.246969
0.261987
0.275852
0.288588
0.317012
0.340076
0.354006
0.355022
0.340402
0.309589
0.264869
0.21118
0.155237
0.103988
0.0624737
0.0325177
0.0129436
0
0
0.0114373
0.022893
0.0342857
0.0456334
0.0569562
0.0681715
0.0792994
0.0903588
0.10127
0.112053
0.122727
0.133216
0.143539
0.153716
0.163675
0.173437
0.183019
0.192356
0.201467
0.210373
0.219011
0.227402
0.235564
0.243444
0.25106
0.258432
0.26551
0.272316
0.278865
0.285118
0.300526
0.313936
0.327195
0.337813
0.347066
0.353048
0.356269
0.355844
0.351347
0.343326
0.330359
0.31465
0.293862
0.271742
0.245236
0.219218
0.190213
0.163584
0.135756
0.111736
0.0881052
0.0688472
0.0508987
0.0369915
0.0245808
0.0152373
0.00684078
0
0
0.0224834
0.0448209
0.0669679
0.0887821
0.110127
0.130969
0.151181
0.170651
0.189359
0.207207
0.224112
0.240075
0.25503
0.268926
0.281785
0.310962
0.335599
0.352069
0.356566
0.346079
0.31949
0.278377
0.227032
0.171742
0.11934
0.075121
0.0414044
0.0175023
0
0
0.0110375
0.0220939
0.0330912
0.0440481
0.0549849
0.0658227
0.0765818
0.0872813
0.0978452
0.108294
0.118646
0.128828
0.138861
0.148764
0.158468
0.167993
0.177357
0.186497
0.195432
0.204182
0.212686
0.220965
0.229037
0.236849
0.24442
0.251768
0.258845
0.265671
0.272263
0.27858
0.294263
0.308089
0.322007
0.33344
0.343826
0.351082
0.355931
0.357209
0.354738
0.348689
0.337898
0.324146
0.305333
0.284817
0.25973
0.234667
0.206259
0.179755
0.151586
0.126839
0.102009
0.0813276
0.0615576
0.045779
0.0311912
0.0197505
0.00901894
0
0
0.0217255
0.0433174
0.0647396
0.0858616
0.106558
0.126801
0.146475
0.165474
0.183783
0.20131
0.217975
0.233781
0.248663
0.26257
0.275522
0.305336
0.331356
0.350107
0.357794
0.351171
0.328623
0.291054
0.242103
0.187594
0.134202
0.0874387
0.0500944
0.0219704
0
0
0.0106786
0.0213764
0.0320188
0.0426246
0.0532144
0.0637126
0.0741397
0.0845151
0.0947656
0.104912
0.114972
0.124878
0.134648
0.144302
0.153772
0.163081
0.172245
0.181203
0.189975
0.198579
0.206957
0.215129
0.223114
0.230858
0.238382
0.245702
0.252772
0.25961
0.266233
0.272601
0.288513
0.302699
0.317192
0.329349
0.340749
0.349157
0.355493
0.358339
0.357751
0.353554
0.344829
0.332956
0.316064
0.297129
0.273465
0.249384
0.221624
0.195303
0.166871
0.141469
0.115521
0.0934856
0.0719639
0.0543722
0.0376638
0.0241735
0.0111548
0
0
0.0210477
0.0419722
0.0627454
0.0832466
0.10336
0.123065
0.142252
0.160823
0.178768
0.195999
0.21244
0.228096
0.242902
0.256808
0.269834
0.300195
0.32744
0.348251
0.358864
0.355849
0.33715
0.303034
0.256492
0.202856
0.148609
0.0994414
0.0585923
0.0263488
0
0
0.0103594
0.0207382
0.0310647
0.041358
0.0516388
0.0618345
0.0719657
0.0820519
0.0920228
0.101899
0.111699
0.121356
0.13089
0.14032
0.149581
0.158695
0.167678
0.176472
0.185094
0.193566
0.201828
0.209903
0.217806
0.225487
0.232965
0.240257
0.247316
0.254161
0.260809
0.267219
0.283328
0.297827
0.312831
0.325635
0.337948
0.347401
0.355094
0.359384
0.360544
0.35808
0.351307
0.341228
0.326187
0.308796
0.286541
0.263452
0.236369
0.210276
0.181639
0.155645
0.128648
0.105323
0.0821151
0.0627665
0.043994
0.0285026
0.0132463
0
0
0.020447
0.0407801
0.0609775
0.0809277
0.100523
0.119748
0.138501
0.15669
0.174308
0.191273
0.207511
0.223029
0.237764
0.251666
0.264753
0.295596
0.323939
0.346619
0.359921
0.360271
0.345222
0.314446
0.270294
0.21759
0.162595
0.111144
0.0669033
0.0306385
0
0
0.0100778
0.0201752
0.0302231
0.0402407
0.0502489
0.0601776
0.0700475
0.0798782
0.0896019
0.099239
0.108809
0.118246
0.127571
0.136803
0.145878
0.154818
0.163641
0.172288
0.180779
0.189132
0.197292
0.205278
0.213109
0.220733
0.228169
0.235436
0.242485
0.249337
0.256007
0.262453
0.278738
0.293519
0.308982
0.322371
0.335514
0.345922
0.354862
0.360486
0.363271
0.36243
0.3575
0.349127
0.335866
0.319971
0.299099
0.276996
0.250606
0.22477
0.195971
0.169433
0.141443
0.116881
0.0920429
0.0709859
0.0501985
0.0327485
0.0152987
0
0
0.0199215
0.0397371
0.0594307
0.0788983
0.0980398
0.116844
0.135217
0.153071
0.170402
0.187134
0.203194
0.218591
0.233265
0.247166
0.260311
0.291592
0.320933
0.345319
0.361099
0.364585
0.352984
0.325415
0.283603
0.231858
0.176194
0.122562
0.0750324
0.0348408
0
0
0.00983351
0.0196868
0.0294928
0.0392713
0.0490428
0.0587397
0.0683828
0.0779918
0.087501
0.0969306
0.106301
0.115547
0.12469
0.13375
0.142665
0.151455
0.160139
0.168659
0.177036
0.185287
0.193359
0.20127
0.209039
0.216615
0.224018
0.231264
0.238308
0.245167
0.251859
0.258342
0.274791
0.289832
0.305716
0.319641
0.333543
0.344827
0.354915
0.361772
0.366067
0.366742
0.363545
0.356787
0.345222
0.330765
0.311231
0.290094
0.264395
0.238828
0.209896
0.182851
0.153915
0.128163
0.101745
0.0790261
0.0562727
0.0369075
0.0173098
0
0
0.01947
0.0388409
0.0581015
0.0771546
0.0959063
0.11435
0.132396
0.149964
0.167052
0.183586
0.199498
0.214798
0.229426
0.243335
0.25654
0.288235
0.318497
0.344454
0.362523
0.36893
0.360574
0.336062
0.296513
0.245721
0.189439
0.133711
0.0829851
0.0389569
0
0
0.00962606
0.019272
0.0288728
0.0384481
0.0480187
0.0575189
0.0669694
0.0763903
0.0857175
0.0949715
0.104172
0.113257
0.122247
0.131162
0.139941
0.148605
0.157173
0.165588
0.17387
0.182038
0.190037
0.197888
0.205609
0.213149
0.220528
0.227763
0.234807
0.24168
0.248398
0.254918
0.271529
0.286817
0.303095
0.317517
0.332123
0.344216
0.355365
0.363365
0.369064
0.371153
0.369579
0.364342
0.354382
0.341294
0.323043
0.302838
0.27781
0.252511
0.223461
0.195932
0.166087
0.139183
0.11123
0.0868926
0.0622192
0.0409809
0.0192801
0
0
0.019092
0.0380909
0.0569893
0.0756958
0.0941221
0.112265
0.130042
0.147373
0.164263
0.180638
0.196436
0.211665
0.226269
0.2402
0.253473
0.285576
0.316705
0.344122
0.364314
0.37344
0.368126
0.346503
0.309113
0.259239
0.202366
0.144606
0.0907667
0.0429879
0
0
0.00945548
0.018931
0.0283629
0.0377712
0.0471768
0.0565153
0.0658078
0.0750744
0.0842524
0.0933626
0.102425
0.111379
0.120244
0.129042
0.137712
0.146275
0.154751
0.163083
0.171291
0.179396
0.187342
0.195149
0.202837
0.210355
0.217722
0.224956
0.232011
0.238904
0.245654
0.252217
0.268997
0.284527
0.301183
0.316074
0.331338
0.344186
0.356322
0.365382
0.372386
0.375793
0.375735
0.371922
0.363472
0.351675
0.334638
0.315316
0.290926
0.26588
0.236711
0.208712
0.177982
0.149957
0.120509
0.0945908
0.0680409
0.0449699
0.02121
0
0
0.0187885
0.0374886
0.0560962
0.074525
0.0926915
0.110596
0.12816
0.145309
0.162048
0.178308
0.194028
0.209218
0.223824
0.237795
0.251151
0.283671
0.315631
0.344417
0.366584
0.378236
0.375758
0.35684
0.321478
0.272459
0.214993
0.155251
0.0983743
0.0469309
0
0
0.0093223
0.0186647
0.0279649
0.0372428
0.0465194
0.0557318
0.0649011
0.0740475
0.0831098
0.0921086
0.101064
0.109917
0.118688
0.127397
0.135985
0.144474
0.152883
0.161157
0.169315
0.177377
0.185289
0.193073
0.200745
0.208257
0.215627
0.222874
0.22995
0.236875
0.243666
0.25028
0.26724
0.283017
0.300044
0.315387
0.331275
0.344831
0.357889
0.367938
0.376156
0.380788
0.38214
0.379654
0.372612
0.36202
0.346116
0.327618
0.303816
0.278994
0.249692
0.221224
0.189623
0.1605
0.12959
0.102126
0.0737404
0.0488758
0.0231001
0
0
0.0185603
0.0370355
0.0554245
0.073645
0.0916177
0.109347
0.126757
0.143778
0.160417
0.176608
0.192291
0.207479
0.222115
0.236153
0.249611
0.282573
0.315349
0.345435
0.369451
0.383454
0.383612
0.367209
0.333723
0.285467
0.227384
0.165685
0.10583
0.0507958
0
0
0.0092276
0.0184753
0.0276817
0.0368667
0.0460514
0.0551739
0.0642555
0.0733166
0.082297
0.0912177
0.100099
0.108883
0.11759
0.126239
0.134775
0.143218
0.151587
0.159827
0.167959
0.176003
0.183904
0.191684
0.199361
0.206885
0.214275
0.22155
0.228662
0.235632
0.242475
0.249149
0.266312
0.282346
0.299746
0.31553
0.332018
0.346247
0.360172
0.371145
0.380492
0.386261
0.38892
0.387661
0.381919
0.372439
0.357576
0.339828
0.316551
0.291912
0.262449
0.233502
0.201034
0.170829
0.138483
0.109504
0.0793205
0.0526999
0.0249508
0
0
0.0184106
0.0367378
0.0549823
0.0730654
0.0909121
0.10853
0.125849
0.1428
0.159394
0.175566
0.191258
0.206482
0.221185
0.235319
0.248902
0.282346
0.315938
0.347273
0.373026
0.389212
0.391801
0.377704
0.345919
0.298308
0.239556
0.175913
0.113132
0.0545794
0
0
0.00917333
0.0183666
0.0275187
0.0366496
0.0457805
0.0548502
0.0638802
0.0728915
0.0818247
0.0907011
0.0995419
0.108289
0.116963
0.125585
0.134099
0.142525
0.150882
0.159118
0.167251
0.175301
0.183215
0.191015
0.198718
0.206275
0.213704
0.221026
0.228191
0.23522
0.24213
0.248878
0.266269
0.28258
0.300362
0.316587
0.333659
0.348532
0.363278
0.375117
0.385515
0.392335
0.396197
0.396064
0.39151
0.383039
0.369113
0.352031
0.329202
0.304689
0.275024
0.245577
0.212238
0.180959
0.147196
0.11673
0.084784
0.0564432
0.0267626
0
0
0.0183444
0.0366038
0.0547798
0.0727976
0.0905874
0.108162
0.125453
0.142397
0.159004
0.175212
0.190962
0.206269
0.221078
0.235343
0.249081
0.283057
0.317482
0.35003
0.377423
0.395632
0.400446
0.388434
0.358149
0.311037
0.251543
0.185948
0.120284
0.0582828
0
0
0.00916283
0.0183451
0.0274844
0.036602
0.045718
0.0547726
0.0637874
0.0727846
0.0817055
0.0905723
0.0994066
0.108151
0.116826
0.125454
0.133978
0.142419
0.150797
0.159057
0.16722
0.175305
0.18326
0.191104
0.198858
0.206471
0.213962
0.22135
0.228588
0.235695
0.242688
0.249523
0.267179
0.28379
0.301973
0.318643
0.336292
0.351789
0.367317
0.379969
0.391344
0.399133
0.404094
0.404982
0.401497
0.393926
0.380823
0.364309
0.341838
0.317384
0.287461
0.257482
0.223255
0.190903
0.15574
0.123809
0.0901336
0.0601069
0.028536
0
0
0.0183697
0.0366462
0.0548303
0.0728543
0.0906573
0.108258
0.125592
0.142595
0.15928
0.175584
0.191448
0.206887
0.221848
0.236282
0.25021
0.284785
0.320072
0.353812
0.382759
0.402837
0.409667
0.399503
0.370496
0.323711
0.263375
0.195805
0.127291
0.0619071
0
0
0.00920179
0.0184208
0.0275939
0.0367389
0.0458791
0.0549543
0.0639895
0.0730071
0.081951
0.0908434
0.0997075
0.108485
0.117199
0.125869
0.134439
0.142929
0.151361
0.159679
0.167904
0.176055
0.18408
0.191999
0.19983
0.207525
0.215101
0.22258
0.229911
0.237115
0.244211
0.251152
0.269111
0.286054
0.30466
0.321788
0.340014
0.35612
0.372395
0.385813
0.398094
0.406769
0.412725
0.414525
0.411982
0.405191
0.392785
0.37673
0.354511
0.330035
0.299788
0.269234
0.234096
0.200666
0.164112
0.130738
0.0953662
0.0636879
0.0302697
0
0
0.0185037
0.0368849
0.0551472
0.0732442
0.091132
0.108835
0.126289
0.143428
0.160262
0.176728
0.192767
0.208394
0.223557
0.238206
0.252362
0.287613
0.323806
0.35873
0.389155
0.410953
0.419583
0.411016
0.383039
0.336381
0.275082
0.205499
0.134159
0.0654529
0
0
0.0093075
0.0186221
0.02787
0.0370848
0.0462783
0.0554053
0.0644899
0.0735614
0.0825638
0.0915208
0.100455
0.109309
0.118102
0.126856
0.135513
0.144094
0.152619
0.161032
0.169354
0.177606
0.185733
0.193757
0.201697
0.209501
0.217191
0.224785
0.232234
0.239559
0.246778
0.253845
0.272155
0.289467
0.30853
0.326134
0.344944
0.36165
0.378646
0.392787
0.405906
0.415389
0.422233
0.424834
0.423102
0.416964
0.405117
0.389401
0.367316
0.342724
0.312073
0.280891
0.244805
0.210282
0.172342
0.137538
0.100496
0.0671947
0.0319682
0
0
0.0187784
0.0373389
0.0557233
0.0739536
0.0920099
0.10991
0.127576
0.144937
0.162001
0.178702
0.194983
0.21086
0.22628
0.241193
0.255621
0.291638
0.328794
0.364905
0.39674
0.42011
0.430316
0.423076
0.395858
0.349102
0.286695
0.215041
0.14089
0.0689203
0
0
0.00948845
0.0189785
0.0283581
0.0376411
0.0469054
0.0560805
0.0652469
0.074409
0.08352
0.0925963
0.101656
0.110639
0.119565
0.128453
0.137245
0.145961
0.154622
0.163172
0.171631
0.180021
0.188287
0.19645
0.20453
0.212476
0.220308
0.228046
0.23564
0.243111
0.250478
0.257693
0.276407
0.294131
0.313686
0.331792
0.351197
0.368501
0.386194
0.401016
0.414908
0.425114
0.432737
0.436021
0.434959
0.429336
0.417898
0.402386
0.380302
0.355489
0.324341
0.292467
0.255391
0.219753
0.180427
0.144202
0.105521
0.0706231
0.0336303
0
0
0.0192702
0.0379872
0.0564542
0.0749189
0.0932808
0.111507
0.1295
0.147181
0.164562
0.181579
0.198174
0.214367
0.230104
0.245336
0.260084
0.29697
0.335156
0.372467
0.40565
0.43044
0.44199
0.435787
0.40903
0.361924
0.29824
0.224443
0.147487
0.0723087
0
0
0.00994219
0.0195526
0.0289303
0.0382161
0.0474573
0.0567875
0.0660964
0.0754652
0.0847814
0.09407
0.103336
0.11252
0.121641
0.130722
0.139701
0.148601
0.157445
0.166175
0.174813
0.18338
0.191823
0.200162
0.208418
0.216538
0.224545
0.232458
0.240226
0.24787
0.255411
0.262799
0.281977
0.300161
0.320254
0.33889
0.358909
0.376807
0.395178
0.410641
0.425237
0.436082
0.444369
0.448211
0.447666
0.442411
0.431215
0.415764
0.393532
0.368379
0.336629
0.303988
0.265873
0.229088
0.188378
0.150732
0.110445
0.0739717
0.0352571
0
0
0.0197369
0.0379404
0.0569423
0.0760559
0.0949823
0.113699
0.132139
0.150242
0.16803
0.185446
0.202433
0.219013
0.235132
0.250742
0.265865
0.303734
0.343029
0.381561
0.416033
0.44209
0.454736
0.449258
0.422635
0.374894
0.309739
0.233709
0.153948
0.0756151
0
0
0.00809046
0.0166178
0.0268433
0.037042
0.0471724
0.0570957
0.0669812
0.0767698
0.0864569
0.0960542
0.105612
0.115061
0.124437
0.133761
0.142977
0.152108
0.16118
0.170133
0.178993
0.18778
0.196439
0.204992
0.213462
0.221793
0.230009
0.23813
0.246104
0.253953
0.261696
0.269286
0.288991
0.307692
0.32837
0.347574
0.368223
0.386727
0.405746
0.421822
0.437039
0.44845
0.45726
0.461545
0.461333
0.456303
0.445155
0.429614
0.407065
0.38144
0.348976
0.315472
0.276273
0.238289
0.196205
0.157124
0.115272
0.0772362
0.0368501
0
0
0.012293
0.0344388
0.0548388
0.0742282
0.0930839
0.111605
0.129805
0.147656
0.165196
0.182374
0.199138
0.215513
0.231447
0.246892
0.261873
0.299471
0.338662
0.377358
0.412371
0.439437
0.453578
0.449968
0.425317
0.379258
0.315083
0.239047
0.158244
0.0780162
0
0
0.00805681
0.0162652
0.0257338
0.035016
0.044413
0.0537063
0.0630007
0.0722381
0.0813796
0.0904447
0.0994712
0.108399
0.117258
0.12607
0.134784
0.143421
0.152005
0.160481
0.168872
0.1772
0.185411
0.193527
0.201569
0.209486
0.217298
0.225027
0.232622
0.240104
0.247493
0.254742
0.273599
0.291546
0.311468
0.330047
0.350144
0.368269
0.387083
0.40316
0.418671
0.430594
0.440311
0.445687
0.447012
0.443605
0.434481
0.420897
0.40055
0.376888
0.346391
0.314484
0.276645
0.239615
0.198084
0.159224
0.117159
0.0787249
0.0376024
0
0
0.0191007
0.0358357
0.0530592
0.070579
0.0880524
0.105399
0.122528
0.139376
0.155961
0.172229
0.188128
0.203681
0.218838
0.233556
0.247856
0.283879
0.321692
0.359424
0.394157
0.421898
0.437863
0.437216
0.416365
0.374342
0.313684
0.239995
0.160063
0.0793562
0
0
0.00903388
0.0178055
0.0265375
0.0351211
0.0435798
0.0520565
0.0604528
0.0689144
0.077339
0.0857609
0.0941775
0.102538
0.110853
0.119144
0.127354
0.135503
0.143611
0.151626
0.159567
0.167454
0.175237
0.182937
0.190572
0.198094
0.205523
0.212877
0.220111
0.227244
0.234293
0.241215
0.259254
0.27647
0.295644
0.313599
0.333115
0.350829
0.36936
0.385368
0.401037
0.413357
0.423792
0.430111
0.43275
0.430807
0.423492
0.411725
0.393422
0.371626
0.343035
0.31269
0.27625
0.240198
0.199339
0.160771
0.118652
0.07992
0.0382258
0
0
0.0171545
0.0340474
0.0506336
0.0671158
0.0834843
0.0997659
0.115888
0.131784
0.147462
0.162867
0.177946
0.19272
0.20714
0.221164
0.234814
0.269316
0.305764
0.342481
0.376797
0.404979
0.422447
0.424399
0.407001
0.368764
0.311521
0.240232
0.161349
0.0804129
0
0
0.00824548
0.0165322
0.0247613
0.0329498
0.0411087
0.0491833
0.0572401
0.065274
0.0732652
0.0812213
0.0891693
0.0970568
0.104904
0.112731
0.120486
0.128189
0.135857
0.143443
0.150963
0.158439
0.165821
0.173128
0.18038
0.187529
0.194595
0.201596
0.208487
0.215286
0.222012
0.228622
0.245876
0.262384
0.280825
0.298156
0.317081
0.334352
0.35255
0.368414
0.384143
0.39674
0.407748
0.414852
0.418627
0.417975
0.412289
0.402183
0.38578
0.365748
0.338987
0.310173
0.27514
0.240102
0.199997
0.161805
0.11976
0.0808417
0.0387212
0
0
0.016034
0.0319467
0.0477734
0.063463
0.0789978
0.0944149
0.109669
0.124712
0.139561
0.154166
0.168479
0.182519
0.196243
0.209609
0.222638
0.255673
0.290776
0.326442
0.360226
0.38865
0.407338
0.411555
0.397292
0.3626
0.308664
0.239817
0.162141
0.0812049
0
0
0.00776996
0.01555
0.0232918
0.0310169
0.0387392
0.0464162
0.0540612
0.0617018
0.0692855
0.0768362
0.084374
0.0918512
0.0992886
0.106705
0.114054
0.121353
0.128622
0.135815
0.142949
0.150044
0.157052
0.163994
0.170887
0.177687
0.184411
0.191078
0.197644
0.204128
0.210547
0.216859
0.23336
0.249184
0.26691
0.283624
0.301949
0.318756
0.336577
0.35224
0.367942
0.380718
0.392167
0.39992
0.404669
0.405152
0.400928
0.392338
0.377697
0.359326
0.334317
0.306998
0.27337
0.239377
0.200092
0.162358
0.120499
0.0815053
0.0390932
0
0
0.0150981
0.0301344
0.0451157
0.0599974
0.0747375
0.089362
0.103829
0.118097
0.132186
0.146052
0.159653
0.173007
0.186075
0.198819
0.211258
0.242886
0.276669
0.311261
0.344425
0.372918
0.392575
0.398753
0.387318
0.355931
0.305182
0.238793
0.162464
0.0817442
0
0
0.00732728
0.014673
0.021989
0.0292919
0.0366008
0.043868
0.0511133
0.0583545
0.0655467
0.0727084
0.0798589
0.0869527
0.0940088
0.101046
0.108019
0.114946
0.121846
0.128675
0.135451
0.142191
0.148852
0.155453
0.162009
0.16848
0.174883
0.181235
0.187494
0.193679
0.199805
0.205834
0.221615
0.23678
0.253809
0.269915
0.287637
0.303964
0.321375
0.336789
0.352391
0.365259
0.377036
0.385317
0.390894
0.392371
0.389453
0.382243
0.369231
0.352422
0.329087
0.30322
0.270989
0.238066
0.199656
0.162457
0.120886
0.0819233
0.0393461
0
0
0.0142696
0.0284882
0.0426719
0.0567742
0.0707518
0.0846262
0.0983561
0.111901
0.125283
0.13846
0.151394
0.164105
0.176555
0.188709
0.200587
0.230865
0.263359
0.296864
0.329334
0.357749
0.378155
0.38602
0.37713
0.348816
0.301128
0.237205
0.162344
0.0820431
0
0
0.006932
0.0138812
0.020803
0.0277152
0.0346352
0.0415188
0.0483835
0.0552474
0.0620665
0.0688588
0.075642
0.0823731
0.0890698
0.0957497
0.10237
0.10895
0.115504
0.121993
0.128433
0.134841
0.141177
0.147457
0.153698
0.15986
0.16596
0.172014
0.177983
0.183885
0.189733
0.195493
0.210585
0.225115
0.241469
0.256977
0.274099
0.289936
0.306911
0.322036
0.337478
0.350364
0.362369
0.37107
0.377344
0.379683
0.377926
0.371966
0.360455
0.345105
0.323361
0.2989
0.268048
0.236209
0.198723
0.162125
0.120937
0.082106
0.0394841
0
0
0.0135075
0.0269709
0.0404072
0.0537737
0.0670294
0.0801939
0.0932275
0.106092
0.118808
0.131336
0.143643
0.155746
0.167612
0.179207
0.190551
0.219532
0.250768
0.283181
0.314898
0.343111
0.36407
0.373374
0.366767
0.341305
0.296551
0.235088
0.161806
0.0821125
0
0
0.00656553
0.0131478
0.0197051
0.0262539
0.0328113
0.0393355
0.0458433
0.0523517
0.0588193
0.065263
0.0716996
0.0780882
0.0844459
0.0907891
0.0970777
0.103328
0.109558
0.115726
0.12185
0.127945
0.133973
0.139951
0.145894
0.151764
0.157577
0.163349
0.169043
0.174675
0.180259
0.185762
0.200195
0.214115
0.229813
0.244736
0.261261
0.276603
0.293123
0.307926
0.323156
0.335997
0.348143
0.357168
0.36402
0.367103
0.366375
0.361543
0.351411
0.337424
0.31719
0.294085
0.264591
0.233844
0.197321
0.161387
0.120668
0.0820642
0.0395121
0
0
0.0128001
0.0255602
0.0382981
0.0509745
0.063551
0.0760465
0.0884236
0.100646
0.112734
0.124652
0.136365
0.147894
0.159206
0.170269
0.181104
0.208841
0.238853
0.270174
0.301093
0.328997
0.350339
0.360856
0.356285
0.33346
0.291505
0.232482
0.160872
0.0819621
0
0
0.00622382
0.0124637
0.0186801
0.0248892
0.0311071
0.0372943
0.043467
0.0496413
0.0557779
0.0618931
0.0680028
0.0740684
0.0801058
0.086131
0.0921058
0.0980461
0.103968
0.109833
0.115657
0.121457
0.127194
0.132885
0.138545
0.144138
0.149679
0.155183
0.160614
0.165989
0.171322
0.176578
0.19038
0.203711
0.218773
0.233123
0.249058
0.2639
0.279949
0.294406
0.30938
0.322121
0.334331
0.343596
0.350921
0.354641
0.35482
0.351003
0.342136
0.329419
0.310615
0.288815
0.260653
0.231004
0.195478
0.160262
0.120094
0.0818075
0.0394343
0
0
0.0121386
0.0242405
0.0363236
0.0483515
0.0602887
0.0721535
0.083911
0.0955273
0.107021
0.11836
0.129512
0.140495
0.15128
0.161837
0.172185
0.198726
0.227547
0.257782
0.287867
0.315372
0.336945
0.348471
0.345711
0.325317
0.286029
0.22942
0.159563
0.0816019
0
0
0.0059038
0.011823
0.0177202
0.0236107
0.0295102
0.0353811
0.0412389
0.047099
0.0529243
0.0587302
0.064532
0.0702929
0.0760283
0.0817532
0.0874316
0.0930786
0.098709
0.104287
0.109829
0.115348
0.12081
0.126229
0.13162
0.13695
0.142232
0.14748
0.152662
0.157792
0.162884
0.167905
0.181101
0.193865
0.208311
0.222102
0.237454
0.251797
0.267364
0.281453
0.296134
0.308728
0.320937
0.330366
0.338068
0.342327
0.343299
0.340393
0.332679
0.321141
0.303686
0.283139
0.256278
0.227725
0.193223
0.158772
0.11923
0.0813458
0.0392551
0
0
0.0115169
0.0229998
0.0344667
0.0458837
0.0572176
0.0684866
0.079658
0.0907001
0.101631
0.11242
0.123038
0.133502
0.143785
0.153857
0.163739
0.189129
0.21679
0.245946
0.275167
0.302195
0.323866
0.33622
0.335062
0.316906
0.280157
0.225929
0.157897
0.0810406
0
0
0.00560273
0.0112201
0.0168169
0.0224076
0.0280072
0.0335801
0.0391412
0.0447051
0.0502366
0.0557505
0.0612614
0.0667343
0.072184
0.0776249
0.0830226
0.0883917
0.0937463
0.0990527
0.104325
0.109578
0.114778
0.119939
0.125075
0.130153
0.135188
0.140193
0.145137
0.150032
0.154893
0.159689
0.172303
0.184519
0.198367
0.211612
0.22639
0.240234
0.255312
0.269015
0.283374
0.29578
0.307929
0.317455
0.325449
0.330159
0.331821
0.329726
0.323064
0.312619
0.296434
0.277087
0.251497
0.224035
0.190578
0.156938
0.118091
0.0806878
0.0389788
0
0
0.0109314
0.0218313
0.0327173
0.0435579
0.0543223
0.0650281
0.075645
0.0861431
0.0965405
0.106808
0.116918
0.126887
0.13669
0.1463
0.155735
0.180016
0.206548
0.234637
0.262973
0.289459
0.31111
0.324126
0.324375
0.308272
0.27393
0.222043
0.155896
0.0802877
0
0
0.00531831
0.0106506
0.0159635
0.0212709
0.026587
0.0318782
0.0371585
0.0424421
0.0476956
0.052933
0.0581682
0.0633682
0.068547
0.0737183
0.0788495
0.0839546
0.089047
0.0940947
0.0991115
0.104111
0.109061
0.113975
0.118867
0.123706
0.128505
0.133277
0.137991
0.142662
0.147302
0.151881
0.163934
0.175621
0.188889
0.2016
0.215812
0.229159
0.243741
0.257046
0.271056
0.283238
0.295276
0.30484
0.31305
0.31813
0.320387
0.319014
0.313308
0.303873
0.288885
0.270687
0.246334
0.219956
0.187564
0.154774
0.116687
0.0798414
0.0386089
0
0
0.0103778
0.0207263
0.0310627
0.0413577
0.0515825
0.0617544
0.0718449
0.0818262
0.0917157
0.101486
0.111111
0.120609
0.129953
0.139119
0.148125
0.171336
0.196769
0.223802
0.251236
0.277122
0.298651
0.312179
0.313657
0.299434
0.267372
0.217784
0.153576
0.0793511
0
0
0.00504917
0.0101117
0.0151559
0.0201951
0.0252428
0.0302672
0.0352817
0.0402997
0.0452896
0.0502648
0.0552386
0.0601796
0.0651012
0.0700165
0.0748945
0.0797485
0.0845915
0.089393
0.094166
0.0989234
0.103635
0.108314
0.112973
0.117583
0.122156
0.126705
0.131201
0.135656
0.140083
0.144454
0.155967
0.167142
0.179846
0.192036
0.205691
0.218545
0.232628
0.245522
0.259162
0.271091
0.282973
0.292523
0.300879
0.306256
0.309021
0.308286
0.303443
0.294942
0.281077
0.263975
0.240823
0.215519
0.184206
0.1523
0.115032
0.0788158
0.0381497
0
0
0.00985237
0.0196774
0.0294918
0.0392684
0.0489802
0.0586441
0.0682334
0.0777221
0.0871271
0.0964228
0.105585
0.11463
0.123533
0.132273
0.140866
0.163042
0.187402
0.213391
0.239909
0.265148
0.286462
0.300367
0.302911
0.290407
0.260505
0.213171
0.150951
0.0782376
0
0
0.00479349
0.00959975
0.0143887
0.019173
0.0239657
0.0287365
0.0334982
0.0382637
0.0430029
0.0477286
0.0524535
0.0571479
0.0618244
0.0664957
0.0711323
0.0757469
0.0803518
0.0849181
0.0894583
0.0939846
0.0984686
0.102923
0.107358
0.111748
0.116105
0.120439
0.124724
0.128972
0.133194
0.137364
0.148356
0.159036
0.17119
0.182871
0.195978
0.208343
0.221924
0.2344
0.247649
0.259299
0.270985
0.280474
0.288914
0.294522
0.297715
0.297541
0.293478
0.285836
0.273024
0.256968
0.234984
0.210742
0.180519
0.14953
0.113137
0.0776177
0.0376044
0
0
0.00935277
0.01868
0.027998
0.0372813
0.0465046
0.0556845
0.064796
0.0738146
0.0827567
0.0915985
0.100317
0.108928
0.117409
0.125738
0.133933
0.155107
0.178422
0.203379
0.228972
0.253522
0.274539
0.288701
0.29216
0.28122
0.253359
0.208231
0.148038
0.0769558
0
0
0.00454964
0.00911146
0.0136569
0.0181982
0.0227476
0.0272763
0.0317969
0.0363213
0.0408211
0.0453085
0.0497957
0.0542543
0.0586966
0.0631345
0.0675401
0.0719255
0.0763024
0.0806434
0.0849603
0.0892649
0.0935301
0.0977677
0.101989
0.106168
0.110316
0.114443
0.118525
0.122573
0.126598
0.130574
0.14106
0.151258
0.162878
0.174059
0.186626
0.198505
0.211584
0.223632
0.236476
0.247822
0.259278
0.268664
0.277133
0.282911
0.28646
0.286775
0.283415
0.276563
0.26474
0.249682
0.228831
0.20564
0.176517
0.146475
0.111011
0.0762528
0.0369757
0
0
0.00887586
0.0177278
0.0265717
0.0353838
0.0441404
0.0528575
0.0615116
0.07008
0.0785784
0.0869845
0.0952763
0.10347
0.111544
0.119478
0.127287
0.14749
0.169783
0.193721
0.218381
0.242204
0.262853
0.27716
0.281396
0.271878
0.245947
0.202978
0.144848
0.0755115
0
0
0.00431667
0.00864494
0.0129578
0.0172667
0.0215836
0.0258811
0.030171
0.0344649
0.0387357
0.0429953
0.0472549
0.0514879
0.0557059
0.0599203
0.0641045
0.0682701
0.0724283
0.0765531
0.0806557
0.0847474
0.0888024
0.0928319
0.0968469
0.100822
0.104769
0.108698
0.112584
0.116438
0.120272
0.12406
0.134056
0.143787
0.154885
0.165577
0.177613
0.189009
0.201584
0.2132
0.225625
0.236648
0.247841
0.257087
0.265534
0.271429
0.275267
0.276005
0.273273
0.267148
0.256249
0.242143
0.22239
0.200236
0.17222
0.143151
0.108665
0.0747295
0.0362676
0
0
0.00841875
0.0168151
0.0252045
0.0335647
0.0418734
0.0501461
0.0583609
0.0664964
0.074568
0.0825544
0.0904352
0.0982258
0.105906
0.113457
0.120893
0.14015
0.161443
0.184372
0.208092
0.231156
0.251371
0.265724
0.27061
0.262382
0.238277
0.197423
0.141391
0.0739094
0
0
0.00409315
0.00819734
0.012287
0.016373
0.0204667
0.0245422
0.0286108
0.0326833
0.0367344
0.0407749
0.044816
0.0488322
0.0528346
0.0568339
0.0608052
0.0647593
0.068707
0.0726235
0.0765196
0.0804059
0.0842581
0.0880868
0.0919025
0.0956812
0.0994335
0.10317
0.106866
0.110533
0.114181
0.117787
0.127308
0.136582
0.14717
0.157383
0.168894
0.179812
0.191883
0.20306
0.215053
0.225735
0.236639
0.24571
0.25409
0.260051
0.264118
0.265218
0.263048
0.257588
0.247556
0.234356
0.21567
0.19454
0.167638
0.139568
0.106106
0.0730524
0.0354823
0
0
0.00797976
0.0159386
0.0238913
0.0318171
0.0396953
0.0475406
0.0553327
0.0630513
0.0707114
0.078293
0.0857769
0.0931779
0.100477
0.107656
0.11473
0.133067
0.15338
0.17531
0.198085
0.220362
0.240084
0.254392
0.259812
0.252751
0.230371
0.191585
0.137681
0.0721572
0
0
0.00387778
0.00776605
0.0116406
0.0155118
0.0193904
0.023252
0.0271071
0.0309663
0.0348053
0.0386347
0.0424648
0.0462718
0.050066
0.0538577
0.0576233
0.0613731
0.0651172
0.0688323
0.0725286
0.0762162
0.079872
0.0835062
0.0871285
0.0907166
0.0942802
0.0978291
0.101341
0.104826
0.108294
0.111722
0.120779
0.129607
0.139695
0.149435
0.160428
0.17087
0.182436
0.19317
0.20472
0.215043
0.225632
0.234499
0.24277
0.248753
0.252992
0.254399
0.252729
0.247879
0.238659
0.226326
0.208676
0.188559
0.162777
0.13573
0.103339
0.071225
0.0346217
0
0
0.00755627
0.0150929
0.0226244
0.030131
0.0375934
0.0450259
0.0524094
0.0597249
0.0669867
0.0741762
0.0812752
0.0882981
0.0952269
0.102045
0.108765
0.126203
0.145552
0.166493
0.188317
0.209781
0.228958
0.243139
0.248986
0.242979
0.22223
0.185471
0.133724
0.0702584
0
0
0.00366978
0.00734951
0.0110163
0.0146801
0.0183509
0.0220058
0.0256547
0.0293076
0.0329417
0.036567
0.0401932
0.0437978
0.0473906
0.0509815
0.0545479
0.0580998
0.0616468
0.0651668
0.0686694
0.0721642
0.0756295
0.0790748
0.0825095
0.0859122
0.0892924
0.0926593
0.0959919
0.0992996
0.102591
0.105847
0.114449
0.122842
0.132438
0.141714
0.152194
0.162162
0.173223
0.183509
0.194606
0.204557
0.214808
0.223442
0.231567
0.23753
0.241892
0.243554
0.242326
0.238034
0.229575
0.218069
0.201427
0.182309
0.157653
0.131653
0.100375
0.0692544
0.0336891
0
0
0.00714585
0.0142734
0.0213964
0.0284965
0.0355557
0.0425877
0.0495745
0.0564984
0.0633731
0.0701811
0.0769055
0.0835599
0.0901274
0.0965922
0.102968
0.119523
0.137922
0.157879
0.178747
0.199373
0.217955
0.231933
0.238111
0.233053
0.213851
0.179083
0.129524
0.0682156
0
0
0.00346794
0.00694531
0.0104105
0.0138729
0.0173421
0.0207963
0.0242451
0.0276978
0.0311329
0.0345599
0.037988
0.041396
0.0447931
0.0481887
0.0515616
0.054921
0.0582762
0.0616062
0.0649202
0.0682273
0.0715069
0.0747681
0.0780198
0.0812417
0.0844428
0.0876319
0.0907891
0.0939232
0.0970429
0.100129
0.108287
0.11625
0.125363
0.134179
0.14415
0.153647
0.164201
0.174035
0.184669
0.194234
0.204126
0.212502
0.220447
0.226353
0.23079
0.232662
0.231823
0.228041
0.220296
0.209582
0.193921
0.175794
0.15227
0.127338
0.0972168
0.0671433
0.0326859
0
0
0.00674704
0.013477
0.020203
0.0269081
0.0335752
0.0402176
0.0468183
0.053361
0.0598585
0.0662947
0.0726535
0.0789479
0.0851623
0.0912816
0.0973186
0.113008
0.130469
0.149448
0.169354
0.189119
0.207063
0.220769
0.227188
0.222984
0.205249
0.172435
0.125093
0.0660353
0
0
0.00327109
0.00655111
0.00981968
0.0130857
0.0163582
0.0196167
0.0228702
0.0261276
0.0293685
0.032602
0.0358368
0.0390528
0.0422588
0.0454637
0.0486474
0.0518188
0.0549865
0.0581307
0.0612603
0.0643838
0.0674816
0.0705625
0.0736348
0.0766795
0.079705
0.0827196
0.0857046
0.0886684
0.091619
0.0945381
0.102258
0.109799
0.118434
0.126794
0.136259
0.145285
0.15533
0.164706
0.174867
0.184033
0.193546
0.201641
0.209373
0.215187
0.219657
0.221695
0.221199
0.217885
0.210811
0.200857
0.186155
0.16901
0.146628
0.122789
0.0938662
0.064893
0.0316128
0
0
0.00635753
0.0126991
0.0190374
0.0253564
0.0316404
0.0379019
0.0441252
0.0502948
0.0564232
0.0624951
0.0684956
0.0744369
0.0803045
0.0860842
0.0917881
0.106623
0.123155
0.141159
0.160094
0.178977
0.19624
0.209612
0.21619
0.212753
0.196415
0.165526
0.120432
0.063719
0
0
0.00307853
0.00616549
0.00924172
0.0123156
0.0153957
0.0184627
0.0215251
0.0245914
0.0276423
0.0306864
0.033732
0.0367601
0.039779
0.0427971
0.0457955
0.0487826
0.0517666
0.0547288
0.0576774
0.0606207
0.0635402
0.0664441
0.0693403
0.0722109
0.0750637
0.0779068
0.0807224
0.0835184
0.0863024
0.0890573
0.0963455
0.103468
0.111629
0.119537
0.128499
0.137053
0.146587
0.1555
0.16518
0.173933
0.183049
0.190841
0.198331
0.204023
0.208486
0.210653
0.210454
0.207568
0.201128
0.191905
0.17814
0.161971
0.140738
0.118014
0.0903315
0.0625094
0.0304728
0
0
0.00597502
0.0119353
0.0178927
0.0238326
0.0297402
0.0356275
0.0414798
0.0472826
0.0530479
0.0587612
0.0644087
0.070002
0.0755274
0.0809717
0.0863465
0.100334
0.115942
0.13297
0.150926
0.168903
0.185446
0.198424
0.205089
0.202339
0.187336
0.158351
0.11554
0.0612669
0
0
0.00288911
0.00578615
0.00867317
0.0115581
0.0144489
0.0173275
0.020202
0.0230802
0.0259442
0.028802
0.0316613
0.0345044
0.0373392
0.0401735
0.0429895
0.0457951
0.0485981
0.0513809
0.0541513
0.0569169
0.0596606
0.0623898
0.0651123
0.0678109
0.0704933
0.0731669
0.0758149
0.078445
0.0810643
0.0836565
0.0905165
0.0972237
0.104914
0.112371
0.120829
0.128911
0.137929
0.146373
0.155562
0.16389
0.172591
0.180059
0.187282
0.192821
0.197243
0.199502
0.199563
0.19707
0.191228
0.182712
0.169868
0.15467
0.134597
0.113013
0.0866126
0.059993
0.0292661
0
0
0.00559805
0.0111824
0.0167646
0.0223309
0.0278676
0.0333861
0.0388726
0.0443138
0.0497208
0.0550802
0.0603791
0.0656284
0.0708153
0.0759276
0.080976
0.0941228
0.108809
0.124859
0.141825
0.158875
0.17466
0.187192
0.193875
0.191743
0.178019
0.150919
0.110427
0.0586845
0
0
0.00270164
0.00541073
0.00811051
0.0108084
0.0135119
0.0162041
0.0188927
0.0215848
0.0242639
0.0269373
0.0296125
0.0322726
0.0349252
0.0375776
0.0402131
0.0428391
0.0454629
0.048068
0.0506619
0.0532515
0.0558208
0.0583769
0.060927
0.063455
0.0659682
0.0684734
0.070955
0.0734202
0.0758755
0.0783059
0.0847395
0.0910328
0.0982528
0.105258
0.11321
0.120816
0.129314
0.137282
0.145968
0.153859
0.162128
0.169252
0.176181
0.181541
0.18589
0.18821
0.188494
0.186364
0.181092
0.173261
0.161325
0.147099
0.1282
0.107783
0.0827081
0.057343
0.0279927
0
0
0.00522419
0.0104359
0.0156461
0.020842
0.0260113
0.0311643
0.0362885
0.0413712
0.0464229
0.0514312
0.0563839
0.0612914
0.0661417
0.0709235
0.0756468
0.0879543
0.101718
0.116783
0.132747
0.148846
0.163838
0.175873
0.182513
0.180938
0.168446
0.14322
0.105088
0.0559711
0
0
0.00251532
0.00503757
0.00755125
0.0100633
0.0125807
0.0150879
0.0175917
0.0200992
0.0225948
0.0250853
0.0275776
0.0300562
0.032528
0.0349998
0.0374562
0.0399039
0.0423498
0.0447785
0.0471969
0.0496116
0.0520076
0.0543915
0.05677
0.0591283
0.0614729
0.0638104
0.0661262
0.0684268
0.0707187
0.0729875
0.0789952
0.0848745
0.0916231
0.098175
0.105618
0.112745
0.120715
0.1282
0.136373
0.143815
0.151634
0.158397
0.165009
0.170165
0.174411
0.176763
0.17724
0.175445
0.170717
0.163555
0.152517
0.139265
0.121555
0.102331
0.0786244
0.0545644
0.0266549
0
0
0.00485078
0.00969043
0.0145294
0.0193563
0.0241594
0.0289486
0.0337118
0.0384375
0.0431351
0.0477931
0.0524003
0.0569662
0.06148
0.0659309
0.0703287
0.081794
0.0946296
0.108701
0.123644
0.138768
0.152931
0.164422
0.170965
0.169892
0.158595
0.135242
0.0995179
0.0531252
0
0
0.00232851
0.00466374
0.00699115
0.0093172
0.0116486
0.0139707
0.0162902
0.0186133
0.0209257
0.0232338
0.0255439
0.0278415
0.0301331
0.0324248
0.0347025
0.0369723
0.0392406
0.0414932
0.0437363
0.0459762
0.0481989
0.0504106
0.0526175
0.0548058
0.0569816
0.059151
0.0613005
0.0634363
0.0655641
0.0676708
0.0732508
0.0787137
0.0849878
0.0910827
0.0980122
0.104653
0.112089
0.119081
0.126729
0.133708
0.141061
0.147443
0.153716
0.158646
0.162763
0.165122
0.165765
0.164282
0.160078
0.153571
0.143428
0.131154
0.114653
0.0966513
0.0743584
0.0516554
0.0252522
0
0
0.00447544
0.00894161
0.0134088
0.0178666
0.0223042
0.0267302
0.0311332
0.0355022
0.0398458
0.0441532
0.0484141
0.0526376
0.0568135
0.0609322
0.0650026
0.0756202
0.0875192
0.100584
0.11449
0.128613
0.141912
0.152816
0.159213
0.158597
0.148467
0.12699
0.0937234
0.050151
0
0
0.00214013
0.00428567
0.00642468
0.00856318
0.0107071
0.0128434
0.0149777
0.0171162
0.0192452
0.0213707
0.0234984
0.025615
0.0277261
0.0298376
0.0319361
0.0340276
0.0361177
0.0381934
0.0402604
0.0423245
0.0443729
0.0464112
0.0484452
0.0504622
0.0524679
0.0544678
0.0564497
0.058419
0.0603813
0.0623243
0.0674722
0.0725142
0.0783079
0.0839399
0.090348
0.0964947
0.103386
0.109874
0.116984
0.123486
0.130355
0.13634
0.142252
0.146934
0.150897
0.153242
0.154028
0.152839
0.149144
0.143285
0.134036
0.122752
0.107482
0.0907368
0.0699055
0.0486137
0.0237834
0
0
0.00409334
0.0081808
0.0122735
0.0163615
0.0204335
0.0244962
0.0285384
0.0325492
0.0365365
0.0404907
0.0444023
0.0482799
0.0521144
0.0558972
0.0596365
0.0693959
0.0803452
0.0923864
0.105234
0.118328
0.130728
0.141004
0.147212
0.147015
0.138033
0.118448
0.0876967
0.047046
0
0
0.00194352
0.0038969
0.0058443
0.00779199
0.0097474
0.0116963
0.0136457
0.0155993
0.0175456
0.0194889
0.0214345
0.0233699
0.0253003
0.0272307
0.0291492
0.0310611
0.0329714
0.0348685
0.0367576
0.038644
0.040516
0.0423788
0.0442378
0.0460813
0.0479147
0.049743
0.0515549
0.0533556
0.05515
0.0569272
0.0616369
0.0662519
0.071558
0.0767196
0.0825974
0.0882411
0.0945758
0.100549
0.107107
0.113117
0.119485
0.125055
0.130587
0.135002
0.138791
0.141101
0.142011
0.141103
0.137906
0.132691
0.124342
0.114061
0.100048
0.0845922
0.0652705
0.0454429
0.0222506
0
0
0.00369422
0.00739463
0.0111102
0.0148303
0.0185385
0.0222376
0.0259161
0.0295643
0.03319
0.0367849
0.040341
0.0438666
0.0473536
0.0507943
0.0541966
0.0630821
0.0730633
0.0840593
0.0958218
0.107855
0.119322
0.128931
0.134913
0.135107
0.127265
0.109597
0.0814282
0.0438069
0
0
0.00174707
0.0034868
0.00523173
0.00698373
0.00874883
0.0105168
0.0122828
0.0140571
0.015822
0.017585
0.0193482
0.0211016
0.0228491
0.0245959
0.0263312
0.0280599
0.0297868
0.0315015
0.0332088
0.0349136
0.0366054
0.038289
0.0399693
0.0416357
0.0432932
0.0449462
0.0465848
0.0482134
0.0498367
0.0514447
0.0557074
0.0598869
0.0646955
0.0693767
0.0747127
0.0798417
0.0856066
0.0910517
0.0970412
0.102544
0.108394
0.113531
0.118663
0.122794
0.126389
0.12865
0.12967
0.129031
0.126328
0.121759
0.11432
0.10506
0.092336
0.0782079
0.0604476
0.04214
0.0206521
0
0
0.00324897
0.00655203
0.00991181
0.01328
0.0166291
0.0199602
0.0232664
0.0265419
0.0297958
0.0330218
0.0362134
0.0393785
0.0425099
0.045601
0.0486589
0.0566516
0.0656433
0.0755696
0.0862187
0.0971604
0.107658
0.116565
0.122289
0.122854
0.116154
0.100436
0.0749215
0.0404372
0
0
0.00145972
0.00301575
0.00454773
0.00610559
0.00771475
0.00931221
0.0109177
0.0125147
0.0141021
0.0156786
0.0172544
0.0188168
0.0203739
0.0219284
0.0234728
0.0250105
0.026547
0.0280724
0.0295917
0.0311088
0.0326148
0.0341137
0.03561
0.0370943
0.038571
0.0400441
0.0415047
0.0429568
0.0444045
0.0458389
0.0496434
0.0533762
0.0576746
0.0618631
0.0666427
0.0712431
0.0764219
0.0813228
0.0867262
0.091705
0.0970169
0.101704
0.106417
0.110247
0.113633
0.115832
0.116951
0.116578
0.114369
0.110454
0.103943
0.0957285
0.0843304
0.0715723
0.0554295
0.0387008
0.0189861
0
0
0.00260951
0.00571843
0.00878464
0.011786
0.0147419
0.0176736
0.020582
0.0234647
0.0263305
0.0291738
0.031989
0.0347826
0.0375484
0.0402802
0.0429843
0.0500605
0.058036
0.0668624
0.0763649
0.0861789
0.0956714
0.103842
0.109282
0.110207
0.104664
0.090942
0.0681645
0.0369332
0
0
0.00149669
0.00294675
0.00423237
0.00557663
0.00695094
0.00833379
0.00970214
0.0110804
0.0124416
0.0138053
0.0151637
0.0165183
0.0178659
0.0192161
0.0205565
0.0218943
0.0232307
0.0245596
0.0258831
0.0272062
0.0285198
0.0298283
0.0311348
0.0324317
0.0337223
0.0350104
0.0362879
0.0375585
0.0388257
0.0400817
0.043415
0.046689
0.0504626
0.0541444
0.0583516
0.0624077
0.0669827
0.0713225
0.076121
0.0805579
0.0853135
0.0895333
0.0938106
0.0973236
0.100489
0.102613
0.103831
0.103718
0.102016
0.0987618
0.0932065
0.0860606
0.0760332
0.0646871
0.0502198
0.0351288
0.017254
0
0
0.00347982
0.00578282
0.00819796
0.0106714
0.0131721
0.0156907
0.0182126
0.0207267
0.0232353
0.0257307
0.0282059
0.0306656
0.0331037
0.0355143
0.0379025
0.0441621
0.0512353
0.0590897
0.0675856
0.0764211
0.0850592
0.0926349
0.097903
0.0992449
0.0948212
0.0829284
0.0625535
0.0340644
0
0
0.00129436
0.00259076
0.00377934
0.00500222
0.00624037
0.00747737
0.00870081
0.00992665
0.0111405
0.0123525
0.0135632
0.0147682
0.0159697
0.0171724
0.0183683
0.0195613
0.0207545
0.0219408
0.0231234
0.0243056
0.02548
0.0266501
0.027819
0.0289795
0.0301349
0.0312884
0.0324328
0.0335714
0.0347074
0.0358338
0.0388251
0.0417662
0.0451603
0.0484767
0.0522726
0.0559401
0.0600866
0.0640321
0.0684099
0.0724769
0.0768592
0.0807779
0.0847857
0.0881259
0.0911953
0.093343
0.0947096
0.0948773
0.0936205
0.0909321
0.0861218
0.0797971
0.0707508
0.0603901
0.047027
0.0329718
0.0162257
0
0
0.00217516
0.0045146
0.00687294
0.00922088
0.0115478
0.0138603
0.0161559
0.0184317
0.0206946
0.0229404
0.025165
0.027374
0.0295627
0.0317266
0.0338708
0.0394944
0.0458603
0.0529499
0.0606524
0.0687161
0.0766814
0.0837913
0.0889328
0.0906204
0.0871056
0.0766823
0.0582138
0.0318631
0
0
0.00111836
0.00224625
0.00332067
0.00439186
0.0054707
0.00654755
0.00763195
0.00871911
0.0098074
0.0108937
0.0119844
0.013069
0.0141527
0.0152363
0.0163143
0.0173887
0.0184633
0.0195308
0.0205947
0.0216576
0.0227133
0.0237646
0.0248147
0.0258569
0.0268945
0.0279302
0.0289578
0.0299801
0.0310001
0.0320115
0.0346982
0.0373409
0.0403931
0.0433782
0.0467994
0.05011
0.0538605
0.0574376
0.0614189
0.0651308
0.0691496
0.0727639
0.0764904
0.079629
0.0825627
0.0846746
0.0861211
0.086481
0.0855787
0.0833516
0.0791928
0.0735944
0.0654605
0.0560318
0.0437524
0.0307403
0.0151509
0
0
0.00205705
0.00412245
0.00618917
0.00825002
0.0103029
0.0123531
0.014396
0.0164264
0.0184486
0.0204578
0.0224495
0.0244283
0.0263898
0.0283297
0.0302528
0.0353004
0.0410234
0.0474123
0.0543788
0.061712
0.0690175
0.0756332
0.0805662
0.0824618
0.0796785
0.0705459
0.0538574
0.0296125
0
0
0.000981095
0.00196439
0.00293425
0.00390494
0.0048803
0.00585148
0.00682398
0.00779825
0.00876868
0.00973798
0.0107083
0.0116743
0.0126381
0.013603
0.0145626
0.0155199
0.0164773
0.0174293
0.0183783
0.0193271
0.0202697
0.0212089
0.0221473
0.0230792
0.0240071
0.0249337
0.0258533
0.0267685
0.0276819
0.0285879
0.0309957
0.0333659
0.0361057
0.0387879
0.0418657
0.044848
0.0482323
0.0514668
0.0550758
0.0584509
0.0621192
0.0654345
0.0688748
0.071798
0.0745665
0.0766047
0.0780735
0.0785632
0.0779338
0.0760889
0.0724905
0.0675408
0.0602435
0.0516937
0.0404619
0.028481
0.014056
0
0
0.00184381
0.00368761
0.00553013
0.00736878
0.00920022
0.0110287
0.0128501
0.0146605
0.0164641
0.0182567
0.0200346
0.021802
0.0235548
0.0252894
0.0270098
0.0315302
0.0366643
0.0424089
0.0486928
0.0553383
0.0620059
0.0681159
0.0727848
0.0747836
0.0725861
0.0645861
0.04955
0.0273527
0
0
0.000870835
0.00174417
0.00261377
0.00348253
0.00435394
0.0052222
0.00608969
0.00695887
0.00782428
0.0086884
0.00955377
0.0104149
0.0112745
0.0121348
0.0129906
0.0138443
0.0146983
0.0155474
0.016394
0.0172404
0.0180816
0.0189198
0.0197574
0.0205893
0.0214179
0.0222455
0.023067
0.0238847
0.024701
0.0255109
0.0276643
0.0297856
0.0322395
0.0346442
0.0374063
0.0400861
0.0431317
0.0460476
0.049308
0.0523651
0.0556985
0.0587234
0.0618791
0.0645799
0.0671651
0.0691019
0.0705513
0.0711208
0.0706999
0.06917
0.0660551
0.0616833
0.0551525
0.0474273
0.0372004
0.0262276
0.012959
0
0
0.00164538
0.00328712
0.00492926
0.0065683
0.00820076
0.00983045
0.0114539
0.0130676
0.0146754
0.0162738
0.0178594
0.019436
0.0210001
0.0225486
0.0240849
0.028125
0.03272
0.0378715
0.0435222
0.0495217
0.0555773
0.0611812
0.0655488
0.0675705
0.0658401
0.0588356
0.0453311
0.0251107
0
0
0.000774987
0.0015522
0.00232655
0.00310066
0.00387668
0.00464974
0.0054221
0.00619591
0.00696642
0.00773585
0.00850635
0.00927323
0.0100386
0.0108048
0.0115669
0.0123272
0.0130878
0.0138442
0.0145983
0.0153524
0.0161018
0.0168487
0.0175952
0.0183367
0.0190752
0.0198131
0.0205455
0.0212748
0.0220029
0.0227254
0.0246471
0.0265411
0.0287336
0.0308837
0.0333556
0.0357563
0.0384882
0.0411075
0.0440418
0.046799
0.0498137
0.0525586
0.0554351
0.0579115
0.0603024
0.0621187
0.0635173
0.064128
0.0638638
0.0625936
0.059897
0.0560414
0.0502132
0.0432605
0.033994
0.0240008
0.0118707
0
0
0.00146281
0.00292266
0.0043828
0.00584021
0.00729181
0.00874105
0.0101848
0.0116201
0.0130504
0.0144725
0.0158835
0.0172867
0.0186793
0.0200581
0.0214267
0.0250276
0.0291279
0.0337323
0.0387944
0.044187
0.0496572
0.0547608
0.0588027
0.0607865
0.0594269
0.0533007
0.041218
0.0229009
0
0
0.00068781
0.00137755
0.00206505
0.00275219
0.00344099
0.00412721
0.00481279
0.00549968
0.00618367
0.00686671
0.00755075
0.00823157
0.00891114
0.00959137
0.0102681
0.0109432
0.0116187
0.0122904
0.0129602
0.0136301
0.0142958
0.0149593
0.0156226
0.0162814
0.0169378
0.0175936
0.0182447
0.018893
0.0195404
0.0201828
0.0218922
0.0235776
0.0255296
0.027445
0.0296487
0.0317909
0.0342311
0.0365737
0.0392019
0.041676
0.0443874
0.0468631
0.049467
0.0517197
0.05391
0.0555924
0.0569169
0.0575389
0.0573902
0.0563345
0.0540017
0.0506095
0.0454279
0.0392007
0.0308521
0.021809
0.0107961
0
0
0.00129568
0.00258861
0.00388192
0.00517286
0.00645873
0.0077426
0.00902176
0.0102935
0.011561
0.0128214
0.0140722
0.0153163
0.0165512
0.0177742
0.0189883
0.0221847
0.0258276
0.0299239
0.034436
0.039256
0.0441657
0.0487773
0.0524774
0.0543765
0.0533103
0.0479649
0.0372085
0.0207264
0
0
0.000607548
0.00121683
0.00182409
0.00243109
0.00303955
0.00364572
0.00425135
0.00485815
0.00546241
0.00606585
0.00667019
0.00727172
0.00787215
0.00847321
0.00907119
0.00966782
0.0102648
0.0108584
0.0114504
0.0120425
0.012631
0.0132176
0.013804
0.0143866
0.014967
0.0155469
0.0161228
0.0166963
0.017269
0.0178374
0.0193501
0.0208422
0.022571
0.0242682
0.026222
0.0281226
0.0302896
0.032372
0.0347112
0.0369166
0.0393381
0.0415542
0.0438922
0.0459228
0.0479087
0.0494476
0.0506802
0.0512901
0.0512239
0.0503464
0.0483328
0.0453604
0.0407784
0.0352366
0.0277693
0.0196501
0.0097346
0
0
0.00114063
0.00227888
0.00341748
0.00455404
0.00568619
0.00681666
0.00794307
0.00906309
0.0101794
0.0112897
0.0123916
0.0134878
0.0145761
0.0156541
0.0167245
0.0195436
0.0227591
0.0263786
0.0303719
0.0346473
0.0390172
0.0431445
0.0464911
0.048269
0.0474343
0.0427906
0.0332826
0.0185798
0
0
0.000532587
0.00106669
0.00159904
0.00213115
0.00266455
0.00319595
0.00372689
0.00425887
0.00478863
0.00531769
0.00584755
0.00637496
0.00690144
0.00742848
0.00795285
0.00847606
0.00899959
0.00952022
0.0100395
0.0105588
0.011075
0.0115896
0.0121041
0.0126152
0.0131245
0.0136334
0.0141388
0.0146421
0.0151447
0.0156437
0.0169718
0.0182822
0.019801
0.0212927
0.0230107
0.024683
0.0265909
0.0284259
0.0304893
0.0324371
0.034579
0.036543
0.0386201
0.0404301
0.0422082
0.043596
0.0447225
0.0453018
0.0452921
0.0445637
0.0428339
0.0402468
0.0362275
0.0313398
0.0247258
0.0175116
0.00868063
0
0
0.000994589
0.00198711
0.00297995
0.00397106
0.00495836
0.00594425
0.00692668
0.00790359
0.00887737
0.00984597
0.0108074
0.011764
0.0127138
0.0136547
0.0145892
0.0170511
0.019861
0.0230267
0.0265237
0.0302747
0.0341192
0.0377665
0.0407489
0.0423759
0.0417239
0.037721
0.0294036
0.0164438
0
0
0.000461295
0.000923904
0.001385
0.00184589
0.0023079
0.00276819
0.00322808
0.00368888
0.00414777
0.00460607
0.00506506
0.00552196
0.00597805
0.00643465
0.00688895
0.00734226
0.00779586
0.00824698
0.00869692
0.00914694
0.0095943
0.0100403
0.0104862
0.0109292
0.0113706
0.0118118
0.0122499
0.0126863
0.0131221
0.0135548
0.0147066
0.0158432
0.0171611
0.0184558
0.0199476
0.0214003
0.0230586
0.0246547
0.0264509
0.0281482
0.0300169
0.0317329
0.0335515
0.0351401
0.0367066
0.0379359
0.0389443
0.0394776
0.0395037
0.0389021
0.0374293
0.0352021
0.0317195
0.0274654
0.0216889
0.0153716
0.00762369
0
0
0.000854207
0.00170664
0.00255938
0.00341064
0.00425867
0.00510552
0.00594944
0.00678868
0.00762528
0.00845751
0.00928365
0.0101057
0.010922
0.0117308
0.0125342
0.0146512
0.0170686
0.0197941
0.0228079
0.0260452
0.0293705
0.0325362
0.0351419
0.0365923
0.0360851
0.0326798
0.0255186
0.0142918
0
0
0.000391958
0.000785033
0.00117682
0.00156844
0.00196102
0.00235213
0.00274291
0.00313448
0.00352442
0.00391386
0.00430391
0.00469217
0.00507977
0.00546781
0.00585391
0.00623917
0.0066247
0.00700813
0.00739056
0.00777309
0.00815337
0.00853249
0.00891153
0.00928817
0.0096635
0.0100386
0.0104111
0.0107822
0.0111528
0.0115208
0.0125004
0.0134673
0.0145887
0.0156906
0.0169606
0.0181978
0.0196108
0.0209714
0.0225036
0.0239525
0.0255493
0.0270174
0.0285755
0.0299393
0.0312879
0.0323507
0.0332294
0.0337038
0.0337491
0.0332576
0.0320236
0.0301405
0.0271807
0.0235524
0.0186122
0.0131984
0.0065485
0
0
0.000715913
0.00143035
0.00214504
0.00285852
0.0035693
0.00427912
0.00498651
0.00569002
0.00639135
0.00708906
0.00778172
0.00847101
0.00915551
0.00983383
0.0105076
0.0122836
0.0143123
0.0166007
0.0191331
0.0218564
0.0246584
0.0273329
0.0295451
0.0307949
0.0304039
0.0275712
0.0215582
0.0120871
0
0
0.000322707
0.000646335
0.000968905
0.00129134
0.00161456
0.00193658
0.00225833
0.00258072
0.00290178
0.00322244
0.0035436
0.0038633
0.00418246
0.00450198
0.00481991
0.00513716
0.00545464
0.00577039
0.00608534
0.00640037
0.00671356
0.0070258
0.00733799
0.00764822
0.00795737
0.00826633
0.0085732
0.00887887
0.00918421
0.00948735
0.0102945
0.0110913
0.0120155
0.0129238
0.013971
0.0149913
0.016157
0.0172799
0.0185451
0.019742
0.0210622
0.0222769
0.0235677
0.024699
0.0258201
0.0267062
0.027443
0.0278465
0.027898
0.0275054
0.0265002
0.0249555
0.0225184
0.0195229
0.0154361
0.0109507
0.00543488
0
0
0.00057577
0.00115035
0.00172515
0.00229898
0.00287065
0.00344156
0.00401054
0.0045764
0.00514055
0.0057018
0.00625902
0.00681356
0.00736428
0.00791006
0.00845223
0.00988149
0.0115146
0.0133574
0.0153979
0.0175938
0.0198558
0.0220188
0.0238142
0.0248388
0.0245438
0.0222778
0.0174357
0.00978328
0
0
0.000251461
0.000503641
0.000754997
0.00100625
0.00125811
0.00150904
0.00175976
0.00201098
0.00226117
0.00251105
0.00276132
0.00301045
0.00325917
0.00350817
0.00375593
0.00400317
0.00425059
0.00449667
0.00474213
0.00498765
0.00523175
0.00547511
0.00571844
0.00596024
0.00620121
0.00644203
0.00668124
0.00691951
0.00715754
0.00739385
0.00802312
0.00864435
0.00936497
0.0100733
0.0108901
0.011686
0.0125956
0.013472
0.0144598
0.0153946
0.0164261
0.0173757
0.0183856
0.0192715
0.0201507
0.0208469
0.021428
0.021749
0.0217966
0.0214968
0.0207191
0.0195183
0.0176192
0.0152808
0.0120862
0.00857659
0.00425745
0
0
0.00042934
0.000857796
0.00128641
0.00171431
0.00214061
0.00256634
0.00299064
0.00341263
0.00383335
0.00425192
0.00466749
0.00508108
0.00549184
0.00589893
0.00630334
0.00736953
0.00858797
0.00996324
0.0114864
0.0131264
0.014817
0.0164354
0.0177814
0.0185541
0.0183429
0.0166586
0.0130451
0.00732309
0
0
0.000175849
0.000352201
0.000527976
0.000703677
0.000879809
0.00105529
0.00123062
0.00140631
0.00158127
0.00175601
0.00193104
0.00210526
0.0022792
0.00245333
0.00262661
0.00279951
0.00297255
0.00314465
0.00331631
0.00348803
0.00365874
0.00382895
0.00399913
0.00416825
0.00433678
0.00450522
0.00467253
0.00483919
0.00500568
0.00517097
0.00561113
0.00604569
0.00654981
0.00704535
0.00761682
0.00817375
0.00881028
0.00942361
0.010115
0.0107695
0.0114919
0.012157
0.0128648
0.0134858
0.0141026
0.0145914
0.0150003
0.015227
0.015263
0.0150554
0.0145136
0.0136748
0.0123468
0.0107099
0.00847239
0.00601306
0.00298517
0
0
0.000271513
0.000542467
0.000813525
0.00108413
0.00135372
0.00162296
0.00189129
0.00215816
0.00242423
0.00268894
0.00295177
0.00321334
0.00347312
0.00373058
0.00398636
0.00466071
0.0054314
0.00630137
0.007265
0.00830273
0.00937267
0.0103974
0.0112502
0.0117408
0.0116091
0.0105452
0.0082594
0.00463727
0
0
9.31126e-05
0.000186494
0.00027957
0.000372605
0.00046587
0.000558787
0.000651626
0.000744655
0.000837301
0.000929829
0.00102251
0.00111476
0.00120686
0.00129907
0.00139082
0.00148237
0.001574
0.00166513
0.00175603
0.00184695
0.00193735
0.00202748
0.00211759
0.00220714
0.00229638
0.00238557
0.00247417
0.00256241
0.00265057
0.00273809
0.00297118
0.00320127
0.00346823
0.0037306
0.00403325
0.00432811
0.00466522
0.00498994
0.00535616
0.00570262
0.00608529
0.00643737
0.00681232
0.00714098
0.00746789
0.00772646
0.00794333
0.00806307
0.00808251
0.00797225
0.00768568
0.00724125
0.00653816
0.00567131
0.0044864
0.00318436
0.00158076
0
0
9.63005e-05
0.000192403
0.000288541
0.000384518
0.000480136
0.000575628
0.000670798
0.000765451
0.000859818
0.000953704
0.00104692
0.00113969
0.00123182
0.00132313
0.00141385
0.00165301
0.00192632
0.00223483
0.00257653
0.00294446
0.00332375
0.0036869
0.003989
0.00416252
0.00411532
0.00373761
0.00292701
0.00164294
0
0
0
0
0
0
0
0
0
0
0
0
0
0
0
0
0
0
0
0
0
0
0
0
0
0
0
0
0
0
0
0
0
0
0
0
0
0
0
0
0
0
0
0
0
0
0
0
0
0
0
0
0
0
0
0
0
0
0
0
SCALARS Displacement_Z double 1
LOOKUP_TABLE default
-38.09
-29.5542
-25.931
-23.076
-21.6553
-20.0971
-19.1909
-18.1215
-17.4568
-16.6367
-16.1089
-15.4386
-14.9989
-14.4317
-14.0499
-13.556
-13.2185
-12.7768
-12.4717
-12.0714
-11.7888
-11.4198
-11.1552
-10.8082
-10.5557
-10.2249
-9.97635
-9.65425
-9.40113
-9.06217
-8.75926
-7.95185
-7.43019
-6.81657
-6.38124
-5.85052
-5.47028
-5.00247
-4.6636
-4.24596
-3.93982
-3.56255
-3.27974
-2.9312
-2.64196
-2.32747
-2.08709
-1.85045
-1.65289
-1.45693
-1.29241
-1.13067
-0.99724
-0.869927
-0.769709
-0.680953
-0.619341
-0.576951
-0.563376
-28.955
-23.993
-20.7027
-18.579
-17.0005
-15.7453
-14.6959
-13.7909
-12.9919
-12.27
-11.6074
-10.9902
-10.4039
-9.83677
-9.26945
-8.67438
-7.38285
-6.3459
-5.44353
-4.64344
-3.9247
-3.2689
-2.63752
-2.0864
-1.65251
-1.29195
-0.996678
-0.769076
-0.618671
-0.562692
-22.517
-22.8854
-21.6906
-20.7782
-19.6934
-18.8027
-17.9298
-17.2224
-16.5268
-15.9465
-15.3709
-14.8786
-14.3862
-13.9599
-13.5267
-13.1479
-12.7613
-12.4174
-12.0652
-11.7499
-11.4232
-11.1285
-10.8226
-10.5421
-10.25
-9.97963
-9.69405
-9.42707
-9.14364
-8.86859
-8.58539
-7.90235
-7.3368
-6.78085
-6.31098
-5.82654
-5.41716
-4.98611
-4.62348
-4.23484
-3.9097
-3.55481
-3.25812
-2.92476
-2.63316
-2.32838
-2.08581
-1.85006
-1.65217
-1.45615
-1.29151
-1.12964
-0.996136
-0.868723
-0.76846
-0.679645
-0.618015
-0.5756
-0.562023
-20.4646
-20.1261
-18.7311
-17.319
-16.0859
-15.0287
-14.1067
-13.2902
-12.556
-11.8838
-11.2604
-10.675
-10.1153
-9.5723
-9.03759
-8.51237
-7.3068
-6.28867
-5.40042
-4.6106
-3.89973
-3.25033
-2.63016
-2.08571
-1.65195
-1.29112
-0.995618
-0.767865
-0.617379
-0.561374
-19.2863
-19.0216
-18.7798
-18.301
-17.7892
-17.2265
-16.6754
-16.1319
-15.6207
-15.1269
-14.6685
-14.2253
-13.8144
-13.417
-13.0444
-12.6835
-12.3439
-12.0113
-11.6972
-11.3889
-11.0939
-10.8037
-10.5249
-10.2474
-9.97984
-9.71269
-9.45181
-9.19122
-8.93687
-8.68178
-8.43533
-7.81539
-7.27383
-6.73178
-6.26654
-5.79273
-5.38367
-4.96252
-4.59782
-4.2184
-3.88978
-3.5434
-3.24266
-2.91675
-2.6272
-2.32874
-2.08566
-1.84976
-1.65178
-1.45549
-1.29075
-1.12871
-0.995121
-0.867599
-0.767285
-0.678405
-0.616758
-0.574308
-0.56074
-17.931
-17.5902
-16.8976
-16.0234
-15.1297
-14.2844
-13.5022
-12.7826
-12.1189
-11.5003
-10.9191
-10.3686
-9.84027
-9.32944
-8.8345
-8.35763
-7.23896
-6.24448
-5.3683
-4.58656
-3.88137
-3.23612
-2.62476
-2.08579
-1.65162
-1.29041
-0.994642
-0.766723
-0.616153
-0.560123
-16.7801
-16.7438
-16.5864
-16.3685
-16.0761
-15.7467
-15.3854
-15.0141
-14.6338
-14.2601
-13.8901
-13.5304
-13.18
-12.8421
-12.5124
-12.1955
-11.8872
-11.5885
-11.2982
-11.0168
-10.7408
-10.4731
-10.2104
-9.95295
-9.70029
-9.45274
-9.20791
-8.96861
-8.73313
-8.50219
-8.27729
-7.70944
-7.20016
-6.67654
-6.22163
-5.75668
-5.35261
-4.93742
-4.57526
-4.20064
-3.87292
-3.53079
-3.22969
-2.90852
-2.62233
-2.32873
-2.08594
-1.84967
-1.65152
-1.45498
-1.29009
-1.12787
-0.994183
-0.866551
-0.766177
-0.677232
-0.615562
-0.573079
-0.559519
-15.8708
-15.7364
-15.3415
-14.7841
-14.1493
-13.4965
-12.8546
-12.2382
-11.6521
-11.0937
-10.5612
-10.0519
-9.56118
-9.08777
-8.63236
-8.19633
-7.15816
-6.19738
-5.33672
-4.56415
-3.86493
-3.22372
-2.62013
-2.08615
-1.65143
-1.28979
-0.993741
-0.765647
-0.614988
-0.558932
-15.0989
-15.0672
-14.9864
-14.8493
-14.6725
-14.4568
-14.215
-13.9529
-13.6762
-13.3921
-13.1039
-12.8138
-12.526
-12.2412
-11.9596
-11.6835
-11.4126
-11.146
-10.8856
-10.6301
-10.3789
-10.133
-9.89184
-9.65405
-9.42132
-9.19248
-8.96726
-8.74676
-8.53089
-8.31899
-8.11304
-7.58942
-7.11255
-6.61234
-6.17157
-5.71735
-5.32023
-4.91105
-4.55284
-4.18225
-3.85683
-3.51775
-3.21784
-2.90043
-2.61791
-2.32839
-2.08634
-1.84976
-1.65138
-1.45459
-1.28951
-1.12713
-0.993318
-0.865577
-0.765132
-0.676124
-0.614427
-0.57191
-0.558359
-14.4071
-14.3155
-14.0621
-13.6825
-13.2218
-12.7189
-12.1992
-11.68
-11.1712
-10.6755
-10.1951
-9.73083
-9.28096
-8.84631
-8.42849
-8.02831
-7.06408
-6.14396
-5.30298
-4.54129
-3.84879
-3.21213
-2.61578
-2.08654
-1.65133
-1.28926
-0.992912
-0.764633
-0.613881
-0.557801
-13.7872
-13.768
-13.7128
-13.6238
-13.5033
-13.355
-13.1836
-12.9932
-12.7867
-12.5695
-12.3435
-12.1114
-11.8761
-11.6393
-11.4011
-11.1645
-10.9292
-10.6953
-10.4644
-10.2363
-10.0104
-9.78818
-9.56909
-9.3526
-9.14004
-8.93092
-8.72473
-8.52292
-8.32505
-8.13081
-7.94163
-7.45811
-7.01258
-6.53819
-6.11446
-5.67335
-5.2849
-4.88277
-4.5294
-4.16309
-3.84061
-3.50443
-3.20648
-2.89252
-2.61362
-2.3277
-2.08669
-1.84995
-1.65132
-1.4543
-1.28902
-1.12647
-0.992522
-0.864669
-0.764149
-0.675079
-0.613349
-0.570802
-0.557257
-13.2255
-13.1646
-12.9886
-12.7161
-12.3716
-11.9796
-11.5588
-11.1246
-10.6876
-10.2529
-9.82491
-9.40663
-8.99837
-8.6022
-8.22023
-7.85315
-6.95842
-6.08293
-5.26572
-4.51702
-3.83227
-3.20085
-2.61147
-2.08682
-1.65131
-1.2888
-0.992147
-0.763678
-0.61283
-0.556726
-12.7163
-12.7031
-12.6645
-12.6008
-12.5144
-12.4061
-12.2793
-12.1358
-11.9778
-11.8084
-11.6294
-11.4424
-11.2499
-11.0533
-10.8529
-10.6514
-10.4488
-10.2453
-10.0428
-9.84122
-9.64023
-9.44145
-9.24453
-9.04917
-8.85675
-8.66692
-8.47933
-8.29533
-8.11458
-7.93676
-7.76317
-7.31701
-6.90179
-6.45419
-6.04947
-5.62363
-5.24554
-4.85178
-4.50418
-4.14277
-3.82375
-3.49074
-3.19525
-2.88469
-2.60926
-2.32665
-2.08688
-1.85017
-1.65133
-1.45409
-1.2886
-1.12587
-0.991788
-0.863822
-0.763223
-0.674091
-0.612326
-0.569751
-0.556209
-12.2473
-12.2028
-12.0734
-11.8688
-11.6033
-11.2925
-10.9495
-10.5863
-10.2128
-9.83426
-9.45617
-9.08251
-8.71478
-8.3557
-8.00773
-7.67161
-6.84288
-6.01402
-5.22413
-4.49073
-3.81497
-3.18959
-2.60703
-2.08689
-1.65133
-1.28841
-0.991441
-0.762779
-0.611834
-0.555705
-11.8157
-11.8058
-11.7769
-11.7293
-11.6641
-11.5817
-11.4843
-11.373
-11.2488
-11.1142
-10.9702
-10.8178
-10.6593
-10.4954
-10.3268
-10.1554
-9.98145
-9.80538
-9.62876
-9.4517
-9.2741
-9.09749
-8.92169
-8.74655
-8.57339
-8.40198
-8.23208
-8.06497
-7.90034
-7.73794
-7.57895
-7.16797
-6.78196
-6.36133
-5.97674
-5.56784
-5.2016
-4.81756
-4.47671
-4.12094
-3.80594
-3.47652
-3.18389
-2.87678
-2.60472
-2.32522
-2.08682
-1.85034
-1.65135
-1.45392
-1.28823
-1.12533
-0.991107
-0.863029
-0.762349
-0.673158
-0.611357
-0.568756
-0.555216
-11.414
-11.3802
-11.2809
-11.1219
-10.9119
-10.6612
-10.3787
-10.0739
-9.75463
-9.42616
-9.09378
-8.76179
-8.43224
-8.10816
-7.79213
-7.48507
-6.71913
-5.93762
-5.1778
-4.46199
-3.79658
-3.17808
-2.60234
-2.08668
-1.65136
-1.28806
-0.990784
-0.761931
-0.610891
-0.554738
-11.041
-11.0335
-11.0111
-10.974
-10.923
-10.8583
-10.7813
-10.6926
-10.593
-10.484
-10.3663
-10.2408
-10.109
-9.97166
-9.82907
-9.68301
-9.53372
-9.38149
-9.2278
-9.07277
-8.91641
-8.76013
-8.60384
-8.44747
-8.29226
-8.13807
-7.98471
-7.83337
-7.68382
-7.53585
-7.39052
-7.0127
-6.65471
-6.26075
-5.89684
-5.50601
-5.15286
-4.77975
-4.44662
-4.09732
-3.78693
-3.46158
-3.1722
-2.86865
-2.59987
-2.32337
-2.08645
-1.8504
-1.65136
-1.45378
-1.2879
-1.12483
-0.990473
-0.862285
-0.761525
-0.672276
-0.610438
-0.567815
-0.554274
-10.6915
-10.6648
-10.5862
-10.4593
-10.2896
-10.0841
-9.84907
-9.59161
-9.31819
-9.03325
-8.74164
-8.44752
-8.15311
-7.86145
-7.57515
-7.2952
-6.58878
-5.85442
-5.12665
-4.4305
-3.77688
-3.16614
-2.5973
-2.08614
-1.65134
-1.28774
-0.990169
-0.761129
-0.609997
-0.553822
-10.3646
-10.3586
-10.3407
-10.311
-10.2701
-10.218
-10.1557
-10.0836
-10.0021
-9.91235
-9.81497
-9.71032
-9.59978
-9.48376
-9.36258
-9.23763
-9.10917
-8.9774
-8.84362
-8.70798
-8.5705
-8.43244
-8.29378
-8.15448
-8.01567
-7.87728
-7.73916
-7.6024
-7.46682
-7.33224
-7.19965
-6.85294
-6.52167
-6.15372
-5.81057
-5.4385
-5.09933
-4.73821
-4.41369
-4.07165
-3.76649
-3.44574
-3.15997
-2.86015
-2.59463
-2.32107
-2.08573
-1.85029
-1.65131
-1.45363
-1.28759
-1.12437
-0.989875
-0.861583
-0.760745
-0.671442
-0.609569
-0.566925
-0.553383
-10.0572
-10.0357
-9.97198
-9.86841
-9.72876
-9.55792
-9.36039
-9.14147
-8.90637
-8.65876
-8.40289
-8.14255
-7.87989
-7.61781
-7.35882
-7.10397
-6.45357
-5.76542
-5.07089
-4.39614
-3.7557
-3.1536
-2.59184
-2.08523
-1.65124
-1.28743
-0.989587
-0.76037
-0.609152
-0.552956
-9.76703
-9.76212
-9.74749
-9.72327
-9.68974
-9.64694
-9.59559
-9.53591
-9.46822
-9.39337
-9.31176
-9.22361
-9.13004
-9.03132
-8.92769
-8.8203
-8.70935
-8.59498
-8.47833
-8.35953
-8.23859
-8.11664
-7.99367
-7.86966
-7.74565
-7.62157
-7.49731
-7.37388
-7.25111
-7.12887
-7.00806
-6.69038
-6.38438
-6.04153
-5.71889
-5.36586
-5.04128
-4.69295
-4.37782
-4.0438
-3.74448
-3.42885
-3.14704
-2.85114
-2.58891
-2.31827
-2.08462
-1.84996
-1.65115
-1.45344
-1.28727
-1.12392
-0.989304
-0.860916
-0.760005
-0.670652
-0.608746
-0.566084
-0.55254
-9.49358
-9.47582
-9.42322
-9.3373
-9.22073
-9.07702
-8.90945
-8.72207
-8.51902
-8.30329
-8.0785
-7.848
-7.61375
-7.37842
-7.14437
-6.91263
-6.3147
-5.6714
-5.01071
-4.3588
-3.73286
-3.14028
-2.58585
-2.0839
-1.65102
-1.28711
-0.989025
-0.759648
-0.608351
-0.552137
-9.23438
-9.23031
-9.21815
-9.19801
-9.17007
-9.13436
-9.0914
-9.04135
-8.9844
-8.92122
-8.85208
-8.77712
-8.69724
-8.61264
-8.52346
-8.43068
-8.33442
-8.23481
-8.13282
-8.02853
-7.92197
-7.81413
-7.705
-7.59456
-7.48375
-7.37251
-7.26076
-7.14939
-7.0383
-6.92733
-6.81735
-6.52655
-6.24428
-5.92541
-5.62278
-5.28876
-4.97908
-4.64413
-4.33902
-4.0137
-3.72078
-3.41077
-3.13329
-2.84151
-2.58263
-2.31495
-2.08307
-1.84937
-1.65085
-1.45319
-1.28693
-1.12347
-0.98875
-0.860276
-0.759299
-0.669902
-0.607967
-0.56529
-0.551744
-8.98927
-8.97441
-8.93031
-8.85804
-8.75953
-8.63738
-8.49401
-8.33256
-8.15632
-7.96771
-7.76978
-7.56541
-7.35636
-7.145
-6.93352
-6.72288
-6.17371
-5.57345
-4.94662
-4.31858
-3.70828
-3.12607
-2.57927
-2.08213
-1.65063
-1.28675
-0.988476
-0.758957
-0.607593
-0.551363
-8.75616
-8.75274
-8.7425
-8.72551
-8.70193
-8.67174
-8.63536
-8.59289
-8.54445
-8.49057
-8.43145
-8.36717
-8.29845
-8.22544
-8.14823
-8.06763
-7.98374
-7.89663
-7.80715
-7.71534
-7.62123
-7.52567
-7.42867
-7.3302
-7.23109
-7.1313
-7.03074
-6.93025
-6.8297
-6.72899
-6.62888
-6.36284
-6.10271
-5.80655
-5.52322
-5.2079
-4.91321
-4.59202
-4.2974
-3.98135
-3.69533
-3.39142
-3.1186
-2.83117
-2.57573
-2.31106
-2.08106
-1.84846
-1.65037
-1.45284
-1.28655
-1.12301
-0.988203
-0.859657
-0.758622
-0.669189
-0.607228
-0.564541
-0.550993
-8.53508
-8.52249
-8.48506
-8.42358
-8.33946
-8.23469
-8.11107
-7.97107
-7.81733
-7.65179
-7.477
-7.29544
-7.1086
-6.91862
-6.72744
-6.53596
-6.03183
-5.47251
-4.87912
-4.27562
-3.68195
-3.11087
-2.57203
-2.07987
-1.65005
-1.28633
-0.987928
-0.758293
-0.606873
-0.550633
-8.32424
-8.32133
-8.3126
-8.29812
-8.27799
-8.25219
-8.22106
-8.18466
-8.14307
-8.09672
-8.04575
-7.9902
-7.93067
-7.86725
-7.80001
-7.72962
-7.65616
-7.57966
-7.50085
-7.41977
-7.33641
-7.25153
-7.16513
-7.07717
-6.98839
-6.89875
-6.80818
-6.71742
-6.62637
-6.53492
-6.44378
-6.20041
-5.9608
-5.68601
-5.42113
-5.12403
-4.84422
-4.53694
-4.25314
-3.9468
-3.66811
-3.37072
-3.10288
-2.82003
-2.56814
-2.30656
-2.07855
-1.84721
-1.64967
-1.45236
-1.2861
-1.12253
-0.987652
-0.859052
-0.757969
-0.668508
-0.606527
-0.563833
-0.550283
-8.12378
-8.11299
-8.0809
-8.02808
-7.9556
-7.86502
-7.75769
-7.63556
-7.50078
-7.3549
-7.20004
-7.03833
-6.87103
-6.70002
-6.52703
-6.35289
-5.89014
-5.36948
-4.80876
-4.23012
-3.65386
-3.09462
-2.56408
-2.0771
-1.64923
-1.28584
-0.987371
-0.75765
-0.60619
-0.549944
-7.93256
-7.93006
-7.92254
-7.91007
-7.89272
-7.87047
-7.8436
-7.81213
-7.77612
-7.73593
-7.69165
-7.6433
-7.59138
-7.53596
-7.47707
-7.41527
-7.35063
-7.28315
-7.21346
-7.14158
-7.06751
-6.99189
-6.91472
-6.83597
-6.75628
-6.67562
-6.59391
-6.51183
-6.42928
-6.34617
-6.26314
-6.04041
-5.81972
-5.56489
-5.31748
-5.03793
-4.77271
-4.47933
-4.20652
-3.91021
-3.63919
-3.34868
-3.0861
-2.80804
-2.55984
-2.30144
-2.07553
-1.84559
-1.64872
-1.45174
-1.28556
-1.122
-0.987087
-0.858452
-0.757336
-0.667857
-0.605862
-0.563165
-0.549614
-7.74953
-7.74021
-7.71245
-7.66669
-7.60376
-7.52487
-7.43108
-7.32394
-7.2052
-7.07612
-6.93846
-6.79402
-6.64389
-6.48968
-6.33296
-6.17443
-5.74955
-5.26518
-4.73608
-4.18234
-3.62407
-3.07727
-2.55539
-2.07381
-1.64815
-1.28526
-0.986795
-0.757023
-0.60554
-0.549293
-7.57498
-7.57281
-7.56628
-7.55546
-7.54039
-7.52105
-7.49767
-7.47027
-7.43887
-7.40378
-7.36506
-7.32272
-7.27718
-7.22848
-7.17663
-7.12211
-7.06498
-7.00521
-6.94335
-6.87942
-6.81338
-6.74582
-6.67672
-6.60604
-6.53436
-6.46164
-6.38781
-6.31347
-6.23854
-6.16292
-6.08721
-5.88326
-5.67997
-5.44372
-5.21282
-4.95008
-4.69906
-4.41944
-4.1577
-3.87164
-3.60857
-3.32525
-3.06819
-2.79513
-2.55075
-2.29566
-2.07195
-1.84357
-1.6475
-1.45095
-1.28493
-1.12142
-0.986497
-0.857849
-0.756714
-0.667229
-0.605227
-0.562534
-0.548982
-7.40758
-7.39946
-7.37526
-7.33532
-7.2803
-7.21115
-7.1287
-7.03422
-6.92913
-6.81444
-6.69163
-6.56225
-6.42718
-6.28786
-6.14564
-6.00115
-5.61081
-5.16032
-4.66159
-4.13254
-3.59264
-3.0588
-2.54591
-2.06995
-1.64677
-1.28456
-0.986188
-0.756406
-0.60492
-0.548679
-7.24763
-7.24573
-7.24003
-7.23057
-7.21738
-7.20046
-7.17997
-7.15595
-7.12839
-7.09756
-7.0635
-7.02621
-6.98604
-6.94301
-6.89714
-6.84882
-6.79809
-6.74493
-6.68981
-6.63273
-6.57367
-6.51312
-6.45106
-6.38745
-6.32282
-6.25712
-6.19027
-6.12282
-6.05469
-5.9858
-5.91667
-5.72975
-5.54239
-5.32335
-5.10793
-4.86118
-4.62386
-4.35772
-4.107
-3.8313
-3.57637
-3.30048
-3.04916
-2.7813
-2.54087
-2.2892
-2.06781
-1.84112
-1.64597
-1.44996
-1.28416
-1.12077
-0.985871
-0.857237
-0.7561
-0.666621
-0.604621
-0.561935
-0.548385
-7.09397
-7.08684
-7.06561
-7.03052
-6.98211
-6.92114
-6.84827
-6.76453
-6.6711
-6.56879
-6.45885
-6.3426
-6.22077
-6.09461
-5.96531
-5.83344
-5.47453
-5.05554
-4.5858
-4.08102
-3.55969
-3.03922
-2.53562
-2.06552
-1.64508
-1.28373
-0.985541
-0.755793
-0.604328
-0.548099
-6.9469
-6.94523
-6.94021
-6.93188
-6.92027
-6.90536
-6.88731
-6.86611
-6.84179
-6.81455
-6.78442
-6.75139
-6.71578
-6.67758
-6.63679
-6.59378
-6.54855
-6.50107
-6.45177
-6.40062
-6.34761
-6.29317
-6.23727
-6.17988
-6.12145
-6.06194
-6.00129
-5.93997
-5.87791
-5.81504
-5.75184
-5.58032
-5.40752
-5.20437
-5.0034
-4.77178
-4.54759
-4.29457
-4.05471
-3.78938
-3.5427
-3.27443
-3.02902
-2.76653
-2.53018
-2.28204
-2.06309
-1.83822
-1.64412
-1.44875
-1.28326
-1.12003
-0.9852
-0.856608
-0.755487
-0.66603
-0.604041
-0.561368
-0.547821
-6.80538
-6.7991
-6.78035
-6.74934
-6.70649
-6.65245
-6.58772
-6.51315
-6.42972
-6.3381
-6.23934
-6.13456
-6.02438
-5.90987
-5.7921
-5.67154
-5.34117
-4.95138
-4.50916
-4.02804
-3.52534
-3.01853
-2.52452
-2.06051
-1.64306
-1.28275
-0.984843
-0.755179
-0.603758
-0.54755
-6.66973
-6.66826
-6.66381
-6.65644
-6.64616
-6.63295
-6.61695
-6.59815
-6.57656
-6.55236
-6.52557
-6.49618
-6.46445
-6.43038
-6.39395
-6.35549
-6.315
-6.27243
-6.22816
-6.18218
-6.13443
-6.08533
-6.03483
-5.9829
-5.92994
-5.87591
-5.82075
-5.76488
-5.70825
-5.65077
-5.59289
-5.4353
-5.27577
-5.08725
-4.89972
-4.68234
-4.47068
-4.23033
-4.00112
-3.74608
-3.50769
-3.24716
-3.0078
-2.75082
-2.51867
-2.27418
-2.05778
-1.83486
-1.64191
-1.4473
-1.2822
-1.1192
-0.984473
-0.855954
-0.754871
-0.66545
-0.603482
-0.56083
-0.547287
-6.53931
-6.53373
-6.51708
-6.48952
-6.4514
-6.40324
-6.34546
-6.27875
-6.20394
-6.12158
-6.03254
-5.9378
-5.83787
-5.73368
-5.62617
-5.51574
-5.21124
-4.84841
-4.43217
-3.97396
-3.48975
-2.99681
-2.51262
-2.05491
-1.64068
-1.2816
-0.984085
-0.75456
-0.60321
-0.547031
-6.41355
-6.41223
-6.40828
-6.40171
-6.39256
-6.3808
-6.36654
-6.34978
-6.33052
-6.30891
-6.28498
-6.2587
-6.2303
-6.19978
-6.16712
-6.13259
-6.09618
-6.05788
-6.01799
-5.97649
-5.93335
-5.88892
-5.84317
-5.79604
-5.74791
-5.69873
-5.64845
-5.59744
-5.54565
-5.49301
-5.4399
-5.29488
-5.14744
-4.97236
-4.79732
-4.5933
-4.39353
-4.16535
-3.9465
-3.70161
-3.47149
-3.21875
-2.98555
-2.73419
-2.50634
-2.26561
-2.05187
-1.83102
-1.63935
-1.4456
-1.28096
-1.11826
-0.983681
-0.855269
-0.754245
-0.664879
-0.602942
-0.560317
-0.546781
-6.29274
-6.28776
-6.27291
-6.24829
-6.21422
-6.17111
-6.1193
-6.05939
-5.99205
-5.91774
-5.83722
-5.7513
-5.66042
-5.5654
-5.46705
-5.36573
-5.08471
-4.74677
-4.35502
-3.91893
-3.453
-2.97406
-2.49989
-2.0487
-1.63793
-1.28027
-0.983257
-0.753927
-0.602678
-0.546537
-6.17611
-6.17494
-6.1714
-6.16553
-6.15734
-6.14681
-6.13404
-6.11903
-6.10177
-6.08239
-6.06092
-6.03732
-6.01179
-5.98433
-5.95492
-5.9238
-5.89095
-5.85635
-5.82028
-5.78271
-5.74361
-5.70328
-5.6617
-5.61881
-5.57496
-5.53008
-5.48413
-5.43745
-5.38999
-5.34168
-5.29286
-5.15921
-5.02276
-4.86002
-4.69653
-4.50501
-4.31647
-4.09994
-3.89111
-3.65616
-3.43423
-3.18929
-2.9623
-2.71666
-2.49321
-2.25634
-2.04536
-1.8267
-1.63641
-1.44363
-1.27953
-1.11719
-0.982813
-0.854544
-0.753605
-0.664311
-0.602418
-0.559827
-0.546299
-6.06394
-6.05948
-6.04615
-6.02407
-5.99347
-5.95471
-5.90807
-5.85404
-5.7932
-5.72592
-5.65286
-5.57471
-5.49184
-5.40496
-5.3148
-5.22164
-4.9619
-4.64689
-4.27812
-3.86324
-3.41527
-2.95034
-2.48636
-2.04188
-1.6348
-1.27875
-0.982349
-0.753278
-0.60216
-0.546067
-5.95552
-5.95446
-5.95128
-5.94601
-5.93865
-5.92918
-5.9177
-5.90419
-5.88865
-5.8712
-5.85185
-5.83056
-5.80753
-5.78273
-5.75614
-5.72798
-5.69824
-5.66688
-5.63415
-5.60002
-5.56446
-5.52775
-5.48985
-5.45072
-5.41064
-5.36959
-5.3275
-5.28469
-5.2411
-5.19667
-5.15171
-5.02831
-4.90187
-4.75043
-4.59763
-4.41776
-4.23981
-4.03437
-3.8352
-3.60992
-3.39606
-3.15889
-2.93814
-2.69828
-2.4793
-2.24637
-2.03824
-1.82188
-1.63309
-1.44138
-1.27791
-1.116
-0.981862
-0.853774
-0.752945
-0.663743
-0.601906
-0.559357
-0.54584
-5.85112
-5.8471
-5.8351
-5.8152
-5.7876
-5.75261
-5.71045
-5.66154
-5.60637
-5.54526
-5.47874
-5.40745
-5.33168
-5.25205
-5.16921
-5.08339
-4.84294
-4.54901
-4.20176
-3.80715
-3.37671
-2.92574
-2.47206
-2.03446
-1.63128
-1.27702
-0.981353
-0.752606
-0.601653
-0.545618
-5.7501
-5.74915
-5.74628
-5.74152
-5.73488
-5.72633
-5.71596
-5.70375
-5.68971
-5.67393
-5.65642
-5.63714
-5.61628
-5.59379
-5.56967
-5.54411
-5.51708
-5.48855
-5.45875
-5.42766
-5.39522
-5.3617
-5.32706
-5.29125
-5.25454
-5.21689
-5.17824
-5.13888
-5.09876
-5.05781
-5.01633
-4.9022
-4.78485
-4.64377
-4.50082
-4.3318
-4.1638
-3.96889
-3.77898
-3.56309
-3.35713
-3.12765
-2.91312
-2.67907
-2.46461
-2.23571
-2.03052
-1.81657
-1.62936
-1.43883
-1.27607
-1.11466
-0.980819
-0.852952
-0.75226
-0.663172
-0.601403
-0.558904
-0.545401
-5.65273
-5.6491
-5.63825
-5.62024
-5.59525
-5.56354
-5.52528
-5.48084
-5.43064
-5.37494
-5.3142
-5.24898
-5.17951
-5.10635
-5.03005
-4.95084
-4.72787
-4.45331
-4.12616
-3.75086
-3.33745
-2.90032
-2.45701
-2.02644
-1.62735
-1.27507
-0.980261
-0.751907
-0.601154
-0.545188
-5.55863
-5.55776
-5.55517
-5.55085
-5.54483
-5.53708
-5.52767
-5.5166
-5.50385
-5.48953
-5.47362
-5.45611
-5.43713
-5.41667
-5.39471
-5.37141
-5.34677
-5.32073
-5.29352
-5.26509
-5.23541
-5.20471
-5.17295
-5.14009
-5.10637
-5.07175
-5.03617
-4.9999
-4.96289
-4.92507
-4.88672
-4.78096
-4.67186
-4.54025
-4.40638
-4.24744
-4.08875
-3.90379
-3.72272
-3.51588
-3.31762
-3.0957
-2.88734
-2.65912
-2.44921
-2.2244
-2.02222
-1.81076
-1.62524
-1.43599
-1.27401
-1.11317
-0.979678
-0.852073
-0.751547
-0.662593
-0.600906
-0.558466
-0.544979
-5.46742
-5.46412
-5.45427
-5.43791
-5.41519
-5.38635
-5.35151
-5.31099
-5.26516
-5.21423
-5.1586
-5.09876
-5.0349
-4.96751
-4.89709
-4.82382
-4.61671
-4.35994
-4.05154
-3.69455
-3.29764
-2.87416
-2.44123
-2.01784
-1.62303
-1.2729
-0.979065
-0.751176
-0.600659
-0.544773
-5.37939
-5.37861
-5.37625
-5.37232
-5.36684
-5.35979
-5.35123
-5.34115
-5.32954
-5.31648
-5.30198
-5.28601
-5.26869
-5.25002
-5.22995
-5.20866
-5.18611
-5.16228
-5.13735
-5.11128
-5.08405
-5.05586
-5.02667
-4.99643
-4.96538
-4.93347
-4.90064
-4.86715
-4.83293
-4.79792
-4.76239
-4.66422
-4.56265
-4.4397
-4.31421
-4.16463
-4.01468
-3.83912
-3.66648
-3.46835
-3.27758
-3.06308
-2.86084
-2.63841
-2.4331
-2.21242
-2.01332
-1.80446
-1.62071
-1.43283
-1.27172
-1.11152
-0.978428
-0.851128
-0.750798
-0.662002
-0.600412
-0.55804
-0.544572
-5.294
-5.291
-5.28201
-5.2671
-5.24637
-5.22004
-5.1882
-5.15113
-5.10916
-5.06245
-5.01135
-4.95629
-4.89744
-4.83522
-4.77007
-4.70215
-4.50943
-4.269
-3.97805
-3.63841
-3.2574
-2.84733
-2.42478
-2.00865
-1.61829
-1.27049
-0.977759
-0.750408
-0.600165
-0.544372
-5.21151
-5.21079
-5.20864
-5.20505
-5.20005
-5.19361
-5.18579
-5.17658
-5.16596
-5.15403
-5.14076
-5.12615
-5.11029
-5.09318
-5.07479
-5.05527
-5.03458
-5.01269
-4.98978
-4.96582
-4.94076
-4.9148
-4.88789
-4.86
-4.83134
-4.80185
-4.77149
-4.74048
-4.70878
-4.67631
-4.64333
-4.55202
-4.45729
-4.34229
-4.22451
-4.08361
-3.94181
-3.77511
-3.61048
-3.42071
-3.23718
-3.02993
-2.8337
-2.61704
-2.41631
-2.19981
-2.00385
-1.79766
-1.61578
-1.42935
-1.26919
-1.10971
-0.977064
-0.850114
-0.75001
-0.661395
-0.599918
-0.557623
-0.544176
-5.13142
-5.12867
-5.12046
-5.10681
-5.08783
-5.06371
-5.03452
-5.0005
-4.96194
-4.91896
-4.8719
-4.8211
-4.76672
-4.70913
-4.64873
-4.58564
-4.40599
-4.18055
-3.90583
-3.58258
-3.21686
-2.81991
-2.40767
-1.99891
-1.61315
-1.26784
-0.976337
-0.7496
-0.599669
-0.543982
-5.05399
-5.05333
-5.05136
-5.04807
-5.04349
-5.03758
-5.03041
-5.02197
-5.01224
-5.00129
-4.98911
-4.97569
-4.96113
-4.94541
-4.9285
-4.91054
-4.89149
-4.87134
-4.85023
-4.82813
-4.80501
-4.78103
-4.75617
-4.73038
-4.70384
-4.67653
-4.64838
-4.61961
-4.59017
-4.56
-4.52931
-4.44423
-4.35573
-4.248
-4.13731
-4.00446
-3.87027
-3.7119
-3.55485
-3.37307
-3.19653
-2.99633
-2.80602
-2.59506
-2.3989
-2.1866
-1.99383
-1.79038
-1.61043
-1.42556
-1.26642
-1.10772
-0.975581
-0.849025
-0.74918
-0.66077
-0.59942
-0.557212
-0.54379
-4.97875
-4.97623
-4.96869
-4.95616
-4.93873
-4.91655
-4.8897
-4.85839
-4.82285
-4.7832
-4.73972
-4.69274
-4.64237
-4.58893
-4.5328
-4.47408
-4.3063
-4.09462
-3.83499
-3.5272
-3.17613
-2.79197
-2.38996
-1.98861
-1.6076
-1.26494
-0.974792
-0.748746
-0.599169
-0.543599
-4.90595
-4.90535
-4.90353
-4.90051
-4.8963
-4.89087
-4.88428
-4.87651
-4.86755
-4.85747
-4.84626
-4.8339
-4.82048
-4.80599
-4.7904
-4.77382
-4.75625
-4.73763
-4.71812
-4.69769
-4.67629
-4.65409
-4.63106
-4.60714
-4.58252
-4.55716
-4.53101
-4.50426
-4.47685
-4.44875
-4.42015
-4.3407
-4.25789
-4.1568
-4.05266
-3.92725
-3.80015
-3.6496
-3.49973
-3.32557
-3.15575
-2.96238
-2.77785
-2.57252
-2.3809
-2.17281
-1.98327
-1.78263
-1.60468
-1.42144
-1.2634
-1.10555
-0.973974
-0.847858
-0.748302
-0.660123
-0.598917
-0.556805
-0.543411
-4.83532
-4.833
-4.82605
-4.81451
-4.79845
-4.778
-4.75323
-4.7243
-4.69146
-4.65477
-4.6145
-4.57092
-4.52413
-4.47444
-4.42216
-4.36737
-4.21039
-4.01133
-3.76568
-3.47243
-3.13536
-2.76362
-2.37171
-1.97779
-1.60166
-1.2618
-0.973122
-0.747845
-0.598662
-0.543223
-4.76662
-4.76606
-4.76439
-4.7616
-4.75772
-4.75271
-4.74662
-4.73945
-4.73119
-4.72188
-4.71153
-4.70011
-4.68771
-4.67431
-4.65989
-4.64455
-4.62828
-4.61104
-4.59295
-4.57401
-4.55416
-4.53355
-4.51215
-4.48992
-4.46703
-4.44342
-4.41907
-4.39413
-4.36857
-4.34234
-4.31562
-4.2413
-4.16367
-4.06867
-3.97054
-3.85202
-3.73152
-3.5883
-3.44521
-3.2783
-3.11492
-2.92817
-2.74927
-2.54947
-2.36236
-2.15848
-1.97218
-1.7744
-1.59853
-1.417
-1.26013
-1.1032
-0.972237
-0.846606
-0.747374
-0.659451
-0.598405
-0.556399
-0.543036
-4.70007
-4.69792
-4.69151
-4.68084
-4.66599
-4.64708
-4.62416
-4.59737
-4.56693
-4.53289
-4.49549
-4.45497
-4.41142
-4.3651
-4.3163
-4.26508
-4.11793
-3.93047
-3.69782
-3.41824
-3.09455
-2.73487
-2.35291
-1.96646
-1.59531
-1.2584
-0.971319
-0.74689
-0.598144
-0.54285
-4.63529
-4.63478
-4.63323
-4.63065
-4.62705
-4.62242
-4.61679
-4.61015
-4.6025
-4.59388
-4.58429
-4.57371
-4.56221
-4.54979
-4.53641
-4.52218
-4.50707
-4.49106
-4.47426
-4.45664
-4.43818
-4.419
-4.39907
-4.37836
-4.35701
-4.33499
-4.31225
-4.28896
-4.26507
-4.24053
-4.21552
-4.14586
-4.07295
-3.98353
-3.89093
-3.77879
-3.66443
-3.52808
-3.39139
-3.23136
-3.07415
-2.89377
-2.72035
-2.52597
-2.34332
-2.14363
-1.9606
-1.76573
-1.59199
-1.41224
-1.2566
-1.10066
-0.970367
-0.845268
-0.746392
-0.658751
-0.597881
-0.555992
-0.542663
-4.5725
-4.57051
-4.56457
-4.55468
-4.54091
-4.52337
-4.50209
-4.47722
-4.44892
-4.41726
-4.38243
-4.34466
-4.30402
-4.26074
-4.21509
-4.16712
-4.02892
-3.85211
-3.63152
-3.36479
-3.05383
-2.70581
-2.33363
-1.95464
-1.58858
-1.25475
-0.969381
-0.74588
-0.597613
-0.542477
-4.51134
-4.51086
-4.50942
-4.50703
-4.50369
-4.49939
-4.49417
-4.488
-4.4809
-4.47289
-4.46398
-4.45415
-4.44347
-4.43191
-4.41947
-4.40622
-4.39216
-4.37725
-4.36159
-4.34517
-4.32795
-4.31006
-4.29146
-4.27211
-4.25216
-4.23157
-4.21029
-4.18849
-4.16611
-4.14311
-4.11965
-4.05423
-3.98563
-3.90132
-3.81382
-3.70757
-3.59893
-3.46899
-3.33832
-3.18482
-3.0335
-2.85926
-2.69116
-2.50208
-2.32381
-2.12829
-1.94854
-1.75662
-1.58506
-1.40716
-1.25282
-1.09794
-0.968361
-0.843839
-0.745353
-0.65802
-0.597342
-0.555581
-0.54229
-4.45201
-4.45017
-4.44464
-4.43545
-4.42265
-4.40633
-4.38653
-4.36336
-4.33699
-4.30746
-4.27494
-4.23965
-4.20163
-4.16111
-4.11831
-4.07328
-3.94325
-3.77622
-3.56681
-3.31212
-3.01327
-2.6765
-2.31391
-1.94235
-1.58146
-1.25084
-0.967306
-0.744811
-0.597067
-0.542103
-4.39419
-4.39375
-4.39241
-4.39018
-4.38708
-4.38307
-4.37821
-4.37247
-4.36585
-4.3584
-4.3501
-4.34093
-4.33097
-4.3202
-4.30859
-4.29624
-4.28311
-4.26918
-4.25456
-4.23921
-4.22312
-4.20638
-4.18897
-4.17086
-4.15217
-4.13287
-4.11292
-4.09246
-4.07145
-4.04984
-4.02779
-3.96624
-3.90157
-3.82196
-3.73914
-3.63835
-3.53501
-3.41108
-3.28607
-3.13875
-2.99305
-2.82471
-2.66175
-2.47784
-2.30388
-2.11249
-1.93603
-1.74708
-1.57776
-1.40176
-1.24879
-1.09502
-0.966216
-0.842318
-0.744254
-0.657255
-0.596788
-0.555164
-0.541914
-4.33807
-4.33635
-4.3312
-4.32263
-4.3107
-4.29547
-4.27699
-4.25536
-4.23071
-4.2031
-4.17267
-4.13961
-4.10396
-4.06593
-4.02571
-3.98336
-3.86078
-3.70274
-3.50369
-3.26029
-2.97294
-2.647
-2.29379
-1.92961
-1.57397
-1.24668
-0.965092
-0.743682
-0.596503
-0.541724
-4.28346
-4.28304
-4.28179
-4.27972
-4.27682
-4.27308
-4.26854
-4.26318
-4.257
-4.25003
-4.24228
-4.23372
-4.22441
-4.21433
-4.20348
-4.19192
-4.17963
-4.16659
-4.1529
-4.13852
-4.12343
-4.10774
-4.09141
-4.07441
-4.05686
-4.03873
-4.01998
-4.00074
-3.98097
-3.96063
-3.93986
-3.88182
-3.82075
-3.74543
-3.66693
-3.57118
-3.47277
-3.35443
-3.23474
-3.09326
-2.95289
-2.79021
-2.63221
-2.45333
-2.2836
-2.09629
-1.9231
-1.73714
-1.57009
-1.39607
-1.24451
-1.09192
-0.963934
-0.840703
-0.743094
-0.656455
-0.596214
-0.55474
-0.541533
-4.23018
-4.22857
-4.22375
-4.21575
-4.20459
-4.19035
-4.17305
-4.1528
-4.12971
-4.10382
-4.07527
-4.04423
-4.01073
-3.97495
-3.93708
-3.89716
-3.78139
-3.63161
-3.44217
-3.20935
-2.93289
-2.61737
-2.27331
-1.91646
-1.56612
-1.24227
-0.962737
-0.742489
-0.595919
-0.54134
-4.17842
-4.17803
-4.17686
-4.17492
-4.1722
-4.1687
-4.16445
-4.15943
-4.15365
-4.14712
-4.13986
-4.13184
-4.12311
-4.11367
-4.10349
-4.09265
-4.08112
-4.06889
-4.05603
-4.04253
-4.02835
-4.0136
-3.99824
-3.98225
-3.96574
-3.94867
-3.93101
-3.91288
-3.89424
-3.87505
-3.85545
-3.80062
-3.74285
-3.67147
-3.59695
-3.50586
-3.41204
-3.29894
-3.18424
-3.04828
-2.91301
-2.75574
-2.60253
-2.42854
-2.26295
-2.07968
-1.90975
-1.72681
-1.56207
-1.39006
-1.23998
-1.08863
-0.961509
-0.83899
-0.741869
-0.655616
-0.595619
-0.554303
-0.541145
-4.12788
-4.12638
-4.12187
-4.11436
-4.1039
-4.09054
-4.07432
-4.0553
-4.03362
-4.00928
-3.98243
-3.95322
-3.92166
-3.88793
-3.8522
-3.8145
-3.70494
-3.56277
-3.38223
-3.15931
-2.89317
-2.58765
-2.2525
-1.90292
-1.55792
-1.23762
-0.960241
-0.741231
-0.595312
-0.540946
-4.07876
-4.0784
-4.0773
-4.07548
-4.07293
-4.06965
-4.06566
-4.06095
-4.05552
-4.04939
-4.04257
-4.03503
-4.02684
-4.01796
-4.0084
-3.9982
-3.98736
-3.97585
-3.96375
-3.95104
-3.93769
-3.92379
-3.90932
-3.89424
-3.87867
-3.86256
-3.84589
-3.82876
-3.81115
-3.79302
-3.77448
-3.72258
-3.66783
-3.60008
-3.52922
-3.44245
-3.35288
-3.24467
-3.13466
-3.00392
-2.87347
-2.72138
-2.57278
-2.40354
-2.242
-2.06271
-1.89601
-1.7161
-1.5537
-1.38377
-1.23521
-1.08514
-0.958942
-0.837178
-0.740578
-0.654736
-0.595001
-0.553854
-0.540746
-4.03078
-4.02936
-4.02512
-4.01807
-4.00824
-3.99568
-3.98042
-3.96252
-3.94211
-3.91918
-3.89387
-3.86631
-3.83652
-3.80465
-3.77087
-3.73518
-3.63132
-3.49613
-3.32385
-3.11019
-2.85382
-2.55789
-2.23142
-1.88901
-1.54938
-1.23273
-0.957604
-0.739906
-0.594681
-0.540542
-3.9841
-3.98376
-3.98272
-3.98101
-3.97861
-3.97553
-3.97177
-3.96734
-3.96223
-3.95646
-3.95004
-3.94294
-3.93522
-3.92687
-3.91785
-3.90824
-3.89802
-3.88716
-3.87575
-3.86375
-3.85115
-3.83803
-3.82436
-3.81011
-3.79539
-3.78016
-3.76438
-3.74818
-3.7315
-3.71433
-3.69676
-3.64754
-3.59555
-3.53113
-3.46365
-3.38088
-3.29527
-3.19162
-3.086
-2.96018
-2.83431
-2.68717
-2.54302
-2.37837
-2.22079
-2.04541
-1.88193
-1.70504
-1.545
-1.37718
-1.2302
-1.08147
-0.956235
-0.835267
-0.739219
-0.653815
-0.594356
-0.55339
-0.540336
-3.93847
-3.93714
-3.93315
-3.9265
-3.91724
-3.90541
-3.89101
-3.87413
-3.85486
-3.83322
-3.8093
-3.78324
-3.75505
-3.72488
-3.69286
-3.65902
-3.56037
-3.43162
-3.267
-3.062
-2.81487
-2.52812
-2.21008
-1.87475
-1.54053
-1.2276
-0.954827
-0.738513
-0.594023
-0.540125
-3.89406
-3.89373
-3.89276
-3.89114
-3.88889
-3.88597
-3.88243
-3.87826
-3.87343
-3.86799
-3.86193
-3.85523
-3.84795
-3.84005
-3.83154
-3.82246
-3.8128
-3.80254
-3.79174
-3.7804
-3.76847
-3.75605
-3.74311
-3.72962
-3.71567
-3.70124
-3.68628
-3.67091
-3.6551
-3.63879
-3.62211
-3.57535
-3.52589
-3.46454
-3.40017
-3.32109
-3.23916
-3.13977
-3.03828
-2.9171
-2.79557
-2.65316
-2.51327
-2.35306
-2.19934
-2.02781
-1.86751
-1.69365
-1.53599
-1.37032
-1.22495
-1.07762
-0.953388
-0.833257
-0.737791
-0.65285
-0.593685
-0.552909
-0.539912
-3.85071
-3.84945
-3.84568
-3.83941
-3.83066
-3.81948
-3.80588
-3.78992
-3.77169
-3.7512
-3.72854
-3.70385
-3.67712
-3.64849
-3.61809
-3.58593
-3.49204
-3.36922
-3.21169
-3.01479
-2.77639
-2.49843
-2.18856
-1.8602
-1.53138
-1.22225
-0.951915
-0.737052
-0.593338
-0.539694
-3.80829
-3.80798
-3.80706
-3.80554
-3.8034
-3.80065
-3.79731
-3.79336
-3.7888
-3.78365
-3.77792
-3.77159
-3.76469
-3.75722
-3.74916
-3.74056
-3.73141
-3.72169
-3.71146
-3.7007
-3.6894
-3.67762
-3.66534
-3.65253
-3.63929
-3.62558
-3.61138
-3.59677
-3.58173
-3.56623
-3.55036
-3.50584
-3.45872
-3.40018
-3.33869
-3.26303
-3.18452
-3.08911
-2.99148
-2.87467
-2.75727
-2.61936
-2.48356
-2.32766
-2.1777
-2.00994
-1.85279
-1.68195
-1.52669
-1.3632
-1.21948
-1.07359
-0.950404
-0.831148
-0.736295
-0.651839
-0.592984
-0.552409
-0.539472
-3.76694
-3.76576
-3.7622
-3.75627
-3.74799
-3.73741
-3.72452
-3.7094
-3.69211
-3.67268
-3.65117
-3.62772
-3.60232
-3.57509
-3.54617
-3.51555
-3.42605
-3.3087
-3.15776
-2.96845
-2.73831
-2.46876
-2.16683
-1.84534
-1.52193
-1.21667
-0.948863
-0.735521
-0.592622
-0.539245
-3.72646
-3.72617
-3.7253
-3.72386
-3.72184
-3.71924
-3.71607
-3.71233
-3.70801
-3.70314
-3.69771
-3.69171
-3.68517
-3.67808
-3.67043
-3.66227
-3.65359
-3.64436
-3.63464
-3.62442
-3.61368
-3.60248
-3.5908
-3.57862
-3.56602
-3.55298
-3.53945
-3.52555
-3.51122
-3.49645
-3.48133
-3.43887
-3.39388
-3.33794
-3.27911
-3.20662
-3.13129
-3.03959
-2.9456
-2.83291
-2.71942
-2.5858
-2.45394
-2.3022
-2.15589
-1.99183
-1.83779
-1.66996
-1.5171
-1.35583
-1.2138
-1.06939
-0.947285
-0.828941
-0.734728
-0.650782
-0.592252
-0.551888
-0.539014
-3.68696
-3.68584
-3.68247
-3.67686
-3.66902
-3.65898
-3.64676
-3.6324
-3.61597
-3.59749
-3.57704
-3.55472
-3.53053
-3.50459
-3.47702
-3.44781
-3.36233
-3.25003
-3.10522
-2.92302
-2.70069
-2.43918
-2.14494
-1.83021
-1.51222
-1.21088
-0.945677
-0.733919
-0.591874
-0.538778
-3.64825
-3.64798
-3.64716
-3.64579
-3.64388
-3.64142
-3.63842
-3.63488
-3.63079
-3.62617
-3.62101
-3.61531
-3.6091
-3.60236
-3.59509
-3.58733
-3.57907
-3.57028
-3.56103
-3.5513
-3.54107
-3.5304
-3.51928
-3.50767
-3.49566
-3.48322
-3.47032
-3.45705
-3.44338
-3.42928
-3.41484
-3.37427
-3.33125
-3.2777
-3.22133
-3.15179
-3.07942
-2.99119
-2.90061
-2.79181
-2.68203
-2.55251
-2.42442
-2.27669
-2.13394
-1.97351
-1.82254
-1.6577
-1.50726
-1.34822
-1.20791
-1.06502
-0.944034
-0.826637
-0.733091
-0.649678
-0.591487
-0.551344
-0.538536
-3.61045
-3.60939
-3.60621
-3.60089
-3.59346
-3.58394
-3.57231
-3.55865
-3.54301
-3.5254
-3.5059
-3.48461
-3.46154
-3.43677
-3.41044
-3.38253
-3.30075
-3.19312
-3.05401
-2.87847
-2.66353
-2.40972
-2.12293
-1.81484
-1.50225
-1.20489
-0.942362
-0.732247
-0.591092
-0.538289
-3.57334
-3.57309
-3.57232
-3.57103
-3.56923
-3.56691
-3.56407
-3.56072
-3.55684
-3.55245
-3.54755
-3.54213
-3.53621
-3.5298
-3.52287
-3.51548
-3.5076
-3.49922
-3.4904
-3.48112
-3.47135
-3.46117
-3.45055
-3.43946
-3.42799
-3.4161
-3.40378
-3.39109
-3.37802
-3.36453
-3.35072
-3.31189
-3.27069
-3.21936
-3.16526
-3.09846
-3.02885
-2.94387
-2.85649
-2.75136
-2.6451
-2.51949
-2.39503
-2.25118
-2.11188
-1.955
-1.80706
-1.64519
-1.49716
-1.34038
-1.20182
-1.06049
-0.940655
-0.824237
-0.731385
-0.648526
-0.590688
-0.550776
-0.538036
-3.53707
-3.53607
-3.53309
-3.52808
-3.52104
-3.51199
-3.50093
-3.4879
-3.47297
-3.45616
-3.43754
-3.4172
-3.39513
-3.37145
-3.34625
-3.31953
-3.24117
-3.13787
-3.00406
-2.83477
-2.62683
-2.3804
-2.10083
-1.79926
-1.49204
-1.19871
-0.93892
-0.730506
-0.590276
-0.537778
-3.50148
-3.50124
-3.50053
-3.49934
-3.49766
-3.49548
-3.49281
-3.48965
-3.48597
-3.48181
-3.47715
-3.47198
-3.46634
-3.46022
-3.45361
-3.44654
-3.43902
-3.43101
-3.42258
-3.4137
-3.40436
-3.39462
-3.38446
-3.37385
-3.36287
-3.3515
-3.3397
-3.32755
-3.31503
-3.30211
-3.28887
-3.25165
-3.21212
-3.16284
-3.11086
-3.0466
-2.97957
-2.89763
-2.81326
-2.7116
-2.60868
-2.4868
-2.36581
-2.22571
-2.08977
-1.93636
-1.7914
-1.63247
-1.48686
-1.33235
-1.19556
-1.05581
-0.937156
-0.821746
-0.72961
-0.647326
-0.589855
-0.550182
-0.537513
-3.46645
-3.46556
-3.46282
-3.45815
-3.45151
-3.44291
-3.43235
-3.4199
-3.40563
-3.38954
-3.37172
-3.35224
-3.33111
-3.30842
-3.28427
-3.25865
-3.18345
-3.08416
-2.95531
-2.7919
-2.5906
-2.35123
-2.07866
-1.78349
-1.48162
-1.19235
-0.935358
-0.728695
-0.589423
-0.537242
-3.43206
-3.43187
-3.43125
-3.4302
-3.42869
-3.4267
-3.42423
-3.42126
-3.41779
-3.41383
-3.4094
-3.40446
-3.39908
-3.39322
-3.38689
-3.38013
-3.37292
-3.36525
-3.35718
-3.34867
-3.33973
-3.33039
-3.32066
-3.31049
-3.29997
-3.28906
-3.27774
-3.26609
-3.25408
-3.24168
-3.22898
-3.19324
-3.15527
-3.10789
-3.05788
-2.996
-2.93139
-2.85231
-2.77079
-2.67242
-2.57267
-2.45437
-2.33672
-2.20025
-2.06757
-1.91756
-1.77555
-1.61954
-1.47634
-1.32411
-1.18911
-1.05097
-0.933534
-0.819162
-0.727765
-0.646075
-0.588983
-0.54956
-0.536965
-3.39812
-3.39739
-3.39508
-3.39086
-3.38463
-3.37643
-3.36633
-3.35441
-3.34073
-3.32531
-3.30821
-3.28954
-3.26927
-3.24749
-3.22431
-3.19971
-3.12744
-3.03189
-2.90768
-2.74982
-2.55482
-2.32223
-2.05645
-1.76756
-1.47101
-1.18583
-0.931678
-0.726815
-0.588533
-0.53668
-3.36459
-3.36442
-3.36403
-3.36331
-3.36211
-3.36041
-3.35819
-3.35543
-3.35215
-3.34838
-3.34414
-3.33941
-3.33424
-3.32863
-3.32255
-3.31606
-3.30915
-3.30179
-3.29404
-3.28588
-3.27729
-3.26834
-3.25899
-3.24923
-3.23913
-3.22866
-3.21779
-3.2066
-3.19506
-3.18315
-3.17094
-3.13659
-3.10006
-3.05446
-3.00629
-2.94664
-2.88429
-2.80792
-2.72908
-2.63384
-2.53712
-2.42224
-2.30781
-2.17484
-2.04535
-1.89867
-1.75955
-1.60644
-1.46564
-1.31569
-1.18251
-1.046
-0.929799
-0.816489
-0.725851
-0.644775
-0.588074
-0.548909
-0.536389
-3.33083
-3.33092
-3.32965
-3.32605
-3.32018
-3.31233
-3.30262
-3.29116
-3.27802
-3.26321
-3.2468
-3.22886
-3.20939
-3.18847
-3.16618
-3.14253
-3.07299
-2.98095
-2.8611
-2.70848
-2.51949
-2.29341
-2.03423
-1.7515
-1.46023
-1.17915
-0.927888
-0.724868
-0.587604
-0.536091
-3.29639
-3.29742
-3.29807
-3.29819
-3.29794
-3.29663
-3.29458
-3.29199
-3.28883
-3.2852
-3.2811
-3.27655
-3.27157
-3.26617
-3.26033
-3.25409
-3.24744
-3.24037
-3.23293
-3.22509
-3.21684
-3.20823
-3.19925
-3.18987
-3.18015
-3.17008
-3.15963
-3.14887
-3.13778
-3.12632
-3.11457
-3.08151
-3.04634
-3.0024
-2.95596
-2.89841
-2.8382
-2.76438
-2.68809
-2.59583
-2.50201
-2.39042
-2.27909
-2.14952
-2.02313
-1.8797
-1.74344
-1.59319
-1.45478
-1.30712
-1.17576
-1.04091
-0.925956
-0.813732
-0.72387
-0.643425
-0.587126
-0.548226
-0.535786
-3.26217
-3.2647
-3.26681
-3.26366
-3.25791
-3.25028
-3.24092
-3.22989
-3.21725
-3.20302
-3.18724
-3.16999
-3.15126
-3.13114
-3.1097
-3.08693
-3.01996
-2.93121
-2.81548
-2.66783
-2.48459
-2.26479
-2.01201
-1.73534
-1.44929
-1.17233
-0.923993
-0.722854
-0.586636
-0.535473
-3.22556
-3.22633
-3.23181
-3.2364
-3.23669
-3.23534
-3.23322
-3.23059
-3.22748
-3.22394
-3.21997
-3.21556
-3.21077
-3.20556
-3.19994
-3.19394
-3.18755
-3.18075
-3.17359
-3.16605
-3.15811
-3.14983
-3.14119
-3.13217
-3.12283
-3.11314
-3.10308
-3.09272
-3.08204
-3.071
-3.05969
-3.02784
-2.99395
-2.95159
-2.90678
-2.85121
-2.79303
-2.72164
-2.64778
-2.55836
-2.46732
-2.35889
-2.25057
-2.1243
-2.00093
-1.86069
-1.72723
-1.57981
-1.44378
-1.29841
-1.16887
-1.03569
-0.92201
-0.810894
-0.721823
-0.642025
-0.586138
-0.547511
-0.535153
-3.1724
-3.17128
-3.16759
-3.16329
-3.1576
-3.15036
-3.14155
-3.13119
-3.11935
-3.106
-3.0912
-3.07502
-3.05744
-3.03854
-3.0184
-2.997
-2.934
-2.85037
-2.74108
-2.60124
-2.42708
-2.21727
-1.97481
-1.70798
-1.43057
-1.16047
-0.917099
-0.719192
-0.584792
-0.53424
-3.12183
-3.12008
-3.11248
-3.10434
-3.10038
-3.0978
-3.09538
-3.09268
-3.0897
-3.08639
-3.08272
-3.07867
-3.07428
-3.06951
-3.06437
-3.05888
-3.05304
-3.04682
-3.04027
-3.03337
-3.02611
-3.01853
-3.01062
-3.00236
-2.9938
-2.98492
-2.9757
-2.96621
-2.95641
-2.94629
-2.93591
-2.90667
-2.87551
-2.83653
-2.79525
-2.74397
-2.6902
-2.62407
-2.55553
-2.47233
-2.38741
-2.28596
-2.1843
-2.0654
-1.94881
-1.81579
-1.68871
-1.54778
-1.41725
-1.2772
-1.15195
-1.02273
-0.912083
-0.803633
-0.716484
-0.638264
-0.583391
-0.545432
-0.533282
-3.04482
-3.04154
-3.0346
-3.02923
-3.02359
-3.01682
-3.0087
-2.99921
-2.98835
-2.97613
-2.96257
-2.94775
-2.93164
-2.9143
-2.89582
-2.87617
-2.81825
-2.74119
-2.64019
-2.51049
-2.34819
-2.15158
-1.92288
-1.66938
-1.4038
-1.14329
-0.906951
-0.71369
-0.581929
-0.532269
-2.97593
-2.97457
-2.97325
-2.97182
-2.9694
-2.96715
-2.96477
-2.96212
-2.95924
-2.9561
-2.95267
-2.94891
-2.94485
-2.94046
-2.93574
-2.9307
-2.92533
-2.91963
-2.91362
-2.9073
-2.90064
-2.89369
-2.88643
-2.87885
-2.871
-2.86285
-2.85439
-2.84567
-2.83667
-2.82737
-2.81783
-2.79094
-2.76226
-2.72634
-2.68826
-2.64089
-2.59113
-2.52984
-2.46617
-2.38873
-2.30948
-2.21455
-2.11914
-2.00719
-1.89705
-1.77094
-1.65001
-1.51541
-1.39026
-1.25548
-1.13451
-1.00928
-0.901711
-0.795984
-0.710815
-0.634225
-0.580408
-0.543145
-0.531208
-2.90996
-2.9087
-2.90588
-2.90176
-2.89656
-2.89024
-2.88272
-2.87397
-2.864
-2.85277
-2.84032
-2.82671
-2.81191
-2.79599
-2.77899
-2.76092
-2.70759
-2.63649
-2.54305
-2.42265
-2.27133
-2.08706
-1.87139
-1.63067
-1.37664
-1.12563
-0.896373
-0.707863
-0.578828
-0.530094
-2.84691
-2.84684
-2.84624
-2.84516
-2.84386
-2.84217
-2.84016
-2.83788
-2.83529
-2.83242
-2.82927
-2.8258
-2.82206
-2.81802
-2.81366
-2.80902
-2.80409
-2.79884
-2.79332
-2.78751
-2.78139
-2.775
-2.76833
-2.76137
-2.75414
-2.74665
-2.73887
-2.73085
-2.72257
-2.71401
-2.70523
-2.68046
-2.65402
-2.62088
-2.5857
-2.54189
-2.4958
-2.43893
-2.37976
-2.30762
-2.23363
-2.14478
-2.05522
-1.94983
-1.8458
-1.72628
-1.61128
-1.4828
-1.36291
-1.23333
-1.11661
-0.995381
-0.890921
-0.787963
-0.704825
-0.629911
-0.577186
-0.540645
-0.528928
-2.78623
-2.78556
-2.78346
-2.78009
-2.77551
-2.76977
-2.76287
-2.75483
-2.74564
-2.73532
-2.72387
-2.71135
-2.69773
-2.68308
-2.66744
-2.65079
-2.60161
-2.53593
-2.44942
-2.33756
-2.19643
-2.0237
-1.82035
-1.5919
-1.34911
-1.1075
-0.885369
-0.701705
-0.575481
-0.527706
-2.72733
-2.72713
-2.72664
-2.72585
-2.72473
-2.72331
-2.72159
-2.71957
-2.71727
-2.71468
-2.7118
-2.70864
-2.70521
-2.70149
-2.69749
-2.69323
-2.68869
-2.68386
-2.67878
-2.67343
-2.6678
-2.66192
-2.65578
-2.64936
-2.64271
-2.63581
-2.62865
-2.62126
-2.61363
-2.60574
-2.59764
-2.57479
-2.55039
-2.51977
-2.48724
-2.44667
-2.40395
-2.35114
-2.2961
-2.22887
-2.15977
-2.07658
-1.99252
-1.8933
-1.79508
-1.68186
-1.57255
-1.45001
-1.33525
-1.21078
-1.09829
-0.981047
-0.879722
-0.779573
-0.698509
-0.625315
-0.573717
-0.537921
-0.526432
-2.66981
-2.6692
-2.66741
-2.66445
-2.66034
-2.65514
-2.64882
-2.64143
-2.63299
-2.62348
-2.61294
-2.60141
-2.58887
-2.57536
-2.56094
-2.54558
-2.50018
-2.43944
-2.35924
-2.25525
-2.12354
-1.96161
-1.76991
-1.5532
-1.32131
-1.08896
-0.87397
-0.695227
-0.571887
-0.5251
-2.61376
-2.61362
-2.6132
-2.61249
-2.6115
-2.61023
-2.60869
-2.60688
-2.60479
-2.60243
-2.59981
-2.59692
-2.59377
-2.59037
-2.58669
-2.58277
-2.57859
-2.57415
-2.56947
-2.56454
-2.55935
-2.55393
-2.54828
-2.54236
-2.53623
-2.52987
-2.52326
-2.51644
-2.5094
-2.50212
-2.49465
-2.47355
-2.451
-2.42269
-2.39257
-2.35498
-2.31533
-2.26627
-2.21504
-2.15236
-2.0878
-2.00991
-1.931
-1.83761
-1.74489
-1.63769
-1.53386
-1.41706
-1.30731
-1.18786
-1.07955
-0.966293
-0.86812
-0.770814
-0.691864
-0.620431
-0.569993
-0.534964
-0.523712
-2.55918
-2.55864
-2.55703
-2.55435
-2.55062
-2.54587
-2.54008
-2.53329
-2.52552
-2.51676
-2.50705
-2.49642
-2.48485
-2.47238
-2.45907
-2.44489
-2.40292
-2.34668
-2.27228
-2.17554
-2.05258
-1.90075
-1.72007
-1.51458
-1.29328
-1.07005
-0.862186
-0.688426
-0.568037
-0.522267
-2.50582
-2.50569
-2.5053
-2.50466
-2.50376
-2.50261
-2.50121
-2.49955
-2.49764
-2.49549
-2.49309
-2.49043
-2.48754
-2.48441
-2.48103
-2.47742
-2.47357
-2.46948
-2.46517
-2.46063
-2.45584
-2.45084
-2.44562
-2.44017
-2.43451
-2.42864
-2.42253
-2.41623
-2.40973
-2.40301
-2.3961
-2.37659
-2.35573
-2.32952
-2.30161
-2.26674
-2.22993
-2.1843
-2.1366
-2.07812
-2.01778
-1.94483
-1.87075
-1.78286
-1.69536
-1.59389
-1.49531
-1.38406
-1.27918
-1.16465
-1.06046
-0.951166
-0.856149
-0.76171
-0.684903
-0.615264
-0.566014
-0.531771
-0.520763
-2.4537
-2.45321
-2.45174
-2.44929
-2.44588
-2.44151
-2.4362
-2.42995
-2.42279
-2.41472
-2.40576
-2.39594
-2.38526
-2.37375
-2.36144
-2.34833
-2.3095
-2.25739
-2.18832
-2.09827
-1.98345
-1.84108
-1.67082
-1.47608
-1.26504
-1.05078
-0.850024
-0.6813
-0.563925
-0.519199
-2.40286
-2.40274
-2.40239
-2.4018
-2.40098
-2.39992
-2.39864
-2.39712
-2.39536
-2.39338
-2.39118
-2.38873
-2.38607
-2.38319
-2.38008
-2.37675
-2.3732
-2.36943
-2.36545
-2.36125
-2.35684
-2.35222
-2.3474
-2.34236
-2.33713
-2.33171
-2.32606
-2.32024
-2.31423
-2.30801
-2.30162
-2.28357
-2.26425
-2.23996
-2.21408
-2.18171
-2.1475
-2.10505
-2.0606
-2.00603
-1.94963
-1.88129
-1.81175
-1.72903
-1.64648
-1.55047
-1.45693
-1.35103
-1.25088
-1.14116
-1.04104
-0.93568
-0.843818
-0.752262
-0.677624
-0.60981
-0.561773
-0.528334
-0.517578
-2.35309
-2.35264
-2.35129
-2.34904
-2.3459
-2.34188
-2.33698
-2.33122
-2.32462
-2.31717
-2.30889
-2.29982
-2.28995
-2.27931
-2.26792
-2.25579
-2.21983
-2.17151
-2.10733
-2.02347
-1.9162
-1.78268
-1.62227
-1.4378
-1.23668
-1.03121
-0.837518
-0.673864
-0.559552
-0.515893
-2.30442
-2.30431
-2.30399
-2.30345
-2.30269
-2.30172
-2.30054
-2.29914
-2.29752
-2.2957
-2.29366
-2.29141
-2.28896
-2.2863
-2.28343
-2.28035
-2.27708
-2.27359
-2.26992
-2.26605
-2.26196
-2.2577
-2.25325
-2.24858
-2.24375
-2.23873
-2.23351
-2.22812
-2.22256
-2.2168
-2.21089
-2.19417
-2.17627
-2.15374
-2.12972
-2.09965
-2.06784
-2.02833
-1.9869
-1.93596
-1.88322
-1.8192
-1.75392
-1.6761
-1.59823
-1.50744
-1.41872
-1.31799
-1.22244
-1.11743
-1.0213
-0.919848
-0.831132
-0.742473
-0.670026
-0.604064
-0.557264
-0.524646
-0.514147
-2.25689
-2.25647
-2.25523
-2.25316
-2.25026
-2.24656
-2.24204
-2.23672
-2.23062
-2.22373
-2.21609
-2.2077
-2.19856
-2.18871
-2.17817
-2.16694
-2.1336
-2.08876
-2.02909
-1.95096
-1.85072
-1.72551
-1.57441
-1.39974
-1.20821
-1.01135
-0.824676
-0.666116
-0.554912
-0.512342
-2.21031
-2.21021
-2.20991
-2.20941
-2.20872
-2.20782
-2.20672
-2.20543
-2.20394
-2.20226
-2.20038
-2.1983
-2.19604
-2.19358
-2.19093
-2.18809
-2.18506
-2.18184
-2.17844
-2.17486
-2.17108
-2.16714
-2.16302
-2.1587
-2.15423
-2.14958
-2.14475
-2.13976
-2.1346
-2.12927
-2.12379
-2.10829
-2.09169
-2.07078
-2.04847
-2.02053
-1.99094
-1.95414
-1.91551
-1.86794
-1.81861
-1.75864
-1.69735
-1.62414
-1.55072
-1.46489
-1.38079
-1.28504
-1.19394
-1.09352
-1.00132
-0.903715
-0.818129
-0.732367
-0.662124
-0.598034
-0.55249
-0.520708
-0.510471
-2.16472
-2.16433
-2.16319
-2.16127
-2.1586
-2.15518
-2.151
-2.14608
-2.14044
-2.13408
-2.127
-2.11924
-2.11078
-2.10165
-2.09189
-2.08148
-2.05056
-2.00891
-1.95342
-1.8806
-1.78692
-1.6695
-1.52721
-1.36192
-1.17966
-0.991229
-0.811506
-0.658056
-0.549999
-0.508537
-2.12014
-2.12005
-2.11978
-2.11932
-2.11867
-2.11784
-2.11683
-2.11564
-2.11426
-2.11271
-2.11097
-2.10905
-2.10695
-2.10468
-2.10222
-2.0996
-2.0968
-2.09382
-2.09067
-2.08736
-2.08386
-2.08021
-2.07639
-2.0724
-2.06825
-2.06395
-2.05947
-2.05484
-2.05007
-2.04512
-2.04004
-2.02566
-2.01025
-1.99084
-1.97011
-1.94413
-1.91658
-1.8823
-1.84627
-1.80184
-1.7557
-1.69951
-1.64199
-1.57313
-1.50392
-1.42281
-1.34314
-1.25218
-1.16539
-1.06944
-0.981095
-0.887294
-0.804815
-0.721949
-0.653918
-0.591718
-0.547445
-0.516512
-0.506542
-2.07642
-2.07607
-2.07501
-2.07324
-2.07077
-2.0676
-2.06374
-2.05919
-2.05397
-2.04807
-2.04152
-2.03433
-2.02649
-2.01803
-2.00898
-1.99932
-1.97063
-1.93194
-1.8803
-1.8124
-1.72484
-1.61473
-1.48077
-1.32442
-1.1511
-0.970896
-0.798043
-0.649701
-0.544818
-0.50448
-2.03359
-2.03351
-2.03325
-2.03282
-2.03223
-2.03146
-2.03053
-2.02942
-2.02815
-2.02671
-2.0251
-2.02332
-2.02139
-2.01928
-2.01701
-2.01458
-2.01199
-2.00922
-2.00631
-2.00324
-2
-1.99662
-1.99308
-1.98938
-1.98554
-1.98154
-1.97739
-1.97311
-1.96867
-1.96409
-1.95937
-1.94603
-1.93172
-1.91369
-1.89442
-1.87025
-1.8446
-1.81265
-1.77904
-1.73754
-1.69439
-1.64174
-1.58776
-1.52302
-1.4578
-1.3812
-1.30577
-1.21942
-1.13681
-1.04522
-0.960644
-0.870593
-0.791197
-0.711219
-0.645408
-0.585112
-0.542124
-0.512051
-0.502353
-1.99168
-1.99135
-1.99037
-1.98873
-1.98644
-1.98351
-1.97993
-1.97572
-1.97089
-1.96542
-1.95935
-1.95269
-1.94542
-1.93758
-1.92918
-1.92022
-1.89357
-1.85761
-1.80954
-1.74622
-1.66437
-1.56113
-1.43505
-1.28724
-1.12255
-0.950365
-0.784294
-0.64105
-0.539365
-0.500164
-1.95053
-1.95045
-1.95022
-1.94982
-1.94927
-1.94856
-1.9477
-1.94667
-1.94549
-1.94416
-1.94267
-1.94103
-1.93923
-1.93728
-1.93517
-1.93292
-1.93052
-1.92796
-1.92526
-1.92242
-1.91941
-1.91628
-1.913
-1.90956
-1.906
-1.9023
-1.89844
-1.89447
-1.89036
-1.8861
-1.88172
-1.86933
-1.85604
-1.83928
-1.82136
-1.79887
-1.77499
-1.7452
-1.71384
-1.67507
-1.6347
-1.58539
-1.53474
-1.47388
-1.41244
-1.34013
-1.26876
-1.18684
-1.10827
-1.02091
-0.940024
-0.85366
-0.777312
-0.700205
-0.636612
-0.578226
-0.536533
-0.507329
-0.497907
-1.91019
-1.90989
-1.90898
-1.90746
-1.90534
-1.90262
-1.89931
-1.89541
-1.89093
-1.88586
-1.88023
-1.87405
-1.86731
-1.86003
-1.85224
-1.84392
-1.81917
-1.78573
-1.74098
-1.68193
-1.60542
-1.50864
-1.39002
-1.25037
-1.094
-0.929646
-0.770266
-0.632104
-0.533633
-0.495582
-1.87068
-1.87061
-1.87039
-1.87002
-1.86951
-1.86885
-1.86805
-1.86711
-1.86601
-1.86478
-1.8634
-1.86187
-1.86021
-1.8584
-1.85645
-1.85436
-1.85213
-1.84976
-1.84726
-1.84462
-1.84183
-1.83892
-1.83588
-1.8327
-1.82939
-1.82595
-1.82238
-1.81869
-1.81487
-1.81091
-1.80685
-1.79534
-1.78299
-1.76741
-1.75074
-1.72981
-1.70756
-1.6798
-1.65053
-1.61432
-1.57656
-1.53037
-1.48285
-1.42566
-1.36782
-1.29959
-1.2321
-1.15444
-1.07977
-0.99653
-0.919244
-0.836501
-0.763165
-0.68891
-0.62753
-0.571059
-0.530669
-0.502341
-0.493196
-1.83186
-1.83158
-1.83074
-1.82933
-1.82737
-1.82485
-1.82178
-1.81816
-1.81401
-1.80931
-1.80409
-1.79835
-1.7921
-1.78534
-1.77811
-1.77038
-1.74738
-1.71628
-1.67461
-1.61953
-1.54802
-1.45731
-1.34577
-1.21389
-1.06554
-0.908795
-0.755993
-0.622881
-0.527631
-0.490738
-1.79377
-1.79371
-1.7935
-1.79317
-1.79269
-1.79208
-1.79134
-1.79046
-1.78945
-1.7883
-1.78702
-1.78561
-1.78407
-1.78239
-1.78058
-1.77864
-1.77658
-1.77438
-1.77206
-1.76961
-1.76703
-1.76433
-1.7615
-1.75855
-1.75548
-1.75229
-1.74897
-1.74554
-1.742
-1.73832
-1.73455
-1.72386
-1.71238
-1.69789
-1.68239
-1.6629
-1.64218
-1.61629
-1.58898
-1.55516
-1.51985
-1.47661
-1.43205
-1.37832
-1.32389
-1.25956
-1.19578
-1.12222
-1.05132
-0.972078
-0.898311
-0.819125
-0.748759
-0.677334
-0.618161
-0.563607
-0.524525
-0.497079
-0.488214
-1.75645
-1.75619
-1.7554
-1.7541
-1.75228
-1.74995
-1.7471
-1.74374
-1.73989
-1.73553
-1.73068
-1.72536
-1.71956
-1.71328
-1.70656
-1.69939
-1.67802
-1.64909
-1.61028
-1.55891
-1.49209
-1.40709
-1.30224
-1.17779
-1.03715
-0.887817
-0.741481
-0.613381
-0.521355
-0.485626
-1.71975
-1.71968
-1.71949
-1.71918
-1.71874
-1.71818
-1.71749
-1.71667
-1.71573
-1.71467
-1.71349
-1.71217
-1.71074
-1.70919
-1.70751
-1.70571
-1.7038
-1.70176
-1.6996
-1.69733
-1.69493
-1.69243
-1.6898
-1.68706
-1.68421
-1.68125
-1.67817
-1.67499
-1.67169
-1.66828
-1.66478
-1.65484
-1.64417
-1.6307
-1.61627
-1.59813
-1.57883
-1.5547
-1.52922
-1.49764
-1.46463
-1.42414
-1.38237
-1.33193
-1.28073
-1.22011
-1.15987
-1.09026
-1.02299
-0.947619
-0.877278
-0.801574
-0.734133
-0.665507
-0.608526
-0.555884
-0.518111
-0.491551
-0.482967
-1.68371
-1.68347
-1.68274
-1.68153
-1.67984
-1.67768
-1.67504
-1.67192
-1.66835
-1.66431
-1.65981
-1.65487
-1.64948
-1.64366
-1.63742
-1.63075
-1.61089
-1.58398
-1.54785
-1.49995
-1.43752
-1.35792
-1.25941
-1.14206
-1.00885
-0.866719
-0.726733
-0.603604
-0.514799
-0.48024
-1.64837
-1.64831
-1.64813
-1.64784
-1.64743
-1.64691
-1.64627
-1.64552
-1.64464
-1.64366
-1.64256
-1.64134
-1.64001
-1.63857
-1.63702
-1.63535
-1.63357
-1.63168
-1.62968
-1.62757
-1.62534
-1.62302
-1.62059
-1.61804
-1.61539
-1.61264
-1.60978
-1.60682
-1.60377
-1.6006
-1.59734
-1.58811
-1.57819
-1.56566
-1.55224
-1.53536
-1.51738
-1.49489
-1.47113
-1.44164
-1.41078
-1.3729
-1.33376
-1.28643
-1.2383
-1.18121
-1.12437
-1.05853
-0.994769
-0.923153
-0.856151
-0.783854
-0.719289
-0.653428
-0.598622
-0.547886
-0.511423
-0.485749
-0.477448
-1.61359
-1.61337
-1.6127
-1.61158
-1.61001
-1.608
-1.60555
-1.60266
-1.59935
-1.59559
-1.59142
-1.58684
-1.58183
-1.57643
-1.57063
-1.56444
-1.54598
-1.52095
-1.48732
-1.44266
-1.38435
-1.30983
-1.21734
-1.10675
-0.980698
-0.84555
-0.711785
-0.593569
-0.507974
-0.474584
-1.57943
-1.57938
-1.57921
-1.57894
-1.57857
-1.57808
-1.57749
-1.57679
-1.57598
-1.57507
-1.57405
-1.57292
-1.57168
-1.57035
-1.5689
-1.56736
-1.56571
-1.56395
-1.56209
-1.56014
-1.55807
-1.55591
-1.55366
-1.55129
-1.54884
-1.54628
-1.54363
-1.54088
-1.53804
-1.5351
-1.53207
-1.5235
-1.51428
-1.50263
-1.49015
-1.47443
-1.4577
-1.43674
-1.41458
-1.38706
-1.35824
-1.32281
-1.28616
-1.24177
-1.19656
-1.14283
-1.08924
-1.02704
-0.966661
-0.898684
-0.834931
-0.765968
-0.70423
-0.641099
-0.588451
-0.539612
-0.504456
-0.47967
-0.471652
-1.54591
-1.5457
-1.54507
-1.54403
-1.54258
-1.54072
-1.53845
-1.53577
-1.53269
-1.52921
-1.52533
-1.52108
-1.51643
-1.51141
-1.50603
-1.50028
-1.48313
-1.45986
-1.42855
-1.38693
-1.3325
-1.26278
-1.17599
-1.07187
-0.952684
-0.824315
-0.69664
-0.583277
-0.500875
-0.468655
-1.5129
-1.51285
-1.5127
-1.51245
-1.5121
-1.51165
-1.5111
-1.51045
-1.5097
-1.50885
-1.50791
-1.50686
-1.50572
-1.50448
-1.50314
-1.5017
-1.50017
-1.49854
-1.49682
-1.495
-1.49309
-1.49109
-1.48899
-1.4868
-1.48452
-1.48215
-1.47968
-1.47713
-1.47449
-1.47176
-1.46895
-1.46098
-1.45242
-1.44159
-1.42999
-1.41537
-1.39979
-1.38027
-1.35962
-1.33395
-1.30703
-1.27391
-1.23961
-1.198
-1.15557
-1.10505
-1.05456
-0.995845
-0.938723
-0.874265
-0.813668
-0.747958
-0.688991
-0.628548
-0.578032
-0.531075
-0.49722
-0.47332
-0.465585
-1.48046
-1.48026
-1.47969
-1.47872
-1.47737
-1.47565
-1.47354
-1.47105
-1.4682
-1.46497
-1.46138
-1.45743
-1.45312
-1.44846
-1.44346
-1.43812
-1.42219
-1.40056
-1.37144
-1.33267
-1.28188
-1.21669
-1.13533
-1.03737
-0.924806
-0.803013
-0.681298
-0.572725
-0.493497
-0.462445
-1.4486
-1.44856
-1.44842
-1.44818
-1.44786
-1.44744
-1.44693
-1.44633
-1.44563
-1.44485
-1.44397
-1.443
-1.44194
-1.44079
-1.43955
-1.43822
-1.4368
-1.43528
-1.43369
-1.432
-1.43023
-1.42837
-1.42642
-1.42439
-1.42227
-1.42007
-1.41778
-1.41542
-1.41297
-1.41043
-1.40782
-1.40043
-1.39247
-1.38241
-1.37163
-1.35803
-1.34354
-1.32537
-1.30613
-1.28219
-1.25708
-1.22614
-1.19405
-1.15509
-1.11529
-1.06783
-1.02031
-0.964933
-0.91095
-0.849895
-0.792363
-0.729826
-0.673572
-0.615774
-0.567364
-0.522273
-0.489712
-0.466694
-0.459241
-1.41723
-1.41705
-1.41651
-1.41562
-1.41437
-1.41277
-1.41081
-1.40851
-1.40586
-1.40287
-1.39953
-1.39587
-1.39187
-1.38755
-1.38291
-1.37795
-1.36316
-1.34307
-1.31599
-1.2799
-1.23254
-1.17163
-1.0954
-1.00333
-0.89712
-0.781693
-0.665795
-0.561935
-0.485853
-0.455963
-1.38637
-1.38632
-1.38619
-1.38598
-1.38568
-1.38529
-1.38482
-1.38426
-1.38361
-1.38289
-1.38207
-1.38117
-1.38019
-1.37912
-1.37797
-1.37674
-1.37542
-1.37402
-1.37254
-1.37098
-1.36933
-1.36761
-1.3658
-1.36391
-1.36195
-1.35991
-1.35779
-1.35559
-1.35332
-1.35097
-1.34855
-1.34168
-1.3343
-1.32496
-1.31494
-1.30231
-1.28883
-1.27193
-1.25402
-1.23172
-1.2083
-1.17942
-1.14944
-1.11298
-1.07568
-1.03114
-0.986462
-0.934294
-0.883334
-0.82557
-0.771015
-0.711572
-0.657975
-0.602777
-0.556445
-0.513202
-0.481926
-0.459787
-0.452615
-1.35605
-1.35589
-1.35539
-1.35456
-1.3534
-1.35192
-1.35011
-1.34797
-1.34552
-1.34274
-1.33965
-1.33626
-1.33255
-1.32854
-1.32424
-1.31964
-1.30592
-1.28726
-1.26209
-1.22852
-1.18439
-1.12752
-1.05617
-0.969726
-0.869618
-0.760352
-0.650129
-0.550905
-0.477937
-0.449203
-1.32619
-1.32615
-1.32603
-1.32583
-1.32555
-1.32519
-1.32475
-1.32423
-1.32364
-1.32296
-1.32221
-1.32137
-1.32046
-1.31947
-1.31841
-1.31726
-1.31604
-1.31474
-1.31337
-1.31192
-1.3104
-1.3088
-1.30713
-1.30538
-1.30356
-1.30167
-1.2997
-1.29766
-1.29556
-1.29338
-1.29113
-1.28476
-1.27791
-1.26925
-1.25994
-1.24821
-1.23569
-1.21998
-1.20331
-1.18255
-1.16073
-1.1338
-1.1058
-1.07172
-1.03681
-0.995038
-0.953074
-0.903982
-0.855929
-0.801341
-0.749669
-0.693235
-0.642232
-0.589583
-0.545296
-0.503878
-0.473874
-0.452608
-0.445715
-1.2968
-1.29664
-1.29618
-1.29541
-1.29434
-1.29297
-1.29129
-1.28931
-1.28703
-1.28446
-1.2816
-1.27845
-1.27502
-1.2713
-1.26732
-1.26305
-1.25033
-1.23302
-1.20965
-1.17844
-1.13736
-1.08432
-1.01761
-0.936533
-0.842291
-0.738988
-0.6343
-0.539631
-0.469744
-0.442158
-1.26792
-1.26788
-1.26777
-1.26758
-1.26733
-1.26699
-1.26659
-1.26611
-1.26555
-1.26493
-1.26423
-1.26346
-1.26261
-1.2617
-1.26071
-1.25965
-1.25852
-1.25732
-1.25605
-1.25471
-1.25329
-1.25181
-1.25026
-1.24864
-1.24696
-1.2452
-1.24338
-1.24149
-1.23954
-1.23752
-1.23544
-1.22954
-1.22319
-1.21515
-1.20652
-1.19564
-1.18401
-1.16942
-1.15393
-1.13462
-1.11431
-1.08921
-1.0631
-1.03127
-0.998618
-0.959497
-0.920126
-0.873982
-0.828724
-0.777202
-0.728322
-0.674813
-0.626343
-0.576191
-0.533916
-0.494298
-0.465553
-0.445151
-0.438536
-1.23945
-1.23931
-1.23888
-1.23817
-1.23718
-1.2359
-1.23435
-1.23252
-1.23041
-1.22803
-1.22538
-1.22246
-1.21928
-1.21584
-1.21215
-1.2082
-1.19641
-1.18037
-1.15869
-1.1297
-1.0915
-1.04208
-0.979767
-0.903806
-0.81519
-0.717645
-0.618341
-0.528136
-0.461288
-0.434839
-1.21144
-1.2114
-1.2113
-1.21113
-1.21089
-1.21058
-1.2102
-1.20976
-1.20925
-1.20867
-1.20802
-1.20731
-1.20652
-1.20568
-1.20476
-1.20378
-1.20273
-1.20162
-1.20044
-1.1992
-1.19789
-1.19652
-1.19509
-1.19359
-1.19203
-1.19041
-1.18872
-1.18697
-1.18517
-1.1833
-1.18137
-1.17591
-1.17003
-1.16258
-1.15458
-1.14449
-1.13371
-1.12017
-1.10579
-1.08785
-1.06896
-1.04561
-1.02128
-0.991584
-0.961085
-0.924488
-0.887597
-0.844279
-0.801709
-0.753145
-0.70697
-0.656304
-0.610304
-0.562598
-0.522299
-0.484456
-0.456955
-0.437411
-0.431071
-1.1839
-1.18377
-1.18337
-1.18271
-1.18179
-1.18061
-1.17917
-1.17748
-1.17553
-1.17332
-1.17087
-1.16817
-1.16523
-1.16205
-1.15863
-1.15498
-1.14406
-1.12921
-1.10912
-1.08223
-1.04673
-1.00073
-0.942602
-0.871524
-0.788305
-0.696318
-0.602249
-0.516415
-0.452563
-0.427239
-1.15676
-1.15673
-1.15663
-1.15647
-1.15625
-1.15596
-1.15561
-1.1552
-1.15473
-1.15419
-1.15359
-1.15293
-1.1522
-1.15142
-1.15057
-1.14966
-1.14869
-1.14766
-1.14658
-1.14543
-1.14422
-1.14295
-1.14162
-1.14024
-1.13879
-1.13729
-1.13573
-1.13412
-1.13245
-1.13072
-1.12894
-1.12388
-1.11844
-1.11155
-1.10415
-1.0948
-1.08482
-1.07227
-1.05893
-1.04228
-1.02474
-1.00302
-0.980379
-0.952712
-0.924258
-0.890063
-0.855537
-0.814924
-0.774934
-0.729217
-0.685655
-0.637745
-0.594149
-0.548831
-0.510467
-0.47437
-0.448096
-0.429398
-0.42333
-1.13004
-1.12991
-1.12955
-1.12893
-1.12808
-1.12698
-1.12565
-1.12408
-1.12227
-1.12024
-1.11797
-1.11548
-1.11276
-1.10981
-1.10666
-1.10328
-1.09319
-1.07945
-1.06085
-1.03594
-1.003
-0.960245
-0.906083
-0.839664
-0.761622
-0.675
-0.586019
-0.504465
-0.443562
-0.419351
-1.10377
-1.10374
-1.10365
-1.10351
-1.1033
-1.10303
-1.10271
-1.10232
-1.10188
-1.10138
-1.10083
-1.10021
-1.09954
-1.09881
-1.09803
-1.09719
-1.09629
-1.09534
-1.09433
-1.09327
-1.09215
-1.09098
-1.08976
-1.08848
-1.08715
-1.08576
-1.08432
-1.08283
-1.08128
-1.07969
-1.07804
-1.07337
-1.06834
-1.06198
-1.05513
-1.04649
-1.03725
-1.02563
-1.01327
-0.99784
-0.981566
-0.961403
-0.940359
-0.914614
-0.888101
-0.856194
-0.823925
-0.785899
-0.748385
-0.705409
-0.664369
-0.619131
-0.577871
-0.534884
-0.498417
-0.464034
-0.438968
-0.421106
-0.415307
-1.07788
-1.07777
-1.07742
-1.07685
-1.07605
-1.07504
-1.0738
-1.07234
-1.07067
-1.06879
-1.06669
-1.06439
-1.06188
-1.05916
-1.05625
-1.05313
-1.04382
-1.03112
-1.01393
-0.990872
-0.960355
-0.920659
-0.87026
-0.808276
-0.735189
-0.653733
-0.569684
-0.492306
-0.4343
-0.411186
-1.0524
-1.05238
-1.05229
-1.05215
-1.05196
-1.0517
-1.0514
-1.05104
-1.05063
-1.05016
-1.04964
-1.04907
-1.04845
-1.04777
-1.04704
-1.04627
-1.04544
-1.04456
-1.04363
-1.04265
-1.04162
-1.04054
-1.03941
-1.03822
-1.037
-1.03572
-1.03439
-1.03301
-1.03159
-1.03011
-1.0286
-1.02429
-1.01965
-1.01377
-1.00745
-0.999471
-0.990932
-0.98019
-0.968762
-0.954476
-0.9394
-0.920705
-0.901173
-0.877251
-0.852584
-0.822854
-0.79274
-0.757189
-0.72205
-0.681711
-0.643107
-0.600455
-0.561467
-0.520753
-0.486141
-0.453443
-0.429565
-0.412529
-0.406994
-1.02737
-1.02726
-1.02693
-1.02638
-1.02563
-1.02468
-1.02352
-1.02217
-1.02063
-1.01889
-1.01695
-1.01483
-1.01252
-1.01002
-1.00733
-1.00446
-0.995868
-0.984156
-0.968283
-0.946973
-0.918731
-0.88193
-0.8351
-0.77734
-0.708992
-0.632508
-0.553237
-0.479933
-0.424771
-0.402738
-1.00272
-1.00268
-1.0026
-1.00246
-1.00227
-1.00202
-1.00172
-1.00138
-1.00099
-1.00054
-1.00006
-0.999522
-0.998941
-0.998315
-0.99764
-0.996921
-0.996156
-0.995343
-0.994486
-0.993582
-0.992631
-0.991636
-0.990595
-0.989506
-0.988374
-0.987198
-0.985973
-0.984707
-0.983396
-0.982038
-0.980639
-0.976671
-0.972397
-0.966979
-0.961154
-0.953791
-0.945911
-0.935993
-0.925437
-0.91223
-0.898284
-0.880973
-0.862871
-0.840673
-0.817755
-0.790093
-0.762029
-0.728841
-0.695974
-0.658166
-0.621905
-0.581753
-0.544966
-0.506464
-0.473662
-0.442612
-0.419902
-0.403677
-0.398403
-0.978462
-0.97835
-0.978006
-0.977458
-0.976725
-0.975818
-0.974738
-0.973484
-0.972058
-0.970455
-0.968676
-0.966724
-0.964594
-0.962291
-0.95982
-0.957176
-0.949269
-0.93848
-0.923848
-0.904183
-0.878087
-0.844022
-0.800575
-0.746833
-0.683018
-0.611317
-0.536671
-0.467339
-0.414966
-0.393998
-0.954673
-0.954672
-0.95457
-0.954403
-0.95419
-0.953924
-0.953612
-0.953265
-0.952875
-0.95245
-0.951986
-0.951482
-0.95094
-0.950358
-0.949733
-0.94907
-0.948365
-0.947616
-0.946827
-0.945997
-0.945122
-0.944207
-0.943251
-0.94225
-0.94121
-0.940128
-0.939002
-0.937838
-0.936633
-0.935384
-0.934098
-0.930448
-0.926515
-0.921529
-0.916166
-0.909384
-0.902123
-0.89298
-0.883243
-0.871053
-0.858169
-0.842165
-0.825412
-0.804845
-0.783584
-0.757886
-0.731772
-0.700836
-0.670142
-0.634761
-0.600756
-0.563016
-0.528361
-0.492009
-0.460972
-0.431537
-0.40997
-0.394545
-0.389527
-0.931434
-0.931216
-0.930748
-0.930112
-0.929356
-0.928482
-0.927471
-0.926312
-0.925001
-0.923528
-0.921895
-0.920103
-0.918148
-0.916032
-0.913763
-0.911333
-0.904065
-0.89414
-0.88067
-0.862549
-0.83847
-0.806982
-0.766732
-0.716803
-0.65731
-0.590195
-0.520015
-0.454544
-0.404901
-0.384978
-0.908908
-0.908625
-0.908382
-0.90809
-0.907708
-0.907337
-0.906966
-0.906584
-0.906189
-0.905775
-0.905335
-0.904865
-0.904364
-0.903828
-0.903255
-0.902646
-0.902
-0.901314
-0.900592
-0.899831
-0.899029
-0.89819
-0.897313
-0.896395
-0.895441
-0.894449
-0.893415
-0.892347
-0.891241
-0.890094
-0.888913
-0.885562
-0.881949
-0.877367
-0.872436
-0.866199
-0.859519
-0.851103
-0.842134
-0.8309
-0.819017
-0.804243
-0.788762
-0.769737
-0.750044
-0.726207
-0.701948
-0.673158
-0.64454
-0.611486
-0.579647
-0.544235
-0.511643
-0.477381
-0.448064
-0.420208
-0.399763
-0.385124
-0.380357
-0.887107
-0.886322
-0.885054
-0.88417
-0.883397
-0.882577
-0.881651
-0.880593
-0.879396
-0.878049
-0.876555
-0.874913
-0.873121
-0.871182
-0.8691
-0.866871
-0.860199
-0.851083
-0.8387
-0.822026
-0.799839
-0.770778
-0.733545
-0.687229
-0.631852
-0.569131
-0.503261
-0.441542
-0.394567
-0.375671
-0.867789
-0.866845
-0.864754
-0.863438
-0.862582
-0.862075
-0.861658
-0.861285
-0.860917
-0.86054
-0.860143
-0.859719
-0.859266
-0.85878
-0.85826
-0.857707
-0.857119
-0.856493
-0.855833
-0.855138
-0.854404
-0.853637
-0.852835
-0.851994
-0.85112
-0.850211
-0.849264
-0.848285
-0.847271
-0.846219
-0.845137
-0.842062
-0.838747
-0.834542
-0.830015
-0.824287
-0.818149
-0.810412
-0.802163
-0.791823
-0.780878
-0.767259
-0.752974
-0.735399
-0.717184
-0.695108
-0.672602
-0.645852
-0.619208
-0.588378
-0.558614
-0.525443
-0.49484
-0.462604
-0.434957
-0.408643
-0.389295
-0.375427
-0.370905
-0.820206
-0.820333
-0.820117
-0.819725
-0.819209
-0.818567
-0.817792
-0.816884
-0.815843
-0.814667
-0.813356
-0.811914
-0.810338
-0.808632
-0.806799
-0.804836
-0.798956
-0.790916
-0.779983
-0.765241
-0.745589
-0.719785
-0.686623
-0.645208
-0.595452
-0.538779
-0.478892
-0.422432
-0.379229
-0.361791
-0.776392
-0.776862
-0.777961
-0.778771
-0.779185
-0.779313
-0.779311
-0.779204
-0.779029
-0.7788
-0.778524
-0.778207
-0.777853
-0.777463
-0.777038
-0.776582
-0.776092
-0.775569
-0.775016
-0.774432
-0.773814
-0.773168
-0.77249
-0.77178
-0.771042
-0.770274
-0.769473
-0.768645
-0.767787
-0.766897
-0.76598
-0.763377
-0.760569
-0.757004
-0.753165
-0.748303
-0.74309
-0.736513
-0.729494
-0.720685
-0.71135
-0.699715
-0.687491
-0.672423
-0.656771
-0.637755
-0.618314
-0.595139
-0.571977
-0.545082
-0.519016
-0.489856
-0.462842
-0.434275
-0.409679
-0.386189
-0.368865
-0.35642
-0.352356
-0.741058
-0.740811
-0.740808
-0.74069
-0.740397
-0.739943
-0.739343
-0.738608
-0.737749
-0.736766
-0.735666
-0.734451
-0.733121
-0.731679
-0.730129
-0.728467
-0.723486
-0.716668
-0.707384
-0.694846
-0.678097
-0.656042
-0.627596
-0.591906
-0.548785
-0.499343
-0.446712
-0.396723
-0.358224
-0.34262
-0.70374
-0.703938
-0.703957
-0.703857
-0.703828
-0.7037
-0.703567
-0.703403
-0.703216
-0.703003
-0.702762
-0.702494
-0.702197
-0.701873
-0.701519
-0.701138
-0.700729
-0.700292
-0.699828
-0.699338
-0.698818
-0.698274
-0.697704
-0.697105
-0.696482
-0.695833
-0.695157
-0.694457
-0.693731
-0.692978
-0.692203
-0.689999
-0.68762
-0.684598
-0.681342
-0.677216
-0.672789
-0.667199
-0.661229
-0.653728
-0.64577
-0.63584
-0.625391
-0.612488
-0.599062
-0.582713
-0.56596
-0.545935
-0.525864
-0.502485
-0.479752
-0.45423
-0.430501
-0.405321
-0.383564
-0.362721
-0.347307
-0.336212
-0.332585
-0.668005
-0.667992
-0.667853
-0.667618
-0.667281
-0.666846
-0.666312
-0.665679
-0.664948
-0.664117
-0.663187
-0.662162
-0.661038
-0.65982
-0.658509
-0.657103
-0.652886
-0.647107
-0.639229
-0.628574
-0.614314
-0.595491
-0.571138
-0.54046
-0.503213
-0.460255
-0.41423
-0.370225
-0.336137
-0.32227
-0.63321
-0.633168
-0.633145
-0.633101
-0.63301
-0.632912
-0.632786
-0.632641
-0.632473
-0.632282
-0.632069
-0.631832
-0.631573
-0.631291
-0.630987
-0.63066
-0.63031
-0.629937
-0.629543
-0.629126
-0.628686
-0.628225
-0.627742
-0.627235
-0.626708
-0.626159
-0.625587
-0.624995
-0.624381
-0.623744
-0.623088
-0.621223
-0.619209
-0.61665
-0.613892
-0.610394
-0.606639
-0.601894
-0.596823
-0.590446
-0.583675
-0.575214
-0.566301
-0.555279
-0.543791
-0.529776
-0.515385
-0.498143
-0.480819
-0.460583
-0.440848
-0.418624
-0.397897
-0.375831
-0.356707
-0.338334
-0.324713
-0.31489
-0.311677
-0.599399
-0.599348
-0.599227
-0.599018
-0.598726
-0.598352
-0.597893
-0.597352
-0.596728
-0.596021
-0.595233
-0.594364
-0.593412
-0.592381
-0.591272
-0.590084
-0.586517
-0.581626
-0.574952
-0.565915
-0.553801
-0.537779
-0.516992
-0.490716
-0.458677
-0.421538
-0.381518
-0.34303
-0.313059
-0.300827
-0.566578
-0.566577
-0.566547
-0.566495
-0.56643
-0.566342
-0.566237
-0.566112
-0.565968
-0.565805
-0.565623
-0.565421
-0.5652
-0.564961
-0.564702
-0.564424
-0.564128
-0.563812
-0.563478
-0.563125
-0.562752
-0.562362
-0.561953
-0.561525
-0.561079
-0.560615
-0.560131
-0.559631
-0.559112
-0.558574
-0.55802
-0.556444
-0.554742
-0.552579
-0.550247
-0.547289
-0.544112
-0.540095
-0.535799
-0.530393
-0.524648
-0.517463
-0.509886
-0.500503
-0.49071
-0.478743
-0.466434
-0.451657
-0.436776
-0.419353
-0.402318
-0.383082
-0.365091
-0.345884
-0.329194
-0.313117
-0.301174
-0.292545
-0.289721
-0.534694
-0.534662
-0.534555
-0.534378
-0.534131
-0.533813
-0.533425
-0.532967
-0.53244
-0.531843
-0.531176
-0.530443
-0.52964
-0.52877
-0.527834
-0.526831
-0.523822
-0.519695
-0.51406
-0.506421
-0.496169
-0.482583
-0.464917
-0.442521
-0.41511
-0.383194
-0.348631
-0.315218
-0.289079
-0.278379
-0.503673
-0.503663
-0.503639
-0.503599
-0.503542
-0.503469
-0.50338
-0.503274
-0.503153
-0.503015
-0.502861
-0.502691
-0.502505
-0.502303
-0.502085
-0.501851
-0.501602
-0.501335
-0.501054
-0.500757
-0.500443
-0.500114
-0.49977
-0.499409
-0.499034
-0.498644
-0.498236
-0.497815
-0.497379
-0.496926
-0.496459
-0.495133
-0.4937
-0.491879
-0.489915
-0.487423
-0.484746
-0.48136
-0.477736
-0.473174
-0.468322
-0.462249
-0.455838
-0.447892
-0.439587
-0.429426
-0.418958
-0.406368
-0.393667
-0.378764
-0.364161
-0.347632
-0.332136
-0.31555
-0.301103
-0.287156
-0.276775
-0.269263
-0.266803
-0.47345
-0.47342
-0.473331
-0.473182
-0.472974
-0.472708
-0.472382
-0.471997
-0.471554
-0.471053
-0.470494
-0.469878
-0.469204
-0.468474
-0.467689
-0.466847
-0.464321
-0.460855
-0.456121
-0.449698
-0.441068
-0.429616
-0.414693
-0.395727
-0.37244
-0.345221
-0.315616
-0.286865
-0.264281
-0.255013
-0.443976
-0.44397
-0.443949
-0.443915
-0.443868
-0.443806
-0.443732
-0.443644
-0.443542
-0.443427
-0.443298
-0.443156
-0.443
-0.442832
-0.442649
-0.442453
-0.442244
-0.442022
-0.441786
-0.441538
-0.441275
-0.441
-0.440713
-0.440411
-0.440097
-0.43977
-0.43943
-0.439077
-0.438712
-0.438333
-0.437943
-0.436833
-0.435635
-0.434111
-0.432467
-0.430381
-0.428139
-0.425303
-0.422266
-0.418441
-0.41437
-0.409272
-0.403885
-0.397202
-0.390211
-0.381647
-0.372812
-0.362171
-0.351418
-0.338778
-0.326369
-0.312294
-0.29907
-0.284886
-0.272505
-0.260528
-0.251599
-0.245129
-0.243009
-0.4152
-0.415175
-0.415101
-0.414977
-0.414804
-0.414582
-0.414311
-0.41399
-0.413622
-0.413204
-0.412738
-0.412225
-0.411664
-0.411056
-0.410402
-0.4097
-0.407596
-0.404707
-0.40076
-0.395401
-0.388193
-0.378617
-0.366118
-0.350196
-0.330593
-0.307605
-0.282507
-0.258037
-0.238746
-0.230811
-0.387075
-0.387069
-0.387052
-0.387024
-0.386985
-0.386934
-0.386872
-0.386799
-0.386715
-0.38662
-0.386513
-0.386395
-0.386266
-0.386126
-0.385975
-0.385813
-0.38564
-0.385455
-0.38526
-0.385054
-0.384837
-0.384609
-0.38437
-0.38412
-0.38386
-0.383589
-0.383307
-0.383015
-0.382712
-0.382398
-0.382074
-0.381154
-0.380161
-0.378897
-0.377534
-0.375803
-0.373943
-0.371588
-0.369067
-0.365889
-0.362506
-0.358266
-0.353784
-0.348218
-0.34239
-0.335244
-0.327864
-0.318964
-0.309957
-0.299353
-0.288926
-0.277078
-0.265926
-0.253941
-0.243461
-0.233305
-0.225723
-0.220221
-0.218419
-0.359557
-0.359536
-0.359475
-0.359373
-0.35923
-0.359047
-0.358824
-0.35856
-0.358256
-0.357912
-0.357528
-0.357105
-0.356643
-0.356142
-0.355603
-0.355025
-0.35329
-0.350908
-0.347652
-0.34323
-0.337277
-0.329359
-0.319009
-0.305801
-0.2895
-0.270331
-0.249333
-0.228791
-0.212546
-0.20585
-0.332606
-0.332601
-0.332587
-0.332564
-0.332532
-0.33249
-0.33244
-0.33238
-0.332311
-0.332233
-0.332146
-0.332049
-0.331944
-0.33183
-0.331706
-0.331573
-0.331431
-0.33128
-0.331121
-0.330952
-0.330774
-0.330588
-0.330393
-0.330188
-0.329975
-0.329754
-0.329522
-0.329283
-0.329036
-0.328779
-0.328514
-0.327761
-0.326947
-0.325913
-0.324796
-0.323379
-0.321855
-0.319926
-0.31786
-0.315254
-0.312479
-0.308999
-0.305319
-0.300745
-0.295954
-0.290072
-0.283992
-0.276652
-0.269215
-0.260449
-0.251815
-0.24199
-0.232728
-0.222758
-0.214026
-0.20555
-0.199215
-0.194613
-0.193105
-0.306185
-0.306168
-0.306119
-0.306036
-0.30592
-0.305772
-0.30559
-0.305376
-0.30513
-0.30485
-0.304539
-0.304196
-0.303821
-0.303414
-0.302976
-0.302507
-0.301099
-0.299165
-0.296521
-0.292927
-0.288086
-0.281641
-0.273206
-0.262426
-0.249095
-0.233379
-0.216116
-0.199177
-0.185746
-0.1802
-0.280262
-0.280258
-0.280247
-0.280228
-0.280202
-0.280169
-0.280128
-0.28008
-0.280025
-0.279962
-0.279892
-0.279815
-0.27973
-0.279638
-0.279539
-0.279432
-0.279318
-0.279197
-0.279069
-0.278933
-0.27879
-0.278641
-0.278484
-0.278319
-0.278148
-0.27797
-0.277785
-0.277592
-0.277393
-0.277187
-0.276974
-0.276369
-0.275715
-0.274883
-0.273986
-0.272846
-0.271621
-0.270069
-0.268406
-0.266309
-0.264074
-0.261271
-0.258305
-0.254617
-0.250751
-0.246002
-0.241089
-0.235152
-0.22913
-0.222024
-0.215017
-0.207033
-0.199495
-0.19137
-0.184245
-0.177319
-0.172138
-0.168369
-0.167135
-0.254805
-0.254792
-0.254752
-0.254687
-0.254595
-0.254477
-0.254333
-0.254163
-0.253967
-0.253746
-0.253498
-0.253226
-0.252928
-0.252605
-0.252258
-0.251885
-0.250767
-0.249231
-0.247129
-0.244272
-0.240422
-0.235292
-0.228572
-0.21997
-0.209316
-0.19673
-0.182872
-0.169239
-0.158405
-0.153924
-0.229788
-0.229785
-0.229776
-0.229762
-0.229742
-0.229715
-0.229684
-0.229646
-0.229603
-0.229554
-0.229499
-0.229438
-0.229372
-0.2293
-0.229222
-0.229139
-0.22905
-0.228955
-0.228855
-0.228749
-0.228637
-0.22852
-0.228397
-0.228268
-0.228134
-0.227995
-0.22785
-0.227699
-0.227544
-0.227382
-0.227215
-0.226742
-0.22623
-0.225579
-0.224876
-0.223984
-0.223024
-0.221808
-0.220506
-0.218862
-0.217111
-0.214913
-0.212586
-0.209691
-0.206655
-0.202924
-0.19906
-0.194388
-0.189646
-0.184043
-0.178513
-0.172205
-0.166243
-0.159808
-0.154159
-0.148661
-0.144545
-0.141547
-0.140567
-0.205186
-0.205176
-0.205146
-0.205095
-0.205025
-0.204934
-0.204823
-0.204693
-0.204542
-0.204372
-0.204182
-0.203973
-0.203744
-0.203495
-0.203228
-0.202942
-0.202082
-0.200901
-0.199284
-0.197086
-0.194122
-0.19017
-0.184988
-0.178349
-0.170113
-0.160367
-0.149614
-0.139013
-0.130571
-0.127075
-0.180979
-0.180976
-0.18097
-0.180959
-0.180944
-0.180924
-0.1809
-0.180872
-0.18084
-0.180803
-0.180762
-0.180716
-0.180666
-0.180612
-0.180553
-0.180491
-0.180424
-0.180353
-0.180277
-0.180197
-0.180113
-0.180025
-0.179933
-0.179836
-0.179736
-0.179631
-0.179522
-0.179409
-0.179292
-0.17917
-0.179045
-0.178688
-0.178304
-0.177814
-0.177285
-0.176614
-0.175892
-0.174977
-0.173997
-0.17276
-0.171441
-0.169785
-0.168032
-0.165851
-0.163561
-0.160746
-0.157829
-0.1543
-0.150715
-0.146476
-0.142288
-0.137506
-0.132983
-0.128095
-0.1238
-0.119615
-0.11648
-0.114194
-0.113447
-0.157147
-0.15714
-0.157118
-0.157081
-0.157029
-0.156963
-0.156882
-0.156786
-0.156677
-0.156552
-0.156413
-0.15626
-0.156093
-0.155911
-0.155716
-0.155507
-0.154878
-0.154014
-0.152832
-0.151224
-0.149054
-0.146161
-0.142364
-0.137493
-0.131445
-0.124276
-0.116353
-0.108527
-0.102284
-0.0996951
-0.133677
-0.133675
-0.13367
-0.133663
-0.133652
-0.133638
-0.133621
-0.133602
-0.133579
-0.133553
-0.133524
-0.133491
-0.133456
-0.133418
-0.133377
-0.133333
-0.133286
-0.133235
-0.133182
-0.133126
-0.133067
-0.133005
-0.13294
-0.132872
-0.132801
-0.132727
-0.13265
-0.13257
-0.132488
-0.132402
-0.132314
-0.132063
-0.131792
-0.131447
-0.131074
-0.130601
-0.130092
-0.129447
-0.128755
-0.127883
-0.126952
-0.125784
-0.124546
-0.123006
-0.121388
-0.119399
-0.117336
-0.114839
-0.112301
-0.109298
-0.106329
-0.102935
-0.0997224
-0.0962472
-0.0931916
-0.0902104
-0.0879778
-0.0863453
-0.0858147
-0.110555
-0.11055
-0.110535
-0.11051
-0.110476
-0.110431
-0.110377
-0.110313
-0.110239
-0.110156
-0.110063
-0.10996
-0.109848
-0.109726
-0.109595
-0.109455
-0.109033
-0.108454
-0.107661
-0.106581
-0.105125
-0.103181
-0.100629
-0.0973533
-0.0932802
-0.0884462
-0.083095
-0.0778009
-0.0735712
-0.0718155
-0.0877736
-0.0877726
-0.0877697
-0.087765
-0.0877583
-0.0877496
-0.0877391
-0.0877267
-0.0877123
-0.0876961
-0.087678
-0.0876579
-0.087636
-0.0876121
-0.0875864
-0.0875588
-0.0875293
-0.0874979
-0.0874646
-0.0874296
-0.0873925
-0.0873537
-0.0873131
-0.0872705
-0.0872261
-0.08718
-0.0871319
-0.0870821
-0.0870305
-0.0869769
-0.0869217
-0.0867648
-0.0865952
-0.0863794
-0.0861464
-0.0858504
-0.085532
-0.0851285
-0.0846959
-0.0841498
-0.0835675
-0.082836
-0.082061
-0.081096
-0.0800825
-0.0788351
-0.0775417
-0.0759747
-0.074381
-0.0724941
-0.0706274
-0.068492
-0.0664691
-0.0642784
-0.0623517
-0.0604687
-0.0590599
-0.058026
-0.0576926
-0.0653271
-0.0653243
-0.065316
-0.0653021
-0.0652826
-0.0652577
-0.0652273
-0.0651913
-0.0651499
-0.065103
-0.0650507
-0.0649931
-0.06493
-0.0648616
-0.0647881
-0.0647092
-0.0644723
-0.0641467
-0.063701
-0.0630943
-0.0622753
-0.0611818
-0.0597451
-0.0578995
-0.0556025
-0.052873
-0.0498471
-0.0468488
-0.04445
-0.0434531
-0.0432141
-0.0432136
-0.0432123
-0.04321
-0.0432069
-0.0432029
-0.043198
-0.0431922
-0.0431855
-0.0431779
-0.0431694
-0.04316
-0.0431498
-0.0431387
-0.0431266
-0.0431137
-0.0431
-0.0430853
-0.0430698
-0.0430534
-0.0430361
-0.043018
-0.042999
-0.0429791
-0.0429584
-0.0429368
-0.0429144
-0.0428911
-0.042867
-0.042842
-0.0428162
-0.0427429
-0.0426637
-0.0425628
-0.042454
-0.0423156
-0.0421669
-0.0419782
-0.0417761
-0.0415207
-0.0412484
-0.0409062
-0.0405437
-0.040092
-0.0396176
-0.0390333
-0.0384273
-0.0376927
-0.0369451
-0.0360594
-0.0351827
-0.0341787
-0.0332275
-0.0321954
-0.0312885
-0.0303992
-0.0297361
-0.0292458
-0.0290905
-0.0214361
-0.0214353
-0.0214327
-0.0214284
-0.0214223
-0.0214146
-0.0214052
-0.021394
-0.0213811
-0.0213666
-0.0213503
-0.0213324
-0.0213129
-0.0212916
-0.0212688
-0.0212443
-0.0211707
-0.0210696
-0.0209311
-0.0207426
-0.020488
-0.0201479
-0.0197009
-0.0191261
-0.0184101
-0.0175581
-0.0166123
-0.0156736
-0.0149217
-0.0146088
0
0
0
0
0
0
0
0
0
0
0
0
0
0
0
0
0
0
0
0
0
0
0
0
0
0
0
0
0
0
0
0
0
0
0
0
0
0
0
0
0
0
0
0
0
0
0
0
0
0
0
0
0
0
0
0
0
0
0
SCALARS Stress_R double 1
LOOKUP_TABLE default
-5.16642e+06
-3.20369e+06
-1.46968e+06
-464485
-265599
-270837
-222090
-188902
-174783
-147080
-142540
-120153
-119803
-101844
-103245
-88578.1
-90672.6
-78159.9
-80813.4
-70073.9
-72908
-63624.2
-66463.2
-58109.6
-61268.6
-53672.4
-58332.2
-51462.2
-54319
-36282.2
-710.547
40952.4
37575.7
33034.6
26247.8
27837.5
21227.6
22338.1
17032.5
18012.1
13733.8
14670.5
10954.4
12372.1
12920.9
14182.2
13092.7
11387.7
10255.2
9354.5
8509.41
7884.04
7261.02
6769.73
6271.62
5855.22
5436.65
5073.51
4735.82
-1.78982e+06
-922632
-699432
-420804
-292554
-220294
-174630
-143297
-120598
-103311
-89409.9
-77684.6
-66895.4
-54847.2
-38661.2
-17632.3
10640.2
15471.4
14540.6
12971.4
11264.7
9774.65
11503.1
11869.7
9681.63
8162.25
7027.79
6104.26
5309.36
4629.55
73725.9
-406340
-829048
-499357
-566441
-496655
-433210
-367231
-321553
-279562
-249170
-219508
-199125
-177287
-163287
-146366
-136372
-122827
-115317
-104043
-98175.5
-88255.6
-83328.8
-74116.1
-69331.3
-59834.2
-54736
-45335.8
-37129.7
-32249.4
-33693.8
-16181.1
-5339.05
3728.34
6347.42
10115.6
9348.62
11512.6
9789.67
11226.3
9402.23
10399
8877.65
10183.6
10248.2
11252
10769.1
10012.2
9110.15
8502.93
7819.09
7324.73
6795.22
6378.94
5937.47
5568.19
5182.43
4850.45
4523.62
173772
-380847
-402316
-360631
-304483
-249389
-205313
-170812
-143511
-121349
-102762
-86401.4
-71324.6
-56845.2
-44020.3
-41149.9
-18311
-1851.29
4462.37
6807.65
7572.06
7916.34
9189.63
9789.94
8606.44
7490.53
6569.54
5774.32
5058.16
4420.06
-213537
-145217
-102074
-236220
-265485
-287380
-299708
-281219
-271692
-253341
-236051
-218978
-201694
-187256
-171933
-159841
-146721
-136527
-125312
-116528
-106773
-99016.9
-90324.6
-83373.8
-75317.2
-69276
-62078.6
-57667.7
-52548.4
-49872.1
-47566.1
-38368.5
-29652
-18248.2
-9704.1
-4910.26
-733.808
1759.93
3497.51
4939.65
5490.27
6460.66
6766.08
7685.6
8085.3
8761.73
8840.67
8572.54
8096.53
7644.77
7162.82
6767.21
6344.39
5990.49
5611.57
5282.12
4933.84
4626.72
4316.27
-162459
-101568
-189581
-228771
-227993
-210938
-188516
-165609
-144311
-125108
-107883
-92422.7
-78649.2
-66970.1
-58522.8
-53294.4
-36717.6
-16888.5
-5603.85
335.822
3487.09
5547.81
7026.31
7937.95
7589.7
6837
6121.65
5450.56
4810.95
4213.93
-25533.8
-74996.8
-106877
-111614
-138980
-155063
-173177
-179776
-186837
-184032
-183051
-175692
-170200
-161489
-154029
-145202
-137249
-128861
-121078
-113338
-106018
-98999.4
-92269.8
-86096
-80088.4
-74956.7
-69996.4
-66100.6
-62272.7
-59508.3
-57342.3
-49398.5
-42096.3
-31781.4
-22794.3
-16089.4
-10016.2
-6183.13
-2675.73
-416.456
1494.7
2988.8
4295.05
5285.16
5980.14
6644.92
7072.45
7191.36
7091.12
6806.96
6514.2
6218.55
5900.37
5606.74
5290.24
4998.37
4688.24
4403.66
4111.58
-32456.8
-75143.2
-103059
-132816
-150147
-154252
-149299
-139436
-127382
-114693
-102263
-90642.9
-80282.3
-71609.2
-64812.2
-59889.8
-45811
-27662
-13975
-5482.48
-381.002
3044.09
4978.19
6253.16
6590.66
6193.97
5681.07
5131.23
4566.51
4010.23
-49126.9
-46983.3
-47273.8
-65341.9
-76351.1
-90548.6
-102923
-112175
-121194
-125178
-129529
-129393
-129807
-127045
-124760
-120558
-116723
-111866
-107262
-102274
-97427
-92649.6
-87936.7
-83620.3
-79316.2
-75641.5
-71973.1
-68981.7
-66024.3
-63509.8
-61326.7
-54611.6
-48385.5
-39559
-31513.6
-24121.4
-17385.5
-12577.4
-8035.9
-5007.1
-2163.51
-143.559
1818.84
3015.91
4007.57
4784.51
5468.63
5888.3
6102.86
5992.47
5877.27
5679.88
5463.52
5228.29
4973.01
4717.35
4445.06
4181.72
3908.99
-38472.9
-40542.3
-59960.6
-80718
-97442.4
-107492
-111115
-109820
-105282
-98854.4
-91574.6
-84212.6
-77316.2
-71244.4
-66114.5
-61820.5
-50007.2
-34454.4
-20359.6
-10383.3
-3838.8
621.057
3078.72
4726.93
5616.32
5564.07
5247.93
4816
4324.39
3808.51
-23932.3
-29854.4
-33318.9
-39423.4
-46287.5
-54891.8
-63289
-70985.8
-78481.6
-83831.9
-89226.2
-91918.8
-94888.2
-95391.9
-96196.9
-95123.9
-94339.9
-92245.1
-90402.7
-87775.2
-85325.2
-82519.8
-79846.6
-77115.8
-74486.2
-71999.4
-69592.6
-67389.2
-65247.1
-63242.7
-61507.2
-55939.6
-50868.2
-43469.4
-36656.6
-29445.5
-22827.8
-17495.6
-12458.6
-8849.4
-5389.06
-2937.48
-521.119
916.049
2190.8
3124.61
4019.05
4672.58
5145.34
5205.39
5255.71
5153.17
5034.82
4856.12
4660.24
4439.68
4204.37
3961.43
3708.46
-20715.4
-26547.3
-36712.6
-50267.9
-63357.7
-73682.2
-80297.7
-83377.6
-83613.1
-81789
-78675.8
-74921.5
-70994.8
-67205.5
-63671.9
-60466.5
-51068
-38175.4
-24892
-14331.5
-6841.17
-1626.7
1338.55
3346
4677.29
4949.9
4822.75
4504.96
4084.5
3608.58
-16928.8
-18513.1
-19607.6
-24288.1
-28252.8
-34097.6
-39541.4
-45450.1
-51092
-56035.2
-60911.1
-64414.1
-67997.7
-70051.1
-72217.1
-73010.7
-73952.3
-73767.1
-73742.9
-72909.2
-72198
-70980.4
-69868.9
-68465.8
-67158.2
-65716.8
-64351.2
-62923
-61568.1
-60132.2
-58929.6
-54642.6
-50770.4
-44722.5
-39168.6
-32593
-26532.6
-21080
-15945.3
-11976.2
-8158.41
-5387.64
-2662.21
-996.079
531.865
1630.76
2706
3543.44
4226.55
4447.11
4650.27
4638.6
4613.86
4489.85
4351.37
4164.94
3965.62
3742.52
3509.43
-13300.3
-15676.9
-22378
-31535.1
-41364.2
-50275.9
-57304.2
-62146
-64928.8
-65976.6
-65733.7
-64630.9
-62999.1
-61082.8
-59011
-56934.8
-50005.4
-39659.5
-27813.8
-17360.4
-9377.12
-3652.39
-240.305
2096.55
3781.91
4353.48
4406.11
4198.29
3846.87
3410.36
-9139.44
-10634
-11506.8
-14317.3
-16903.2
-20887.8
-24644.8
-29034.3
-33234.1
-37369.7
-41412.9
-44848.9
-48290.8
-50869.6
-53480
-55187.9
-56971
-57900.5
-58934.8
-59266.7
-59683.4
-59575.7
-59553.6
-59136.4
-58807
-58196.1
-57654.9
-56902.4
-56220.4
-55339.1
-54679.9
-51634.5
-48935
-44140.4
-39788.3
-34049.8
-28761.8
-23492.6
-18546.4
-14423
-10464.4
-7484.12
-4568.4
-2705.5
-966.556
287.351
1518.16
2501.35
3354.63
3721.42
4063.42
4138.02
4201.72
4130.38
4046.98
3893.64
3729.14
3525.41
3312.07
-6777.24
-8604.58
-13012.2
-19437.4
-26802.4
-34108.3
-40585.2
-45833.4
-49737.4
-52348.9
-53867.1
-54529.6
-54533.2
-54050.1
-53192.3
-52152.8
-47540
-39552.3
-29407.8
-19546.1
-11453.8
-5434.01
-1659.1
966.756
2935.69
3776.48
3998.59
3896.22
3611.57
3213.85
-4114.45
-5011.73
-5540.56
-7529.26
-9290.54
-12140.5
-14801.5
-18123.5
-21279.9
-24643.3
-27912.2
-30986.9
-34034.3
-36648.7
-39251.6
-41312.3
-43402.4
-44900.3
-46460.7
-47474.6
-48540.2
-49144.2
-49810.4
-50075.5
-50412.6
-50420.1
-50485.3
-50276.3
-50130.6
-49727.6
-49536.6
-47617.9
-45980.3
-42328.9
-39077.4
-34239.5
-29801.5
-24918.4
-20350.8
-16246.3
-12320.3
-9230.51
-6225.58
-4207.95
-2306.4
-916.519
444.749
1543.97
2533.86
3030.63
3496.72
3652.57
3798.97
3778.12
3747.29
3625.97
3495.06
3310.25
3116.42
-2307.83
-3510.84
-6636.94
-11308
-16921.8
-22835.3
-28488.2
-33520.3
-37738.2
-41061.3
-43539.1
-45273.9
-46358.7
-46899.4
-46978.5
-46791.6
-44208.7
-38341.6
-29951
-20987.4
-13091.5
-6964.36
-2920.61
-52.9458
2141.82
3220.34
3600.75
3598.97
3378.72
3019.05
-310.353
-980.155
-1360.93
-2782.64
-4045.19
-6152.85
-8116.36
-10669.6
-13090.2
-15812.6
-18448.7
-21101.6
-23714.6
-26150.6
-28556
-30663
-32774.7
-34498.9
-36258.3
-37619.3
-39008.9
-40026.1
-41086.4
-41787.5
-42545.3
-42981.9
-43463.6
-43661.5
-43912.8
-43891.7
-44071.1
-43107.7
-42373.6
-39736.6
-37459.7
-33508.3
-29916.6
-25539.2
-21463.5
-17513
-13751.4
-10640
-7631.82
-5505.07
-3491.01
-1988.64
-522.766
668.423
1766.47
2376.43
2951.5
3183.19
3406.16
3433.46
3452.53
3362.08
3263.46
3097.16
2922.51
993.936
105.125
-2189.43
-5704.28
-10068.3
-14865.4
-19695.6
-24267.9
-28384.2
-31913.3
-34825.9
-37141.8
-38883.8
-40106.1
-40860
-41324.7
-40418
-36399.7
-29692.5
-21792.8
-14320
-8244.97
-4027.83
-969.275
1402.55
2686.95
3213.55
3307.08
3148.69
2826.27
2413.23
1921.91
1645.08
577.987
-363.431
-1971
-3463.83
-5467.43
-7361.58
-9576.56
-11715.6
-13972.4
-16186.5
-18369.2
-20513.9
-22516.8
-24510.8
-26265.6
-28037.9
-29534.2
-31043.1
-32268.8
-33522.6
-34477.7
-35475.7
-36188.9
-36935.6
-37418.4
-37944.5
-38209.6
-38659.2
-38465.6
-38458.6
-36697.6
-35255.3
-32134.5
-29337.1
-25523.6
-21993.5
-18295.8
-14791.9
-11733.7
-8793.42
-6603.23
-4524.82
-2935.84
-1391.08
-128.569
1053.3
1759.9
2428.96
2730.68
3023.79
3096.75
3162.89
3102.15
3034.48
2886.27
2730.39
3360.55
2693.41
946.565
-1771.35
-5228.21
-9146.88
-13241.6
-17287.4
-21108.4
-24564.1
-27590.3
-30161.4
-32258
-33897.9
-35105.9
-36036.4
-36449.1
-33998.8
-28840.7
-22071.1
-15179.3
-9288.05
-4988.39
-1790.53
716.504
2176.11
2836.57
3020.08
2921.07
2635.07
4389.08
4010.34
3799.09
2975.84
2251.09
992.736
-173.54
-1774.42
-3285.24
-5102.78
-6854.59
-8767.11
-10638.1
-12557.1
-14436.5
-16270.8
-18089.3
-19770.9
-21458.9
-22964.4
-24472.1
-25773.7
-27092.6
-28174.4
-29287.9
-30162.9
-31061.5
-31729.9
-32432.2
-32898.7
-33531.5
-33929.6
-34480.7
-33453.9
-32706.6
-30335.8
-28256.2
-25019.4
-22047.6
-18667.5
-15482.6
-12538.1
-9722.77
-7512.01
-5413.94
-3764.15
-2166.27
-850.271
394.012
1181.55
1930.03
2295.66
2652.31
2768.3
2878.58
2846.32
2808.24
2677.68
2540.13
5057.14
4538.13
3172.27
1020.76
-1764.41
-4994.07
-8461.65
-11995.8
-15449.5
-18691.4
-21646.4
-24267.6
-26513.1
-28377.3
-29865.4
-31105.2
-32507.7
-31348.6
-27569.1
-21923
-15710
-10106.4
-5807.41
-2521.07
83.9364
1689.27
2470.65
2738.48
2696.21
2445.77
5794.61
5496.69
5331.27
4679.84
4107.41
3101.53
2170.58
871.018
-353.788
-1858.59
-3306.89
-4928.47
-6511.56
-8183.25
-9816.6
-11462.5
-13089.6
-14648.4
-16206.7
-17651.1
-19091.1
-20387
-21692.5
-22816.1
-23962.6
-24917
-25887.4
-26664.8
-27468.2
-28066.9
-28812.3
-29644.9
-30603.6
-30175.7
-29990.4
-28278.8
-26828.6
-24152.3
-21722.1
-18697.6
-15866.2
-13082.5
-10435.8
-8243.3
-6165.14
-4479.77
-2853.33
-1500.02
-212.29
641.46
1455.39
1878.59
2292.07
2448.36
2599.74
2594.72
2584.81
2471.49
2351.8
6256.9
5844.19
4752.14
3016.38
739.419
-1946.1
-4888.58
-7957.7
-11033.9
-14001.8
-16787.5
-19336.9
-21598
-23551.6
-25190.1
-26616.1
-28725.4
-28600.7
-26016.7
-21440.3
-15955.6
-10717.6
-6492.34
-3165.88
-496.331
1226.98
2116.15
2462.43
2474.23
2258.41
6783.28
6543.86
6411.13
5885.65
5424.18
4606.25
3849.82
2780.7
1773.88
517.295
-690.914
-2069.6
-3413.56
-4864.12
-6279.03
-7739.53
-9180.28
-10597.7
-12010.5
-13358.3
-14697.6
-15940.7
-17187.8
-18299.6
-19427.4
-20404.7
-21392.1
-22222.8
-23072.7
-23750
-24554.5
-25690.4
-26930.6
-26978.5
-27234.9
-26089.9
-25177.9
-23027.1
-21103.2
-18450.7
-15986.1
-13397.8
-10951
-8810.68
-6786.3
-5089.15
-3457.06
-2081.26
-767.02
139.27
1005.48
1479.78
1943.39
2137.14
2326.52
2347.46
2364.3
2267.77
2165.45
7089.49
6754.95
5866.4
4444.29
2559.91
308.496
-2196.81
-4856.52
-7574.58
-10252.8
-12823.8
-15233.7
-17428
-19381
-21077
-22596.8
-25181.4
-25862.5
-24292.4
-20702.9
-15958.8
-11140.7
-7051.38
-3729.6
-1025.86
789.563
1773.33
2192.05
2255.21
2073.06
7464.09
7268.52
7160.08
6729.32
6351.1
5676.46
5052.82
4163.05
3325.61
2267.77
1251.4
74.5839
-1071.27
-2329.05
-3554.35
-4842.88
-6111.96
-7386.51
-8654.01
-9890.54
-11116.4
-12281.8
-13447.5
-14515
-15593.4
-16556.9
-17525.9
-18370.5
-19229
-19944.9
-20769.6
-22103.7
-23524.2
-23939.2
-24532.6
-23863.9
-23402.3
-21730
-20266.3
-17984.9
-15884.6
-13514.6
-11288
-9228.19
-7285.61
-5598.38
-3981.59
-2596.88
-1271.41
-325.167
580.96
1099.82
1606.85
1835.13
2059.34
2104.91
2147.04
2066.84
1981.35
7654.37
7379.13
6645.76
5465.78
3890.02
1988.4
-153.305
-2458.59
-4850.61
-7247.05
-9589.08
-11826.6
-13907
-15802
-17492
-19039.1
-21916.8
-23207.4
-22480.2
-19779.1
-15760.5
-11396.1
-7493.51
-4216.88
-1506.52
377.093
1442.37
1927.46
2039.22
1889.78
7916.71
7754.82
7665
7307.42
6993.44
6430.69
5910.62
5163.2
4460.01
3563.39
2702.41
1694.02
713.053
-378.196
-1440.16
-2573.58
-3688.48
-4826.76
-5956.75
-7079.12
-8189.7
-9266.11
-10340.3
-11345.5
-12357.8
-13284.2
-14212.9
-15044.8
-15886.5
-16612.3
-17430
-18881
-20403.7
-21094.4
-21936.7
-21661.8
-21570.3
-20325.5
-19271.7
-17349.6
-15600.7
-13462.6
-11467.8
-9511.5
-7673.26
-6015.43
-4432.64
-3051.49
-1728.55
-753.799
180.842
737.883
1281.86
1541.78
1797.68
1866.62
1932.6
1868.31
1799.14
8025.32
7796.05
7183.65
6194.16
4864.7
3247.59
1408.84
-592.25
-2694.16
-4828.45
-6944.83
-8998.55
-10940.9
-12743.8
-14386
-15914.6
-18946.7
-20682.8
-20643
-18726
-15398.5
-11504
-7828.16
-4632.37
-1940.41
-10.5788
1123.4
1668.76
1826.34
1708.64
8201.98
8066.55
7991.26
7691.31
7427.83
6953.93
6515.97
5883.03
5287.65
4522.88
3788.79
2921.15
2077.69
1129.31
207.107
-788.971
-1767.8
-2780.64
-3784.68
-4796.76
-5796.7
-6781.38
-7762.27
-8696.54
-9635.05
-10511.1
-11387
-12189.2
-12997.8
-13713.7
-14506.2
-16012.7
-17578.6
-18468.8
-19487.2
-19531.8
-19737.8
-18867.7
-18171.6
-16588.7
-15169.8
-13269.2
-11509.8
-9674.94
-7958.02
-6346.76
-4814.12
-3448.08
-2139.94
-1147.23
-194.606
394.307
968.884
1257.49
1541.93
1632.91
1721.3
1672.47
1619.09
8253.71
8060.79
7544.41
6707.29
5577.03
4193.47
2608.1
867.273
-979.642
-2875.9
-4779.05
-6650.02
-8444.92
-10137.2
-11705.7
-13185.3
-16268.7
-18316.5
-18826.6
-17589.8
-14906.3
-11484.1
-8064.84
-4980.68
-2329.69
-373.78
816.473
1415.99
1616.64
1529.69
8367.74
8253.41
8189.68
7935.83
7712.71
7310.35
6938.46
6398.61
5890.85
5234.76
4605.15
3855.47
3127.09
2300.9
1498.04
622.271
-237.629
-1137.36
-2028.24
-2937.35
-3834.46
-4729.72
-5620.21
-6481.06
-7344.09
-8163.06
-8980.21
-9742.23
-10508.3
-11201.1
-11957.3
-13474.4
-15040.6
-16068.6
-17204.4
-17503.4
-17943.8
-17396.9
-17008
-15738.9
-14624.2
-12960
-11433.5
-9733.01
-8149.59
-6599.51
-5130.76
-3790.26
-2507.88
-1506.78
-545.816
68.8675
667.947
982.291
1292.15
1403.86
1513.2
1479.37
1441.24
8379.35
8215.62
7776.61
7062.98
6095.62
4905.29
3532.67
2014.27
389.87
-1293.47
-3000.19
-4696.61
-6343.84
-7917.61
-9397.72
-10809.3
-13870
-16122.3
-17063.4
-16407.7
-14313.9
-11355.2
-8213.16
-5266.51
-2676.69
-713.02
521.559
1169.21
1410.16
1352.96
8445.67
8348.32
8293.99
8077.48
7887.12
7543.05
7225.05
6761.7
6325.95
5760.1
5217.26
4566.88
3935.3
3213.63
2512.75
1741.84
985.446
186.534
-603.72
-1418.63
-2221.92
-3032.7
-3838.14
-4626.69
-5415.93
-6175.41
-6931.91
-7648.27
-8366.87
-9028.2
-9741.65
-11237.3
-12773.4
-13890
-15097.1
-15594.2
-16215.2
-15943
-15814
-14830.4
-13991.6
-12557.5
-11256.9
-9699.38
-8257.52
-6780.67
-5387.27
-4081.59
-2834.7
-1833.87
-873.37
-238.751
378.989
716.151
1048.35
1179.49
1308.34
1289.06
1265.64
8434.22
8294.19
7918.19
7305.61
6472.47
5442.89
4249.32
2920.77
1489.46
-5.50462
-1534.44
-3068.55
-4573.7
-6028.12
-7413.12
-8746.24
-11732.9
-14105.9
-15377.1
-15210.4
-13648
-11135.2
-8282.68
-5494.44
-2983.52
-1028.64
238.874
928.691
1207.17
1178.73
8463.63
8380.26
8333.55
8147.71
7984.15
7688.12
7414.41
7014.5
6638.34
6147.98
5677.57
5111.12
4561.2
3929.01
3315.25
2635.47
1968.83
1259.1
557.6
-172.252
-891.094
-1623.72
-2350.79
-3070.38
-3789.61
-4490.07
-5186.8
-5855.26
-6524.61
-7149.9
-7817.51
-9269.98
-10755.3
-11922.4
-13164.8
-13813.1
-14569
-14527.7
-14615.1
-13888.1
-13295.7
-12082.4
-10996.7
-9587.36
-8290.99
-6897.45
-5588.22
-4325.88
-3122.75
-2130.13
-1177.95
-529.007
101.9
458.995
810.557
959.816
1106.77
1101.59
1092.35
8435.75
8315.24
7991.25
7462.41
6741.17
5846.6
4804.88
3639.21
2375.79
1047.19
-321.832
-1706.77
-3077.88
-4415.9
-5703.84
-6953.31
-9831.25
-12260.2
-13777.3
-14017.4
-12928.8
-10839.3
-8282.52
-5669.52
-3253.2
-1322.08
-32.3565
693.89
1007.26
1006.6
8442.97
8371.08
8330.7
8170.18
8028.8
7772.62
7535.67
7188.65
6862.22
6435.24
6025.67
5530.32
5049.58
4493.99
3954.81
3354
2765.11
2133.79
1510.23
856.426
212.964
-448.424
-1104.2
-1759.41
-2413.53
-3057.25
-3696.77
-4317.37
-4937.84
-5524.93
-6146.19
-7541.24
-8962.95
-10151.3
-11402.2
-12162.4
-13016
-13165.8
-13431.2
-12931.8
-12557.3
-11552
-10668.7
-9408.99
-8259.4
-6956.63
-5738.6
-4526.72
-3374.66
-2397.23
-1460.49
-802.419
-163.531
210.709
578.743
744.85
908.519
916.994
921.39
8403.04
8298.72
8017.96
7558.94
6931.44
6150.7
5238.01
4212.05
3094.24
1911.81
685.391
-564.206
-1811.13
-3038.53
-4231.15
-5396
-8143.73
-10579.8
-12273.4
-12846.9
-12175.6
-10482.4
-8221.46
-5796.23
-3487.9
-1593.9
-292.031
465.054
810.679
836.821
8395.34
8333.01
8297.9
8158.49
8035.62
7812.76
7606.58
7304
7019.33
6645.92
6287.75
5852.94
5431.05
4941.27
4466.08
3933.8
3412.3
2849.84
2294.63
1708.53
1132.06
535.121
-56.3053
-652.153
-1246.4
-1836.58
-2422.31
-2996.38
-3569.6
-4118.06
-4693.87
-6022.83
-7373.24
-8560.92
-9800.11
-10640
-11560.9
-11866.8
-12276.4
-11976.9
-11792.9
-10981.7
-10286.2
-9175.3
-8171.12
-6964.77
-5842.91
-4687.72
-3592.83
-2636.87
-1721.89
-1059.58
-417.537
-28.8577
352.871
534.573
713.61
735.29
752.807
8348.64
8257.86
8013.28
7612.88
7064.38
6380.09
5577.45
4671.6
3680.13
2625.9
1526.12
398.445
-734.703
-1858.64
-2959.83
-4041.72
-6647.31
-9054.44
-10868.3
-11711.1
-11403.5
-10077.3
-8107.85
-5879.17
-3690.1
-1845.08
-540.423
242.134
617.445
669.434
8332.29
8277.99
8247.29
8125.62
8018.28
7823.47
7643.17
7378.14
7128.75
6800.83
6486.27
6103.2
5731.55
5298.39
4878.23
4405.45
3942.39
3440.31
2944.95
2418.9
1901.78
1362.76
829.076
287.438
-252.273
-792.653
-1328.47
-1858.26
-2386.67
-2897.23
-3429.46
-4687.89
-5963.36
-7134.26
-8347.3
-9241.06
-10204.5
-10636.4
-11160.9
-11035.4
-11016.1
-10384.1
-9861.37
-8896.43
-8034.23
-6928.18
-5905.73
-4812.48
-3779.74
-2850.86
-1963.17
-1301.17
-660.418
-259.902
132.88
328.957
522.058
556.501
586.629
8281.31
8201.92
7987.85
7636.96
7155.42
6553.25
5844.83
5042.5
4160.8
3218.97
2231.4
1213.06
183.413
-844.821
-1859.7
-2861.94
-5320.28
-7672.6
-9561.39
-10618.3
-10625
-9635.44
-7949.42
-5922.82
-3862.27
-2076.68
-777.849
25.0572
427.572
504.457
8262.04
8214.48
8187.51
8080.8
7986.57
7815.48
7657.06
7423.89
7204.42
6915.24
6637.82
6299.04
5970.4
5586.04
5213.27
4792.14
4379.77
3930.55
3487.55
3014.58
2549.87
2062.65
1580.52
1088
597.608
103.06
-386.939
-875.201
-1361.73
-1835.92
-2327.1
-3513.57
-4713.44
-5856.12
-7033.06
-7959.81
-8946.51
-9478.32
-10092.7
-10117
-10239
-9770.83
-9405.52
-8581.71
-7856.55
-6852.89
-5931.54
-4904.37
-3937.8
-3040.78
-2185.23
-1527.66
-892.281
-482.4
-81.0802
128.182
334.076
380.839
423.061
8209.19
8139.45
7951.22
7642.37
7217.84
6685.84
6058.34
5345.44
4559.19
3715.86
2827.52
1906.89
970.83
30.3591
-904.037
-1831.01
-4142
-6421.72
-8349.82
-9573.95
-9849.9
-9166.68
-7753.46
-5931.58
-4006.94
-2289.83
-1004.69
-186.269
241.06
341.919
8189.22
8147.38
8123.59
8029.6
7946.53
7795.65
7655.89
7449.92
7256.03
7000.07
6754.51
6453.88
6162.28
5820.19
5488.46
5112.34
4744.14
4341.35
3944.29
3518.35
3100.02
2659.12
2223.05
1774.96
1329.1
876.557
428.475
-21.1407
-468.793
-908.472
-1361.29
-2476.24
-3601.58
-4708.08
-5842.23
-6785.6
-7780.42
-8390.17
-9073.48
-9226.18
-9468.44
-9149.28
-8926.7
-8238.39
-7644.53
-6744.23
-5924.63
-4966.95
-4069.78
-3208.87
-2389.68
-1740.32
-1114.04
-697.105
-289.591
-68.2589
149.237
207.916
261.754
8138.59
8077.05
7910.83
7637.81
7262.02
6790.21
6232.38
5596.87
4893.71
4136.72
3336.04
2502.48
1650.69
790.184
-69.8446
-926.521
-3093.57
-5289.25
-7229.05
-8581.07
-9085.87
-8679.63
-7526.66
-5909.71
-4126.61
-2485.72
-1221.38
-391.959
57.905
181.848
8119
8082.05
8060.97
7977.83
7904.29
7770.69
7646.88
7464.23
7292.24
7064.85
6846.67
6578.97
6319.32
6013.88
5717.73
5380.87
5051.16
4689.12
4332.34
3947.99
3570.62
3171.03
2775.97
2367.89
1962.07
1547.77
1137.79
723.82
311.951
-95.4009
-512.706
-1558.14
-2611.46
-3676.73
-4764.05
-5711.36
-6702.65
-7371.94
-8106.54
-8368.36
-8712.04
-8527.48
-8433.23
-7873.93
-7404.62
-6607.51
-5889.01
-5003.41
-4177.9
-3356.75
-2577.43
-1939.71
-1325.84
-904.05
-492.522
-260.209
-32.2492
37.9316
102.915
8073.2
8018.66
7871.26
7628.93
7294.97
6874.96
6377.33
5808.98
5178.28
4497.04
3773.79
3017.74
2241.64
1453.69
661.945
-129.597
-2158.34
-4263.25
-6193.7
-7640.9
-8338.79
-8181.55
-7275.04
-5861.23
-4223.68
-2665.56
-1428.37
-592.142
-121.905
24.2523
8056.11
8023.34
8004.58
7930.74
7865.36
7746.58
7636.45
7473.86
7320.7
7117.93
6923.34
6684.14
6452.12
6178.53
5913.26
5610.66
5314.53
4988.27
4666.83
4319.21
3978.01
3615.18
3256.6
2884.42
2514.49
2134.85
1759.35
1378.05
998.911
621.58
236.898
-742.042
-1726.8
-2748.01
-3786.58
-4728.25
-5707.36
-6420.97
-7192.42
-7546.35
-7974.93
-7911.32
-7931.91
-7494.59
-7142.7
-6447.58
-5828.72
-5016.95
-4264.63
-3486.27
-2749.75
-2126.7
-1528.18
-1103.55
-690.019
-447.749
-210.4
-129.117
-53.4422
8016.6
7968.07
7836.82
7620.87
7322.93
6947.64
6502.15
5992.18
5424.78
4810.04
4155.18
3468.05
2759.77
2037.42
1308.05
576.45
-1321.13
-3332.22
-5237.69
-6753.29
-7612.99
-7678.58
-7004.11
-5789.98
-4300.57
-2830.6
-1626.15
-786.967
-298.39
-130.856
8002.79
7973.6
7956.84
7891
7832.64
7726.62
7628.28
7482.98
7346.08
7164.6
6990.42
6775.93
6567.88
6322.01
6083.63
5811
5544.22
5249.4
4959
4643.86
4334.6
4004.47
3678.32
3338.32
3000.53
2652.2
2307.83
1956.35
1607.03
1257.38
902.548
-13.4948
-933.664
-1909.59
-2898.97
-3827.84
-4788.55
-5533.9
-6330.54
-6761.64
-7260.88
-7305.38
-7428.43
-7105.66
-6864.01
-6268.83
-5747.51
-5010.57
-4332.36
-3599.19
-2907.9
-2302.14
-1721.57
-1295.94
-882.241
-630.968
-385.243
-293.234
-207.314
7972.8
7929.43
7812.06
7618.83
7351.93
7015.29
6614.98
6155.77
5643.62
5087.21
4492.63
3866.63
3218.9
2555.59
1882.83
1205.97
-568.724
-2485.97
-4355.48
-5917.91
-6912.36
-7176.5
-6719.22
-5699.81
-4359.64
-2981.97
-1815.05
-976.393
-471.384
-283.286
7962.8
7936.73
7921.67
7862.74
7810.43
7715.44
7627.25
7496.92
7374.05
7211.04
7054.52
6861.52
6674.27
6452.58
6237.61
5991.21
5750.09
5482.91
5219.77
4933.31
4652.24
4351.18
4053.79
3742.57
3433.47
3113.36
2796.99
2472.58
2150.29
1826.04
1498.34
641.168
-218.755
-1149.52
-2090.45
-3001.59
-3939.57
-4706.77
-5519.12
-6014.82
-6572.25
-6713.44
-6927.31
-6712.02
-6573.09
-6075.52
-5648.82
-4987.34
-4383.31
-3697.42
-3053.07
-2466.99
-1906.52
-1481.58
-1069.33
-809.982
-556.787
-454.442
-358.674
7942.21
7903.31
7797.95
7624.37
7384.4
7081.34
6720.38
6305.53
5841.82
5336.76
4795.52
4223.88
3630.33
3020.17
2398.79
1771.92
111.795
-1713.22
-3539.1
-5131.15
-6237.39
-6678.36
-6424.05
-5593.85
-4403.2
-3121.22
-1996.01
-1161.01
-641.302
-433.398
7939.52
7916.13
7902.55
7849.58
7802.49
7717.03
7637.62
7520.24
7409.52
7262.52
7121.32
6946.99
6777.83
6577.22
6382.66
6159.21
5940.53
5697.62
5458.41
5197.26
4941.05
4665.75
4393.85
4108.28
3824.75
3529.96
3238.69
2938.74
2640.87
2339.76
2036.6
1234.02
429.78
-456.955
-1351.13
-2241.28
-3153.99
-3935.15
-4756.06
-5305.48
-5910.89
-6138.15
-6432.73
-6317.64
-6274.47
-5871.39
-5536.29
-4950.05
-4419.98
-3782.72
-3186.69
-2622.16
-2083.64
-1660.86
-1251.52
-984.898
-725.085
-612.752
-507.533
7928.25
7893.2
7798.22
7641.67
7425.04
7151.14
6824.43
6448.29
6027
5567.06
5072.89
4549.44
4004.17
3441.69
2866.68
2285.12
730.784
-1005.39
-2783.11
-4391.48
-5590.1
-6188.28
-6122.97
-5475.52
-4433.5
-3249.5
-2169.41
-1340.8
-807.987
-581.003
7934.04
7912.97
7900.67
7852.86
7810.28
7733.07
7661.27
7555.13
7454.94
7321.85
7193.96
7035.89
6882.47
6700.26
6523.51
6320.15
6121.13
5899.55
5681.35
5442.54
5208.24
4955.77
4706.45
4443.73
4182.95
3910.83
3642.02
3364.12
3088.23
2808.12
2527.09
1774.8
1021.72
177.232
-672.443
-1539.67
-2425.76
-3214.82
-4038.79
-4632.86
-5277.6
-5581.56
-5947.74
-5925.97
-5971.76
-5659.86
-5412.95
-4901.36
-4444.49
-3856.84
-3309.98
-2768.57
-2253.48
-1834.16
-1428.98
-1155.84
-890.17
-768.187
-653.886
7933.03
7901.32
7815.34
7673.52
7477.14
7228.58
6931.7
6589.35
6205.19
5784.89
5332.2
4851.42
4349.09
3829.22
3295.9
2755.24
1297.88
-354.036
-2081.46
-3696.17
-4971.13
-5709.16
-5819.54
-5347.91
-4452.73
-3368.1
-2335.83
-1515.97
-971.478
-726.103
7948.79
7929.73
7918.53
7875.19
7836.51
7766.46
7701.23
7604.84
7513.77
7392.77
7276.43
7132.53
6992.8
6826.65
6665.44
6479.67
6297.82
6094.97
5895.2
5676.07
5461.06
5228.78
4999.41
4756.99
4516.4
4264.51
4015.73
3757.62
3501.43
3240.29
2979.12
2272.79
1566.37
761.78
-46.132
-889.679
-1748.87
-2541.35
-3364.38
-3995.68
-4672.7
-5045.15
-5474.91
-5540.01
-5668.34
-5444.14
-5281.8
-4843.87
-4459
-3921.53
-3424.24
-2907.19
-2416.65
-2001.9
-1601.91
-1322.94
-1052.08
-920.776
-797.731
7958.27
7929.45
7851.25
7722.2
7543.38
7316.83
7045.91
6733.05
6381.39
5995.86
5579.71
5136.62
4672.39
4190.49
3694.51
3190.61
1821.52
248.476
-1428.47
-3042.38
-4380.6
-5243.32
-5516.93
-5213.9
-4462.99
-3478.28
-2495.87
-1686.71
-1131.82
-868.704
7985.72
7968.4
7958.14
7918.66
7883.35
7819.48
7759.94
7671.98
7588.81
7478.29
7371.95
7240.35
7112.5
6960.34
6812.64
6642.23
6475.36
6288.91
6105.27
5903.41
5705.34
5490.85
5279.04
5054.58
4831.84
4597.92
4366.91
4126.45
3887.82
3643.69
3400.24
2735.57
2071.32
1303.85
534.58
-285.457
-1118.38
-1911.13
-2730.6
-3393.07
-4096.77
-4530.46
-5016.91
-5162.69
-5367.62
-5227.34
-5145.87
-4780.09
-4465.65
-3978.39
-3530.65
-3038.81
-2573.6
-2164.3
-1770.36
-1486.14
-1210.7
-1070.38
-938.922
8006.44
7980.12
7908.63
7790.62
7626.99
7419.53
7171.16
6883.97
6560.67
6205.59
5821.5
5411.61
4981.05
4532.83
4070.1
3599.03
2309.63
809.376
-818.569
-2427.04
-3818.23
-4792.67
-5218.04
-5076.26
-4466.39
-3581.34
-2650.14
-1853.26
-1289.06
-1008.81
8046.31
8030.49
8021.04
7984.9
7952.48
7893.96
7839.32
7758.66
7682.31
7580.88
7483.21
7362.29
7244.77
7104.8
6968.86
6811.85
6658.07
6485.97
6316.44
6129.76
5946.53
5747.71
5551.37
5342.77
5135.78
4917.79
4702.52
4477.77
4254.76
4025.82
3798.15
3171.01
2544.69
1811.37
1077.49
280.127
-527.76
-1318.79
-2133.12
-2822.06
-3548.15
-4037
-4574.39
-4795.36
-5071.59
-5011.61
-5007.46
-4712.17
-4466.46
-4029.18
-3630.7
-3164.63
-2725.27
-2322.14
-1934.93
-1645.95
-1366.42
-1217.35
-1077.78
8080.04
8055.86
7990.13
7881.6
7731.05
7540.06
7311.21
7046.29
6747.66
6419.12
6063.07
5682.29
5281.33
4862.8
4429.5
3987.52
2769.36
1335.27
-246.537
-1847.11
-3283.49
-4358.75
-4925.46
-4937.6
-4464.97
-3678.57
-2799.28
-2015.84
-1443.26
-1146.42
8132.81
8118.29
8109.53
8076.24
8046.29
7992.36
7941.9
7867.52
7797.02
7703.42
7613.21
7501.53
7392.91
7263.5
7137.74
6992.39
6849.95
6690.36
6533.11
6359.68
6189.41
6004.31
5821.48
5626.8
5433.62
5229.66
5028.22
4817.33
4608.09
4392.59
4178.83
3585.14
2992.54
2290.12
1588.14
811.922
27.2179
-761.108
-1569.7
-2281.59
-3026.86
-3565.79
-4149.24
-4440.38
-4782.99
-4799.71
-4869.2
-4642.45
-4463.37
-4075.48
-3725.49
-3285.48
-2872.09
-2475.66
-2095.62
-1802.33
-1519.12
-1361.58
-1214.16
8181.03
8158.67
8097.83
7997.37
7858
7681.13
7469.07
7223.38
6946.11
6640.61
6308.95
5953.54
5578.43
5185.91
4778.43
4362.03
3206.86
1831.96
292.309
-1299.75
-2775.73
-3942.84
-4641.51
-4800.36
-4460.67
-3771.2
-2943.9
-2174.68
-1594.46
-1281.55
8248.03
8234.6
8226.4
8195.53
8167.65
8117.59
8070.66
8001.62
7936.07
7849.16
7765.3
7661.55
7560.56
7440.24
7323.23
7187.94
7055.29
6906.54
6759.9
6597.96
6438.92
6265.74
6094.65
5912.08
5730.9
5539.17
5349.78
5151
4953.77
4750.04
4548.42
3984.13
3421.11
2746.1
2072.33
1315.17
551.257
-234.308
-1037.44
-1769.84
-2532.19
-3117.04
-3742.65
-4099.48
-4504.14
-4593.96
-4733.54
-4573.11
-4458.35
-4118.87
-3816.31
-3402.27
-3014.7
-2625.3
-2252.69
-1955.43
-1668.85
-1503.07
-1348.06
8311.97
8291.11
8234.34
8140.61
8010.65
7845.75
7648.01
7418.81
7159.91
6874.28
6563.68
6230.21
5877.48
5507.49
5122.41
4728.21
3627.9
2304.85
802.405
-782.17
-2294.18
-3546
-4368.37
-4666.88
-4455.39
-3860.48
-3084.62
-2330.02
-1742.72
-1414.21
8394.17
8381.65
8373.89
8344.99
8318.78
8271.92
8227.88
8163.29
8101.85
8020.57
7942.05
7845.03
7750.51
7637.96
7528.42
7401.77
7277.51
7138.06
7000.54
6848.49
6699.1
6536.19
6375.19
6203.06
6032.21
5851.01
5672
5483.66
5296.77
5103.19
4912.04
4373.15
3835.65
3184.41
2535.04
1794.38
1048.45
264.953
-533.769
-1285.14
-2063.43
-2690.86
-3355.67
-3774.16
-4237.13
-4396.49
-4602.79
-4506.16
-4453.31
-4160.87
-3904.4
-3515.91
-3153.73
-2771.45
-2406.38
-2105.38
-1815.68
-1641.88
-1479.5
8476.02
8456.34
8402.76
8314.44
8192.17
8037.22
7851.54
7636.31
7393.06
7124.38
6831.75
6516.99
6183.34
5832.55
5466.56
5091.25
4037.64
2758.67
1287.49
-292.171
-1838.52
-3169.59
-4108.35
-4539.59
-4451.05
-3947.56
-3221.94
-2481.91
-1887.94
-1544.27
8574.85
8563.01
8555.56
8528.16
8503.18
8458.81
8416.99
8355.98
8297.81
8221.19
8147.04
8055.68
7966.55
7860.6
7757.35
7638.05
7520.9
7389.39
7259.6
7115.97
6974.76
6820.56
6668.11
6504.82
6342.71
6170.43
6000.18
5820.65
5642.49
5457.48
5275.13
4757.65
4241.59
3610.26
2981.3
2254.11
1522.92
740.014
-56.0009
-825.833
-1619.71
-2287.38
-2989.1
-3465.93
-3983.82
-4209.48
-4479.04
-4443.73
-4449.98
-4203.09
-3990.87
-3627.37
-3289.74
-2914.6
-2556.86
-2252.36
-1959.62
-1778.04
-1608.48
8675.84
8656.94
8605.59
8521.24
8404.96
8258.1
8082.47
7879.06
7649.07
7394.73
7117.28
6818.27
6500.61
6165.88
5815.82
5456.24
4441.35
3198.56
1752.06
173.528
-1407.12
-2813.67
-3862.74
-4420.29
-4449.38
-4033.77
-3356.72
-2630.92
-2030.49
-1672.04
8794.12
8782.72
8775.36
8748.86
8724.58
8681.88
8641.5
8583.16
8527.41
8454.51
8383.83
8297.17
8212.5
8112.11
8014.14
7901.05
7789.88
7665.02
7541.73
7405.11
7270.72
7123.75
6978.37
6822.37
6667.46
6502.5
6339.42
6167.11
5996.08
5818.05
5642.87
5142.73
4643.99
4028.51
3415.74
2698.56
1978.42
1193.97
398.231
-390.316
-1200.37
-1906.62
-2643.92
-3176.12
-3746.27
-4034.9
-4364.63
-4387.75
-4450.34
-4246.98
-4077.07
-3737.51
-3423.43
-3055.13
-2704.45
-2396.5
-2100.79
-1911.58
-1735.04
8915.73
8897.04
8846.48
8764.36
8652.27
8511.8
8344.54
8151.08
7932.25
7689.86
7424.91
7138.75
6834.04
6512.23
6174.9
5827.86
4843.5
3628.47
2199.18
616.664
-999.826
-2479.54
-3633.74
-4311.29
-4452.19
-4120.21
-3489.43
-2777.12
-2170.28
-1797.4
9055.95
9044.45
9036.93
9010.37
8985.8
8943.76
8903.78
8847.19
8792.91
8722.99
8655
8572.35
8491.4
8395.78
8302.3
8194.44
8088.28
7968.93
7850.96
7720.05
7591.15
7449.96
7310.23
7159.98
7010.74
6851.51
6694.04
6527.34
6361.85
6189.21
6019.56
5532.65
5047.06
4443.14
3842.21
3131.19
2418.07
1629.32
830.886
22.6134
-804.889
-1548.79
-2320.99
-2906.11
-3526.24
-3874.72
-4261.55
-4340.14
-4456.07
-4294
-4164.08
-3847.23
-3555.34
-3193.46
-2849.32
-2537.95
-2239.22
-2042.54
-1859.2
9200.54
9180.86
9128.95
9046.46
8936.73
8801.44
8641.47
8456.66
8247.2
8014.51
7759.42
7483.2
7188.36
6876.27
6548.46
6210.7
5248.46
4052.33
2631.96
1039.15
-616.181
-2168.13
-3423.17
-4214.66
-4461.23
-4208.04
-3620.67
-2920.71
-2307.36
-1920.36
9366.31
9353.91
9344.95
9316.76
9290.5
9247.17
9206.13
9150.35
9096.77
9029.48
8963.89
8885
8807.52
8716.18
8626.68
8523.23
8421.26
8306.26
8192.52
8065.93
7941.2
7804.28
7668.7
7522.62
7377.48
7222.35
7068.86
6906.13
6744.53
6575.64
6409.86
5931.9
5455.15
4858.28
4264.58
3555.43
2844.89
2048.51
1243.8
414.055
-432.874
-1214.21
-2021.27
-2657.33
-3325.57
-3730.91
-4171.88
-4302.8
-4468.88
-4345.6
-4253.04
-3957.39
-3686.06
-3330.02
-2991.71
-2676.85
-2374.97
-2170.95
-1980.97
9537.14
9514.21
9454.69
9368.32
9259.9
9130.18
8977.8
8800.97
8599.26
8373.92
8125.87
7856.48
7568.25
7262.57
6940.92
6609.1
5660.26
4473.67
3053.14
1442.58
-255.96
-1880.48
-3232.93
-4132.45
-4478.21
-4298.37
-3750.99
-3061.93
-2441.8
-2040.97
9733
9717.44
9706.76
9671.16
9637.95
9591.88
9547.01
9492.7
9439.5
9376.35
9313.87
9239.57
9166.08
9078.83
8993.11
8893.15
8794.5
8682.52
8571.71
8447.88
8325.81
8191.49
8058.42
7914.81
7772.07
7619.31
7468.1
7307.61
7148.18
6981.34
6817.69
6344.23
5871.83
5277.21
4685.84
3973.86
3261.06
2453.11
1638
784.401
-84.5891
-903.68
-1746.18
-2431.52
-3146.4
-3605.57
-4097.77
-4277.63
-4490.49
-4403.1
-4344.98
-4068.71
-3816.03
-3465.03
-3131.67
-2813.18
-2507.97
-2296.68
-2100.28
9937.83
9898.78
9823.14
9727.57
9623.52
9503.76
9361.02
9191.66
8995.48
8774.44
8530.03
8263.95
7978.8
7675.99
7356.98
7027.58
6083
4895.97
3465.27
1828.31
80.8589
-1617.79
-3064.95
-4066.74
-4504.81
-4392.29
-3880.95
-3200.97
-2573.66
-2159.27
10185.2
10149.3
10117.8
10070.2
10022.4
9968.79
9921.25
9871.73
9824.9
9769.18
9714.19
9645.69
9577.59
9493.65
9411.15
9312.97
9216.18
9105.28
8995.58
8872.56
8751.26
8617.63
8485.2
8342.2
8200.02
8047.82
7897.07
7737.01
7577.96
7411.39
7248.07
6774.46
6301.71
5704.23
5110.02
4390.05
3669.69
2845.66
2015.41
1134.9
240.541
-617.281
-1496.42
-2229.81
-2990.3
-3500.43
-4041.12
-4266.42
-4522.58
-4468
-4441.15
-4182.23
-3946.06
-3599.17
-3269.75
-2947.39
-2638.59
-2420.04
-2217.45
10414.7
10353
10206.5
10108.1
10033.1
9936.54
9804.7
9639.38
9444.14
9222.8
8977.73
8710.92
8424.98
8121.29
7801.23
7470.57
6520.61
5322.44
3870.58
2197.35
393.99
-1381.47
-2921.28
-4019.62
-4542.69
-4490.85
-4011.09
-3338.09
-2703.07
-2275.34
10681
10653.7
10613.4
10479.2
10388.7
10350.7
10303.7
10297.9
10267.8
10231.9
10188.6
10123.1
10059.1
9974.53
9892.01
9792.2
9694.01
9581.42
9470.06
9345.52
9222.6
9087.59
8953.66
8809.33
8665.72
8512.16
8359.96
8198.48
8037.9
7869.77
7704.86
7226.19
6748.11
6142.29
5539.64
4806.02
4072.28
3227.04
2376.37
1465.23
541.648
-356.404
-1273.83
-2054.31
-2859.55
-3417.77
-4004.06
-4271.13
-4566.71
-4541.66
-4542.43
-4298.67
-4076.49
-3732.68
-3405.98
-3079.42
-2766.79
-2540.88
-2332.41
11112.3
10699.3
10514
10555.3
10545.6
10462.1
10328.2
10155.3
9952.46
9724.57
9473.9
9202.08
8911.37
8602.94
8277.98
7942.28
6976.72
5755.85
4270.76
2550.13
682.629
-1173.25
-2804.09
-3993.11
-4593.38
-4595.03
-4141.93
-3473.52
-2830.16
-2389.29
11729.1
11054.4
10660.2
10765.6
10611.7
10748.6
10880.3
10851.6
10882.4
10824.4
10782
10702
10629.2
10535
10444.3
10338
10233.5
10116.1
9999.88
9871.47
9744.53
9606.07
9468.58
9320.95
9173.95
9017.12
8861.55
8696.66
8532.63
8360.88
8192.6
7703.5
7214.94
6594.65
5977.63
5223.98
4470.55
3598.26
2721.18
1775.19
817.718
-122.323
-1080.36
-1907
-2756.46
-3359.81
-3988.67
-4293.73
-4624.43
-4625.48
-4649.81
-4418.84
-4207.9
-3865.89
-3540.67
-3209.37
-2892.77
-2659.16
-2445.33
10867.4
10852.3
10895.4
11273
11256.4
11116.7
10940.8
10742.4
10522.9
10283
10022.5
9741.83
9442.63
9125.63
8791.9
8446.8
7454.91
6198.7
4667.1
2886.76
945.894
-994.651
-2715.09
-3988.77
-4658.13
-4705.71
-4274.08
-3607.7
-2955.23
-2501.35
6888.11
7678.84
8253.05
8138.74
8098.25
7850.62
7670.66
7594.76
7469.67
7391.87
7302.9
7228.82
7149.12
7070.38
6990.67
6906.13
6821.7
6730.55
6639.95
6541.29
6443.92
6338.25
6233.54
6121.33
6009.86
5890.8
5773.1
5648.19
5524.24
5394.39
5266.82
4897.26
4528.85
4060.34
3595.33
3027.53
2460.12
1805.19
1145.67
439.301
-278.443
-973.815
-1687.52
-2288.17
-2913.06
-3333.88
-3783.32
-3967.33
-4182.18
-4127.72
-4103.55
-3870.7
-3665.67
-3353.17
-3064.98
-2771.87
-2500.37
-2297.57
-2121.12
3635.81
4383.1
4251.77
3568.62
3225.49
3057.71
2935.68
2827.03
2718.58
2605.56
2485.55
2357.66
2222.36
2079.55
1929.49
1775.36
1332.62
773.258
94.8371
-687.04
-1526.82
-2343.54
-3028.12
-3469.57
-3594.08
-3402.25
-2979.55
-2466.02
-2005.21
-1709.01
3901.33
4147.92
3818.63
3239.9
3183.09
3193.92
3136.59
3101.96
3034.52
2979.81
2924.77
2876.58
2827.48
2779.03
2731.25
2680.8
2631.23
2577.79
2525.28
2467.94
2412.06
2350.94
2291.03
2226.41
2162.75
2094.26
2027.22
1955.41
1884.72
1810.18
1738.31
1525.47
1316.82
1046.8
782.892
455.984
132.822
-243.232
-620.333
-1023.34
-1435.22
-1826.28
-2236.07
-2562.6
-2918.3
-3126.19
-3372.58
-3425.32
-3522.32
-3419.77
-3361.48
-3144.88
-2967.59
-2705.31
-2474.94
-2237.34
-2025.26
-1865.15
-1731.06
2890.48
2653.26
2438.17
2703.17
2782.58
2758.04
2697.4
2620.17
2531.93
2434.86
2329.38
2215.73
2094.77
1966.67
1831.72
1693.07
1292.74
784.113
162.439
-561.596
-1350.63
-2133.99
-2811.81
-3276.79
-3450.08
-3319.3
-2954.01
-2482.47
-2044.31
-1752.49
3181.84
2763.27
2617.48
2725.1
2555.6
2594.82
2619.34
2603
2636.15
2625.98
2627.04
2602.32
2583.68
2549.85
2519.71
2479.59
2441.73
2396.59
2353.05
2303.16
2254.96
2200.99
2148.3
2090.75
2034.19
1972.87
1912.93
1848.43
1784.96
1717.84
1653.15
1460.71
1272.08
1026.33
786.346
486.528
190.518
-157.993
-506.766
-885.695
-1271.71
-1647.08
-2038.34
-2362.03
-2711.29
-2930.99
-3185.5
-3262.3
-3380.36
-3307.83
-3277.75
-3089.38
-2939.74
-2698.11
-2488.66
-2262.15
-2061.83
-1904.03
-1772.36
2788.33
2664.23
2576.63
2547.35
2537.93
2512.17
2472.61
2416.72
2346.88
2265.73
2174.73
2074.9
1967.51
1853.03
1731.86
1607.06
1244.92
781.853
211.71
-458.776
-1199.2
-1948.15
-2614.77
-3096.4
-3311.1
-3235.42
-2924.07
-2493.38
-2078.1
-1791.34
2586.67
2615.89
2624.76
2576.24
2555.25
2514.49
2487.17
2474.4
2452.76
2443.15
2424.62
2404.66
2383.81
2356.6
2330.4
2297
2264.91
2226.3
2188.94
2145.45
2103.46
2055.83
2009.37
1958.16
1907.87
1852.98
1799.38
1741.4
1684.41
1623.87
1565.72
1391.42
1220.78
996.703
778.29
502.92
231.62
-91.5587
-414.153
-770.16
-1131.65
-1490.9
-1863.65
-2182.31
-2523.58
-2751.65
-3011.36
-3108.51
-3244.11
-3198.62
-3193.63
-3031.75
-2907.73
-2686.15
-2496.81
-2281.45
-2092.93
-1937.6
-1808.87
2506.2
2498.11
2459.76
2418.98
2378.9
2340.87
2296.46
2243.03
2180.12
2108.16
2027.52
1938.73
1842.8
1740.12
1631.09
1518.59
1190.51
768.433
245.141
-375.815
-1069.95
-1784.14
-2436.1
-2928.46
-3177.74
-3151.27
-2890.19
-2498.9
-2106.54
-1825.49
2425.98
2409.66
2401.38
2392.02
2377.77
2361.04
2345.02
2325.33
2308.36
2286.16
2266.57
2242.89
2220.36
2193.48
2167.5
2136.62
2106.63
2071.76
2037.79
1998.78
1961
1918.29
1876.6
1830.6
1785.44
1736.03
1687.8
1635.49
1584.08
1529.36
1476.88
1318.71
1164
959.427
760.325
507.202
258.279
-41.4471
-339.935
-674.112
-1012.41
-1355.37
-1709.74
-2021.73
-2353.7
-2587.26
-2849.65
-2963.79
-3113.86
-3092.42
-3109.76
-2972.43
-2872.21
-2669.84
-2499.85
-2295.51
-2118.8
-1966.07
-1840.72
2315.06
2305.72
2287.66
2259.57
2225.66
2185.59
2139.99
2088.07
2029.08
1963.01
1889.76
1809.47
1722.84
1630.08
1531.47
1429.64
1131.63
746.258
265.424
-309.907
-960.287
-1639.96
-2274.72
-2772.82
-3050.53
-3067.68
-2853.04
-2499.44
-2129.8
-1854.98
2226.88
2224.24
2222.97
2213.48
2206.04
2192.86
2181.05
2164.51
2148.9
2129.61
2110.92
2088.58
2066.97
2041.29
2016.65
1987.73
1959.71
1927.58
1896.27
1860.67
1826.16
1787.38
1749.48
1707.8
1666.85
1622.09
1578.38
1530.96
1484.36
1434.69
1387.16
1243.25
1102.62
915.592
733.804
500.939
272.327
-5.68157
-281.949
-595.371
-911.772
-1238.44
-1574.7
-1878.73
-2200.33
-2436.97
-2699.78
-2827.96
-2989.6
-2989.57
-3026.48
-2911.93
-2833.55
-2649.64
-2498.01
-2304.68
-2139.54
-1989.69
-1867.94
2137.94
2132.79
2118.7
2096.91
2067.58
2031.74
1989.69
1941.37
1886.68
1825.86
1758.84
1685.67
1606.88
1522.59
1432.97
1340.42
1069
716.522
274.229
-259.034
-868.108
-1513.76
-2129.34
-2628.9
-2929.52
-2985.02
-2813.1
-2495.37
-2148.07
-1879.93
2057.84
2054.37
2052.58
2046
2040.29
2029.68
2020.1
2005.91
1992.85
1975.34
1958.88
1938.34
1918.73
1895.06
1872.43
1845.79
1820.02
1790.51
1761.77
1729.19
1697.61
1662.22
1627.63
1589.66
1552.34
1511.59
1471.8
1428.63
1386.21
1340.97
1297.73
1166.44
1038.24
866.944
700.632
486.165
275.932
17.951
-237.907
-531.738
-827.59
-1138.22
-1456.82
-1751.95
-2062.45
-2300.15
-2561.47
-2701.06
-2871.66
-2890.52
-2944.39
-2850.84
-2792.34
-2626.03
-2491.73
-2309.26
-2155.37
-2008.64
-1890.65
1973.04
1968.69
1957.43
1938.87
1913.5
1881.55
1843.48
1799.39
1749.35
1693.69
1632.42
1565.61
1493.75
1416.91
1335.21
1250.86
1003.06
680.157
272.929
-221.49
-791.588
-1403.91
-1998.77
-2496.14
-2814.7
-2903.62
-2770.75
-2486.99
-2161.56
-1900.46
1897.46
1894.75
1893.49
1887.73
1882.86
1873.75
1865.54
1853.07
1841.58
1826.02
1811.32
1792.82
1775.12
1753.6
1733.04
1708.72
1685.22
1658.25
1632
1602.23
1573.38
1541.05
1509.48
1474.81
1440.75
1403.55
1367.24
1327.84
1289.12
1247.81
1208.37
1088.32
971.188
814.03
661.628
463.888
270.349
30.8522
-206.217
-481.567
-758.132
-1053.03
-1354.51
-1639.98
-1938.93
-2175.86
-2434.2
-2582.71
-2760.07
-2795.31
-2863.89
-2789.41
-2749.06
-2599.29
-2481.4
-2309.46
-2166.59
-2023.09
-1909.05
1817.81
1814.06
1804.18
1787.96
1765.45
1736.86
1702.51
1662.5
1616.93
1566.15
1510.21
1449.2
1383.58
1313.39
1238.75
1161.68
934.96
638.649
263.266
-195.398
-728.905
-1308.87
-1882.05
-2374.18
-2706.24
-2823.95
-2726.51
-2474.68
-2170.48
-1916.7
1745.34
1742.93
1741.78
1736.74
1732.5
1724.4
1717.14
1706.02
1695.81
1681.82
1668.65
1651.92
1635.96
1616.43
1597.79
1575.65
1554.27
1529.68
1505.76
1478.58
1452.27
1422.74
1393.91
1362.24
1331.13
1297.14
1263.96
1227.94
1192.55
1154.76
1118.73
1008.77
901.579
757.206
617.357
434.892
256.557
34.1685
-185.571
-443.472
-701.918
-981.447
-1266.36
-1541.62
-1828.63
-2063.29
-2317.28
-2472.57
-2654.62
-2704.03
-2785.05
-2727.95
-2703.92
-2569.78
-2467.19
-2305.55
-2173.3
-2033.22
-1923.2
1669.96
1666.63
1657.87
1643.36
1623.17
1597.42
1566.35
1530.02
1488.55
1442.27
1391.22
1335.5
1275.52
1211.34
1143.06
1072.54
864.771
592.487
246.129
-179.54
-678.662
-1227.3
-1778.08
-2262.4
-2603.99
-2746.2
-2680.68
-2458.71
-2175.04
-1928.79
1600.51
1598.34
1597.34
1592.81
1589
1581.75
1575.24
1565.22
1556.03
1543.39
1531.5
1516.34
1501.88
1484.14
1467.21
1447.06
1427.61
1405.18
1383.38
1358.57
1334.55
1307.57
1281.24
1252.28
1223.84
1192.75
1162.4
1129.42
1097.03
1062.41
1029.44
928.581
830.321
697.515
568.998
400.47
235.965
29.3735
-174.42
-415.918
-657.407
-922.057
-1191.04
-1455.75
-1730.65
-1961.8
-2210.34
-2370.51
-2555.38
-2616.9
-2708.28
-2666.87
-2657.37
-2537.88
-2449.47
-2297.82
-2175.71
-2039.23
-1933.24
1528.04
1525.05
1517.15
1504.07
1485.84
1462.52
1434.32
1401.3
1363.53
1321.32
1274.72
1223.8
1168.95
1110.22
1047.69
983.093
792.483
542.026
222.228
-172.906
-639.671
-1158.01
-1685.92
-2160.2
-2507.77
-2670.46
-2633.5
-2439.32
-2175.39
-1936.84
1461.54
1459.59
1458.68
1454.59
1451.16
1444.59
1438.7
1429.63
1421.31
1409.84
1399.06
1385.28
1372.15
1355.99
1340.59
1322.22
1304.49
1284.03
1264.13
1241.46
1219.53
1194.86
1170.79
1144.29
1118.27
1089.79
1062.01
1031.79
1002.11
970.365
940.167
847.535
757.37
635.069
516.852
361.07
209.217
17.2381
-171.823
-397.887
-623.476
-873.728
-1127.41
-1381.31
-1644.05
-1870.58
-2112.8
-2276.05
-2462.22
-2533.82
-2633.73
-2606.27
-2609.73
-2503.76
-2428.55
-2286.43
-2174.09
-2041.23
-1939.38
1391.88
1389.16
1382.01
1370.15
1353.59
1332.4
1306.74
1276.65
1242.2
1203.66
1161.07
1114.49
1064.28
1010.47
953.15
893.913
718.842
488.216
192.709
-174.217
-610.628
-1099.84
-1604.7
-2067.17
-2417.56
-2597.03
-2585.34
-2416.82
-2171.76
-1941.03
1327.22
1325.44
1324.62
1320.91
1317.79
1311.82
1306.48
1298.23
1290.66
1280.23
1270.42
1257.87
1245.91
1231.18
1217.14
1200.36
1184.19
1165.49
1147.32
1126.59
1106.54
1083.97
1061.94
1037.67
1013.85
987.751
962.297
934.578
907.367
878.23
850.549
765.412
682.607
569.905
461.083
317.025
176.781
-1.621
-177.034
-388.536
-599.179
-835.504
-1074.47
-1317.4
-1567.94
-1788.94
-2024.05
-2188.85
-2374.83
-2454.71
-2561.37
-2546.31
-2561.08
-2467.66
-2404.52
-2271.58
-2168.51
-2039.39
-1941.66
1260.29
1257.82
1251.31
1240.52
1225.44
1206.13
1182.73
1155.26
1123.8
1088.56
1049.59
1006.94
960.932
911.6
859.004
804.636
643.704
431.187
157.991
-182.782
-590.646
-1051.85
-1533.57
-1982.71
-2333.11
-2525.91
-2536.37
-2391.4
-2164.29
-1941.45
1197.49
1195.87
1195.12
1191.74
1188.9
1183.46
1178.59
1171.07
1164.18
1154.65
1145.71
1134.25
1123.33
1109.88
1097.05
1081.72
1066.94
1049.83
1033.21
1014.24
995.887
975.204
955.034
932.783
910.955
887.01
863.665
838.22
813.248
786.483
761.082
682.768
606.653
502.725
402.471
269.193
139.596
-26.2067
-188.993
-386.788
-583.418
-806.336
-1031.21
-1263.13
-1501.55
-1716.29
-1943.65
-2108.64
-2293.14
-2379.66
-2491.39
-2487.23
-2511.74
-2429.87
-2377.69
-2253.51
-2159.16
-2033.88
-1940.22
1132.27
1130.01
1124.08
1114.23
1100.47
1082.84
1061.47
1036.37
1007.58
975.34
939.652
900.574
858.391
813.131
764.843
714.918
566.907
371.003
118.39
-198.041
-578.981
-1013.19
-1471.8
-1906.29
-2254.16
-2457.1
-2486.71
-2363.21
-2153.12
-1938.2
1071.34
1069.86
1069.18
1066.08
1063.5
1058.53
1054.09
1047.21
1040.92
1032.21
1024.04
1013.56
1003.59
991.275
979.553
965.517
951.993
936.325
921.112
903.723
886.915
867.951
849.464
829.049
809.031
787.048
765.626
742.252
719.32
694.717
671.399
599.318
529.322
433.439
341.05
217.712
97.9402
-56.1397
-207.181
-392.049
-575.489
-785.486
-996.854
-1217.73
-1444.17
-1651.96
-1871.09
-2034.98
-2216.93
-2308.45
-2423.84
-2429.02
-2461.9
-2390.47
-2348.28
-2232.33
-2146.26
-2024.79
-1935.25
1007.8
1005.74
1000.32
991.319
978.743
962.618
943.067
920.096
893.746
864.208
831.499
795.662
756.957
715.403
671.042
625.165
488.966
308.303
74.6779
-219.115
-574.701
-983.01
-1418.66
-1837.47
-2180.57
-2390.72
-2436.62
-2332.52
-2138.44
-1931.44
947.825
946.465
945.848
943.016
940.657
936.109
932.052
925.762
920.01
912.046
904.574
894.983
885.86
874.586
863.86
851.003
838.621
824.263
810.329
794.386
778.982
761.586
744.634
725.898
707.532
687.345
667.68
646.202
625.138
602.518
581.106
514.752
450.373
361.91
276.767
162.651
51.9754
-91.1373
-231.219
-403.84
-574.826
-772.34
-970.718
-1180.56
-1395.11
-1595.39
-1805.83
-1967.51
-2145.84
-2240.94
-2358.56
-2371.72
-2411.54
-2349.59
-2316.32
-2208.18
-2129.83
-2012.24
-1926.74
885.95
884.065
879.104
870.875
859.368
844.612
826.713
805.677
781.535
754.462
724.469
691.59
656.063
617.899
577.134
534.969
409.622
243.012
26.9873
-245.655
-577.277
-960.651
-1373.53
-1775.73
-2112.06
-2326.67
-2386.15
-2299.42
-2120.36
-1921.27
826.944
825.697
825.134
822.541
820.385
816.222
812.512
806.754
801.492
794.2
787.363
778.579
770.228
759.899
750.077
738.294
726.951
713.787
701.017
686.393
672.27
656.306
640.756
623.555
606.698
588.155
570.097
550.357
531.004
510.203
490.535
429.447
370.224
288.612
210.143
104.587
2.33459
-130.519
-260.375
-421.405
-580.642
-766.126
-952.042
-1150.93
-1353.75
-1546.07
-1747.45
-1905.93
-2079.74
-2177.1
-2295.63
-2315.48
-2360.87
-2307.46
-2282.04
-2181.26
-2110.07
-1996.41
-1914.87
765.868
764.143
759.604
752.074
741.543
728.035
711.646
692.379
670.258
645.443
617.939
587.776
555.168
520.122
482.668
443.923
328.596
175.012
-24.6141
-277.402
-586.275
-945.575
-1335.85
-1720.63
-2048.32
-2264.86
-2335.32
-2264
-2098.95
-1907.73
707.841
706.696
706.184
703.808
701.839
698.026
694.634
689.359
684.547
677.867
671.612
663.565
655.921
646.456
637.463
626.662
616.272
604.203
592.5
579.086
566.139
551.49
537.228
521.437
505.969
488.937
472.36
454.221
436.444
417.32
399.261
343.034
288.581
213.315
141.042
43.4577
-50.9383
-174.161
-294.416
-444.44
-592.533
-766.393
-940.308
-1128.29
-1319.55
-1503.48
-1695.5
-1849.85
-2018.35
-2116.67
-2234.99
-2260.18
-2309.99
-2264.05
-2245.59
-2151.62
-2087.13
-1977.33
-1899.76
647.545
645.965
641.812
634.922
625.285
612.919
597.914
580.267
560.001
537.259
512.042
484.375
454.453
422.279
387.878
352.287
246.223
104.724
-79.6112
-313.751
-601.033
-937.119
-1305.03
-1671.73
-1989.17
-2205.3
-2284.29
-2226.45
-2074.41
-1890.99
589.688
588.636
588.172
585.996
584.198
580.707
577.608
572.78
568.382
562.266
556.546
549.179
542.187
533.519
525.29
515.396
505.885
494.825
484.108
471.812
459.952
446.518
433.446
418.96
404.777
389.145
373.938
357.282
340.966
323.397
306.831
255.122
205.099
135.756
69.2581
-20.8479
-107.887
-222.009
-333.21
-472.72
-610.199
-772.775
-935.087
-1112.21
-1292.01
-1467.18
-1649.54
-1798.91
-1961.32
-2059.46
-2176.43
-2205.78
-2258.78
-2219.43
-2206.94
-2119.34
-2060.99
-1955.09
-1881.41
530.149
528.704
524.907
518.607
509.794
498.484
484.756
468.607
450.054
429.228
406.126
380.77
353.336
323.825
292.255
259.592
162.145
31.9266
-138.064
-354.59
-621.271
-934.876
-1280.62
-1628.63
-1934.29
-2147.83
-2233.02
-2186.82
-2046.78
-1871.1
472.454
471.489
471.068
469.077
467.438
464.245
461.417
457.002
452.986
447.394
442.169
435.43
429.041
421.11
413.588
404.534
395.836
385.712
375.907
364.647
353.792
341.485
329.516
316.24
303.248
288.915
274.98
259.701
244.742
228.62
213.437
165.937
120.036
56.2309
-4.87763
-87.9561
-168.095
-273.605
-376.258
-505.718
-633.08
-784.708
-935.804
-1102.14
-1270.63
-1436.71
-1609.16
-1752.83
-1908.45
-2005.35
-2119.93
-2152.33
-2207.36
-2173.73
-2166.26
-2084.58
-2031.82
-1929.85
-1859.95
412.891
411.572
408.107
402.357
394.312
383.985
371.447
356.692
339.735
320.693
299.563
276.361
251.247
224.22
195.293
165.368
75.9872
-43.6332
-200.084
-399.87
-646.784
-938.513
-1262.21
-1590.93
-1883.39
-2092.28
-2181.45
-2145.1
-2016.1
-1848.1
355.339
354.453
354.074
352.255
350.765
347.851
345.277
341.246
337.589
332.484
327.723
321.57
315.745
308.502
301.641
293.368
285.431
276.178
267.227
256.931
247.017
235.76
224.821
212.674
200.795
187.676
174.929
160.938
147.247
132.478
118.591
75.0337
33.001
-25.6018
-81.6345
-158.078
-231.69
-329.011
-423.528
-543.338
-660.987
-801.949
-942.141
-1097.73
-1255.01
-1411.69
-1574.01
-1711.23
-1859.47
-1954.06
-2065.35
-2099.65
-2155.73
-2126.87
-2123.62
-2047.33
-1999.74
-1901.61
-1835.5
295.709
294.506
291.353
286.12
278.795
269.389
257.965
244.516
229.052
211.679
192.392
171.203
148.259
123.556
97.1058
69.7429
-12.0666
-121.706
-265.345
-449.187
-677.104
-947.529
-1249.32
-1558.24
-1836.23
-2038.57
-2129.66
-2101.45
-1982.53
-1822.12
237.542
236.732
236.392
234.736
233.388
230.737
228.403
224.737
221.42
216.775
212.452
206.852
201.559
194.964
188.727
181.191
173.97
165.537
157.388
148
138.97
128.701
118.733
107.648
96.8157
84.8376
73.2104
60.4311
47.9349
34.4407
21.7746
-18.0615
-56.4431
-110.115
-161.342
-231.465
-298.87
-388.339
-475.069
-585.541
-693.814
-824.317
-953.853
-1098.7
-1244.81
-1391.77
-1543.7
-1673.8
-1814.04
-1905.38
-2012.43
-2047.63
-2103.72
-2078.84
-2078.92
-2007.61
-1964.67
-1870.41
-1808
177.792
176.701
173.845
169.105
162.465
153.933
143.565
131.35
117.295
101.497
83.9467
64.6545
43.7558
21.2439
-2.87173
-27.8156
-102.465
-202.634
-334.057
-502.602
-712.135
-961.694
-1241.64
-1530.22
-1792.51
-1986.5
-2077.53
-2055.83
-1946.08
-1793.2
118.955
118.219
117.918
116.418
115.207
112.808
110.707
107.389
104.397
100.191
96.287
91.214
86.4282
80.4481
74.803
67.9643
61.4212
53.7646
46.374
37.8434
29.6484
20.3118
11.2577
1.17494
-8.66889
-19.5698
-30.1409
-41.7754
-53.1427
-65.4309
-76.9458
-113.256
-148.182
-197.164
-243.825
-307.908
-369.388
-451.304
-530.558
-631.97
-731.169
-851.402
-970.506
-1104.6
-1239.6
-1376.56
-1517.88
-1640.25
-1771.9
-1859.12
-1961.08
-1996.24
-2051.36
-2029.69
-2032.29
-1965.56
-1926.77
-1836.4
-1777.59
58.3353
57.3528
54.7881
50.5262
44.5511
36.8636
27.5104
16.4772
3.76687
-10.534
-26.4342
-43.926
-62.8848
-83.3167
-105.215
-127.858
-195.686
-286.793
-406.473
-560.227
-751.84
-980.829
-1238.88
-1506.54
-1751.91
-1935.83
-2024.93
-2008.19
-1906.74
-1761.32
-1.24093
-1.90961
-2.17365
-3.5172
-4.59157
-6.7418
-8.61335
-11.59
-14.2612
-18.0402
-21.535
-26.0998
-30.3935
-35.7836
-40.8582
-47.0309
-52.9241
-59.8426
-66.5087
-74.2254
-81.625
-90.0771
-98.2613
-107.393
-116.297
-126.175
-135.742
-146.288
-156.581
-167.722
-178.139
-211.086
-242.707
-287.199
-329.476
-387.745
-443.51
-518.114
-590.118
-682.687
-773.025
-883.116
-991.933
-1115.24
-1239.12
-1365.76
-1496.22
-1610.23
-1732.78
-1814.99
-1911.1
-1945.24
-1998.57
-1979.3
-1983.73
-1921.09
-1886.09
-1799.52
-1744.35
-62.8324
-63.6978
-65.9726
-69.7524
-75.0669
-81.9235
-90.2878
-100.18
-111.602
-124.473
-138.803
-154.583
-171.697
-190.151
-209.935
-230.386
-291.686
-374.083
-482.423
-621.812
-795.898
-1004.56
-1240.64
-1486.83
-1714.17
-1886.43
-1971.85
-1958.61
-1864.64
-1726.64
-123.939
-124.518
-124.73
-125.92
-126.852
-128.743
-130.377
-133.005
-135.35
-138.7
-141.784
-145.847
-149.656
-154.471
-158.989
-164.52
-169.786
-175.998
-181.97
-188.909
-195.549
-203.157
-210.511
-218.735
-226.743
-235.643
-244.248
-253.753
-263.016
-273.056
-282.42
-312.128
-340.566
-380.709
-418.744
-471.357
-521.568
-589.019
-653.942
-737.799
-819.422
-919.42
-1018.02
-1130.43
-1243.12
-1359.1
-1478.4
-1583.46
-1696.34
-1772.73
-1862.19
-1894.47
-1945.13
-1927.57
-1933.09
-1874.19
-1842.55
-1759.82
-1708.2
-186.58
-187.351
-189.291
-192.558
-197.183
-203.194
-210.576
-219.355
-229.533
-241.037
-253.871
-268.021
-283.374
-299.934
-317.692
-336.034
-391.026
-464.966
-562.245
-687.556
-844.353
-1032.78
-1246.7
-1470.8
-1678.98
-1838.04
-1918.12
-1907
-1819.75
-1689.13
-249.304
-249.862
-250.062
-251.034
-251.793
-253.399
-254.762
-257.016
-259.001
-261.911
-264.565
-268.128
-271.446
-275.702
-279.676
-284.593
-289.255
-294.796
-300.107
-306.31
-312.229
-319.037
-325.602
-332.961
-340.113
-348.078
-355.764
-364.267
-372.541
-381.518
-389.869
-416.438
-441.791
-477.696
-511.599
-558.676
-603.456
-663.874
-721.843
-797.079
-870.095
-960.017
-1048.45
-1149.82
-1251.24
-1356.23
-1464.08
-1559.61
-1662.29
-1732.12
-1814.19
-1843.81
-1890.99
-1874.51
-1880.42
-1824.95
-1796.24
-1717.39
-1669.26
-313.967
-314.463
-316.065
-318.716
-322.567
-327.677
-334.063
-341.755
-350.75
-360.962
-372.381
-384.983
-398.654
-413.394
-429.191
-445.485
-494.315
-559.948
-646.325
-757.707
-897.301
-1065.42
-1256.85
-1458.15
-1646.02
-1790.37
-1863.53
-1853.26
-1772.03
-1648.76
-378.863
-379.008
-378.977
-379.819
-380.351
-381.573
-382.586
-384.386
-385.958
-388.369
-390.561
-393.614
-396.438
-400.161
-403.612
-407.96
-412.059
-416.981
-421.677
-427.197
-432.441
-438.495
-444.316
-450.851
-457.187
-464.251
-471.051
-478.582
-485.897
-493.837
-501.199
-524.689
-547.01
-578.739
-608.56
-650.168
-689.568
-743.013
-794.074
-860.715
-925.144
-1004.94
-1083.15
-1173.31
-1263.28
-1356.91
-1452.98
-1538.39
-1630.33
-1692.82
-1766.84
-1792.98
-1835.99
-1819.92
-1825.69
-1773.23
-1747.21
-1672.16
-1627.58
-445.051
-445.804
-446.557
-448.339
-451.202
-455.334
-460.747
-467.446
-475.38
-484.43
-494.553
-505.704
-517.771
-530.75
-544.634
-558.92
-601.665
-659.066
-734.619
-832.135
-954.526
-1102.21
-1270.77
-1448.53
-1614.98
-1743.22
-1808.01
-1797.42
-1721.59
-1605.67
-511.941
-513.126
-513.58
-513.393
-513.467
-514.054
-514.455
-515.699
-516.624
-518.576
-520.213
-522.84
-525.188
-528.481
-531.483
-535.366
-538.992
-543.386
-547.552
-552.456
-557.093
-562.442
-567.566
-573.307
-578.861
-585.042
-590.976
-597.546
-603.913
-610.823
-617.202
-637.62
-656.912
-684.466
-710.206
-746.342
-780.362
-826.813
-870.952
-928.936
-984.724
-1054.25
-1122.11
-1200.79
-1279.08
-1360.91
-1444.79
-1519.48
-1600.12
-1654.54
-1719.79
-1741.75
-1779.86
-1763.64
-1768.68
-1718.98
-1695.31
-1624.11
-1583.04
-583.354
-581.258
-581.54
-581.841
-583.43
-586.517
-591.148
-597.153
-604.313
-612.419
-621.391
-631.178
-641.684
-652.918
-664.888
-677.157
-713.778
-762.906
-827.591
-911.162
-1016.19
-1143.12
-1288.26
-1441.65
-1585.52
-1696.27
-1751.32
-1739.34
-1668.35
-1559.8
-659.118
-653.998
-651.379
-652.332
-650.887
-650.317
-649.716
-650.015
-650.41
-651.692
-653.033
-655.42
-657.591
-660.725
-663.55
-667.173
-670.532
-674.52
-678.289
-682.637
-686.739
-691.402
-695.86
-700.805
-705.58
-710.865
-715.924
-721.515
-726.918
-732.778
-738.158
-755.456
-771.676
-795.011
-816.631
-847.251
-875.849
-915.243
-952.4
-1001.62
-1048.66
-1107.73
-1165.08
-1231.98
-1298.3
-1367.89
-1439.17
-1502.54
-1571.31
-1616.99
-1672.81
-1689.92
-1722.49
-1705.62
-1709.41
-1662.23
-1640.64
-1573.35
-1535.76
-723.021
-728.261
-721.252
-717.764
-717.69
-720.947
-725.969
-732.089
-738.948
-746.334
-754.221
-762.624
-771.506
-780.918
-790.895
-801.069
-831.397
-872.1
-925.75
-995.154
-1082.49
-1188.18
-1309.2
-1437.24
-1557.29
-1649.19
-1693.2
-1678.86
-1612.23
-1511.09
-787.355
-803.127
-809.602
-797.453
-792.668
-786.806
-783.032
-784.779
-783.856
-787.289
-788.824
-792.35
-795.044
-798.63
-801.731
-805.313
-808.6
-812.213
-815.618
-819.364
-822.887
-826.791
-830.509
-834.582
-838.5
-842.82
-846.931
-851.481
-855.859
-860.616
-864.936
-879.009
-892.042
-911.075
-928.471
-953.482
-976.545
-1008.76
-1038.79
-1079.06
-1117.17
-1165.51
-1212.07
-1266.81
-1320.79
-1377.62
-1435.83
-1487.24
-1543.58
-1579.81
-1625.58
-1637.18
-1663.64
-1645.61
-1647.79
-1602.83
-1583.19
-1519.78
-1485.75
-911.424
-861.97
-852.468
-849.363
-853.594
-860.399
-867.736
-874.649
-881.215
-887.619
-894.094
-900.809
-907.813
-915.196
-923.016
-930.956
-954.737
-986.793
-1029.17
-1084.09
-1153.3
-1237.14
-1333.23
-1434.9
-1529.94
-1601.69
-1633.51
-1615.98
-1553.34
-1459.67
-1091.18
-960.847
-903.445
-942.985
-911.31
-907.333
-910.974
-914.862
-923.711
-928.985
-935.494
-939.345
-943.976
-947.083
-950.571
-953.378
-956.334
-959.027
-961.762
-964.513
-967.182
-970.056
-972.82
-975.829
-978.729
-981.943
-984.983
-988.395
-991.648
-995.231
-998.404
-1009.1
-1018.79
-1033.39
-1046.42
-1065.67
-1083.04
-1107.86
-1130.56
-1161.59
-1190.49
-1227.73
-1263.14
-1305.23
-1346.42
-1389.89
-1434.47
-1473.25
-1516.52
-1542.61
-1577.7
-1583.18
-1602.99
-1583.37
-1583.56
-1540.63
-1522.79
-1463.33
-1432.86
-999.195
-1013.51
-931.613
-979.344
-1004.5
-1016.89
-1024.24
-1029.53
-1033.95
-1038.09
-1042.32
-1046.78
-1051.52
-1056.61
-1062.08
-1067.64
-1084.54
-1107.67
-1138.41
-1178.38
-1228.84
-1290.05
-1360.22
-1434.35
-1503.1
-1553.46
-1572.02
-1550.57
-1491.57
-1405.43
-286.704
-394.422
-467.576
-366.285
-303.397
-288.98
-281.106
-285.783
-285.69
-291.068
-292.22
-296.658
-298.164
-301.956
-303.915
-307.363
-309.735
-313.217
-315.998
-319.73
-322.958
-326.964
-330.638
-334.965
-339.046
-343.76
-348.229
-353.287
-358.163
-363.54
-368.534
-384.644
-400.002
-422.264
-443.219
-472.946
-501.144
-540.109
-577.35
-627.193
-675.276
-737.043
-797.243
-870.502
-942.826
-1024.52
-1106.78
-1190.13
-1276.74
-1351.34
-1432.89
-1486.25
-1551.09
-1572.26
-1609.7
-1593.01
-1597.25
-1542.14
-1510.2
271.673
235.127
314.126
355.801
390.698
409.636
418.325
420.556
418.295
412.907
405.195
395.55
384.317
371.696
357.772
343.113
297.897
235.618
151.685
40.5963
-103.317
-284.65
-504.709
-758.577
-1031.57
-1297.62
-1521.85
-1668.21
-1709.13
-1624.52
305.435
269.898
292.438
379.948
418.941
418.706
413.397
402.139
396.844
390.347
386.918
382.801
380.164
376.783
374.116
370.706
367.632
363.824
360.21
355.832
351.614
346.675
341.84
336.346
330.944
324.867
318.915
312.325
305.822
298.75
292.028
270.836
250.029
220.692
192.218
152.763
114.311
62.1148
11.0203
-56.6093
-123.165
-208.501
-292.932
-396.758
-500.117
-620.271
-740.971
-870.661
-1002.69
-1129.69
-1261.44
-1368.88
-1484.06
-1553.7
-1634.46
-1651.1
-1682.68
-1635.08
-1604.7
282.194
312.014
385.734
374.475
362.132
349.68
338.376
327.96
318.092
308.303
298.225
287.658
276.484
264.599
251.941
238.8
199.393
145.687
73.4872
-22.2964
-147.036
-305.468
-499.88
-727.581
-977.505
-1227.99
-1447.62
-1600.54
-1654.7
-1582.71
298.251
327.4
308.044
261.376
264.016
268.256
274.902
278.576
281.42
282.462
282.061
280.81
278.499
275.788
272.468
268.849
264.908
260.732
256.386
251.771
247.109
242.131
237.141
231.835
226.537
220.865
215.255
209.245
203.281
196.942
190.893
172.214
153.889
128.486
103.79
69.7382
36.5502
-8.56621
-52.694
-111.427
-169.144
-243.807
-317.534
-409.329
-500.488
-608.241
-716.173
-834.729
-955.016
-1074.18
-1197.28
-1301.87
-1413.27
-1485.35
-1567.6
-1590.21
-1626.66
-1585.45
-1560.22
221.138
227.555
227.938
227.479
223.899
220.506
216.57
211.686
205.702
198.714
190.822
182.07
172.552
162.298
151.311
139.891
105.639
59.1598
-3.24425
-86.145
-194.534
-333.094
-504.715
-708.316
-935.692
-1168.95
-1380.13
-1534.55
-1597.45
-1536.11
185.691
184.091
175.76
168.767
170.859
170.656
170.595
171.268
170.128
169.124
167.526
165.586
163.692
161.198
158.936
156.056
153.392
150.138
147.071
143.418
139.936
135.922
132.027
127.661
123.39
118.647
114.014
108.936
103.933
98.5361
93.4071
77.4055
61.7229
39.8027
18.5309
-10.8964
-39.5557
-78.6344
-116.837
-167.915
-218.076
-283.41
-347.866
-428.899
-509.27
-605.541
-701.807
-809.465
-918.435
-1029.03
-1142.9
-1242.93
-1348.9
-1421.16
-1502.59
-1529.14
-1568.49
-1532.78
-1511.87
119.334
120.148
121.259
118.12
115.692
112.854
109.267
104.895
99.7734
93.9378
87.3979
80.1517
72.2339
63.651
54.3986
44.7499
15.5387
-24.3987
-78.251
-150.045
-244.305
-365.497
-516.805
-698.266
-903.894
-1118.98
-1318.88
-1470.72
-1538.65
-1486.36
72.3469
72.5846
71.9319
69.9806
69.3853
69.3468
68.8233
67.7527
66.7405
65.1849
63.8038
61.9915
60.2793
58.185
56.1444
53.7472
51.3713
48.6587
45.9674
42.9125
39.9059
36.5344
33.202
29.5242
25.888
21.8808
17.9436
13.6396
9.38706
4.80017
0.439886
-13.2202
-26.6101
-45.4358
-63.6901
-89.081
-113.785
-147.636
-180.695
-225.129
-268.721
-325.872
-382.189
-453.609
-524.343
-610.06
-695.626
-792.792
-890.942
-992.58
-1096.96
-1191.15
-1290.55
-1361.11
-1439.96
-1468.69
-1509.24
-1478.26
-1460.95
20.792
20.3963
19.2046
17.9298
15.8792
13.2069
9.93192
6.07198
1.61582
-3.42092
-9.03921
-15.2498
-22.0259
-29.3663
-37.2789
-45.534
-70.5552
-104.876
-151.32
-213.465
-295.393
-401.276
-534.38
-695.487
-880.306
-1076.79
-1263.35
-1409.39
-1479.17
-1434.51
-25.9888
-26.2263
-26.5691
-27.0917
-27.2976
-28.0319
-28.7136
-29.6806
-30.6524
-31.916
-33.1478
-34.6862
-36.177
-38.0074
-39.7726
-41.8738
-43.9197
-46.2878
-48.6006
-51.2524
-53.8349
-56.7473
-59.6084
-62.7754
-65.8964
-69.3405
-72.7189
-76.4145
-80.0635
-84.0006
-87.7368
-99.4683
-110.962
-127.154
-142.85
-164.75
-186.045
-215.34
-243.928
-282.534
-320.372
-370.273
-419.389
-482.153
-544.232
-620.21
-695.938
-783.051
-870.889
-963.387
-1058.17
-1145.61
-1237.62
-1304.99
-1379.87
-1409.29
-1449.61
-1422.64
-1408.32
-74.4958
-74.6855
-75.3564
-76.734
-78.5358
-80.8495
-83.6745
-87.0086
-90.857
-95.2039
-100.048
-105.397
-111.228
-117.54
-124.341
-131.435
-152.94
-182.469
-222.507
-276.227
-347.297
-439.557
-556.216
-698.522
-863.458
-1041.18
-1212.9
-1350.55
-1419.52
-1381.24
-119
-119.178
-119.273
-119.681
-120.053
-120.627
-121.194
-122.069
-122.879
-123.985
-125.04
-126.374
-127.663
-129.241
-130.767
-132.574
-134.342
-136.376
-138.372
-140.65
-142.874
-145.377
-147.839
-150.56
-153.244
-156.203
-159.106
-162.281
-165.416
-168.799
-172.007
-182.089
-191.96
-205.888
-219.378
-238.246
-256.576
-281.875
-306.539
-339.985
-372.729
-416.141
-458.817
-513.716
-567.943
-634.88
-701.498
-778.971
-856.966
-940.241
-1025.44
-1105.42
-1189.42
-1252.39
-1322.17
-1351.02
-1389.92
-1366.33
-1354.44
-165.001
-165.27
-165.961
-167.049
-168.597
-170.592
-173.024
-175.891
-179.197
-182.929
-187.087
-191.677
-196.68
-202.095
-207.93
-214.015
-232.466
-257.819
-292.241
-338.517
-399.907
-479.896
-581.535
-706.321
-852.182
-1011.09
-1166.8
-1293.95
-1359.83
-1326.83
-208.205
-208.345
-208.435
-208.761
-209.039
-209.577
-210.07
-210.811
-211.509
-212.45
-213.355
-214.496
-215.599
-216.951
-218.256
-219.805
-221.316
-223.059
-224.766
-226.716
-228.619
-230.761
-232.867
-235.196
-237.491
-240.024
-242.507
-245.225
-247.906
-250.801
-253.543
-262.176
-270.617
-282.551
-294.095
-310.279
-325.983
-347.722
-368.887
-397.698
-425.867
-463.387
-500.221
-547.883
-594.891
-653.345
-711.433
-779.604
-848.138
-922.133
-997.743
-1069.69
-1145.19
-1202.75
-1266.5
-1293.68
-1330.14
-1309.37
-1299.45
-252.797
-252.994
-253.555
-254.506
-255.828
-257.527
-259.598
-262.041
-264.858
-268.039
-271.583
-275.494
-279.757
-284.373
-289.346
-294.531
-310.259
-331.887
-361.279
-400.853
-453.466
-522.221
-609.93
-718.179
-845.573
-985.573
-1124.27
-1239.1
-1299.93
-1271.26
-295.268
-295.396
-295.466
-295.743
-295.992
-296.439
-296.854
-297.484
-298.074
-298.873
-299.638
-300.607
-301.542
-302.688
-303.793
-305.106
-306.386
-307.864
-309.31
-310.963
-312.574
-314.391
-316.175
-318.15
-320.095
-322.242
-324.346
-326.65
-328.923
-331.378
-333.699
-341.024
-348.176
-358.309
-368.094
-381.849
-395.171
-413.671
-431.652
-456.217
-480.192
-512.266
-543.698
-584.584
-624.84
-675.214
-725.192
-784.285
-843.614
-908.23
-974.203
-1037.6
-1104.13
-1155.39
-1212.26
-1236.82
-1269.95
-1251.5
-1243.15
-339.302
-339.48
-339.959
-340.752
-341.864
-343.294
-345.036
-347.091
-349.462
-352.137
-355.119
-358.411
-361.998
-365.882
-370.068
-374.43
-387.67
-405.887
-430.664
-464.062
-508.537
-566.788
-641.324
-733.685
-842.945
-963.801
-1084.48
-1185.32
-1239.33
-1214.17
-382.017
-382.12
-382.178
-382.41
-382.612
-382.99
-383.335
-383.86
-384.35
-385.017
-385.654
-386.462
-387.24
-388.196
-389.115
-390.211
-391.276
-392.509
-393.713
-395.092
-396.433
-397.949
-399.434
-401.081
-402.702
-404.492
-406.244
-408.167
-410.06
-412.108
-414.04
-420.154
-426.108
-434.573
-442.723
-454.22
-465.326
-480.803
-495.807
-516.386
-536.421
-563.343
-589.661
-624.064
-657.861
-700.385
-742.495
-792.583
-842.804
-897.841
-954.018
-1008.3
-1065.37
-1109.47
-1158.67
-1179.73
-1208.71
-1192.15
-1185.04
-426.489
-426.633
-427.026
-427.679
-428.594
-429.771
-431.204
-432.896
-434.846
-437.048
-439.502
-442.211
-445.163
-448.361
-451.807
-455.396
-466.294
-481.298
-501.716
-529.261
-565.985
-614.158
-675.93
-752.684
-843.799
-945.006
-1046.54
-1131.72
-1177.25
-1154.9
-470.472
-470.558
-470.602
-470.792
-470.955
-471.261
-471.54
-471.966
-472.36
-472.902
-473.415
-474.071
-474.699
-475.474
-476.216
-477.105
-477.965
-478.964
-479.937
-481.054
-482.138
-483.366
-484.566
-485.901
-487.212
-488.662
-490.079
-491.637
-493.168
-494.828
-496.386
-501.344
-506.153
-513.021
-519.606
-528.939
-537.915
-550.487
-562.623
-579.352
-595.574
-617.481
-638.819
-666.855
-694.306
-729.02
-763.306
-804.275
-845.292
-890.398
-936.453
-980.985
-1027.98
-1064.03
-1104.73
-1121.44
-1145.47
-1130.45
-1124.3
-516.52
-516.636
-516.947
-517.463
-518.187
-519.119
-520.252
-521.591
-523.134
-524.876
-526.818
-528.962
-531.298
-533.828
-536.556
-539.393
-548.014
-559.89
-576.055
-597.873
-626.978
-665.188
-714.233
-775.254
-847.794
-928.477
-1009.45
-1077.18
-1112.6
-1092.49
-562.998
-563.065
-563.097
-563.245
-563.367
-563.605
-563.817
-564.145
-564.445
-564.864
-565.255
-565.76
-566.241
-566.837
-567.403
-568.088
-568.745
-569.514
-570.26
-571.118
-571.947
-572.892
-573.81
-574.836
-575.841
-576.955
-578.039
-579.238
-580.41
-581.686
-582.875
-586.69
-590.363
-595.652
-600.682
-607.869
-614.729
-624.41
-633.688
-646.57
-658.979
-675.849
-692.18
-713.77
-734.795
-761.522
-787.808
-819.32
-850.806
-885.417
-920.811
-954.78
-990.923
-1017.97
-1049.23
-1060.73
-1079
-1065.21
-1059.81
-611.94
-612.026
-612.255
-612.633
-613.166
-613.85
-614.682
-615.666
-616.8
-618.078
-619.506
-621.081
-622.795
-624.655
-626.658
-628.737
-635.061
-643.778
-655.643
-671.654
-693.008
-721.033
-756.986
-801.679
-854.719
-913.521
-972.144
-1020.39
-1043.97
-1025.64
-662.346
-662.396
-662.413
-662.519
-662.6
-662.767
-662.911
-663.139
-663.342
-663.634
-663.9
-664.252
-664.581
-664.993
-665.38
-665.855
-666.304
-666.837
-667.349
-667.942
-668.509
-669.164
-669.793
-670.503
-671.193
-671.962
-672.704
-673.533
-674.338
-675.219
-676.028
-678.669
-681.174
-684.84
-688.268
-693.246
-697.923
-704.622
-710.945
-719.847
-728.302
-739.939
-751.06
-765.913
-780.217
-798.529
-816.391
-837.835
-859.189
-882.478
-906.398
-928.771
-953.05
-969.973
-990.712
-996.092
-1007.73
-994.926
-990.105
-715.73
-715.786
-715.928
-716.162
-716.495
-716.921
-717.437
-718.05
-718.756
-719.55
-720.439
-721.419
-722.483
-723.64
-724.885
-726.17
-730.087
-735.49
-742.838
-752.741
-765.922
-783.171
-805.21
-832.443
-864.463
-899.432
-933.381
-959.741
-969.633
-952.729
-771.769
-771.799
-771.803
-771.863
-771.899
-771.991
-772.063
-772.185
-772.284
-772.441
-772.573
-772.761
-772.929
-773.146
-773.34
-773.592
-773.82
-774.101
-774.363
-774.674
-774.961
-775.306
-775.626
-775.999
-776.353
-776.755
-777.132
-777.567
-777.978
-778.438
-778.842
-780.23
-781.485
-783.418
-785.133
-787.75
-790.088
-793.595
-796.751
-801.384
-805.593
-811.599
-817.112
-824.689
-831.734
-840.914
-849.632
-860.081
-870.371
-881.187
-892.484
-901.939
-913.041
-918.514
-927.425
-925.687
-929.736
-917.735
-913.388
-831.43
-831.453
-831.501
-831.579
-831.694
-831.839
-832.013
-832.222
-832.463
-832.731
-833.033
-833.366
-833.724
-834.116
-834.537
-834.957
-836.255
-838.051
-840.478
-843.719
-847.975
-853.434
-860.208
-868.221
-876.996
-885.454
-891.748
-893.337
-887.467
-871.768
-895.144
-895.151
-895.137
-895.149
-895.134
-895.144
-895.138
-895.14
-895.123
-895.133
-895.116
-895.123
-895.113
-895.113
-895.093
-895.1
-895.08
-895.084
-895.071
-895.068
-895.045
-895.048
-895.025
-895.025
-895.01
-895.003
-894.976
-894.975
-894.949
-894.945
-894.897
-894.901
-894.769
-894.784
-894.598
-894.601
-894.343
-894.314
-893.952
-893.849
-893.34
-893.092
-892.364
-891.846
-890.801
-889.791
-888.306
-886.44
-884.356
-881.138
-878.276
-873.109
-869.375
-861.78
-857.31
-847.318
-842.715
-831.372
-827.478
-963.273
-963.263
-963.206
-963.104
-962.977
-962.807
-962.591
-962.35
-962.067
-961.737
-961.384
-960.988
-960.547
-960.081
-959.574
-959.021
-957.367
-955.101
-951.982
-947.714
-941.904
-934.057
-923.591
-909.872
-892.327
-870.713
-845.57
-818.918
-794.976
-780.397
-1037.04
-1037.04
-1037.01
-1036.96
-1036.89
-1036.8
-1036.7
-1036.57
-1036.43
-1036.26
-1036.08
-1035.88
-1035.66
-1035.42
-1035.15
-1034.88
-1034.58
-1034.26
-1033.92
-1033.57
-1033.2
-1032.8
-1032.39
-1031.96
-1031.52
-1031.05
-1030.56
-1030.06
-1029.54
-1029
-1028.44
-1026.86
-1025.14
-1022.96
-1020.6
-1017.61
-1014.38
-1010.31
-1005.92
-1000.41
-994.494
-987.096
-979.224
-969.45
-959.145
-946.487
-933.32
-917.375
-901.129
-881.862
-862.804
-840.902
-820.226
-797.624
-777.933
-758.353
-744.036
-733.081
-729.922
SCALARS Stress_Z double 1
LOOKUP_TABLE default
-5.16642e+06
-3.47035e+06
-2.34922e+06
-1.53352e+06
-1.1146e+06
-899453
-758181
-638444
-572028
-496649
-458792
-406419
-382960
-344180
-328490
-298506
-287733
-263524
-256000
-235968
-230500
-213649
-209718
-195208
-192522
-179705
-177905
-167525
-166498
-152257
-138636
-105925
-97360.2
-80946.3
-75050.5
-61207.2
-57108
-46339.6
-43320.7
-34944.2
-32716.1
-26225.9
-24498.1
-19585
-16833.2
-12912.4
-10887.9
-8920.75
-7375.73
-5894.17
-4727.73
-3609.02
-2725.74
-1885.76
-1225.95
-604.449
-120.913
329.576
676.331
-1.78982e+06
-712709
-671569
-525943
-431492
-364663
-315148
-277017
-246913
-222476
-202121
-184898
-169914
-156177
-142264
-122762
-91077.9
-70043.8
-53905.1
-41222.2
-31319.6
-23507.8
-16238.8
-10627.4
-7191.31
-4616.79
-2666.84
-1201.91
-120.407
660.374
73727
-109137
-482130
-372974
-356782
-355913
-347835
-326080
-313848
-292621
-281127
-262215
-252373
-236122
-227881
-213910
-207013
-194884
-189066
-178471
-173478
-164056
-159674
-151090
-147068
-139028
-135088
-126985
-121845
-113926
-108585
-89901.8
-81705.8
-69638.9
-63964.5
-54078.8
-49735.3
-41701.2
-38433.3
-31926.2
-29425.7
-24217.9
-22234.3
-18020.9
-15532.1
-12169.3
-10307.2
-8422.6
-7001.33
-5600.64
-4504.52
-3443.57
-2607.91
-1806.09
-1177.8
-581.725
-119.672
313.588
644.749
173773
-193254
-226588
-233688
-228904
-215865
-200868
-186055
-172181
-159386
-147625
-136682
-126259
-115921
-105351
-95174.9
-73439.9
-58072.8
-45727.5
-35695.5
-27575.1
-20965.6
-14811
-9969.4
-6796.83
-4390.51
-2547.96
-1153.19
-118.463
629.493
-213537
-191587
-112101
-147646
-154716
-165248
-172632
-174220
-173777
-173455
-169976
-167682
-162822
-159557
-154237
-150534
-145193
-141349
-136155
-132317
-127304
-123506
-118667
-114881
-110092
-106287
-101460
-97559.2
-92704.4
-88940.1
-84719.2
-74401.6
-66977.4
-59562.2
-53436.2
-47463.4
-42594
-37416.1
-33551.6
-29126.3
-26095.1
-22342.8
-19916.1
-16652.2
-14188.3
-11445.3
-9651.17
-7954.12
-6603.13
-5313.62
-4278.04
-3281.4
-2488.57
-1727.76
-1128.73
-559.635
-117.48
297.162
613.962
-162459
-97721.7
-112970
-126196
-132986
-134371
-132218
-127856
-122282
-116066
-109519
-102795
-95929.4
-88944.9
-82002.1
-75268.5
-60762.4
-49258.5
-39646.6
-31505.6
-24668.3
-18909.3
-13586
-9338
-6411.47
-4167.03
-2429.49
-1104.31
-116.34
598.634
-25533.6
-51332.2
-76980.7
-77431.1
-86239.3
-90282.3
-96261.2
-99437.7
-103412
-104849
-106770
-106791
-107063
-106120
-105291
-103669
-102127
-100052
-98053.5
-95681.6
-93383.9
-90811
-88309.4
-85596.8
-82939.7
-80151.6
-77406.9
-74617.2
-71872.6
-69208.5
-66775.3
-60218.4
-55055.6
-49801.6
-45234.6
-40851.5
-36884
-33002.7
-29610.4
-26188.7
-23365.7
-20366.9
-17989.1
-15287.6
-13023.5
-10695
-9029.43
-7483.68
-6220.74
-5028.64
-4055.8
-3121
-2370.36
-1650.31
-1079.85
-537.86
-115.249
280.731
583.208
-32456.7
-59377.2
-65623.1
-73402.8
-79953.6
-84226.4
-86186.5
-86244.1
-84870.7
-82459
-79307
-75634.8
-71604.9
-67374.1
-63117.2
-59065.4
-49721.4
-41552.3
-34286.6
-27806.5
-22106.8
-17105.3
-12478.2
-8726.28
-6034.62
-3946.11
-2311.83
-1055.6
-114.135
567.907
-49126.9
-48120.7
-43875.5
-48353.3
-50640.2
-54258.3
-57656.8
-60522.3
-63516.1
-65582.6
-67688.8
-68948.7
-70135.6
-70662.7
-71044.8
-70963
-70701.4
-70136
-69382.7
-68445
-67322.7
-66106.8
-64717.7
-63303.1
-61730.9
-60198.6
-58531.6
-56948.5
-55284.6
-53715.5
-52192.9
-48178.2
-44808.4
-41181.4
-38007.7
-34806.2
-31781.1
-28834.5
-26064.3
-23349
-20902.6
-18429.9
-16263.1
-13975
-11953.9
-9946.28
-8425.54
-7018.41
-5847.71
-4747.87
-3836.41
-2962.79
-2253.26
-1573.82
-1031.29
-516.412
-113.012
264.274
552.584
-38472.9
-37225.6
-40951.9
-45514.8
-50102.7
-53902.7
-56572.3
-58069.5
-58507.2
-58058
-56901.5
-55208.1
-53129.6
-50810.8
-48395.1
-46020.6
-40254.8
-34733.9
-29443.8
-24416.4
-19746
-15456.1
-11445.4
-8130.29
-5665.83
-3728.24
-2195.43
-1007.28
-111.942
537.332
-23932.3
-27237.1
-29042.7
-30282.1
-31942.2
-33807.5
-35860.8
-37800.2
-39874
-41553
-43351.7
-44623.2
-45975.9
-46814.2
-47676.5
-48104.2
-48510.4
-48573.9
-48586.7
-48345.7
-48036.6
-47552.9
-46996.7
-46329.8
-45596.6
-44807.8
-43966.9
-43108.1
-42222.3
-41339.2
-40502.2
-38143.3
-36104.6
-33735.1
-31643.2
-29387.6
-27193.2
-24992
-22816.9
-20673.5
-18625.5
-16580.6
-14674.9
-12728.1
-10951.1
-9211.56
-7837.63
-6561.69
-5483.32
-4472.11
-3620.48
-2806.99
-2137.69
-1498.39
-983.263
-495.315
-110.827
247.808
522.148
-20715.4
-23682.9
-25647.6
-28456.5
-31548.5
-34463.8
-36890.7
-38682.3
-39808.2
-40310.5
-40271.5
-39791.7
-38973.9
-37921.1
-36730.6
-35508.3
-32248.5
-28760.6
-25084.9
-21300.9
-17549.4
-13924.5
-10469.9
-7549.36
-5305.05
-3513.89
-2080.54
-959.496
-109.819
506.919
-16928.8
-17786.9
-17798.3
-18793.1
-19607.3
-20858.4
-22078.4
-23433.4
-24817.5
-26105.1
-27447.3
-28556.7
-29715.4
-30592.3
-31492.5
-32116.7
-32739.8
-33117.7
-33474.5
-33632.3
-33752.7
-33723.6
-33650.8
-33471
-33249.6
-32958.9
-32633.9
-32265.8
-31879.2
-31463.1
-31078.8
-29849.3
-28770.2
-27347.4
-26081.8
-24578.2
-23075
-21483.6
-19836.8
-18176.8
-16506.4
-14832.3
-13194.9
-11546.5
-10000.7
-8495.42
-7264.53
-6114.24
-5126.74
-4201.04
-3407.99
-2653.37
-2023.61
-1423.88
-935.769
-474.532
-108.743
231.297
491.83
-13300.3
-14213.2
-15479.9
-17288.3
-19415.1
-21584.5
-23579.9
-25266
-26573.2
-27484.8
-28025.2
-28241.3
-28190.1
-27934
-27533.2
-27065.7
-25541.4
-23575.7
-21188.9
-18450.5
-15507.8
-12495.1
-9544.59
-6984.34
-4952.57
-3303.43
-1967.36
-912.333
-107.807
476.667
-9139.44
-9968.35
-10212.4
-10771.8
-11307
-12107.6
-12906.9
-13846.6
-14798.9
-15763.6
-16758.6
-17662.5
-18603
-19395.7
-20214.9
-20865.5
-21531.7
-22029.1
-22530.8
-22881.9
-23224.6
-23442.7
-23646.5
-23749.8
-23838.1
-23849.4
-23847.4
-23786.8
-23720
-23605.9
-23524.2
-23048
-22646.5
-21914.6
-21269.6
-20352.9
-19406.2
-18311.1
-17118.5
-15868.1
-14541.1
-13192.8
-11813.6
-10430.7
-9098.96
-7802.39
-6707.88
-5677.82
-4778.7
-3935.26
-3199.57
-2502.2
-1911.33
-1350.41
-888.943
-454.096
-106.797
214.769
461.659
-6777.24
-7585.49
-8408.8
-9642.49
-11153.2
-12782.1
-14386.1
-15862
-17141.4
-18188.1
-18997.5
-19584
-19972.3
-20195.3
-20286.7
-20305.8
-19958.7
-19108
-17730
-15857.5
-13617.6
-11160.4
-8666.32
-6436.41
-4608.79
-3097.18
-1856.02
-865.863
-105.94
446.568
-4114.45
-4605.72
-4709.31
-5099.99
-5448.24
-6008.61
-6551.43
-7233.05
-7910.81
-8644.93
-9391.98
-10121.9
-10873.8
-11561.3
-12268
-12882.9
-13514.7
-14040.4
-14578.6
-15012.7
-15451
-15795.1
-16139.7
-16400.4
-16660.3
-16849.3
-17036.5
-17163.9
-17292.7
-17369.4
-17480
-17498.9
-17561.5
-17322.5
-17134.1
-16666.9
-16158.3
-15462.7
-14652.5
-13746.7
-12725.9
-11663.3
-10524.6
-9378.98
-8243.49
-7134.56
-6168.93
-5253.39
-4439.54
-3675.05
-2995.5
-2353.6
-1800.95
-1278.04
-842.837
-434.019
-105.012
198.234
431.638
-2307.83
-2820.43
-3400.66
-4282.12
-5396.25
-6646.28
-7938.63
-9200.15
-10374.1
-11422
-12327.5
-13087.6
-13707.7
-14201.6
-14585.5
-14904.7
-15333.5
-15280.7
-14677.3
-13511.3
-11875
-9915.58
-7833.5
-5906.7
-4274.12
-2895.4
-1746.64
-820.139
-104.243
416.62
-310.351
-678.6
-763.666
-1037.63
-1284.38
-1689.55
-2080.39
-2589.54
-3091.24
-3661
-4235.28
-4827.27
-5432.27
-6018.88
-6618.81
-7174.73
-7745.76
-8254.26
-8777.4
-9232.14
-9696.66
-10093.4
-10498
-10836.6
-11182.2
-11467.2
-11757.4
-11992.9
-12234.8
-12426.3
-12653.2
-12986.6
-13355.7
-13459
-13598.8
-13468.7
-13298.5
-12920
-12426.6
-11807.9
-11055.8
-10242
-9323.49
-8389.37
-7433.02
-6493.11
-5648.71
-4841.57
-4109.68
-3420.68
-2795.98
-2207.7
-1692.58
-1206.8
-797.504
-414.318
-103.411
181.692
401.759
993.938
609.736
183.946
-474.758
-1326.21
-2310.13
-3364.34
-4437.62
-5485.95
-6474.63
-7384.23
-8203.82
-8928.46
-9560.87
-10106.3
-10599.8
-11519.1
-12021.2
-12000.1
-11401.1
-10276.7
-8757.93
-7045.97
-5396.69
-3949.28
-2698.45
-1639.41
-775.247
-102.729
386.861
2413.23
2143.87
2083.96
1880.15
1697.7
1391.81
1098.71
705.637
321.059
-131.105
-583.722
-1069.15
-1562.02
-2061.24
-2569.21
-3062.05
-3567
-4038.58
-4523.77
-4966.78
-5420.68
-5828.26
-6246.39
-6614.94
-6993.78
-7323.97
-7662.53
-7954.56
-8255.3
-8511.18
-8802.01
-9326.86
-9886.43
-10221.9
-10588.7
-10707.2
-10791.6
-10662.4
-10425.9
-10045
-9525.05
-8926.43
-8206.32
-7459.98
-6666.3
-5879.07
-5147.78
-4442.96
-3789.37
-3172.42
-2601.19
-2064.6
-1586.29
-1136.74
-752.982
-395.003
-102.009
165.156
372.026
3360.55
3072.38
2746.82
2237.58
1567.97
776.956
-93.2858
-1006.84
-1930.28
-2834.43
-3700.57
-4515.06
-5268.1
-5956.43
-6578.94
-7162.96
-8373.16
-9248.03
-9655.79
-9506.32
-8812.52
-7680.97
-6300.82
-4905.79
-3633.82
-2506.07
-1534.19
-731.138
-101.423
357.209
4389.08
4181.29
4134.5
3977.59
3836.85
3598.12
3369.91
3057.84
2753.82
2387.25
2022.16
1618.95
1211.65
785.531
353.853
-79.372
-521.94
-949.76
-1389.27
-1804.73
-2230.45
-2625.98
-3032.4
-3402.9
-3784.6
-4128.69
-4482.3
-4797.98
-5123.34
-5410.48
-5731.06
-6362.83
-7031.87
-7517.39
-8035.43
-8331.52
-8603.78
-8666.47
-8635.7
-8448.75
-8127.08
-7712.6
-7169.47
-6588.84
-5942.54
-5292.65
-4666.92
-4057.9
-3478.95
-2930.51
-2411.23
-1924.4
-1482.16
-1067.9
-709.295
-376.084
-100.808
148.634
342.451
5057.14
4832
4575.32
4170.1
3630.45
2982.42
2255.34
1474.7
665.83
-147.463
-948.632
-1723.95
-2461.92
-3156.44
-3803.09
-4423.13
-5786.46
-6898.54
-7613.06
-7813.47
-7477.12
-6682.28
-5597.89
-4434.97
-3328.33
-2318.57
-1431.16
-687.888
-100.332
327.708
5794.61
5631.13
5593.98
5469.51
5357.55
5166.24
4983.53
4730.23
4484.06
4181.85
3881.86
3543.32
3202.65
2837.57
2469.05
2089.74
1703.38
1320.12
927.255
546.139
156.124
-215.503
-597.203
-953.853
-1321.27
-1660.6
-2009.37
-2328.28
-2656.82
-2953.92
-3281.94
-3964.04
-4685.63
-5262.34
-5874.26
-6293.46
-6699.86
-6907.99
-7038.62
-7008.54
-6853.92
-6595.87
-6208.94
-5773.78
-5260.43
-4733.92
-4206.26
-3686.59
-3178.56
-2695.13
-2226.2
-1787.18
-1380.24
-1000.32
-666.483
-357.58
-99.8268
132.125
313.027
6256.9
6077.23
5869.72
5539.9
5096.46
4557.39
3943.62
3273.56
2566.48
1841.59
1112.92
393.11
-306.337
-978.278
-1616.8
-2238.44
-3661.96
-4912.25
-5838.13
-6305.68
-6262.57
-5757.93
-4935.95
-3984.37
-3032.94
-2136.04
-1330.37
-645.524
-99.4654
298.359
6783.28
6651.83
6621.38
6520.43
6429.13
6272.66
6123.04
5913.81
5710.62
5458.01
5207.72
4920.79
4632.85
4318.69
4002.45
3670.71
3333.66
2992.65
2643.92
2298.81
1946.29
1603.76
1252.41
917.779
573.408
249.332
-83.4608
-393.432
-712.429
-1006.21
-1327.82
-2023.13
-2758.73
-3384.77
-4048.29
-4549.13
-5047.18
-5363.32
-5617.92
-5713.29
-5697.41
-5571.25
-5320.73
-5012.64
-4618.63
-4202.75
-3765.81
-3329.19
-2888.32
-2466.43
-2046.17
-1653.03
-1280.58
-934.032
-624.569
-339.501
-99.0715
115.634
283.761
7089.49
6943.26
6772.33
6499.21
6129.36
5675.58
5153.17
4575.65
3957.8
3315.08
2659.12
2001.05
1351.59
717.904
106.364
-495.856
-1918.22
-3235.52
-4299.18
-4966.03
-5160.44
-4903.81
-4313.54
-3553.9
-2747.72
-1958.51
-1231.86
-604.073
-98.8327
269.164
7464.09
7356.63
7331.23
7247.84
7172
7041.85
6917.21
6741.9
6571.64
6358.03
6146.65
5901.47
5655.92
5384.34
5111.58
4821.24
4526.92
4224.54
3916.01
3605.84
3289.65
2977.61
2658.07
2349.02
2031.45
1728.03
1416.86
1122.67
820.328
537.767
230.639
-453.98
-1178.56
-1824.34
-2509.24
-3060.09
-3617.11
-4010.9
-4358.54
-4552.56
-4650.39
-4634.21
-4501.71
-4303.79
-4016.42
-3699.21
-3345.96
-2986.06
-2608.6
-2244.76
-1871.38
-1522.15
-1183.34
-869.137
-583.621
-321.878
-98.5493
99.1828
254.688
7654.37
7533.56
7390.66
7161.39
6849.22
6463.51
6015.69
5515.86
4975.47
4406.99
3819.97
3223.95
2628.53
2040.45
1465.9
895.052
-487.317
-1821.64
-2967.23
-3778.33
-4162.39
-4115.82
-3729.18
-3143.35
-2472.68
-1786.02
-1135.67
-563.552
-98.4375
240.129
7916.71
7827.66
7806.2
7736.37
7672.54
7562.97
7457.87
7309.41
7165.21
6983.06
6802.96
6592.17
6381.4
6145.83
5909.67
5655.37
5398.11
5130.53
4858.1
4580.73
4298.53
4016.46
3728.13
3445.7
3155.97
2875.62
2588.54
2313.72
2031.7
1764.87
1476.69
817.684
120.024
-525.053
-1209.95
-1787.35
-2378.37
-2825.91
-3241.42
-3511.95
-3701.85
-3776.78
-3745.73
-3643.04
-3450.76
-3221.52
-2945.39
-2656.28
-2338.72
-2029.64
-1701.45
-1394.28
-1088.32
-805.514
-543.568
-304.685
-98.2696
82.7336
225.742
8025.32
7924.29
7803.38
7608.77
7342.69
7012.14
6625.85
6191.45
5717.96
5215.43
4691.68
4154.8
3613.21
3072.95
2539.82
2006.3
687.121
-630.093
-1815.89
-2727.14
-3260.11
-3389.87
-3181.26
-2752.38
-2207.76
-1618.57
-1041.82
-523.975
-98.282
211.263
8201.98
8127.43
8109.07
8050.01
7995.7
7902.58
7813.05
7686.3
7563.06
7406.67
7252.08
7069.92
6887.97
6682.95
6477.7
6254.67
6029.42
5792.8
5552.35
5304.97
5053.75
4799.99
4541.04
4284.66
4022.11
3765.29
3502.74
3248.69
2988.37
2739.48
2472.27
1847.44
1186.2
555.392
-114.668
-701.577
-1307.5
-1790.21
-2252.82
-2581.66
-2844.57
-2994.37
-3049.47
-3028.69
-2920.54
-2769.54
-2564.07
-2340.1
-2078.87
-1821.34
-1536.54
-1269.6
-995.648
-743.256
-504.47
-287.949
-98.2369
66.3077
196.959
8253.71
8168.36
8065.11
7898.5
7669.94
7384.81
7049.85
6670.95
6255.25
5810.91
5344.34
4862.31
4372.13
3879.12
3388.49
2894.63
1651.48
374.073
-821.222
-1797.67
-2445.3
-2721.69
-2668.01
-2380.46
-1952.84
-1456.16
-950.314
-485.357
-98.3723
182.566
8367.74
8304.75
8288.93
8238.52
8191.9
8112.12
8035.21
7926.2
7820.1
7684.99
7551.43
7393.24
7235.35
7056.28
6877.21
6681.2
6483.52
6274.17
6061.77
5841.36
5617.91
5390.17
5158.16
4926.36
4689.36
4455.37
4216.54
3983.27
3744.62
3514.33
3268.49
2682.16
2062.1
1454.32
808.666
224.585
-382.292
-885.629
-1378.86
-1750.92
-2070.65
-2281.27
-2408.84
-2458.09
-2424.06
-2342.4
-2201.51
-2037.29
-1828.94
-1619.85
-1376.64
-1148.13
-905.329
-682.38
-466.335
-271.676
-98.4514
49.9097
168.349
8379.35
8306.65
8217.8
8074.13
7876.54
7629.19
7337.4
7005.76
6639.97
6246.7
5831.18
5399.11
4956.75
4508.72
4059.65
3605.41
2444.05
1220.73
38.0259
-976.268
-1710.03
-2107.12
-2187.58
-2026.98
-1707.75
-1298.72
-861.165
-447.705
-98.7107
154.044
8445.67
8391.98
8378.26
8334.92
8294.66
8225.83
8159.38
8065.05
7973.19
7855.86
7739.9
7601.94
7464.36
7307.47
7150.75
6978.13
6804.27
6618.89
6431.09
6234.76
6036.04
5831.95
5624.35
5415.29
5201.89
4989.47
4772.99
4559.8
4342.01
4130.15
3905.17
3359.05
2781.98
2202.74
1587.33
1014.98
417.063
-95.4901
-606.513
-1009.29
-1372.36
-1631.62
-1819.72
-1928.39
-1959.48
-1938.99
-1857.08
-1747.44
-1588.73
-1425.04
-1221.7
-1029.85
-817.358
-622.89
-429.173
-255.872
-98.9192
33.5407
139.909
8434.22
8371.83
8294.83
8170.11
7998.21
7782.43
7527.02
7235.59
6912.72
6563.93
6193.49
5806.17
5407.36
5001.01
4591.19
4174.94
3096.09
1934.73
779.826
-251.292
-1047.58
-1542.83
-1738.72
-1691.72
-1472.57
-1146.4
-774.463
-411.066
-99.2942
125.737
8463.63
8417.64
8405.64
8368.17
8333.14
8273.46
8215.64
8133.63
8053.6
7951.27
7850.04
7729.27
7608.83
7470.95
7333.26
7180.9
7027.55
6863.13
6696.76
6521.76
6344.85
6161.97
5976.21
5787.85
5595.84
5403.36
5207.48
5013.17
4814.94
4620.7
4415.52
3909.24
3375.04
2826.95
2245.21
1690.15
1108.54
594.774
76.4937
-347.507
-742.091
-1040.23
-1277.87
-1437.1
-1524.72
-1558.44
-1529.88
-1470.33
-1357.9
-1236.89
-1071.61
-914.777
-731.716
-564.799
-392.979
-240.542
-99.6333
17.2036
111.656
8435.75
8381.87
8314.81
8206.02
8055.82
7866.84
7642.51
7385.7
7100.12
6790.35
6459.88
6112.72
5753.46
5385.5
5012.37
4632.04
3634.18
2539.01
1422.48
390.626
-449.024
-1023.31
-1318.31
-1373.01
-1246.42
-998.732
-689.987
-375.359
-100.131
97.5792
8442.97
8403.28
8392.75
8360.14
8329.5
8277.42
8226.85
8155.12
8085.05
7995.31
7906.52
7800.31
7694.4
7572.74
7451.3
7316.37
7180.67
7034.46
6886.69
6730.41
6572.61
6408.56
6242.13
6072.35
5899.52
5725.16
5547.95
5371.04
5190.78
5013.01
4826.12
4358.18
3865.1
3349.22
2802.14
2268.21
1707.23
1198.66
680.532
243.46
-173.46
-501.729
-779.82
-981.467
-1118.24
-1199.56
-1219.45
-1205.48
-1136.36
-1055.26
-926.345
-802.891
-648.404
-508.112
-357.76
-225.688
-100.595
0.905177
83.5923
8403.04
8356.25
8297.54
8202.18
8070.33
7904.11
7706.32
7479.24
7225.93
6950.18
6654.87
6343.37
6019.6
5686.46
5347
4999.95
4079.34
3051.28
1979.62
958.934
91.4562
-545.465
-925.037
-1070.51
-1029.3
-855.803
-607.816
-340.624
-101.217
69.6109
8395.34
8360.9
8351.61
8323.08
8296.15
8250.47
8206.03
8143.01
8081.36
8002.34
7924.11
7830.34
7736.84
7629.12
7521.65
7401.8
7281.35
7151.04
7019.44
6879.63
6738.6
6591.25
6441.93
6288.79
6133.08
5975.12
5814.77
5653.75
5489.89
5327.34
5157.24
4725.55
4271.34
3787.56
3275.09
2764.46
2226.97
1728.06
1215.84
771.923
340.34
-10.9762
-321.543
-558.717
-737.938
-861.097
-924.805
-952.403
-923.687
-879.971
-785.769
-694.145
-567.383
-452.822
-323.512
-211.312
-101.804
-15.3552
55.7214
8348.64
8307.8
8256.15
8172.17
8055.91
7909.11
7734.05
7532.57
7307.22
7061.12
6796.69
6516.74
6224.64
5922.85
5614.01
5297.42
4449.27
3487.17
2463.99
1463.08
580.142
-105.589
-556.999
-783.361
-820.898
-717.5
-527.919
-306.855
-102.549
41.8376
8332.29
8302.27
8294.03
8268.94
8245.15
8204.91
8165.65
8110.03
8055.54
7985.67
7916.43
7833.32
7750.44
7654.73
7559.24
7452.45
7345.18
7228.71
7111.18
6985.81
6859.44
6726.85
6592.6
6454.27
6313.77
6170.53
6025.27
5878.65
5729.6
5580.97
5426.11
5028.18
4610.14
4157.49
3678.66
3192.28
2679.79
2193.54
1691.42
1245.41
805.39
436.785
100.614
-166.257
-381.892
-541.878
-645.068
-710.619
-719.54
-710.869
-649.754
-588.503
-488.617
-398.928
-290.226
-197.418
-103.257
-31.5754
28.0512
8281.31
8245.49
8199.85
8125.58
8022.65
7892.49
7736.98
7557.64
7356.54
7136.34
6899.02
6646.96
6383.05
6109.38
5828.22
5539.34
4758.41
3859.85
2886.72
1911.59
1022.93
299.94
-212.242
-510.653
-620.808
-583.676
-450.25
-274.045
-104.126
14.2629
8262.04
8235.72
8228.38
8206.22
8185.1
8149.47
8114.63
8065.31
8016.93
7954.86
7893.32
7819.34
7745.56
7660.19
7575.03
7479.54
7383.66
7279.22
7173.91
7061.17
6947.62
6828.01
6707.01
6581.8
6454.76
6324.64
6192.83
6059.16
5923.41
5787.39
5646.23
5279.38
4894.59
4471.59
4024.76
3562.77
3075.66
2604.11
2114.85
1670.48
1226.78
845.733
489.623
198.177
-48.6635
-240.915
-379.714
-479.803
-523.806
-547.907
-518.333
-486.011
-412.162
-346.474
-257.936
-184.017
-104.951
-47.7334
0.614114
8209.19
8177.63
8137.13
8071.16
7979.65
7863.77
7725.11
7564.88
7384.84
7187.21
6973.64
6746.16
6507.23
6258.63
6002.34
5738.47
5019.24
4180.84
3257.64
2312.17
1425.22
674.485
111.067
-251.513
-428.671
-454.198
-374.769
-242.184
-105.943
-13.1064
8189.22
8166.05
8159.49
8139.82
8121
8089.32
8058.28
8014.37
7971.24
7915.9
7861
7794.91
7729
7652.59
7576.38
7490.72
7404.75
7310.84
7216.2
7114.56
7012.26
6904.12
6794.81
6681.27
6566.15
6447.78
6327.96
6205.94
6082.13
5957.53
5828.72
5490.4
5136.06
4741.05
4324.4
3886.46
3424.53
2968.93
2494.38
2054.44
1610.76
1221.15
849.778
538.02
264.448
43.8324
-127.157
-258.795
-335.6
-390.452
-391.031
-386.349
-337.784
-295.32
-226.554
-171.076
-106.89
-63.8638
-26.6501
8138.6
8110.66
8074.56
8015.69
7933.96
7830.36
7706.21
7562.51
7400.72
7222.74
7029.94
6824.04
6607.17
6380.84
6146.76
5905.31
5242.22
4459.99
3585.42
2671.74
1792.01
1021.25
414.727
-5.05603
-244.105
-328.922
-301.432
-211.261
-107.997
-40.264
8119
8098.52
8092.63
8075.1
8058.26
8029.97
8002.2
7962.95
7924.34
7874.8
7825.62
7766.37
7707.25
7638.62
7570.16
7493.07
7415.71
7331.01
7245.68
7153.78
7061.33
6963.3
6864.27
6761.06
6656.49
6548.57
6439.42
6327.82
6214.69
6100.37
5982.61
5670.26
5343.63
4974.71
4586.2
4171.43
3734.02
3294.84
2836.15
2402.5
1961.75
1566.51
1183.88
855.251
558.966
313.264
113.294
-47.2932
-154.678
-238.464
-267.808
-289.561
-265.505
-245.51
-196.098
-158.609
-109.061
-79.9473
-53.7021
8073.2
8048.37
8016.04
7963.28
7889.98
7796.97
7685.35
7555.97
7410.05
7249.19
7074.57
6887.64
6690.24
6483.66
6269.39
6047.99
5435.74
4705.52
3877.53
2996.55
2128
1343.37
700.587
229.683
-66.6607
-207.664
-230.174
-181.259
-110.282
-67.207
8056.11
8037.94
8032.62
8016.93
8001.78
7976.42
7951.45
7916.22
7881.5
7836.96
7792.71
7739.36
7686.11
7624.23
7562.48
7492.84
7422.96
7346.28
7269.06
7185.69
7101.85
7012.7
6922.7
6828.6
6733.33
6634.67
6534.95
6432.65
6329
6223.88
6115.98
5827.11
5525.48
5180.63
4818.05
4425.26
4011.23
3588.46
3146.03
2719.92
2284.14
1885.59
1494.84
1152.22
836.581
568.653
342.499
155.312
19.3419
-91.6891
-148.514
-195.565
-195.277
-197.023
-166.556
-146.613
-111.462
-95.9798
-80.5371
8016.6
7994.44
7965.34
7917.85
7851.81
7767.94
7667.17
7550.2
7418.07
7272.15
7113.43
6943.15
6762.9
6573.79
6377.11
6173.59
5607.13
4924.64
4140.64
3292.24
2437.49
1643.77
970.413
453.639
104.101
-90.2454
-160.935
-152.161
-112.793
-93.9306
8002.79
7986.58
7981.77
7967.65
7953.98
7931.13
7908.6
7876.82
7845.47
7805.27
7765.28
7717.06
7668.9
7612.87
7556.96
7493.81
7430.44
7360.77
7290.63
7214.73
7138.43
7057.1
6975.02
6888.97
6801.89
6711.44
6620.08
6526.04
6430.83
6333.93
6234.79
5967.1
5687.97
5365.19
5026.36
4654.25
4262.2
3855.54
3429.24
3011.52
2581.98
2181.97
1785.46
1431.3
1099.02
811.385
561.385
349.741
186.898
50.2055
-32.9687
-104.23
-127.036
-149.818
-137.912
-135.075
-114.092
-111.956
-107.158
7972.8
7952.92
7926.61
7883.63
7823.84
7747.83
7656.41
7550.16
7429.96
7297
7152.11
6996.36
6831.13
6657.38
6476.22
6288.5
5762.92
5123.73
4380.56
3563.68
2724.14
1924.89
1225.56
667.444
268.394
23.3645
-93.7387
-123.986
-115.522
-120.399
7962.8
7948.32
7943.92
7931.18
7918.76
7898.09
7877.63
7848.86
7820.4
7783.95
7747.63
7703.85
7660.08
7609.14
7558.26
7500.76
7443.03
7379.48
7315.48
7246.12
7176.39
7101.91
7026.76
6947.77
6867.88
6784.67
6700.65
6613.93
6526.16
6436.57
6345.17
6096.42
5837.38
5534.64
5217.37
4864.34
4492.79
4101.39
3690.87
3281.62
2859.33
2458.82
2058.65
1694.51
1348.13
1042.55
771.026
536.488
348.552
187.403
79.0863
-15.5087
-60.6794
-103.894
-110.126
-124.002
-116.927
-127.88
-133.541
7942.21
7924.31
7900.41
7861.34
7806.95
7737.76
7654.46
7557.53
7447.74
7326.11
7193.32
7050.33
6898.33
6738.14
6570.73
6397.03
5908.04
5308.12
4602.71
3815.97
2992.33
2190.08
1468.42
872.638
427.146
133.678
-28.3328
-96.6382
-118.468
-146.672
7939.52
7926.51
7922.48
7910.91
7899.56
7880.76
7862.09
7835.89
7809.92
7776.68
7743.53
7703.56
7663.57
7617.02
7570.49
7517.86
7465
7406.74
7348.07
7284.37
7220.33
7151.81
7082.68
7009.86
6936.24
6859.36
6781.77
6701.46
6620.23
6537.07
6452.46
6220.5
5979.24
5694.48
5396.51
5060.9
4708.03
4330.93
3935.25
3534.41
3119.52
2719.33
2316.68
1944.03
1585.26
1263.44
972.078
716.248
504.558
320.225
187.724
70.7182
3.80053
-59.214
-83.2072
-113.383
-119.979
-143.743
-159.698
7928.25
7912.06
7890.22
7854.51
7804.78
7741.47
7665.18
7576.31
7475.52
7363.7
7241.45
7109.57
6969.12
6820.8
6665.48
6504.12
6047.53
5482.78
4811.73
4053.08
3245.14
2441.5
1700.24
1069.84
580.583
240.735
35.2647
-70.133
-121.621
-172.712
7934.04
7922.31
7918.59
7908.03
7897.61
7880.41
7863.27
7839.28
7815.44
7784.98
7754.54
7717.87
7681.13
7638.36
7595.58
7547.16
7498.51
7444.83
7390.76
7331.99
7272.88
7209.54
7145.64
7078.2
7010.03
6938.69
6866.7
6792.02
6716.5
6638.99
6560.33
6343.2
6117.62
5848.9
5568.14
5248.25
4912.3
4548.33
4166.42
3773.53
3365.98
2966.42
2562.15
2181.91
1812.14
1475.34
1165.6
889.696
655.484
448.987
293.208
154.575
66.5098
-15.7411
-57.1198
-103.21
-123.233
-159.545
-185.622
7933.03
7918.31
7898.25
7865.43
7819.69
7761.43
7691.16
7609.23
7516.21
7412.87
7299.73
7177.49
7047.07
6909.09
6764.32
6613.74
6185.63
5652.08
5011.88
4278.89
3485.79
2681.51
1922.6
1259.95
729.169
344.742
97.1297
-44.4469
-124.973
-198.516
7948.79
7938.16
7934.71
7925.01
7915.37
7899.55
7883.72
7861.62
7839.6
7811.52
7783.4
7749.54
7715.59
7676.07
7636.49
7591.7
7546.66
7496.92
7446.81
7392.27
7337.42
7278.55
7219.17
7156.38
7092.91
7026.38
6959.24
6889.45
6818.9
6746.3
6672.8
6468.65
6256.75
6002.17
5736.56
5430.64
5109.77
4757.58
4388.17
4002.49
3601.83
3202.83
2797.38
2410.05
2030.35
1679.39
1352.49
1057.45
801.799
573.969
395.749
236.161
127.528
26.5494
-31.8368
-93.4794
-126.681
-175.285
-211.303
7958.27
7944.82
7926.28
7895.92
7853.59
7799.65
7734.54
7658.56
7572.21
7476.16
7370.86
7256.93
7135.18
7006.16
6870.53
6729.3
6326.03
5819.88
5206.98
4496.95
3717.27
2912.4
2137.04
1443.91
873.396
445.921
157.349
-19.5521
-128.516
-224.081
7985.72
7976.05
7972.81
7963.85
7954.87
7940.21
7925.49
7905
7884.51
7858.45
7832.29
7800.84
7769.24
7732.49
7695.63
7653.93
7611.95
7565.58
7518.84
7467.93
7416.7
7361.66
7306.13
7247.33
7187.9
7125.48
7062.51
6996.92
6930.63
6862.27
6793.2
6600.26
6400.16
6157.86
5905.41
5611.67
5303.99
4962.09
4603.71
4224.27
3829.72
3430.94
3024.31
2630.13
2241.09
1876.61
1533.41
1220.02
943.764
695.366
495.411
315.522
186.847
67.6558
-7.37289
-84.1897
-130.317
-190.94
-236.717
8006.44
7994.09
7976.83
7948.54
7909.1
7858.81
7798.07
7727.13
7646.45
7556.6
7457.98
7351.14
7236.79
7115.42
6987.62
6854.42
6472.49
5989.99
5400.76
4710.65
3942.46
3136.35
2345.02
1622.58
1013.71
544.468
215.994
4.57344
-132.243
-249.402
8046.31
8037.46
8034.41
8026.06
8017.64
8003.96
7990.16
7971.03
7951.83
7927.47
7902.97
7873.54
7843.93
7809.52
7774.96
7735.87
7696.49
7652.98
7609.08
7561.26
7513.1
7461.32
7409.06
7353.66
7297.65
7238.76
7179.32
7117.32
7054.66
6989.93
6924.63
6741.28
6551.28
6319.5
6078.33
5795.05
5498.7
5165.58
4816.66
4442.34
4052.91
3653.74
3245.6
2844.48
2446.34
2068.65
1709.68
1378.45
1082.21
813.8
592.658
392.982
244.697
107.72
16.3586
-75.3059
-134.142
-206.539
-261.92
8080.04
8068.61
8052.41
8025.85
7988.8
7941.56
7884.45
7817.72
7741.77
7657.11
7564.09
7463.2
7355.08
7240.14
7118.93
6992.48
6628.54
6166.01
5596.71
4923.21
4164.06
3355.43
2547.97
1796.81
1150.54
640.579
273.137
27.9515
-136.147
-274.476
8132.81
8124.67
8121.76
8113.94
8105.96
8093.1
8080.05
8062.04
8043.9
8020.95
7997.81
7970.06
7942.09
7909.63
7876.97
7840.06
7802.84
7761.7
7720.18
7674.92
7629.32
7580.27
7530.74
7478.17
7425.03
7369.07
7312.59
7253.6
7193.98
7132.27
7070.13
6894.81
6713.25
6490.27
6258.54
5983.92
5697.03
5371
5029.89
4659.3
4273.8
3873.3
3463.09
3054.57
2647.34
2256.39
1882.03
1533.19
1217.48
929.422
687.621
468.561
301.113
146.725
39.3688
-66.8346
-138.134
-222.067
-286.871
8181.03
8170.38
8155.03
8129.86
8094.76
8049.98
7995.84
7932.56
7860.49
7780.09
7691.67
7595.68
7492.68
7383.05
7267.27
7146.38
6797.25
6351.09
5797.99
5137.59
4384.65
3571.69
2747.31
1967.49
1284.38
734.477
328.866
50.6112
-140.22
-299.3
8248.03
8240.49
8237.68
8230.27
8222.64
8210.42
8197.96
8180.85
8163.55
8141.73
8119.66
8093.27
8066.61
8035.72
8004.58
7969.44
7933.95
7894.75
7855.14
7811.97
7768.44
7721.61
7674.28
7624.03
7573.2
7519.64
7465.56
7409.01
7351.84
7292.59
7233.01
7064.2
6889.46
6673.55
6449.4
6181.61
5902.25
5581.52
5246.38
4877.98
4494.93
4091.93
3678.73
3262.09
2845.42
2440.93
2051.25
1684.86
1349.98
1042.54
780.478
542.378
356.155
184.707
61.6736
-58.7664
-142.291
-237.52
-311.571
8311.97
8301.95
8287.26
8263.16
8229.55
8186.7
8134.88
8074.31
8005.31
7928.29
7843.54
7751.46
7652.54
7547.13
7435.68
7319.2
6981.8
6548.45
6007.73
5356.69
4606.74
3787.06
2944.41
2135.46
1415.69
826.374
383.262
72.5784
-144.454
-323.872
8394.17
8387.11
8384.38
8377.27
8369.89
8358.16
8346.11
8329.68
8312.98
8292.03
8270.76
8245.42
8219.74
8190.07
8160.1
8126.34
8092.19
8054.5
8016.37
7974.85
7932.93
7887.83
7842.24
7793.79
7744.79
7693.09
7640.88
7586.24
7530.99
7473.65
7416.07
7252.28
7082.82
6872.27
6653.91
6391.09
6117.28
5799.99
5468.89
5100.97
4718.69
4311.83
3894.41
3468.74
3041.91
2623.43
2218.16
1834.14
1480.16
1153.5
871.427
614.594
409.896
221.728
83.2902
-51.0798
-146.613
-252.886
-336.027
8476.02
8466.47
8452.22
8428.83
8396.27
8354.78
8304.64
8246.06
8179.35
8104.86
8022.86
7933.71
7837.86
7735.62
7627.4
7514.21
7185.42
6761.26
6228.92
5583.2
4832.55
4003.24
3140.37
2301.33
1544.72
916.345
436.33
93.8471
-148.839
-348.163
8574.85
8568.16
8565.44
8558.53
8551.26
8539.83
8528.01
8512.02
8495.68
8475.32
8454.56
8429.94
8404.93
8376.14
8346.97
8314.21
8281
8244.42
8207.36
8167.04
8126.28
8082.46
8038.12
7990.99
7943.3
7892.97
7842.11
7788.84
7734.97
7679
7622.84
7462.61
7296.85
7089.92
6875.49
6615.68
6345.39
6029.49
5700.38
5330.95
4947.63
4535.15
4112.13
3676.05
3238.26
2804.85
2383.72
1981.55
1608.57
1262.52
960.754
685.263
462.472
257.783
104.285
-43.7902
-151.062
-268.18
-360.206
8675.84
8666.59
8652.51
8629.46
8597.43
8556.73
8507.64
8450.36
8385.19
8312.44
8232.34
8145.23
8051.49
7951.41
7845.39
7734.41
7411.27
6992.75
6464.79
5820.2
5064.87
4222.56
3337
2466.38
1672.29
1004.85
488.3
114.506
-153.373
-372.224
8794.12
8787.66
8784.91
8778.01
8770.69
8759.33
8747.5
8731.67
8715.4
8695.31
8674.75
8650.52
8625.84
8597.56
8568.85
8536.69
8504.06
8468.17
8431.78
8392.22
8352.19
8309.18
8265.63
8219.32
8172.45
8122.97
8072.93
8020.51
7967.48
7912.32
7857.02
7698.83
7535.17
7330.05
7117.64
6858.78
6589.83
6273.13
5943.71
5570.63
5184.08
4764.09
4333.65
3885.68
3435.61
2986.29
2548.53
2127.72
1735.46
1369.94
1048.52
754.531
513.872
292.928
124.626
-36.8745
-155.67
-283.387
-384.139
8915.73
8906.47
8892.21
8868.96
8836.85
8796.27
8747.54
8690.86
8626.49
8554.68
8475.64
8389.66
8297.07
8198.16
8093.27
7983.4
7662.83
7246.23
6718.39
6070.38
5305.9
4446.64
3535.36
2631.17
1798.65
1091.97
539.172
134.546
-158.048
-396.028
9055.95
9049.4
9046.48
9039.39
9031.7
9020.09
9007.86
8991.84
8975.25
8955.08
8934.34
8910.16
8885.45
8857.33
8828.73
8796.83
8764.41
8728.82
8692.71
8653.49
8613.78
8571.12
8527.91
8481.95
8435.41
8386.27
8336.56
8284.44
8231.71
8176.83
8121.82
7964.13
7800.99
7595.81
7383.47
7123.42
6853.57
6533.74
6201.63
5822.53
5430.42
5000.73
4560.84
4099.18
3635.32
3168.79
2713.48
2273.28
1861.35
1476.04
1135
822.518
564.212
327.202
144.36
-30.3241
-160.415
-298.506
-407.813
9200.54
9190.85
9175.75
9151.42
9118.35
9077.08
9027.98
8971.2
8906.91
8835.3
8756.5
8670.76
8578.37
8479.59
8374.76
8264.88
7943.7
7525.14
6992.91
6336.57
5558.01
4677.31
3736.71
2796.5
1924.21
1177.89
589.021
153.991
-162.859
-419.572
9366.31
9359.21
9355.91
9347.89
9339.39
9326.81
9313.56
9296.77
9279.32
9258.62
9237.29
9212.77
9187.71
9159.41
9130.6
9098.59
9066.07
9030.4
8994.21
8954.93
8915.12
8872.38
8829.04
8782.96
8736.26
8686.95
8637.02
8584.68
8531.69
8476.51
8421.21
8262.44
8098.13
7890.95
7676.62
7413.09
7139.96
6814.45
6477.05
6089.33
5689.07
5247.21
4795.57
4318.1
3838.67
3353.35
2879.38
2418.77
1986.67
1581.09
1220.38
889.321
613.571
360.629
163.514
-24.136
-165.288
-313.538
-431.222
9537.14
9525.59
9508.12
9481.19
9445.78
9402.83
9352.64
9295.16
9230.36
9158.25
9078.91
8992.52
8899.36
8799.67
8693.8
8582.74
8257.64
7833.03
7291.61
6621.64
5823.58
4916.42
3942.35
2963.16
2049.42
1262.81
637.924
172.863
-167.8
-442.857
9733
9724.23
9719.83
9710.04
9698.63
9684.26
9668.37
9650.24
9630.93
9609.31
9586.93
9561.78
9536.13
9507.36
9478.15
9445.75
9412.86
9376.78
9340.19
9300.46
9260.15
9216.89
9172.98
9126.28
9078.92
9028.91
8978.22
8925.08
8871.25
8815.17
8758.97
8597.44
8430.2
8218.93
8000.45
7730.98
7452.01
7118.1
6772.58
6373.39
5962.13
5505.38
5039.37
4543.75
4046.68
3540.79
3046.75
2564.62
2111.65
1685.27
1304.73
954.992
661.936
393.221
182.066
-18.2989
-170.295
-328.457
-454.352
9937.83
9920.07
9896.92
9863.09
9822.94
9777.35
9725.69
9667.23
9601.51
9528.33
9447.69
9359.77
9264.82
9163.11
9055.01
8941.52
8608.95
8173.88
7618.07
6928.66
6105.1
5165.82
4153.51
3131.9
2174.66
1346.91
685.937
191.172
-172.874
-465.881
10185.2
10163
10152.5
10134.9
10116.9
10096.9
10076.4
10055.1
10033.9
10010.6
9987.32
9961.33
9935.29
9905.97
9876.41
9843.46
9810.07
9773.34
9736.05
9695.52
9654.33
9610.1
9565.14
9517.31
9468.75
9417.48
9365.44
9310.9
9255.61
9198
9140.24
8974.15
8802.1
8584.51
8359.54
8081.47
7793.91
7448.59
7091.89
6678.08
6252.66
5777.95
5294.64
4778.18
4261.07
3732.53
3216.78
2711.73
2236.99
1789.1
1388.42
1019.8
709.487
425.096
200.076
-12.782
-175.446
-343.29
-477.252
10414.7
10388.5
10344.6
10297.7
10251
10203.5
10151.4
10092.4
10025.7
9951.01
9868.31
9777.89
9680.05
9575.12
9463.5
9346.23
9002.31
8551.99
7976.09
7260.86
6405.13
5427.39
4371.48
3303.48
2300.31
1430.33
733.102
208.919
-178.086
-488.644
10681
10671.1
10661.8
10625.8
10587
10564.7
10531.2
10510
10485.9
10463
10440.8
10414.7
10389.3
10359.9
10330.3
10297
10263
10225.5
10187.2
10145.5
10103
10057.3
10010.8
9961.29
9910.93
9857.77
9803.74
9747.14
9689.7
9629.87
9569.82
9397.21
9218.28
8991.93
8757.92
8468.34
8169.16
7809.15
7437.91
7005.98
6562.93
6066.84
5563.04
5022.67
4482.92
3929.3
3390.06
2860.45
2362.98
1892.69
1471.55
1083.76
756.235
456.246
217.54
-7.58715
-180.722
-358.023
-499.875
11112.3
10934.5
10855.2
10773.2
10727
10683.3
10634.6
10576.7
10509.2
10432.4
10346.8
10252.8
10150.8
10041.3
9924.69
9802.13
9442.63
8971.79
8369.54
7621.48
6726.25
5703.04
4597.53
3478.67
2426.77
1513.22
779.446
226.09
-183.447
-511.141
11729.1
11290.1
11126.6
11141.7
11082.3
11019.2
11031.4
10994.3
10986.1
10965.8
10950.4
10927.3
10904.4
10876.3
10847.1
10813.7
10779
10740.4
10700.7
10657.4
10613
10565.3
10516.6
10464.7
10411.9
10356.1
10299.3
10239.9
10179.6
10116.7
10053.6
9872.26
9684.19
9446.34
9200.48
8896.14
8582.02
8203.64
7814.15
7360.18
6895.69
6374.36
5846.49
5278.8
4713.47
4132.07
3567.27
3011.3
2489.91
1996.3
1554.19
1146.99
802.155
486.716
234.421
-2.69828
-186.144
-372.656
-522.217
10867.4
11264.4
11138
11216.9
11240.1
11223.8
11184.4
11128.6
11059.9
10980.1
10890.3
10791.3
10683.7
10568
10444.9
10315.3
9935.56
9438.39
8802.95
8014.32
7071.49
5995
4833.11
3658.25
2554.35
1595.65
824.915
242.628
-188.976
-533.356
6888.12
7409.92
6998.66
6834.92
7127.84
7246.83
7272.27
7325.93
7336.77
7345.19
7339.79
7333.03
7319.96
7304.31
7285.75
7264.47
7241.54
7215.97
7189.36
7160.12
7130.18
7097.76
7064.74
7029.41
6993.55
6955.47
6916.95
6876.35
6835.32
6792.44
6749.55
6625.54
6497.81
6335.01
6167.72
5959.71
5745.47
5487.3
5220.94
4911.85
4593.25
4239.03
3875.84
3490.89
3100.71
2707.08
2316.11
1940.01
1578.23
1244.01
936.822
659.925
419.975
202.912
25.9572
-142.3
-275.543
-417.345
-536.485
3635.8
2365.64
2738.16
2975.68
3019.53
3032.58
3029.1
3017.47
3000.57
2979.87
2955.95
2929.18
2899.95
2868.37
2834.52
2799.3
2694.7
2556.13
2377.29
2152.84
1881.04
1566.32
1221.49
867.445
529.904
232.531
-11.2298
-204.102
-367.044
-538.85
3901.33
4082.52
3213.24
2646.67
2756.16
2850.46
2869.35
2907.22
2918.55
2927.21
2928.58
2928.77
2925.53
2920.78
2914.71
2907.06
2898.85
2889.19
2879.32
2867.95
2856.7
2843.94
2831.32
2817.4
2803.59
2788.46
2773.59
2757.43
2741.44
2724.39
2707.95
2658.09
2608.44
2542.5
2476.44
2392.15
2305.81
2201.11
2091.21
1965.67
1830.62
1686.24
1527.8
1369.8
1194.49
1031.14
850.375
691.655
520.124
375.47
226.873
102.405
-15.7503
-119.485
-209.69
-299.442
-374.854
-465.713
-548.959
2890.48
3043.53
2835.38
2821.17
2828.92
2827.84
2820.42
2808.36
2792.59
2773.82
2752.35
2728.4
2702.27
2674.03
2643.76
2612.27
2518.51
2393.91
2232.42
2028.62
1780.09
1489.76
1168.25
833.995
510.726
221.235
-20.4982
-215.569
-382.883
-559.129
3181.84
2871.75
2765.95
2847.76
2799.85
2781.46
2793.45
2762.27
2759.26
2747.09
2743.22
2734.68
2729.56
2721.52
2715.05
2706.45
2698.62
2689.12
2680.07
2669.46
2659.28
2647.64
2636.3
2623.71
2611.34
2597.72
2584.4
2569.89
2555.57
2540.28
2525.57
2480.76
2436.28
2376.84
2317.5
2241.22
2163.37
2068.1
1968.49
1853.47
1730.21
1596.85
1450.9
1303.57
1140.22
986.248
815.482
664.069
499.393
359.516
214.197
91.9734
-26.0206
-129.623
-221.684
-312.661
-390.742
-483.205
-568.856
2788.33
2724.5
2715.28
2681.18
2662.45
2645.09
2630.65
2615.96
2599.86
2581.99
2562.18
2540.39
2516.78
2491.34
2464.11
2435.83
2351.52
2239.21
2093.12
1907.84
1680.4
1412.49
1112.79
797.466
488.313
207.151
-31.7172
-227.998
-398.72
-578.571
2586.67
2609.73
2620.34
2603.86
2604.04
2595.06
2582.13
2577.17
2567.16
2562.35
2555.51
2548.46
2541.96
2534.22
2527.34
2518.99
2511.36
2502.33
2493.85
2483.99
2474.65
2463.98
2453.67
2442.23
2431.04
2418.72
2406.72
2393.61
2380.72
2366.93
2353.73
2313.29
2273.32
2219.58
2166.14
2096.93
2026.58
1939.72
1849.29
1743.76
1631.13
1507.86
1373.36
1235.96
1083.81
938.765
777.62
633.371
475.584
340.626
198.92
79.2962
-38.0638
-141.066
-234.503
-326.238
-406.547
-500.239
-587.888
2506.2
2504.96
2494.11
2485.77
2472.85
2460.18
2447.04
2432.92
2417.59
2400.9
2382.66
2362.78
2341.37
2318.38
2293.8
2268.33
2192.32
2090.89
1958.53
1789.9
1581.64
1334.44
1055.24
758.144
463.031
190.643
-44.5972
-241.209
-414.493
-597.204
2425.98
2414.63
2411.31
2409.02
2404.03
2398.94
2394.53
2389.21
2384.81
2378.87
2373.59
2367.35
2361.48
2354.68
2348.27
2340.78
2333.68
2325.5
2317.69
2308.72
2300.19
2290.49
2281.13
2270.75
2260.63
2249.46
2238.62
2226.77
2215.13
2202.67
2190.78
2154.2
2118.2
2069.49
2021.27
1958.35
1894.68
1815.38
1733.17
1636.28
1533.26
1419.28
1295.29
1167.2
1025.51
889.02
737.082
599.915
448.949
319.103
181.215
64.5922
-51.788
-153.677
-248.127
-340.094
-422.314
-516.763
-606.154
2315.06
2310.68
2307.3
2300.47
2292.26
2282.4
2271.21
2258.72
2244.89
2229.72
2213.14
2195.1
2175.69
2154.88
2132.65
2109.65
2040.96
1949.13
1828.97
1675.26
1484.36
1256.13
996.075
716.396
435.135
171.874
-59.0344
-255.14
-430.173
-615.037
2226.88
2225.58
2225.47
2223.16
2221.63
2218.61
2215.8
2211.99
2208.22
2203.73
2199.31
2194.09
2189.06
2183.08
2177.41
2170.73
2164.35
2157.01
2149.95
2141.87
2134.14
2125.39
2116.92
2107.54
2098.38
2088.29
2078.49
2067.77
2057.26
2045.98
2035.27
2002.15
1969.65
1925.46
1881.88
1824.64
1766.94
1694.48
1619.68
1530.69
1436.43
1331.05
1216.77
1097.41
965.577
837.232
694.227
563.931
419.863
295.124
161.415
47.9632
-66.936
-167.419
-262.38
-354.231
-437.935
-532.807
-623.592
2137.94
2135.48
2132.36
2127.76
2121.29
2113.25
2103.75
2092.84
2080.54
2066.93
2051.98
2035.67
2018.12
1999.29
1979.18
1958.37
1896.19
1812.94
1703.71
1563.43
1388.33
1177.6
935.477
672.467
404.864
151.038
-74.8954
-269.713
-445.728
-632.071
2057.84
2055.72
2055.34
2053.8
2052.56
2050.17
2048.1
2044.92
2042.08
2038.17
2034.55
2029.97
2025.64
2020.35
2015.36
2009.41
2003.71
1997.14
1990.79
1983.53
1976.56
1968.67
1961.01
1952.54
1944.26
1935.14
1926.28
1916.58
1907.07
1896.86
1887.18
1857.16
1827.76
1787.62
1748.15
1695.99
1643.61
1577.34
1509.18
1427.38
1341.06
1243.59
1138.23
1027.01
904.422
783.79
649.378
525.724
388.552
268.896
139.654
29.5224
-83.4353
-182.245
-277.226
-368.64
-453.396
-548.379
-640.21
1973.04
1971.04
1968.66
1964.71
1959.27
1952.38
1944.11
1934.49
1923.54
1911.35
1897.9
1883.2
1867.34
1850.32
1832.12
1813.3
1756.97
1681.42
1582.05
1453.98
1293.34
1098.82
873.567
626.554
372.422
128.301
-92.0644
-284.859
-461.124
-648.305
1897.46
1895.86
1895.6
1894.31
1893.31
1891.32
1889.61
1886.89
1884.46
1881.07
1877.94
1873.9
1870.11
1865.41
1860.99
1855.67
1850.59
1844.68
1838.99
1832.44
1826.17
1819.05
1812.14
1804.49
1797.01
1788.76
1780.74
1771.96
1763.35
1754.1
1745.35
1718.1
1691.49
1654.97
1619.18
1571.61
1524.01
1463.34
1401.2
1325.97
1246.9
1156.75
1059.62
956.047
842.094
728.874
602.636
485.543
355.107
240.664
115.983
9.47053
-101.281
-198.018
-292.694
-383.242
-468.75
-563.437
-656.082
1817.81
1816.05
1813.95
1810.56
1805.81
1799.75
1792.44
1783.87
1774.07
1763.13
1751.01
1737.75
1723.42
1708.01
1691.53
1674.48
1623.39
1554.74
1464.23
1347.19
1199.75
1020.16
810.695
578.948
338.018
103.791
-110.478
-300.553
-476.358
-663.752
1745.34
1743.91
1743.68
1742.55
1741.7
1739.95
1738.46
1736.07
1733.95
1730.95
1728.19
1724.6
1721.24
1717.04
1713.1
1708.32
1703.77
1698.45
1693.34
1687.44
1681.79
1675.36
1669.13
1662.21
1655.45
1647.98
1640.74
1632.78
1624.99
1616.61
1608.69
1583.96
1559.85
1526.62
1494.16
1450.76
1407.48
1351.95
1295.27
1226.11
1153.68
1070.35
980.855
884.496
778.697
672.557
554.216
443.501
319.788
210.536
90.6524
-12.1228
-120.267
-214.711
-308.633
-398.042
-483.89
-578.012
-671.134
1669.96
1668.41
1666.57
1663.55
1659.34
1653.94
1647.4
1639.73
1630.93
1621.07
1610.14
1598.15
1585.19
1571.25
1556.31
1540.86
1494.5
1432.07
1349.58
1242.59
1107.25
941.52
746.897
529.771
301.801
77.6408
-130.04
-316.739
-491.407
-678.413
1600.51
1599.23
1599.03
1598.03
1597.27
1595.72
1594.4
1592.26
1590.38
1587.7
1585.24
1582.02
1579.02
1575.23
1571.7
1567.4
1563.31
1558.52
1553.91
1548.58
1543.48
1537.67
1532.04
1525.77
1519.66
1512.89
1506.33
1499.12
1492.06
1484.46
1477.29
1454.82
1432.96
1402.71
1373.22
1333.6
1294.22
1243.37
1191.65
1128.06
1061.7
984.696
902.259
812.664
714.524
615.124
504.365
399.833
282.774
178.676
63.7714
-35.1608
-140.339
-232.282
-325.022
-413.032
-498.817
-592.118
-685.383
1528.04
1526.65
1525
1522.3
1518.53
1513.68
1507.82
1500.91
1492.99
1484.09
1474.23
1463.39
1451.66
1439.03
1425.5
1411.5
1369.42
1312.66
1237.49
1139.72
1015.56
862.758
682.167
479.102
263.889
49.9619
-150.666
-333.364
-506.245
-692.286
1461.54
1460.39
1460.21
1459.31
1458.64
1457.24
1456.07
1454.15
1452.46
1450.05
1447.84
1444.94
1442.25
1438.84
1435.66
1431.77
1428.09
1423.76
1419.6
1414.78
1410.17
1404.91
1399.82
1394.15
1388.62
1382.48
1376.54
1370
1363.6
1356.7
1350.21
1329.78
1309.96
1282.4
1255.63
1219.45
1183.62
1137.05
1089.87
1031.42
970.651
899.547
823.664
740.472
649.523
556.622
453.093
354.666
244.092
145.245
35.3502
-59.4932
-161.514
-250.613
-341.901
-428.137
-513.59
-605.71
-698.908
1391.88
1390.62
1389.13
1386.71
1383.31
1378.95
1373.66
1367.44
1360.28
1352.24
1343.32
1333.51
1322.89
1311.45
1299.17
1286.48
1248.27
1196.65
1128.14
1038.79
924.925
784.14
616.762
427.164
224.444
20.8578
-172.304
-350.413
-520.878
-705.394
1327.22
1326.17
1326.02
1325.21
1324.6
1323.34
1322.29
1320.56
1319.05
1316.86
1314.88
1312.27
1309.84
1306.76
1303.9
1300.39
1297.06
1293.15
1289.39
1285.03
1280.87
1276.11
1271.51
1266.37
1261.36
1255.8
1250.42
1244.49
1238.7
1232.43
1226.56
1208
1190.04
1164.95
1140.65
1107.65
1075.07
1032.47
989.456
935.802
880.21
814.652
744.905
667.794
583.671
497.022
400.49
308.031
203.9
110.289
5.56904
-85.0868
-183.625
-269.696
-359.138
-443.367
-528.107
-618.819
-711.628
1260.29
1259.15
1257.81
1255.63
1252.56
1248.63
1243.85
1238.23
1231.76
1224.5
1216.43
1207.55
1197.93
1187.56
1176.43
1164.92
1130.25
1083.31
1020.91
939.327
835.009
705.472
550.609
373.974
183.537
-9.5918
-194.89
-367.842
-535.286
-717.739
1197.49
1196.54
1196.4
1195.66
1195.12
1193.99
1193.04
1191.47
1190.11
1188.14
1186.36
1183.99
1181.81
1179.02
1176.44
1173.26
1170.26
1166.72
1163.33
1159.38
1155.63
1151.31
1147.15
1142.49
1137.96
1132.92
1128.06
1122.68
1117.43
1111.74
1106.43
1089.58
1073.3
1050.47
1028.42
998.332
968.721
929.779
890.594
841.392
790.584
730.222
666.199
594.846
517.181
436.531
346.74
260.099
162.335
73.9337
-25.4849
-111.864
-206.629
-289.496
-376.718
-458.719
-542.374
-631.465
-723.57
1132.27
1131.23
1130.02
1128.05
1125.29
1121.74
1117.43
1112.35
1106.51
1099.95
1092.65
1084.62
1075.92
1066.53
1056.45
1046.04
1014.6
971.992
915.241
840.865
745.473
626.539
483.612
319.523
141.207
-41.3272
-218.368
-385.615
-549.45
-729.316
1071.34
1070.47
1070.34
1069.68
1069.19
1068.17
1067.31
1065.9
1064.68
1062.89
1061.29
1059.15
1057.18
1054.66
1052.33
1049.46
1046.76
1043.55
1040.5
1036.92
1033.53
1029.62
1025.86
1021.65
1017.56
1012.99
1008.59
1003.71
998.965
993.815
989.017
973.717
958.995
938.236
918.27
890.863
863.999
828.449
792.818
747.772
701.427
645.963
587.316
521.464
449.919
375.095
291.778
210.906
119.367
36.2675
-57.8386
-139.721
-230.565
-309.919
-394.694
-474.125
-556.458
-643.598
-734.814
1007.8
1006.85
1005.76
1003.99
1001.5
998.293
994.406
989.825
984.551
978.624
972.033
964.776
956.909
948.418
939.297
929.88
901.422
862.787
811.247
743.555
656.487
547.525
415.948
263.968
97.5799
-74.2682
-242.697
-403.719
-563.381
-740.156
947.825
947.024
946.916
946.315
945.879
944.952
944.187
942.911
941.812
940.204
938.761
936.831
935.058
932.786
930.692
928.101
925.665
922.772
920.017
916.791
913.734
910.205
906.816
903.009
899.317
895.191
891.22
886.812
882.524
877.867
873.543
859.689
846.404
827.575
809.536
784.637
760.327
727.962
695.648
654.527
612.372
561.572
508.015
447.449
381.77
312.608
235.596
160.411
75.0683
-2.71863
-91.3747
-168.659
-255.303
-330.974
-412.947
-489.602
-570.259
-655.25
-745.275
885.95
885.087
884.107
882.508
880.265
877.381
873.881
869.754
865.001
859.66
853.718
847.173
840.077
832.415
824.182
815.688
789.984
755.041
708.354
646.913
567.676
468.169
347.468
207.25
52.6541
-108.384
-267.842
-422.128
-577.063
-750.257
826.944
826.21
826.116
825.573
825.183
824.348
823.663
822.513
821.528
820.08
818.785
817.047
815.455
813.409
811.528
809.194
807.005
804.399
801.923
799.016
796.268
793.088
790.039
786.607
783.285
779.564
775.99
772.014
768.153
763.951
760.064
747.55
735.591
718.557
702.301
679.742
657.801
628.421
599.198
561.78
523.553
477.184
428.44
372.944
312.874
249.209
178.321
108.734
29.5371
-42.9311
-126.029
-198.619
-280.81
-352.635
-431.472
-505.152
-583.788
-666.446
-754.985
765.868
765.082
764.203
762.768
760.756
758.168
755.027
751.322
747.055
742.258
736.921
731.04
724.662
717.774
710.369
702.737
679.61
648.128
606.006
550.466
478.663
388.198
277.996
149.281
6.40686
-143.661
-293.776
-440.816
-590.481
-759.616
707.841
707.167
707.086
706.596
706.251
705.499
704.89
703.855
702.978
701.676
700.52
698.959
697.537
695.699
694.018
691.922
689.964
687.624
685.408
682.797
680.337
677.48
674.749
671.667
668.69
665.346
662.143
658.569
655.107
651.33
647.853
636.587
625.875
610.516
595.938
575.572
555.865
529.297
502.996
469.089
434.588
392.458
348.304
297.715
243.036
184.767
119.828
55.8348
-17.3066
-84.3467
-161.862
-229.542
-307.146
-374.832
-450.33
-520.714
-597.118
-677.134
-764.024
647.545
646.829
646.043
644.762
642.963
640.651
637.843
634.532
630.715
626.426
621.652
616.389
610.682
604.515
597.883
591.056
570.339
542.101
504.269
454.299
389.547
307.721
207.648
90.1673
-41.0762
-180.041
-320.469
-459.78
-603.652
-768.265
589.688
589.07
589.002
588.561
588.258
587.584
587.046
586.12
585.343
584.18
583.154
581.76
580.498
578.855
577.363
575.49
573.75
571.66
569.69
567.357
565.169
562.617
560.186
557.433
554.781
551.794
548.941
545.747
542.66
539.285
536.194
526.11
516.575
502.806
489.814
471.536
453.946
430.067
406.543
376.01
345.07
307.041
267.304
221.501
172.06
119.109
60.0256
1.60937
-65.4647
-127.021
-198.812
-261.458
-334.216
-397.59
-469.419
-536.312
-610.15
-687.348
-772.305
530.149
529.499
528.801
527.663
526.067
524.013
521.52
518.579
515.188
511.377
507.133
502.454
497.379
491.894
485.992
479.925
461.49
436.326
402.57
357.911
299.916
226.422
136.205
29.7784
-89.8545
-217.539
-347.913
-479.005
-616.563
-776.202
472.454
471.888
471.832
471.437
471.174
470.574
470.103
469.28
468.598
467.564
466.662
465.425
464.313
462.856
461.54
459.879
458.344
456.491
454.751
452.682
450.75
448.486
446.337
443.895
441.551
438.9
436.377
433.542
430.811
427.816
425.089
416.126
407.7
395.442
383.95
367.662
352.077
330.77
309.888
282.599
255.061
221.002
185.514
144.381
100.027
52.3155
-1.00889
-53.866
-114.874
-170.893
-236.838
-294.328
-362.001
-420.891
-488.742
-551.953
-622.903
-697.114
-779.863
412.891
412.303
411.689
410.689
409.285
407.478
405.286
402.698
399.713
396.359
392.623
388.501
384.03
379.196
373.992
368.653
352.4
330.183
300.342
260.802
209.349
143.969
63.4251
-32.0387
-140.009
-256.182
-376.107
-498.477
-629.202
-783.42
355.339
354.821
354.776
354.425
354.201
353.671
353.265
352.539
351.949
351.039
350.256
349.168
348.201
346.919
345.775
344.314
342.976
341.348
339.831
338.012
336.326
334.336
332.459
330.313
328.264
325.933
323.728
321.236
318.845
316.213
313.837
305.941
298.585
287.77
277.723
263.34
249.691
230.857
212.528
188.377
164.138
133.947
102.594
66.0571
26.6802
-15.8135
-63.4574
-110.7
-165.661
-215.995
-276.03
-328.132
-390.575
-444.69
-508.367
-567.585
-635.451
-706.38
-786.775
295.709
295.178
294.645
293.777
292.558
290.989
289.084
286.836
284.24
281.323
278.073
274.485
270.592
266.382
261.847
257.206
243.044
223.657
197.584
162.984
117.872
60.4033
-10.638
-95.2282
-191.489
-295.936
-405.033
-518.201
-641.591
-789.956
237.542
237.069
237.037
236.728
236.541
236.079
235.737
235.106
234.605
233.815
233.148
232.205
231.38
230.269
229.29
228.025
226.878
225.468
224.166
222.59
221.143
219.419
217.805
215.947
214.183
212.163
210.265
208.104
206.043
203.763
201.726
194.868
188.547
179.134
170.487
157.96
146.19
129.774
113.929
92.8605
71.841
45.4701
18.1763
-13.7926
-48.2467
-85.5138
-127.484
-169.052
-217.892
-262.427
-316.379
-362.93
-419.878
-469.026
-528.209
-583.237
-647.7
-715.181
-792.953
177.792
177.317
176.862
176.124
175.086
173.748
172.125
170.207
167.991
165.499
162.721
159.651
156.321
152.717
148.831
144.867
132.738
116.1
93.6966
63.9206
25.0246
-24.6505
-86.2683
-159.983
-244.409
-336.854
-434.709
-538.173
-653.722
-795.805
118.955
118.527
118.507
118.24
118.091
117.696
117.416
116.879
116.466
115.794
115.241
114.44
113.753
112.81
111.993
110.919
109.959
108.763
107.67
106.332
105.117
103.652
102.293
100.715
99.2289
97.5111
95.9111
94.0738
92.3331
90.395
88.6871
82.8378
77.521
69.4751
62.188
51.4759
41.5322
27.4868
14.0648
-3.97155
-21.8388
-44.4317
-67.7326
-95.1548
-124.734
-156.76
-193.059
-228.89
-271.541
-310.157
-357.866
-398.698
-449.903
-493.89
-548.278
-598.919
-659.675
-723.544
-798.434
58.3353
57.9147
57.539
56.9302
56.0732
54.9669
53.6233
52.0334
50.193
48.1226
45.8111
43.2522
40.4752
37.4671
34.2191
30.9212
20.79
6.8579
-11.9292
-36.9389
-69.674
-111.59
-163.773
-226.521
-298.904
-379.003
-465.156
-558.394
-665.586
-800.958
-1.24093
-1.62899
-1.63771
-1.86218
-1.97276
-2.30008
-2.51516
-2.95914
-3.28126
-3.83458
-4.27227
-4.93052
-5.47749
-6.25495
-6.90758
-7.79325
-8.56633
-9.55161
-10.4341
-11.5397
-12.5231
-13.7335
-14.8388
-16.141
-17.3526
-18.7734
-20.0783
-21.5983
-23.0228
-24.6243
-26.0064
-30.8658
-35.1883
-41.8931
-47.8338
-56.7618
-64.895
-76.6018
-87.6201
-102.651
-117.386
-136.213
-155.537
-178.394
-203.101
-229.819
-260.423
-290.384
-326.775
-359.269
-400.608
-435.456
-480.74
-519.258
-568.648
-614.59
-671.449
-731.418
-803.294
-62.8324
-63.1934
-63.4887
-63.9639
-64.6359
-65.5068
-66.5668
-67.8262
-69.2902
-70.9403
-72.7881
-74.8403
-77.0695
-79.4888
-82.1065
-84.7473
-92.9073
-104.168
-119.379
-139.664
-166.274
-200.445
-243.162
-294.834
-354.958
-422.371
-496.371
-578.871
-677.208
-805.454
-123.939
-124.271
-124.26
-124.439
-124.508
-124.763
-124.909
-125.253
-125.479
-125.909
-126.225
-126.736
-127.137
-127.744
-128.228
-128.922
-129.504
-130.277
-130.947
-131.818
-132.568
-133.523
-134.374
-135.401
-136.338
-137.462
-138.472
-139.675
-140.785
-142.051
-143.108
-146.98
-150.313
-155.678
-160.277
-167.42
-173.747
-183.108
-191.724
-203.73
-215.327
-230.349
-245.676
-263.902
-283.688
-304.992
-329.808
-353.749
-383.726
-409.905
-444.647
-473.289
-512.361
-545.182
-589.253
-630.283
-682.935
-738.836
-807.441
-186.58
-186.897
-187.099
-187.43
-187.903
-188.523
-189.286
-190.202
-191.279
-192.501
-193.879
-195.421
-197.101
-198.931
-200.919
-202.902
-209.093
-217.683
-229.313
-244.858
-265.306
-291.663
-324.789
-365.181
-412.737
-467.048
-528.392
-599.615
-688.584
-809.287
-249.304
-249.63
-249.629
-249.753
-249.769
-249.943
-250.006
-250.241
-250.355
-250.651
-250.83
-251.185
-251.428
-251.858
-252.163
-252.659
-253.043
-253.597
-254.05
-254.683
-255.197
-255.894
-256.489
-257.239
-257.9
-258.726
-259.442
-260.328
-261.122
-262.052
-262.786
-265.668
-268.013
-272.034
-275.292
-280.641
-285.159
-292.157
-298.363
-307.314
-315.756
-326.924
-338.219
-351.734
-366.539
-382.312
-401.237
-418.996
-442.398
-462.062
-489.982
-512.19
-544.771
-571.663
-610.106
-646.012
-694.163
-745.829
-810.917
-313.967
-314.129
-314.239
-314.392
-314.632
-314.967
-315.398
-315.943
-316.611
-317.387
-318.283
-319.305
-320.426
-321.659
-323.011
-324.331
-328.532
-334.421
-342.421
-353.153
-367.334
-385.721
-409.036
-437.842
-472.429
-513.141
-561.266
-620.635
-699.708
-812.444
-378.863
-378.907
-378.768
-378.827
-378.776
-378.826
-378.781
-378.869
-378.847
-378.976
-378.993
-379.168
-379.229
-379.464
-379.572
-379.858
-380.03
-380.358
-380.585
-380.973
-381.245
-381.679
-382.013
-382.482
-382.864
-383.389
-383.806
-384.372
-384.847
-385.437
-385.843
-387.726
-389.067
-391.731
-393.623
-397.157
-399.83
-404.431
-408.177
-414.021
-419.241
-426.473
-433.651
-442.333
-452.046
-462.117
-475.009
-486.358
-503.009
-515.874
-536.762
-552.212
-578.073
-598.695
-631.289
-661.742
-705.204
-752.345
-813.792
-445.051
-445.432
-445.313
-445.234
-445.157
-445.131
-445.169
-445.295
-445.519
-445.827
-446.226
-446.717
-447.274
-447.904
-448.612
-449.262
-451.447
-454.59
-458.895
-464.72
-472.498
-482.73
-495.98
-512.865
-534.055
-560.657
-595.001
-641.949
-710.61
-814.969
-511.941
-512.747
-513.063
-512.899
-512.705
-512.588
-512.305
-512.214
-511.927
-511.866
-511.636
-511.607
-511.438
-511.456
-511.339
-511.398
-511.342
-511.431
-511.422
-511.557
-511.58
-511.745
-511.814
-511.995
-512.094
-512.312
-512.427
-512.665
-512.816
-513.061
-513.132
-513.994
-514.309
-515.581
-516.072
-517.74
-518.516
-520.649
-521.865
-524.5
-526.407
-529.567
-532.504
-536.177
-540.634
-544.782
-551.431
-556.109
-565.748
-571.521
-585.073
-593.465
-612.273
-626.342
-652.753
-677.51
-715.981
-758.415
-815.975
-583.354
-581.909
-581.743
-581.164
-580.566
-579.995
-579.507
-579.133
-578.872
-578.69
-578.582
-578.538
-578.523
-578.543
-578.599
-578.565
-578.686
-579.006
-579.503
-580.264
-581.43
-583.229
-586.057
-590.574
-597.835
-609.727
-629.658
-663.576
-721.289
-816.851
-659.118
-655.509
-653.525
-653.373
-652.624
-651.884
-651.22
-650.668
-650.098
-649.628
-649.092
-648.757
-648.313
-648.069
-647.709
-647.515
-647.231
-647.067
-646.828
-646.701
-646.481
-646.372
-646.181
-646.07
-645.888
-645.795
-645.604
-645.511
-645.333
-645.225
-644.955
-644.773
-644.032
-643.872
-642.917
-642.658
-641.476
-641.053
-639.656
-638.966
-637.447
-636.382
-634.933
-633.402
-632.419
-630.402
-630.58
-628.303
-630.659
-629.031
-634.94
-635.957
-647.388
-654.61
-674.519
-693.334
-726.525
-764.072
-817.512
-723.021
-727.482
-725.243
-723.694
-721.821
-720.363
-719.192
-718.261
-717.509
-716.854
-716.257
-715.69
-715.11
-714.515
-713.907
-713.17
-711.156
-708.539
-705.067
-700.544
-694.808
-687.801
-679.74
-671.328
-664.014
-660.497
-665.311
-685.54
-731.743
-818.078
-787.355
-798.408
-805.203
-802.13
-800.947
-799.014
-795.986
-795.507
-793.61
-793.08
-791.949
-791.339
-790.566
-790.05
-789.463
-789.022
-788.538
-788.136
-787.692
-787.321
-786.876
-786.506
-786.061
-785.668
-785.205
-784.803
-784.303
-783.875
-783.361
-782.891
-782.267
-781.01
-779.164
-777.52
-775.047
-772.782
-769.545
-766.457
-762.318
-758.158
-753.048
-747.569
-741.528
-734.55
-727.882
-719.4
-712.828
-703.239
-698.013
-688.581
-686.547
-679.769
-683.541
-683.509
-696.675
-709.185
-736.91
-769.264
-818.469
-911.424
-881.634
-879.115
-873.46
-869.039
-865.991
-864.079
-862.729
-861.64
-860.627
-859.616
-858.567
-857.438
-856.228
-854.942
-853.482
-849.242
-843.551
-835.918
-825.856
-812.885
-796.649
-777.182
-755.231
-732.658
-713.008
-701.986
-707.869
-742.007
-818.696
-1091.18
-995.305
-944.554
-963.644
-961.064
-952.038
-950.63
-945.261
-943.779
-941.439
-940.585
-939.265
-938.677
-937.832
-937.307
-936.666
-936.148
-935.563
-935.007
-934.431
-933.808
-933.2
-932.525
-931.859
-931.12
-930.408
-929.594
-928.823
-927.958
-927.117
-926.119
-923.74
-920.721
-917.517
-913.432
-909.053
-903.637
-897.738
-890.699
-882.871
-873.973
-863.823
-852.949
-840.204
-827.563
-812.232
-798.583
-781.246
-768.081
-750.387
-740.039
-725.028
-720.774
-713.112
-719.189
-725.102
-747.062
-774.019
-818.756
-999.195
-1096.73
-1029.96
-1020.72
-1017.12
-1015.3
-1014.17
-1013.23
-1012.24
-1011.09
-1009.78
-1008.3
-1006.63
-1004.79
-1002.8
-1000.57
-993.97
-985.021
-972.979
-957.052
-936.432
-910.45
-878.951
-842.733
-804.095
-767.468
-739.792
-730.6
-752.081
-818.695
-286.704
-375.262
-337.611
-272.725
-273.95
-277.572
-269.624
-272.09
-270.012
-272.08
-271.824
-273.481
-273.808
-275.083
-275.582
-276.557
-277.065
-277.846
-278.32
-278.982
-279.426
-280.004
-280.429
-280.953
-281.362
-281.866
-282.266
-282.755
-283.163
-283.637
-283.992
-285.385
-286.407
-288.26
-289.63
-292.065
-293.985
-297.233
-299.979
-304.324
-308.299
-314.108
-319.873
-327.605
-335.938
-346.146
-358.085
-371.434
-388.191
-405.572
-428.379
-450.974
-480.978
-510.389
-548.674
-587.027
-635.092
-685.141
-744.938
271.674
645.391
631.87
540.279
506.247
489.812
480.376
474.108
469.331
465.27
461.542
457.919
454.279
450.551
446.681
442.725
431.041
415.327
394.128
365.601
327.517
277.303
212.274
130.009
29.0459
-90.3811
-225.853
-372.96
-526.396
-680.412
305.434
270.844
374.316
445.007
440.212
432.071
432.177
426.892
424.882
421.191
418.986
416.223
414.24
412.045
410.276
408.406
406.785
405.077
403.529
401.888
400.35
398.718
397.153
395.491
393.877
392.155
390.47
388.679
386.91
385.04
383.239
377.798
372.389
365.043
357.728
347.847
337.925
324.665
311.246
293.591
275.585
252.362
228.489
198.475
167.361
129.452
89.7967
43.2769
-5.78299
-60.9442
-119.425
-182.378
-249.131
-318.152
-390.896
-463.678
-539.577
-613.5
-689.05
282.194
268.264
319.178
333.226
340.11
342.53
342.735
341.775
340.182
338.188
335.899
333.371
330.633
327.69
324.548
321.267
311.437
298.036
279.852
255.288
222.368
178.759
121.938
49.4842
-40.3379
-147.899
-271.632
-407.919
-551.699
-696.502
298.251
323.382
331.517
306.754
294.567
290.35
286.426
285.478
284.152
284.234
283.702
283.788
283.378
283.215
282.721
282.289
281.642
280.983
280.183
279.328
278.387
277.371
276.297
275.143
273.949
272.667
271.361
269.964
268.549
267.046
265.578
261.093
256.545
250.349
244.116
235.676
227.168
215.764
204.212
188.952
173.395
153.22
132.503
106.268
79.1139
45.7259
10.8533
-30.4977
-74.0676
-123.635
-176.21
-233.461
-294.332
-357.857
-425.179
-492.824
-563.897
-632.901
-703.866
221.138
221.761
226.041
227.215
226.606
225.823
224.986
224.017
222.836
221.42
219.765
217.871
215.753
213.42
210.877
208.185
199.958
188.575
172.999
151.848
123.386
85.5141
35.9004
-27.8033
-107.473
-203.902
-316.198
-441.469
-575.037
-710.106
185.691
184.576
183.084
178.218
174.923
174.751
173.751
174.008
173.773
173.634
173.417
173.012
172.674
172.116
171.641
170.984
170.389
169.645
168.943
168.11
167.304
166.385
165.479
164.473
163.472
162.373
161.278
160.091
158.902
157.629
156.393
152.59
148.741
143.457
138.142
130.911
123.617
113.805
103.863
90.6773
77.2418
59.7299
41.7667
18.8736
-4.79153
-34.1182
-64.7121
-101.327
-139.881
-184.191
-231.216
-282.944
-338.079
-396.103
-457.902
-520.26
-586.246
-650.155
-716.317
119.334
119.619
121.185
120.465
119.784
119.07
118.226
117.216
116.035
114.685
113.167
111.48
109.628
107.61
105.425
103.124
96.0973
86.3606
72.9984
54.7956
30.218
-2.61034
-45.822
-101.644
-171.997
-257.959
-359.172
-473.395
-596.425
-721.458
72.3469
72.6604
72.4249
71.6517
70.9686
70.9415
70.8114
70.5931
70.3898
70.0496
69.7242
69.3127
68.8966
68.4147
67.9214
67.3658
66.7971
66.1644
65.5225
64.8084
64.0905
63.299
62.5036
61.6356
60.7655
59.8181
58.8722
57.8505
56.8275
55.733
54.6725
51.4068
48.1145
43.5811
39.0341
32.8263
26.5748
18.1345
9.59318
-1.78029
-13.3564
-28.5158
-44.0468
-63.9549
-84.5072
-110.156
-136.882
-169.13
-203.068
-242.422
-284.217
-330.596
-380.164
-432.707
-488.958
-545.934
-606.665
-665.392
-726.618
20.792
20.5032
20.2274
19.9007
19.412
18.7873
18.0197
17.111
16.0612
14.8728
13.5453
12.0775
10.472
8.72855
6.84626
4.86722
-1.16048
-9.50178
-20.9541
-36.5801
-57.7296
-86.069
-123.526
-172.173
-233.902
-309.969
-400.43
-503.632
-615.921
-730.764
-25.9888
-26.1589
-26.2091
-26.4146
-26.5491
-26.6904
-26.863
-27.0777
-27.3082
-27.6016
-27.8955
-28.2553
-28.6105
-29.0374
-29.4582
-29.9492
-30.4364
-30.9914
-31.5431
-32.1647
-32.7822
-33.467
-34.1508
-34.8985
-35.6457
-36.4594
-37.2707
-38.1466
-39.023
-39.9602
-40.8667
-43.6609
-46.4733
-50.3496
-54.2309
-59.5412
-64.8799
-72.1094
-79.4137
-89.176
-99.0973
-112.147
-125.498
-142.702
-160.438
-182.713
-205.899
-234.078
-263.725
-298.371
-335.202
-376.389
-420.536
-467.634
-518.331
-569.87
-625.231
-678.737
-734.957
-74.4958
-74.5507
-74.6682
-74.9925
-75.4162
-75.9569
-76.6174
-77.3975
-78.2976
-79.316
-80.4528
-81.7086
-83.0808
-84.5697
-86.176
-87.8634
-92.9991
-100.102
-109.858
-123.182
-141.251
-165.526
-197.728
-239.749
-293.4
-360.026
-440.004
-532.215
-633.617
-738.197
-119
-119.092
-119.143
-119.231
-119.332
-119.462
-119.593
-119.791
-119.984
-120.236
-120.486
-120.792
-121.096
-121.458
-121.819
-122.235
-122.652
-123.122
-123.593
-124.12
-124.645
-125.225
-125.806
-126.44
-127.074
-127.764
-128.451
-129.194
-129.936
-130.73
-131.497
-133.865
-136.244
-139.529
-142.811
-147.313
-151.83
-157.966
-164.153
-172.453
-180.872
-191.994
-203.352
-218.064
-233.208
-252.338
-272.233
-296.566
-322.168
-352.291
-384.362
-420.464
-459.303
-500.97
-546.105
-592.154
-642.051
-690.313
-741.492
-165.001
-165.138
-165.303
-165.552
-165.906
-166.361
-166.918
-167.575
-168.333
-169.19
-170.146
-171.203
-172.357
-173.609
-174.96
-176.378
-180.694
-186.666
-194.871
-206.089
-221.326
-241.846
-269.154
-304.946
-350.909
-408.41
-478.073
-559.27
-649.632
-743.898
-208.205
-208.285
-208.306
-208.38
-208.448
-208.564
-208.68
-208.843
-209.005
-209.214
-209.422
-209.677
-209.93
-210.233
-210.532
-210.88
-211.226
-211.619
-212.009
-212.449
-212.886
-213.37
-213.853
-214.381
-214.908
-215.483
-216.055
-216.673
-217.291
-217.952
-218.589
-220.562
-222.539
-225.277
-228.005
-231.761
-235.517
-240.641
-245.791
-252.732
-259.753
-269.074
-278.571
-290.935
-303.642
-319.783
-336.555
-357.191
-378.912
-404.623
-432.061
-463.125
-496.707
-532.913
-572.444
-612.924
-657.256
-700.242
-746.35
-252.797
-252.883
-253.006
-253.215
-253.506
-253.881
-254.338
-254.878
-255.501
-256.205
-256.991
-257.859
-258.807
-259.836
-260.946
-262.11
-265.657
-270.566
-277.316
-286.554
-299.121
-316.084
-338.73
-368.539
-407.039
-455.571
-514.946
-585.002
-664.11
-747.977
-295.268
-295.339
-295.361
-295.419
-295.475
-295.569
-295.661
-295.794
-295.924
-296.094
-296.261
-296.468
-296.672
-296.917
-297.158
-297.44
-297.719
-298.036
-298.352
-298.708
-299.06
-299.451
-299.841
-300.268
-300.694
-301.159
-301.62
-302.121
-302.619
-303.154
-303.667
-305.265
-306.858
-309.079
-311.278
-314.325
-317.356
-321.516
-325.679
-331.322
-337.007
-344.599
-352.31
-362.41
-372.765
-385.998
-399.737
-416.739
-434.658
-455.983
-478.828
-504.82
-533.121
-563.767
-597.592
-632.371
-671.001
-708.637
-749.625
-339.302
-339.383
-339.484
-339.648
-339.878
-340.174
-340.535
-340.961
-341.453
-342.009
-342.63
-343.317
-344.066
-344.879
-345.757
-346.675
-349.477
-353.36
-358.703
-366.024
-376.001
-389.5
-407.583
-431.499
-462.588
-502.122
-551.058
-609.693
-677.213
-750.513
-382.017
-382.074
-382.088
-382.134
-382.175
-382.249
-382.318
-382.421
-382.52
-382.651
-382.778
-382.938
-383.093
-383.282
-383.466
-383.683
-383.896
-384.14
-384.381
-384.655
-384.924
-385.226
-385.524
-385.852
-386.178
-386.536
-386.889
-387.274
-387.655
-388.067
-388.457
-389.689
-390.905
-392.618
-394.298
-396.65
-398.969
-402.183
-405.374
-409.739
-414.108
-419.994
-425.939
-433.791
-441.813
-452.142
-462.856
-476.2
-490.299
-507.166
-525.359
-546.145
-569.044
-593.936
-621.87
-650.736
-683.458
-715.61
-751.38
-426.489
-426.551
-426.625
-426.745
-426.915
-427.132
-427.397
-427.711
-428.073
-428.481
-428.938
-429.443
-429.994
-430.592
-431.238
-431.911
-433.971
-436.83
-440.768
-446.174
-453.557
-463.578
-477.063
-495.011
-518.547
-548.842
-586.973
-633.702
-689.127
-751.554
-470.472
-470.519
-470.528
-470.56
-470.588
-470.64
-470.687
-470.76
-470.826
-470.918
-471.005
-471.117
-471.223
-471.355
-471.481
-471.633
-471.779
-471.949
-472.115
-472.306
-472.49
-472.701
-472.906
-473.134
-473.359
-473.608
-473.851
-474.119
-474.382
-474.669
-474.935
-475.795
-476.629
-477.828
-478.982
-480.63
-482.225
-484.481
-486.682
-489.751
-492.778
-496.925
-501.069
-506.622
-512.257
-519.601
-527.209
-536.77
-546.929
-559.155
-572.52
-587.848
-605.103
-623.931
-645.675
-668.306
-694.823
-721.266
-751.649
-516.52
-516.568
-516.614
-516.69
-516.796
-516.933
-517.1
-517.297
-517.524
-517.781
-518.068
-518.386
-518.733
-519.109
-519.516
-519.937
-521.231
-523.033
-525.522
-528.948
-533.647
-540.064
-548.77
-560.495
-576.122
-596.691
-623.387
-657.468
-700.055
-751.118
-562.998
-563.034
-563.036
-563.056
-563.069
-563.099
-563.122
-563.162
-563.196
-563.247
-563.291
-563.353
-563.408
-563.48
-563.545
-563.628
-563.704
-563.797
-563.884
-563.988
-564.084
-564.199
-564.306
-564.431
-564.549
-564.684
-564.812
-564.958
-565.097
-565.252
-565.388
-565.86
-566.291
-566.954
-567.553
-568.465
-569.299
-570.549
-571.711
-573.417
-575.034
-577.35
-579.597
-582.724
-585.841
-590.024
-594.349
-599.888
-605.868
-613.139
-621.365
-630.84
-642.065
-654.371
-669.486
-685.426
-705.311
-725.705
-750.434
-611.94
-611.972
-611.989
-612.017
-612.056
-612.107
-612.169
-612.242
-612.326
-612.421
-612.528
-612.646
-612.775
-612.915
-613.067
-613.218
-613.696
-614.371
-615.312
-616.624
-618.455
-621.014
-624.6
-629.642
-636.753
-646.824
-661.142
-681.513
-710.229
-749.192
-662.346
-662.372
-662.367
-662.373
-662.369
-662.375
-662.372
-662.379
-662.376
-662.383
-662.381
-662.389
-662.387
-662.396
-662.394
-662.404
-662.403
-662.413
-662.414
-662.424
-662.424
-662.436
-662.437
-662.449
-662.452
-662.464
-662.467
-662.48
-662.484
-662.498
-662.493
-662.544
-662.538
-662.62
-662.618
-662.731
-662.74
-662.901
-662.934
-663.162
-663.247
-663.576
-663.761
-664.25
-664.629
-665.369
-666.119
-667.266
-668.694
-670.539
-673.158
-676.214
-680.85
-686.001
-693.873
-702.493
-715.165
-729.022
-747.706
-715.73
-715.745
-715.731
-715.706
-715.672
-715.628
-715.573
-715.51
-715.437
-715.354
-715.262
-715.161
-715.049
-714.93
-714.802
-714.655
-714.233
-713.667
-712.903
-711.886
-710.556
-708.862
-706.798
-704.462
-702.164
-700.623
-701.244
-706.458
-719.904
-745.734
-771.769
-771.783
-771.771
-771.761
-771.739
-771.718
-771.686
-771.655
-771.611
-771.57
-771.516
-771.463
-771.399
-771.336
-771.26
-771.187
-771.102
-771.018
-770.922
-770.828
-770.721
-770.617
-770.501
-770.386
-770.26
-770.135
-769.998
-769.863
-769.717
-769.572
-769.409
-768.991
-768.497
-767.93
-767.255
-766.478
-765.563
-764.508
-763.278
-761.856
-760.226
-758.336
-756.216
-753.755
-751.073
-747.96
-744.714
-740.946
-737.284
-733.053
-729.406
-725.273
-722.555
-719.701
-719.508
-719.972
-724.661
-731.309
-743.41
-831.43
-831.427
-831.377
-831.292
-831.174
-831.023
-830.837
-830.619
-830.368
-830.082
-829.765
-829.416
-829.032
-828.618
-828.172
-827.688
-826.246
-824.273
-821.578
-817.923
-813.012
-806.501
-798.039
-787.351
-774.405
-759.733
-744.888
-733.033
-729.377
-740.676
-895.144
-895.144
-895.122
-895.095
-895.051
-895
-894.935
-894.86
-894.769
-894.671
-894.557
-894.436
-894.3
-894.155
-893.994
-893.826
-893.643
-893.452
-893.247
-893.032
-892.802
-892.566
-892.314
-892.053
-891.781
-891.498
-891.2
-890.896
-890.577
-890.25
-889.905
-888.949
-887.894
-886.583
-885.135
-883.338
-881.362
-878.912
-876.233
-872.919
-869.324
-864.889
-860.126
-854.285
-848.096
-840.571
-832.753
-823.355
-813.881
-802.698
-791.91
-779.562
-768.488
-756.506
-747.193
-738.392
-734.122
-732.648
-737.473
-963.273
-963.252
-963.16
-963.005
-962.791
-962.515
-962.176
-961.779
-961.321
-960.8
-960.221
-959.583
-958.884
-958.127
-957.313
-956.437
-953.811
-950.205
-945.267
-938.549
-929.484
-917.388
-901.515
-881.161
-855.917
-826.113
-793.5
-762.116
-739.011
-733.943
-1037.04
-1037.04
-1037.01
-1036.96
-1036.89
-1036.8
-1036.7
-1036.57
-1036.43
-1036.26
-1036.08
-1035.88
-1035.66
-1035.42
-1035.15
-1034.88
-1034.58
-1034.26
-1033.92
-1033.57
-1033.2
-1032.8
-1032.39
-1031.96
-1031.52
-1031.05
-1030.56
-1030.06
-1029.54
-1029
-1028.44
-1026.86
-1025.14
-1022.96
-1020.6
-1017.61
-1014.38
-1010.31
-1005.92
-1000.41
-994.493
-987.097
-979.223
-969.452
-959.143
-946.488
-933.317
-917.377
-901.126
-881.864
-862.801
-840.905
-820.222
-797.627
-777.929
-758.356
-744.032
-733.083
-729.918
SCALARS Stress_Theta double 1
LOOKUP_TABLE default
-1.33692e+07
-6.07527e+06
-2.5523e+06
-1.35763e+06
-1.24904e+06
-852307
-816017
-600281
-616799
-469797
-494114
-384768
-413205
-326234
-354023
-283083
-310102
-249917
-276222
-223824
-248409
-202679
-225967
-185359
-208130
-170397
-191058
-162474
-184915
-138421
-114303
-36085.5
-63088.3
-28325.4
-47448.2
-19012.9
-35783.6
-13175.9
-26811.8
-9025.78
-20001.3
-6233.77
-14317.1
-4814.87
-5665.67
573.318
-531.268
39.1482
-49.1533
9.55872
-5.29389
-0.308624
1.64312
-0.0131594
1.30937
-0.112005
1.12906
-0.251763
0.42104
-9.29571e+06
-2.63027e+06
-1.30906e+06
-851331
-631686
-502902
-418076
-357377
-312325
-277525
-249370
-226509
-207500
-190458
-171990
-118882
-64620.6
-47736.5
-35813.3
-26837.3
-19977.1
-14257.1
-5692.39
-565.767
-63.9066
-6.08183
0.290354
0.78424
0.313443
0.102635
-4.2372e+06
-2.69083e+06
-2.53432e+06
-1.65919e+06
-1.26901e+06
-958188
-826939
-662855
-607727
-506500
-480526
-409784
-397401
-344523
-339099
-297458
-295822
-261551
-262290
-233508
-235640
-210927
-213794
-191909
-195125
-175518
-178460
-157186
-154112
-128803
-112491
-53168.2
-54648.7
-32506.5
-40772.2
-22705.8
-30221.2
-15668.2
-22768.8
-10840.6
-17047.7
-7486.26
-12495.6
-5277.64
-4949.93
211.301
-336.191
22.0464
-35.0418
-1.92553
-0.212485
-0.742378
-0.179199
-1.02749
0.451248
-0.718536
0.685145
-0.892472
1.64595
-1.76494e+06
-1.72327e+06
-1.16537e+06
-794732
-589681
-464848
-382581
-324836
-282143
-249139
-222808
-200923
-181620
-162191
-138728
-104876
-49211.8
-34013.3
-25056.1
-18796.3
-14238.1
-10679.7
-4227.96
-141.972
15.4636
4.13277
-0.084966
-0.153187
1.24884
3.26607
-1.30164e+06
-1.5802e+06
-1.44946e+06
-1.30257e+06
-1.10826e+06
-954476
-812813
-707946
-610073
-545911
-481752
-440146
-395490
-367368
-334626
-314636
-289671
-274832
-254983
-243573
-227155
-217919
-203827
-195691
-182647
-174519
-161040
-150909
-134838
-123068
-107302
-71324.2
-52407.8
-40496.2
-34093.7
-27180.4
-24509.7
-18946.8
-18013.9
-13215.5
-13424.5
-9151.91
-9998.83
-5939.75
-3975.36
-317.773
-94.9186
-37.2087
7.70423
-10.6476
0.672283
-4.48564
-2.78645
-3.27531
-1.71702
-2.23634
0.413706
-2.64012
3.27002
-1.45833e+06
-1.26353e+06
-1.00894e+06
-778782
-609259
-489624
-404932
-343255
-296863
-260607
-231202
-206215
-183444
-160599
-135701
-108202
-56088.9
-35214.2
-24290.8
-17396
-12691
-9332.24
-3751.83
-85.9754
1.20505
-6.43914
-6.27028
-3.94926
-0.528859
3.18271
-1.14754e+06
-1.0881e+06
-1.0461e+06
-973668
-907737
-819540
-742505
-664346
-599504
-538944
-489850
-444428
-407751
-373898
-346241
-320395
-299171
-278804
-261964
-245436
-231498
-217453
-205356
-192671
-181354
-169151
-157720
-145312
-133371
-120971
-109454
-80195
-60137.1
-45720.8
-36498.7
-29465.7
-24742
-20255.7
-17431.3
-14124.9
-12543.8
-9828
-9052.53
-6109.03
-3687.03
-724.567
-117.468
-65.9958
-11.0656
-16.828
-10.8601
-9.95221
-9.20846
-7.00878
-5.94914
-4.41127
-1.8654
-4.08334
2.44605
-955341
-920095
-814749
-689224
-573111
-478004
-403159
-344772
-298798
-261681
-230822
-204117
-179716
-156228
-132968
-110258
-63638.1
-38572.6
-25484.4
-17637.3
-12457.2
-8810.22
-3643.71
-176.5
-29.8159
-18.4943
-13.4624
-8.73437
-3.46596
1.52859
-819116
-823297
-803506
-775614
-734252
-690392
-643771
-596572
-551327
-508413
-469033
-432929
-400377
-371147
-344633
-321024
-299492
-280152
-262325
-246208
-230990
-217072
-203669
-191115
-178769
-167059
-155272
-144020
-132727
-122001
-111606
-86352.9
-67057.3
-51100
-40399.4
-32133.2
-26306.4
-21500.7
-17964.2
-14790.3
-12549.9
-10205.8
-8704.96
-6157.97
-3663.82
-1086.46
-250.737
-114.572
-45.1367
-32.8298
-24.4997
-19.7654
-17.1367
-13.121
-11.2368
-7.80474
-5.13245
-5.87132
0.364342
-750165
-728852
-673489
-599703
-523015
-452375
-391130
-339670
-296808
-260725
-229826
-202674
-177976
-154901
-133110
-112721
-69860.3
-42565.2
-27396.8
-18451.1
-12704.8
-8650.51
-3703.83
-345.231
-70.9663
-33.5886
-22.5313
-14.6406
-7.20453
-1.08192
-665931
-661914
-650646
-633683
-612114
-585776
-557296
-526796
-496316
-465736
-436733
-408486
-382447
-357708
-334990
-313712
-294244
-275945
-259159
-243369
-228643
-214730
-201616
-189037
-177058
-165517
-154367
-143629
-133282
-123340
-113929
-91000.6
-72635.2
-56216.5
-44579.2
-35143.7
-28436
-22985.2
-18936.4
-15513.7
-12907.9
-10527.5
-8638.28
-6213.73
-3768.41
-1423.98
-444.338
-192.846
-91.3147
-59.6107
-42.1092
-34.049
-27.3529
-21.6946
-17.7389
-12.5652
-9.14406
-8.30609
-2.51735
-608547
-597118
-565568
-520468
-469222
-417865
-369806
-326673
-288749
-255440
-226041
-199778
-175858
-153819
-133467
-114799
-74839.6
-46626.1
-29665.7
-19557.5
-13173.5
-8682.31
-3852.49
-558.628
-124.505
-54.0283
-34.3114
-21.9319
-11.684
-4.40475
-550989
-549541
-543090
-533267
-519423
-503126
-484491
-464309
-443160
-421473
-399970
-378521
-357949
-337945
-318943
-300774
-283684
-267347
-252033
-237461
-223660
-210548
-198084
-186134
-174739
-163821
-153310
-143269
-133646
-124439
-115740
-94532.5
-77069.8
-60727.8
-48597.8
-38273.2
-30833.2
-24691.9
-20154.5
-16360.5
-13447.6
-10884.2
-8733.98
-6321.7
-3945.88
-1750.38
-673.471
-301.231
-152.074
-97.4954
-65.7885
-53.0721
-40.6333
-32.8513
-25.7761
-18.7937
-13.9586
-11.5742
-6.10648
-510531
-503727
-483979
-454473
-419141
-381592
-344344
-309074
-276585
-246941
-220021
-195539
-173085
-152443
-133510
-116247
-78763.6
-50422.4
-32092.4
-20853.8
-13780
-8841.97
-4058.05
-799.431
-193.262
-81.3466
-49.3513
-30.839
-16.9533
-8.36839
-469030
-467943
-463701
-457215
-448223
-437292
-424600
-410593
-395530
-379775
-363713
-347342
-331221
-315198
-299616
-284405
-269816
-255613
-242100
-229048
-216562
-204568
-193114
-182053
-171505
-161358
-151619
-142297
-133397
-124860
-116804
-97056.6
-80495
-64510.5
-52215.7
-41312.3
-33303
-26528.9
-21526.5
-17322.2
-14108
-11305.5
-8945.29
-6493.91
-4173.23
-2073.97
-924.432
-436.83
-229.45
-146.751
-96.824
-77.1191
-57.4511
-46.6623
-35.5742
-26.5112
-19.6618
-15.7451
-10.3923
-437758
-433209
-420019
-399773
-374597
-346685
-317764
-289206
-261882
-236128
-212135
-189918
-169324
-150302
-132830
-116877
-81723.6
-53772.4
-34520.6
-22266.4
-14487.3
-9101.16
-4307.1
-1058.5
-278.988
-116.497
-68.0595
-41.5777
-23.1253
-13.0036
-405983
-405239
-402366
-397919
-391645
-384003
-374966
-364895
-353841
-342131
-329930
-317313
-304615
-291804
-279091
-266499
-254206
-242078
-230371
-218936
-207876
-197159
-186849
-176829
-167236
-157966
-149053
-140494
-132314
-124442
-117002
-98631.2
-82993.5
-67542.9
-55322.4
-44113.7
-35705.2
-28402.7
-22982.3
-18369.3
-14857.8
-11795.8
-9248.41
-6729.95
-4440.94
-2399.52
-1190.89
-596.321
-324.268
-207.622
-135.981
-106.509
-78.0973
-63.2118
-47.2826
-35.7331
-26.3185
-20.8556
-15.3741
-381166
-378031
-368759
-354247
-335729
-314566
-291915
-268813
-246030
-223974
-202964
-183174
-164601
-147301
-131317
-116640
-83791.6
-56593.3
-36830.7
-23730.3
-15269.4
-9442.39
-4592.85
-1331.03
-382.191
-160.03
-90.7226
-54.3032
-30.2953
-18.3562
-356095
-355561
-353495
-350289
-345751
-340175
-333517
-326033
-317705
-308794
-299362
-289501
-279413
-269120
-258741
-248345
-238050
-227783
-217752
-207860
-198199
-188762
-179617
-170670
-162060
-153697
-145626
-137841
-130380
-123169
-116335
-99313.5
-84633
-69837.6
-57871.5
-46579.4
-37936
-30228.3
-24458.1
-19464.2
-15671
-12347.2
-9626.7
-7023.5
-4743.44
-2729.65
-1469.47
-776.067
-436.528
-280.241
-183.711
-141.531
-102.829
-82.6274
-61.0593
-46.5234
-34.0446
-26.975
-21.1339
-335832
-333546
-326756
-315989
-301990
-285631
-267690
-248932
-229986
-211241
-193041
-175626
-159075
-143505
-128998
-115576
-85040.8
-58859.4
-38938.9
-25188.1
-16102.5
-9851.11
-4910.66
-1614.37
-502.415
-212.193
-117.514
-69.0957
-38.5121
-24.4507
-315489
-315087
-313554
-311160
-307759
-303561
-298510
-292797
-286375
-279453
-272040
-264225
-256130
-247798
-239294
-230699
-222089
-213430
-204881
-196387
-188016
-179783
-171747
-163838
-156183
-148708
-141460
-134437
-127678
-121116
-114872
-99191.3
-85485.7
-71442.2
-59855.3
-48665.7
-39925.5
-31946
-25898.5
-20574.1
-16521.9
-12948.9
-10065.3
-7366.91
-5075.2
-3067.66
-1757.08
-973.577
-565.23
-364.614
-240.238
-182.368
-131.843
-104.957
-77.0117
-58.8763
-42.9067
-34.0902
-27.7094
-298602
-296886
-291752
-283531
-272697
-259826
-245448
-230125
-214355
-198471
-182800
-167592
-152962
-139056
-125980
-113776
-85548.2
-60574.7
-40789.4
-26590.6
-16962.3
-10313.5
-5256.38
-1907.03
-638.877
-273.239
-148.696
-86.1352
-47.9246
-31.405
-281723
-281415
-280241
-278404
-275788
-272545
-268622
-264164
-259116
-253643
-247731
-241458
-234899
-228102
-221096
-213967
-206758
-199458
-192189
-184919
-177700
-170557
-163538
-156591
-149829
-143193
-136726
-130430
-124343
-118406
-112733
-98363.9
-85645.4
-72412
-61303.4
-50353.1
-41641.2
-33509
-27264.9
-21666.8
-17389.6
-13585.7
-10551.3
-7751.64
-5433.58
-3413.35
-2054.05
-1186.12
-709.584
-460.537
-305.616
-229.162
-165.229
-130.28
-95.1686
-72.8075
-52.9159
-42.2094
-35.0919
-267477
-266151
-262168
-255745
-247194
-236907
-225255
-212651
-199483
-186027
-172569
-159345
-146481
-134128
-122403
-111362
-85404
-61767.3
-42352.5
-27899.6
-17825.8
-10815.7
-5625.54
-2207.76
-790.196
-343.086
-184.336
-105.452
-58.5559
-39.2393
-253246
-253004
-252085
-250643
-248585
-246027
-242920
-239377
-235341
-230947
-226169
-221074
-215707
-210116
-204308
-198366
-192312
-186148
-179965
-173748
-167531
-161350
-155238
-149159
-143210
-137344
-131598
-125980
-120522
-115176
-110045
-96940.9
-85199.1
-72810.3
-62245.8
-51641.6
-43059.1
-34884.2
-28521
-22713.4
-18250.3
-14241.7
-11070.4
-8168.29
-5813.23
-3766.6
-2358.56
-1411.41
-868.075
-567.577
-379.774
-281.978
-203.113
-158.673
-115.633
-88.3736
-64.1697
-51.3816
-43.3777
-241080
-240032
-236878
-231764
-224902
-216570
-207028
-196586
-185545
-174126
-162574
-151098
-139821
-128887
-118415
-108466
-84701.9
-62478.3
-43617.5
-29086.7
-18672.3
-11344.5
-6013.48
-2515.47
-954.936
-421.594
-224.499
-127.099
-70.4545
-47.9982
-228919
-228725
-227992
-226839
-225191
-223138
-220637
-217777
-214505
-210931
-207024
-202842
-198412
-193776
-188932
-183954
-178850
-173629
-168360
-163038
-157686
-152340
-147026
-141717
-136494
-131322
-126232
-121235
-116357
-111560
-106935
-95032.9
-84240.5
-72708.2
-62728.7
-52549.7
-44176.6
-36054.9
-29643.5
-23692.4
-19084.3
-14902
-11609.7
-8608.31
-6209.34
-4126.78
-2669.47
-1647.67
-1039.21
-685.23
-462.516
-340.823
-245.543
-190.174
-138.445
-105.591
-76.6999
-61.6155
-52.5928
-218447
-217606
-215065
-210928
-205345
-198515
-190627
-181914
-172611
-162893
-152966
-143010
-133136
-123478
-114148
-105209
-83535.1
-62756
-44586.1
-30132.4
-19483
-11886.9
-6415.11
-2828.81
-1131.51
-508.479
-269.2
-151.116
-83.6692
-57.7297
-207946
-207789
-207194
-206259
-204919
-203248
-201207
-198868
-196184
-193243
-190016
-186550
-182862
-178990
-174923
-170728
-166406
-161967
-157465
-152901
-148287
-143660
-139038
-134402
-129821
-125267
-120765
-116327
-111978
-107683
-103524
-92746.7
-82863.3
-72177.5
-62804.4
-53103.2
-45002.5
-37012.1
-30617.8
-24585.1
-19874.9
-15551.8
-12156.9
-9062.47
-6617.04
-4491.69
-2985.63
-1892.65
-1221.48
-812.626
-553.475
-405.545
-292.469
-224.769
-163.6
-124.461
-90.5237
-72.9173
-62.7602
-198850
-198164
-196088
-192698
-188102
-182446
-175869
-168550
-160672
-152374
-143826
-135183
-126539
-118015
-109717
-101702
-81991.2
-62653.3
-45271.9
-31026.3
-20243.5
-12431.6
-6825.75
-3146.66
-1318.48
-603.406
-318.414
-177.514
-98.2167
-68.4549
-189694
-189565
-189077
-188308
-187206
-185829
-184144
-182210
-179985
-177542
-174851
-171956
-168862
-165605
-162171
-158618
-154940
-151152
-147293
-143368
-139382
-135372
-131348
-127299
-123280
-119272
-115292
-111356
-107482
-103643
-99909.9
-90173.6
-81149.5
-71286.3
-62525.3
-53335.1
-45553.7
-37757.9
-31437.2
-25380.2
-20609.3
-16179.2
-12701.6
-9523.17
-7031.85
-4859.81
-3306.04
-2144.95
-1413.65
-949.138
-652.412
-476.108
-343.946
-262.529
-191.181
-145.054
-105.723
-85.3489
-73.966
-181735
-181169
-179454
-176645
-172823
-168099
-162574
-156387
-149683
-142572
-135194
-127678
-120107
-112586
-105210
-98033.7
-80149.8
-62222.9
-45694.5
-31764.9
-20942.9
-12968.9
-7240.88
-3467.81
-1514.49
-705.983
-372.086
-206.291
-114.109
-80.1918
-173714
-173607
-173201
-172563
-171646
-170500
-169095
-167481
-165619
-163572
-161311
-158872
-156259
-153502
-150584
-147558
-144415
-141168
-137848
-134461
-131009
-127525
-124017
-120475
-116946
-113416
-109897
-106406
-102957
-99528.5
-96180.7
-87398.4
-79176.1
-70100.7
-61942.8
-53281.4
-45849.7
-38299.4
-32098.1
-26069.5
-21276
-16773.7
-13233.1
-9982.84
-7448.08
-5228.81
-3628.45
-2402.89
-1613.86
-1093.81
-758.695
-552.245
-399.827
-303.383
-221.152
-167.351
-122.299
-98.9083
-86.2212
-166697
-166225
-164794
-162445
-159239
-155260
-150586
-145325
-139593
-133476
-127088
-120540
-113900
-107260
-100705
-94283.1
-78082
-61515
-45876.1
-32348.3
-21572
-13489.5
-7655.69
-3790.57
-1718.03
-815.683
-430.108
-237.442
-131.369
-92.9711
-159625
-159536
-159196
-158660
-157891
-156929
-155748
-154388
-152818
-151089
-149175
-147108
-144886
-142538
-140046
-137455
-134757
-131962
-129095
-126164
-123165
-120132
-117066
-113963
-110860
-107748
-104634
-101537
-98465.6
-95404.2
-92403.2
-84489.2
-77009.6
-68679.4
-61107.2
-52978.8
-45916.6
-38649
-32605
-26650
-21868.8
-17327.1
-13743.8
-10435.2
-7861.76
-5596.51
-3951.7
-2664.99
-1820.9
-1245.78
-871.842
-633.721
-459.996
-347.283
-253.488
-191.341
-140.247
-113.592
-99.5279
-153405
-153008
-151803
-149822
-147111
-143737
-139758
-135260
-130334
-125052
-119505
-113786
-107953
-102085
-96256.6
-90510.5
-75849.1
-60576.8
-45841.5
-32781.2
-22125.3
-13986.1
-8065.88
-4113.35
-1927.73
-931.951
-492.337
-270.94
-150.002
-106.809
-147148
-147073
-146785
-146332
-145681
-144867
-143866
-142713
-141379
-139909
-138278
-136514
-134614
-132603
-130462
-128234
-125906
-123491
-121006
-118459
-115846
-113197
-110512
-107787
-105054
-102306
-99547.7
-96796.8
-94060.4
-91325.4
-88635.2
-81505.8
-74709
-67075.8
-60065.6
-52462.5
-45780.6
-38820.4
-32964.8
-27120.2
-22383.6
-17832.1
-14227
-10873.7
-8268.79
-5959.88
-4274.2
-2929.29
-2033.45
-1403.9
-991.26
-720.138
-524.283
-394.125
-288.159
-217.012
-159.591
-129.414
-113.932
-141591
-141254
-140232
-138550
-136243
-133363
-129956
-126090
-121839
-117259
-112427
-107420
-102285
-97093
-91906.3
-86763.6
-73503.2
-59452
-45616.7
-33071.9
-22600.1
-14452.8
-8467.7
-4434.62
-2142.29
-1054.17
-558.567
-306.707
-169.974
-121.688
-136030
-135966
-135721
-135336
-134781
-134087
-133233
-132249
-131108
-129850
-128452
-126938
-125305
-123572
-121726
-119800
-117783
-115687
-113525
-111305
-109022
-106702
-104344
-101946
-99534.4
-97103.6
-94656.9
-92211
-89770.7
-87325.8
-84912.9
-78491.3
-72318.3
-65334.4
-58856.3
-51766.8
-45465.2
-38831.6
-33184.8
-27484.4
-22817.1
-18286.3
-14676.2
-11295
-8664.45
-6317.9
-4593.48
-3195.26
-2249.69
-1567.64
-1116.14
-811.315
-592.446
-443.86
-325.086
-244.348
-180.29
-146.371
-129.393
-131042
-130755
-129882
-128444
-126468
-123996
-121063
-117724
-114039
-110053
-105830
-101435
-96906.1
-92303.8
-87683.2
-83077.5
-71086.7
-58178.1
-45225.9
-33229.3
-22995
-14884.6
-8857.52
-4752.71
-2360.47
-1181.77
-628.667
-344.761
-191.347
-137.674
-126064
-126009
-125800
-125470
-124994
-124399
-123666
-122821
-121841
-120758
-119554
-118248
-116837
-115339
-113738
-112067
-110313
-108488
-106600
-104659
-102658
-100621
-98545.6
-96431.2
-94298.4
-92144.9
-89971.3
-87794.1
-85615.8
-83428.6
-81263.5
-75478.4
-69875.2
-63491.5
-57516.4
-50920.9
-44997.6
-38698.8
-33278.6
-27746.1
-23172.7
-18686.3
-15090.2
-11694.9
-9047.65
-6668.21
-4909.65
-3461.34
-2469.4
-1736.06
-1246.26
-906.897
-664.4
-496.383
-364.245
-273.31
-202.34
-164.435
-145.917
-121581
-121334
-120584
-119347
-117645
-115512
-112975
-110078
-106871
-103390
-99687.7
-95818.4
-91815.1
-87728.6
-83607.1
-79478.8
-68635
-56789.2
-44693.3
-33264.5
-23311.2
-15278.5
-9232.4
-5066.08
-2581.04
-1314.07
-702.368
-384.997
-214.073
-154.741
-117106
-117059
-116878
-116594
-116184
-115671
-115038
-114309
-113461
-112525
-111482
-110351
-109126
-107824
-106432
-104975
-103444
-101849
-100196
-98493
-96733.8
-94940.4
-93108.5
-91239.3
-89349.6
-87437.9
-85503.8
-83562.7
-81615.9
-79657.1
-77712.8
-72498.5
-67412.8
-61581.6
-56077.2
-49953.2
-44399.7
-38438.5
-33255.8
-27910.8
-23450.3
-19030.6
-15464.6
-12070
-9414.56
-7008.65
-5220.37
-3726.13
-2690.93
-1908.17
-1380.76
-1006.45
-739.836
-551.551
-405.549
-303.871
-225.734
-183.62
-163.521
-113059
-112847
-112199
-111129
-109656
-107806
-105601
-103077
-100276
-97224.7
-93969
-90554
-87007.2
-83372.1
-79690.4
-75986.2
-66176.6
-55314.6
-44041.2
-33189.2
-23551
-15632
-9589.87
-5373.29
-2802.88
-1450.41
-779.418
-427.334
-238.132
-172.886
-109017
-108976
-108820
-108573
-108219
-107774
-107225
-106592
-105857
-105043
-104136
-103151
-102084
-100948
-99731.6
-98457.8
-97116.6
-95716.9
-94264.5
-92766.4
-91215.6
-89632.2
-88011.7
-86355.6
-84677.6
-82977.5
-81253.5
-79520.3
-77778
-76021.9
-74274.1
-69571.6
-64955
-59630.8
-54564.9
-48888
-43692.4
-38067.3
-33127.9
-27985.1
-23652.8
-19319.3
-15797.9
-12418.4
-9762.89
-7337.85
-5524.21
-3988.7
-2913.16
-2083.26
-1518.98
-1109.65
-818.495
-609.253
-448.907
-335.997
-250.438
-203.917
-182.185
-105360
-105176
-104614
-103684
-102403
-100791
-98866.6
-96658.9
-94202
-91519.2
-88647.5
-85625.4
-82475.8
-79235.8
-75941.8
-72614.2
-63735.3
-53780
-43290.3
-33015
-23717.7
-15943.9
-9927.64
-5672.8
-3024.78
-1590.08
-859.513
-471.67
-263.5
-192.107
-101694
-101658
-101522
-101308
-100999
-100612
-100135
-99582.9
-98941.3
-98231.4
-97439.3
-96578.3
-95644.2
-94649.6
-93582.6
-92464.3
-91285.3
-90053.5
-88773.2
-87451
-86080
-84678.3
-83241.1
-81770.2
-80277.1
-78762
-77222.5
-75672.4
-74110.8
-72534.2
-70961.3
-66716.6
-62524.5
-57663.6
-53004.6
-47748.3
-42896.4
-37600.8
-32907.5
-27976.2
-23784.6
-19552.9
-16089.4
-12737.6
-10091
-7653.7
-5819.98
-4247.46
-3135.08
-2260.18
-1660.26
-1215.9
-900.063
-669.247
-494.198
-369.593
-276.415
-225.282
-201.896
-98375.4
-98214.5
-97724.2
-96913.3
-95793.9
-94384
-92697.8
-90759.6
-88597.7
-86231.1
-83690.9
-81009.8
-78206.6
-75313.5
-72361.9
-69368.9
-61327.3
-52206
-42458.8
-32753.6
-23815.7
-16213.9
-10244.4
-5963.58
-3245.83
-1732.47
-942.39
-517.91
-290.144
-212.39
-95035.1
-95004.2
-94885.3
-94698.1
-94428.2
-94089.8
-93672
-93189.4
-92627.5
-92005.7
-91311.1
-90555.7
-89735.3
-88861.2
-87922.2
-86937.4
-85897.6
-84810.2
-83678.3
-82508.2
-81292.9
-80049
-78771.4
-77462.3
-76130.9
-74778.1
-73401
-72012.4
-70610.8
-69193.6
-67776.6
-63941.9
-60133.7
-55696
-51413.5
-46551.6
-42027.9
-37053
-32605.3
-27891.4
-23850.1
-19733.1
-16339.4
-13026.9
-10397.8
-7955.22
-6106.78
-4501.63
-3355.96
-2438.3
-1804.1
-1324.91
-984.368
-731.45
-541.402
-404.67
-303.697
-247.752
-222.707
-92013.7
-91872.9
-91443.6
-90733.1
-89751.5
-88513.7
-87030.9
-85323.6
-83415.4
-81321.7
-79068.9
-76684.7
-74184.8
-71596.8
-68948
-66252.8
-58964.9
-50609.4
-41562.7
-32416
-23850
-16442.7
-10539.2
-6244.76
-3465.26
-1877.01
-1027.79
-565.953
-318.03
-233.72
-88968.3
-88941.2
-88836.9
-88672.7
-88435.9
-88138.8
-87771.9
-87348
-86854.2
-86307.3
-85696.1
-85030.9
-84307.9
-83537
-82707.9
-81837.8
-80917.9
-79955.1
-78951.6
-77913.2
-76833.1
-75726.5
-74588.1
-73420.2
-72230.6
-71020.3
-69786.2
-68540.1
-67280.2
-66004.4
-64726.3
-61258.6
-57797.1
-53745
-49809.4
-45315.9
-41103.1
-36438
-32232
-27738.7
-23853.7
-19862.3
-16547.8
-13285.7
-10681.4
-8241.27
-6382.88
-4750.14
-3574.33
-2616.75
-1949.57
-1436.15
-1070.94
-795.629
-590.317
-441.137
-332.197
-271.294
-244.56
-86205.5
-86081.8
-85704.5
-85079.8
-84215.8
-83125.2
-81817
-80308.3
-78619
-76761.6
-74758.6
-72633.5
-70399.5
-68080.2
-65699.5
-63269.5
-56659.6
-49005.8
-40617.1
-32012.8
-23825.6
-16631
-10811.2
-6515.21
-3682.04
-2023.02
-1115.36
-615.67
-347.12
-256.086
-83420.8
-83397
-83305.2
-83160.6
-82952
-82690.4
-82367
-81993.3
-81557.8
-81075.3
-80535.6
-79948
-79308.7
-78626.7
-77892.5
-77121.4
-76305.4
-75450.5
-74558.5
-73634.6
-72672.5
-71685.6
-70669
-69625
-68560
-67475.3
-66367.4
-65247.5
-64113.3
-62963.4
-61809.1
-58670.2
-55521.9
-51821.1
-48205.1
-44054.5
-40135.6
-35767.8
-31798.2
-27525.7
-23801.1
-19943.6
-16716.2
-13514.2
-10941.9
-8511.15
-6647.82
-4992.21
-3789.62
-2794.83
-2096.17
-1549.22
-1159.53
-861.603
-640.844
-478.925
-361.881
-295.878
-267.44
-80887.6
-80778.6
-80445.8
-79894.5
-79131.6
-78167.6
-77009.8
-75672.7
-74172.9
-72520.9
-70735.7
-68837.5
-66837.1
-64755.1
-62612.2
-60418.5
-54418.8
-47407.4
-39634.7
-31553.8
-23747.7
-16780.3
-11059.9
-6774.16
-3895.37
-2169.86
-1204.78
-666.932
-377.372
-279.469
-78339.8
-78318.9
-78237.7
-78110
-77925.6
-77694.4
-77408.5
-77078
-76692.5
-76265.5
-75787.4
-75266.7
-74699.6
-74094.5
-73442.4
-72757.1
-72031.2
-71270.2
-70475.2
-69651.2
-68791.9
-67909.9
-67000.1
-66064.9
-65109.5
-64135.5
-63139.3
-62131.1
-61108.5
-60070.5
-59026.7
-56182.5
-53317
-49935.5
-46613.3
-42780.9
-39138.5
-35053.9
-31314.2
-27259.7
-23698.1
-19979.7
-16846.6
-13712.1
-11179
-8763.7
-6900.94
-5226.59
-4001.1
-2971.48
-2243.33
-1663.47
-1249.83
-929.078
-692.868
-517.921
-392.734
-321.459
-291.367
-76005.4
-75908.9
-75614.5
-75126.5
-74450.8
-73596.1
-72568.6
-71380.2
-70045.3
-68572.5
-66977.8
-65278.8
-63484.4
-61612.4
-59680.8
-57698.1
-52248
-45824.2
-38626.8
-31048.4
-23621.9
-16892.6
-11285.3
-7021.04
-4104.52
-2316.94
-1295.71
-719.574
-408.708
-303.823
-73669.2
-73650.6
-73578.7
-73465.5
-73302.1
-73097.1
-72843.5
-72550.3
-72208.2
-71829
-71404.4
-70941.6
-70437.4
-69898.9
-69318.3
-68707.7
-68060.4
-67381.3
-66671.2
-65934.5
-65165.6
-64375.6
-63559.9
-62720.5
-61862.1
-60986
-60088.7
-59179.9
-58256.6
-57318.6
-56373.7
-53793.9
-51184.2
-48093.5
-45041
-41503.9
-38120.7
-34305.9
-30787.4
-26948.2
-23548.9
-19974.8
-16940
-13881.4
-11392
-8999.59
-7140.86
-5453.47
-4207.44
-3146.61
-2390.07
-1778.78
-1341.3
-997.999
-746.13
-558.121
-424.608
-348.059
-316.218
-71512.7
-71427.2
-71165.9
-70732.7
-70132.4
-69372.6
-68458.2
-67399.4
-66208.4
-64892.3
-63464.9
-61941.2
-60328.7
-58642.9
-56899.4
-55105.3
-50150.7
-44264.2
-37602.8
-30504.6
-23453.1
-16969.7
-11487.5
-7255.21
-4308.76
-2463.69
-1387.87
-773.515
-441.142
-329.179
-69360.1
-69343.6
-69279.7
-69179.1
-69033.9
-68851.7
-68626.2
-68365.4
-68061.1
-67723.6
-67345.4
-66933.2
-66483.7
-66003.6
-65485.4
-64940.2
-64361.7
-63754.5
-63118.9
-62459.2
-61769.8
-61061.1
-60328.4
-59573.9
-58801.4
-58012.3
-57203.2
-56382.8
-55548.4
-54699.7
-53843.5
-51501.9
-49123.9
-46298.3
-43493.9
-40230.6
-37090.8
-33531.6
-30226.3
-26597
-23359.9
-19932
-17000.2
-14022.6
-11582.8
-9218.32
-7368.65
-5671.99
-4409.11
-3319.45
-2536.53
-1894.65
-1433.97
-1068.11
-800.668
-599.406
-457.56
-375.603
-342.053
-67369
-67292.9
-67060.4
-66674.8
-66140.2
-65463
-64647.3
-63701.7
-62636.8
-61458.3
-60178.1
-58809.3
-57358
-55837.6
-54261.9
-52636.8
-48129.1
-42733.9
-36571.4
-29930.3
-23246.6
-17013.9
-11667
-7476.32
-4507.47
-2609.53
-1480.89
-828.577
-474.588
-355.486
-65381.3
-65366.6
-65309.7
-65220.1
-65090.6
-64928.2
-64727.2
-64494.8
-64223.3
-63922.2
-63584.6
-63216.5
-62815
-62385.8
-61922.4
-61434.5
-60916.5
-60372.4
-59802.4
-59210.5
-58591.4
-57954.4
-57295.2
-56616
-55919.7
-55208
-54477.3
-53735.9
-52980.9
-52212.2
-51435.7
-49308.4
-47140.2
-44556.1
-41979.6
-38969.6
-36057.2
-32739.5
-29638.4
-26212.8
-23135.8
-19854.9
-17028.7
-14136.9
-11751
-9419.72
-7583.24
-5881.55
-4604.96
-3489.31
-2681.8
-2010.59
-1527.35
-1139.18
-856.254
-641.693
-491.498
-404.075
-368.826
-63539.3
-63471.5
-63264.1
-62920
-62442.8
-61837.8
-61108.4
-60262.2
-59308
-58250.8
-57100.6
-55868.8
-54560.6
-53187.7
-51762
-50288.4
-46184.6
-41238.6
-35539.6
-29332.3
-23007.2
-17027.9
-11824.3
-7684.14
-4700.1
-2753.92
-1574.44
-884.609
-508.994
-382.716
-61698.4
-61685.3
-61634.5
-61554.4
-61438.8
-61293.8
-61114.1
-60906.4
-60663.7
-60394.5
-60092.5
-59763.2
-59403.7
-59019.3
-58604
-58166.6
-57701.8
-57213.5
-56701.5
-56169.5
-55612.5
-55039.2
-54445.3
-53833
-53204.6
-52561.9
-51901.3
-51230.4
-50546.6
-49849.8
-49144.8
-47210.8
-45233
-42869
-40501.9
-37726.1
-35026.2
-31936.1
-29029.8
-25801.2
-22881
-19747.1
-17028
-14225.8
-11897.5
-9604.12
-7784.38
-6081.91
-4794.43
-3655.77
-2825.36
-2126.28
-1621.08
-1211.04
-912.719
-684.92
-526.347
-433.457
-396.488
-59995.6
-59934.9
-59749.5
-59441.7
-59014.7
-58473
-57819.5
-57060.5
-56204
-55253.7
-54218.7
-53108.6
-51927.7
-50686.3
-49394.9
-48057.4
-44318.5
-39783.3
-34514.4
-28717.3
-22739.9
-17013.9
-11960.1
-7878.33
-4885.98
-2896.28
-1668.15
-941.441
-544.294
-410.84
-58287.3
-58275.7
-58230.1
-58158.5
-58055
-57925.1
-57764.3
-57578.2
-57360.7
-57119.5
-56848.8
-56553.5
-56231
-55886
-55513.1
-55120.3
-54702.6
-54263.5
-53802.8
-53323.8
-52822
-52305.2
-51769.4
-51216.6
-50648.8
-50067.6
-49469.7
-48862.1
-48242
-47609.7
-46969.3
-45209.6
-43404.5
-41241.1
-39066
-36506.6
-34004.6
-31128.4
-28407.2
-25368
-22600.7
-19612
-17000.9
-14290.6
-12023.1
-9771.38
-7972.08
-6272.32
-4977.1
-3818.02
-2966.72
-2241.1
-1714.85
-1283.35
-969.917
-728.922
-562.06
-463.658
-425.021
-56709.4
-56655.1
-56488.9
-56212.9
-55829.9
-55343.9
-54757.2
-54075.4
-53305.1
-52449.7
-51516.8
-50515
-49447.8
-48324
-47153.1
-45938.1
-42529.8
-38370.3
-33500.3
-28090.6
-22448.9
-16974.6
-12075.4
-8058.97
-5064.8
-3036.17
-1761.73
-998.934
-580.438
-439.829
-55120.3
-55109.9
-55069
-55004.8
-54911.8
-54795.3
-54650.9
-54484
-54288.7
-54072.1
-53828.9
-53563.7
-53273.8
-52963.7
-52628.3
-52274.9
-51898.9
-51503.5
-51088.4
-50656.6
-50203.9
-49737.4
-49253.5
-48753.8
-48240.2
-47714.2
-47172.5
-46621.6
-46058.9
-45484.7
-44902.4
-43300.5
-41652.2
-39672
-37673.3
-35313.7
-32996.2
-30320.8
-27775.3
-24917.3
-22298.7
-19452.8
-16949.8
-14332.9
-12128.8
-9921.94
-8146.43
-6452.66
-5152.68
-3975.71
-3105.56
-2354.78
-1808.46
-1355.97
-1027.78
-773.677
-598.649
-494.702
-454.463
-53656.4
-53607.6
-53458.3
-53210.4
-52866.2
-52429.3
-51901.6
-51287.9
-50594.2
-49823.1
-48981.3
-48076.1
-47110.6
-46092.5
-45030
-43925.5
-40817.1
-37001.7
-32501.6
-27457
-22138.2
-16912.5
-12171.2
-8226.2
-5236.24
-3173.23
-1854.92
-1056.96
-617.373
-469.659
-52180
-52170.7
-52133.9
-52076.2
-51992.5
-51887.8
-51757.8
-51607.6
-51431.9
-51237
-51018.1
-50779.3
-50518.3
-50239.1
-49936.9
-49618.5
-49279.4
-48922.8
-48548.2
-48158.5
-47749.5
-47328
-46890.3
-46438.2
-45973.1
-45496.5
-45005.3
-44505.4
-43994.4
-43472.5
-42942.7
-41483.4
-39977.6
-38164.4
-36327.6
-34152.4
-32006.3
-29518.9
-27139.4
-24454.5
-21979.2
-19272.9
-16876.8
-14354.4
-12215.1
-10056.2
-8306.93
-6622.62
-5320.31
-4128.32
-3241.06
-2466.87
-1901.36
-1428.65
-1086.03
-819.073
-635.966
-526.538
-484.706
-50819.3
-50775.4
-50640.9
-50417.5
-50107.5
-49713.8
-49238.3
-48685.1
-48059.4
-47363.3
-46602.7
-45784
-44909.7
-43986.4
-43021.6
-42016.9
-39180.5
-35680.2
-31522.7
-26821.3
-21811.9
-16830
-12248.5
-8379.95
-5399.81
-3306.91
-1947.35
-1115.34
-655.036
-500.298
-49446.7
-49438.3
-49405.1
-49353
-49277.5
-49183
-49065.7
-48930.3
-48771.7
-48596
-48398.5
-48183.1
-47947.6
-47695.7
-47423
-47135.6
-46829.5
-46507.5
-46169
-45816.8
-45447
-45065.7
-44669.4
-44260
-43838.4
-43406.3
-42960.4
-42506.6
-42042.1
-41567.5
-41085.1
-39755.1
-38378.9
-36718.2
-35030
-33024.9
-31038
-28726.4
-26503.5
-23983.3
-21645.8
-19075.4
-16784.6
-14356.6
-12283.3
-10174.6
-8453.97
-6782.04
-5479.88
-4275.46
-3372.97
-2577.02
-1993.35
-1501.19
-1144.56
-865.011
-673.982
-559.121
-515.744
-48181.6
-48141.9
-48020.3
-47818.4
-47538.2
-47182.6
-46753.2
-46253.7
-45688.4
-45059.4
-44371.4
-43630.3
-42837.8
-42000
-41123.1
-40208.7
-37619.5
-34407.5
-30567
-26187.5
-21473.4
-16729.3
-12308.2
-8520.29
-5555.15
-3436.78
-2038.72
-1173.92
-693.371
-531.716
-46907.9
-46900.4
-46870.2
-46823
-46754.5
-46668.9
-46562.7
-46440
-46296.5
-46137.5
-45958.9
-45764.1
-45551.2
-45323.5
-45076.9
-44817.2
-44540.4
-44249.2
-43943
-43624.3
-43289.5
-42944.2
-42585.2
-42214
-41831.6
-41439.4
-41034.4
-40622
-40199.5
-39767.6
-39328.1
-38115.2
-36856.9
-35335.3
-33783.2
-31934.9
-30095.5
-27947.8
-25872.2
-23507.9
-21302.5
-18863.2
-16675.7
-14341.1
-12334.6
-10277.4
-8587.76
-6930.41
-5631.13
-4416.42
-3500.92
-2684.67
-2084.18
-1573.24
-1203.26
-911.331
-712.69
-592.368
-547.598
-45729.6
-45693.5
-45582.8
-45399.3
-45145
-44822.8
-44434.1
-43982.2
-43470.9
-42901.7
-42278.9
-41607.4
-40888.6
-40127.8
-39330.5
-38497.7
-36133
-33185.1
-29637.6
-25559.4
-21126.3
-16613
-12351.5
-8647.45
-5702.01
-3562.45
-2128.72
-1232.54
-732.297
-563.862
-44548.4
-44541.6
-44514
-44470.8
-44408.3
-44330.2
-44233.3
-44121.6
-43991.1
-43846.6
-43684.4
-43507.8
-43314.8
-43108.6
-42885.3
-42650.1
-42399.5
-42135.9
-41858.7
-41570.1
-41266.8
-40953.8
-40628.2
-40291.6
-39944.4
-39588.2
-39220.1
-38845.1
-38460.6
-38067.3
-37666.7
-36560
-35409
-34014.5
-32587.3
-30883.3
-29180.6
-27185.7
-25248.1
-23031.5
-20951.7
-18639.1
-16551.6
-14309.7
-12369.4
-10365.6
-8707.79
-7068.2
-5773.18
-4551.35
-3624.04
-2789.83
-2173.22
-1644.84
-1261.76
-958.08
-751.855
-626.342
-580.072
-43452.8
-43419.4
-43317.5
-43149.1
-42916.7
-42623.4
-42270.4
-41860.8
-41397.7
-40882.3
-40318.1
-39709.2
-39056.8
-38365.4
-37640
-36881.2
-34720.5
-32014
-28736.9
-24940.2
-20773.3
-16482.7
-12379.1
-8761.42
-5839.99
-3683.5
-2217.09
-1291.1
-771.814
-596.754
-42356.4
-42350.1
-42324.3
-42284.3
-42226.3
-42154
-42064.7
-41962
-41842.3
-41710.2
-41562.3
-41401.5
-41226.1
-41038.9
-40836.3
-40623.2
-40396.1
-40157.4
-39906.1
-39644.7
-39369.7
-39086
-38790.5
-38485
-38169.7
-37846.1
-37511.4
-37170.2
-36820.1
-36461.8
-36096.5
-35086.3
-34033
-32754.5
-31442
-29870.9
-28294.8
-26442
-24633.9
-22556.4
-20596.4
-18405.1
-16414.9
-14263.5
-12389.6
-10439.4
-8815.28
-7195.07
-5906.72
-4679.69
-3742.71
-2892.03
-2260.71
-1715.68
-1320.25
-1005.08
-791.64
-660.931
-613.316
-41343.9
-41312.2
-41216
-41058.5
-40843.5
-40574.5
-40252.8
-39880.8
-39461.1
-38994.1
-38482.6
-37930.2
-37337.8
-36709.1
-36048.7
-35356.7
-33381.3
-30895.4
-27867.5
-24332.8
-20417.2
-16340.6
-12392.2
-8862.38
-5968.84
-3799.54
-2303.53
-1349.43
-811.842
-630.338
-40329.5
-40323.5
-40298.6
-40260.1
-40204.6
-40135.9
-40051.7
-39955.4
-39844.2
-39722.1
-39586.2
-39439
-39279.1
-39108.8
-38924.8
-38731.6
-38525.7
-38309.3
-38081.6
-37844.7
-37595.2
-37337.9
-37069.7
-36792.3
-36505.7
-36211.5
-35906.9
-35596.3
-35277.3
-34950.7
-34617.3
-33694.6
-32730.1
-31557.4
-30349.7
-28900.5
-27441.3
-25720.2
-24033
-22086
-20239.3
-18163.6
-16267.3
-14204.1
-12395.5
-10499.3
-8909.82
-7310.8
-6030.97
-4801.04
-3856.2
-2990.91
-2346.13
-1785.55
-1378.44
-1052.26
-831.913
-696.114
-647.236
-39401.7
-39369.2
-39273.1
-39120.1
-38916.7
-38667.4
-38373.1
-38035.1
-37654.6
-37231.4
-36767.7
-36266.4
-35727.9
-35155.9
-34554
-33922.6
-32115.1
-29830.4
-27031.4
-23739.8
-20060.5
-16188.4
-12391.4
-8950.45
-6088.27
-3910.23
-2387.77
-1407.42
-852.335
-664.583
-38468.3
-38462.6
-38436
-38395.8
-38339
-38269.5
-38186.6
-38093.1
-37987.3
-37872.6
-37746.6
-37611.3
-37465.1
-37310.2
-37143.3
-36968.1
-36781.6
-36585.7
-36379.4
-36164.6
-35938.4
-35704.9
-35461.3
-35209.2
-34948.6
-34680.9
-34403.5
-34120.5
-33829.5
-33531.5
-33226.9
-32383.3
-31499.5
-30423
-29311
-27973.5
-26621.8
-25022.3
-23447.5
-21622.6
-19882.7
-17916.8
-16110.4
-14132.5
-12388
-10545.8
-8991.46
-7415.42
-6145.62
-4915.18
-3964.1
-3086.26
-2429.2
-1854.32
-1436.2
-1099.55
-872.597
-731.885
-681.768
-37634.8
-37597.8
-37488.8
-37327.6
-37127.9
-36894.4
-36625.1
-36318.7
-35974.4
-35591.2
-35170.7
-34715.3
-34225.4
-33704.2
-33155.1
-32578.1
-30922.4
-28820.5
-26230.9
-23164.1
-19705.7
-16027.7
-12377.6
-9025.63
-6197.91
-4015.13
-2469.54
-1464.91
-893.234
-699.44
-36791.9
-36782.6
-36750.3
-36701
-36633.1
-36553.5
-36464.8
-36367.8
-36264.1
-36154.2
-36036.8
-35912.6
-35779.5
-35639.5
-35488.5
-35330.5
-35161.9
-34984.9
-34798
-34603.4
-34398.1
-34186.1
-33964.6
-33735.2
-33497.8
-33253.9
-33000.8
-32742.6
-32476.9
-32204.5
-31925.9
-31153.6
-30342.5
-29353
-28328
-27092.3
-25839
-24351.4
-22880.5
-21168.9
-19529.2
-17666.6
-15945.9
-14049.9
-12367.9
-10579
-9060.38
-7508.54
-6250.46
-5021.56
-4066.15
-3177.57
-2509.74
-1921.65
-1493.45
-1146.77
-913.677
-768.141
-716.896
-36097.7
-36022.2
-35862.6
-35669.2
-35464.5
-35245.9
-35002.5
-34727
-34416.8
-34070
-33688.3
-33274.1
-32827.6
-32351.9
-31850.1
-31322
-29802.8
-27866.2
-25467.6
-22607.3
-19354.5
-15859.9
-12351.3
-9087.99
-6297.55
-4113.98
-2548.66
-1521.84
-934.502
-734.867
-35340.1
-35347.8
-35280.9
-35189.2
-35093.7
-34978.1
-34870.2
-34762.3
-34655.8
-34552.8
-34445.4
-34334.9
-34216.3
-34091.8
-33956.8
-33815.2
-33663.3
-33503.5
-33334.2
-33157.7
-32971
-32778.1
-32576.3
-32367.2
-32150.5
-31927.8
-31696.5
-31460.3
-31217.1
-30967.7
-30712.3
-30003.9
-29258.2
-28347.3
-27400.8
-26257.4
-25093.8
-23708.4
-22333.2
-20726.3
-19180
-17414.2
-15774.8
-13957.1
-12335.8
-10599.2
-9116.57
-7590.1
-6345.3
-5119.95
-4162.16
-3264.65
-2587.68
-1987.44
-1550.19
-1193.91
-955.168
-804.929
-752.621
-34850
-34728.5
-34396.2
-34112.5
-33907.1
-33715.5
-33503.5
-33259.4
-32980.6
-32666.4
-32319.1
-31941.1
-31533.1
-31097.7
-30637.9
-30153.3
-28756.3
-26968.5
-24742.8
-22071.4
-19008.6
-15686.1
-12313.1
-9137.5
-6386.94
-4206.57
-2625.01
-1578.16
-976.083
-770.788
-34371.8
-34275.4
-34164.8
-33954.2
-33714.4
-33494
-33347.5
-33237.2
-33145.5
-33061.3
-32972.6
-32881.5
-32780.2
-32671.9
-32552.3
-32425.6
-32288.6
-32143.7
-31989.8
-31829
-31658.6
-31482.3
-31297.7
-31106.3
-30907.8
-30703.7
-30491.6
-30274.9
-30051.6
-29822.6
-29587.8
-28936.2
-28248.8
-27407.8
-26531.9
-25471.3
-24388.9
-23096
-21808.2
-20297.1
-18837
-17161.4
-15598.2
-13854.9
-12291.6
-10606.6
-9159.6
-7659.91
-6429.53
-5209.99
-4251.59
-3347.16
-2662.63
-2051.49
-1606.17
-1240.89
-996.846
-842.259
-788.707
-35060.7
-33885.3
-32919.5
-32608.7
-32452.5
-32313.2
-32136.6
-31920.5
-31668.2
-31381.6
-31063.6
-30717.1
-30342.6
-29942.6
-29519.7
-29073.6
-27784.7
-26129.4
-24058.8
-21558.3
-18669.5
-15507.1
-12263.1
-9173.96
-6465.8
-4292.67
-2698.46
-1633.76
-1017.85
-807.035
-34652.6
-35091.9
-34065.6
-32565.2
-32189.3
-31956
-31781.3
-31775.2
-31746.7
-31704
-31642.5
-31569.9
-31483.3
-31387.2
-31279.3
-31163.9
-31038.6
-30905.8
-30764.4
-30616.7
-30460
-30298
-30128.1
-29952.1
-29769.3
-29581.4
-29385.9
-29186.3
-28980.4
-28769.2
-28552.5
-27950.8
-27314.7
-26535.7
-25722.2
-24735.5
-23725.3
-22515.8
-21306.4
-19882.8
-18501.2
-16909.3
-15416.6
-13744.1
-12235.8
-10601.4
-9189.79
-7717.57
-6503.4
-5291.19
-4334.65
-3424.72
-2734.7
-2113.6
-1661.38
-1287.67
-1038.57
-880.205
-824.948
-36606.6
-33982.6
-31175.5
-31171
-31162.7
-31066.4
-30911
-30713
-30480.2
-30215.6
-29922.3
-29602.5
-29256.8
-28887.3
-28496.5
-28083.7
-26889.2
-25350.2
-23416.6
-21068.7
-18337.5
-15323.1
-12201.5
-9197.62
-6534.42
-4372.5
-2769.06
-1688.55
-1059.54
-843.28
-39668.4
-39048.4
-34443
-29843
-30010.6
-30344.6
-30589.2
-30598.2
-30580.8
-30541.1
-30486.4
-30413.8
-30331.3
-30239.4
-30138.1
-30029.7
-29913
-29789.3
-29658.2
-29521.1
-29376
-29225.8
-29068.6
-28905.5
-28736.3
-28562.2
-28381.1
-28196.2
-28005.3
-27809.3
-27608.2
-27049.5
-26458.1
-25732.8
-24973.8
-24051.7
-23105
-21969.4
-20829.5
-19485
-18173.5
-16659
-15230.2
-13625.3
-12168
-10583.9
-9206.02
-7763.46
-6565.55
-5363.82
-4410.1
-3497.52
-2803.06
-2173.82
-1715.47
-1334.16
-1080.67
-918.294
-861.988
-37849.9
-34650.2
-29299.3
-29733.1
-29780.1
-29689.7
-29544.6
-29362.1
-29149.1
-28907.8
-28640.4
-28349
-28033.8
-27696.8
-27339.9
-26962.6
-25868.9
-24454.6
-22669.6
-20489.1
-17933.9
-15088.1
-12110
-9209.8
-6605.06
-4461.96
-2851.86
-1755.19
-1112.16
-890.318
-35608.6
-35495.9
-32458
-28581.2
-28625.4
-28815.4
-28963.2
-28975.8
-28971.3
-28936.4
-28888
-28824.4
-28751.6
-28670
-28579.9
-28483.3
-28379.1
-28268.6
-28151.4
-28028.8
-27899
-27764.6
-27623.7
-27477.6
-27325.9
-27169.8
-27007.2
-26841.1
-26669.6
-26493.5
-26312.6
-25809.5
-25275.9
-24620.4
-23932.6
-23095.3
-22232.5
-21194.5
-20148.2
-18909
-17694.6
-16284.3
-14947
-13434.2
-12052.9
-10539.1
-9214.27
-7814.63
-6644.8
-5460.18
-4513.68
-3600.04
-2900.36
-2261.92
-1794.65
-1403.9
-1143.7
-976.225
-918.832
-31674.6
-30191.6
-28420.9
-28286
-28235.1
-28148.7
-28022.2
-27862.1
-27673.5
-27458.6
-27219.7
-26958.8
-26676.1
-26373.4
-26052.5
-25713
-24725.9
-23444.7
-21819.2
-19820.6
-17458.9
-14801.8
-11987.7
-9209.62
-6677.13
-4560.85
-2946.98
-1833.94
-1175.92
-948.251
-28521.1
-29000.2
-28788.2
-28124
-28035.3
-27795.3
-27605.4
-27561.2
-27503.5
-27462.3
-27410.1
-27355
-27290.2
-27219.8
-27140.5
-27055.9
-26963.8
-26866
-26761.6
-26652.4
-26536.3
-26416.1
-26289.9
-26158.9
-26022.6
-25882.3
-25736.2
-25586.7
-25432.2
-25273.5
-25110.3
-24656.2
-24173.6
-23579.8
-22955.1
-22193
-21405.3
-20454.9
-19493.2
-18350
-17224.2
-15911
-14658.4
-13233.9
-11924.3
-10480.2
-9206.77
-7852.28
-6710.82
-5546.71
-4608.82
-3697.2
-2993.86
-2348.13
-1873.09
-1473.75
-1207.66
-1034.92
-977.035
-27942.3
-27526.1
-27213.7
-27019.6
-26876.3
-26760.9
-26634.1
-26486.6
-26316.6
-26123.8
-25909.5
-25675.2
-25421.1
-25148.6
-24859.3
-24552.7
-23659.8
-22496.4
-21013.3
-19178.5
-16993.7
-14512.2
-11854.1
-9195.92
-6737.78
-4652.5
-3038.83
-1911.96
-1239.96
-1006.62
-26660.5
-26611.5
-26605.3
-26601.9
-26514.6
-26432.3
-26366.2
-26293.6
-26231.5
-26166.4
-26102.9
-26039.8
-25972.9
-25903.8
-25828.7
-25750.4
-25666
-25577.3
-25482.8
-25384.4
-25279.7
-25171.5
-25057.7
-24939.7
-24816.9
-24690.4
-24558.5
-24423.6
-24284.1
-24140.7
-23993.1
-23582.2
-23144.6
-22605.4
-22036.8
-21341.9
-20621.3
-19750
-18864.6
-17809.3
-16764.5
-15541.5
-14367.6
-13026.8
-11785.5
-10409.2
-9186.31
-7877.3
-6765.48
-5623.53
-4696.43
-3788.71
-3083.71
-2432.14
-1950.54
-1543.54
-1271.84
-1094.57
-1035.69
-25929
-25934.2
-25840.7
-25722.8
-25610.7
-25495.1
-25369.3
-25229.2
-25072.2
-24896.5
-24702.3
-24490.5
-24260.8
-24014.5
-23752.9
-23475.4
-22665.4
-21606.5
-20250.8
-18563.8
-16540.4
-14221.7
-11711.3
-9169.82
-6787.17
-4736.46
-3126.88
-1988.95
-1304.35
-1065.63
-25228.3
-25238.8
-25217.7
-25186.8
-25162.9
-25127.4
-25086.8
-25040.5
-24989.7
-24937.1
-24880.9
-24822.1
-24759.7
-24694.4
-24624.3
-24551.3
-24473.4
-24391.9
-24305.6
-24215.8
-24120.7
-24022.4
-23919.3
-23812.3
-23701.1
-23586.5
-23467
-23344.8
-23218.4
-23088.4
-22954.5
-22581.6
-22183.8
-21693.1
-21174.5
-20539.6
-19879.2
-19079.1
-18262.9
-17287.4
-16317.1
-15177.2
-14077
-12814.8
-11638.7
-10327.6
-9154.57
-7890.71
-6809.69
-5691
-4776.84
-3874.49
-3170.02
-2513.64
-2027.13
-1612.88
-1336.51
-1154.76
-1095.16
-24633.8
-24609.1
-24563.5
-24496.6
-24411.2
-24311.3
-24197.2
-24068.3
-23924
-23763.4
-23586.6
-23394.2
-23185.8
-22962.3
-22724.8
-22472.8
-21736.2
-20770.3
-19528.6
-17975.4
-16099.6
-13932
-11561.3
-9132.9
-6826.22
-4813.04
-3211.05
-2064.75
-1368.99
-1125.29
-24008.8
-24004.6
-23996.1
-23983.8
-23961.9
-23936.5
-23905.5
-23870.3
-23830.5
-23786.8
-23738.9
-23687.2
-23631.4
-23572.4
-23508.7
-23442.1
-23371.1
-23296.6
-23217.8
-23136
-23049.3
-22959.8
-22866
-22768.7
-22667.5
-22563.4
-22454.8
-22343.7
-22228.7
-22110.5
-21988.7
-21649.3
-21286.7
-20839.1
-20364.9
-19783.6
-19177.4
-18441.3
-17687.9
-16785
-15882.9
-14819.8
-13788.2
-12599.8
-11485.4
-10237.2
-9112.54
-7893.76
-6843.71
-5749.84
-4849.73
-3954.84
-3252.17
-2592.73
-2102.25
-1681.81
-1401.23
-1215.46
-1155.12
-23457.3
-23448.6
-23416.6
-23364.6
-23295.1
-23209.5
-23108.3
-22991.8
-22860.7
-22714.4
-22553.3
-22378.1
-22188.4
-21985
-21768.9
-21539.3
-20867.7
-19984.7
-18845.3
-17412.9
-15672.2
-13644.6
-11405.7
-9086.51
-6855.72
-4882.48
-3291.25
-2139.18
-1433.75
-1185.5
-22904.5
-22903.5
-22895.7
-22884
-22867.4
-22846.8
-22821.2
-22791.9
-22757.7
-22720.2
-22678.2
-22632.7
-22582.9
-22530
-22472.6
-22412.4
-22347.9
-22280.2
-22208.6
-22134
-22055.1
-21973.6
-21888.1
-21799.4
-21707.2
-21612.3
-21513.3
-21412.1
-21307.3
-21199.5
-21088.4
-20778.7
-20447.5
-20038.1
-19603.7
-19070.5
-18513
-17834.8
-17138.3
-16301.6
-15462.3
-14470
-13502.2
-12383
-11327.3
-10139.3
-9061.59
-7887.5
-6868.46
-5800.63
-4915.52
-4029.96
-3330.24
-2669.42
-2175.82
-1750.25
-1465.9
-1276.61
-1215.48
-22401.8
-22392.8
-22366.5
-22323.2
-22263.5
-22188.4
-22098.1
-21993.3
-21874.4
-21741.3
-21594.7
-21434.9
-21262
-21076.4
-20879.2
-20669.7
-20055.7
-19246.7
-18199.1
-16876.2
-15258.8
-13360.8
-11246.1
-9031.88
-6876.4
-4945.04
-3367.42
-2212.04
-1498.44
-1246.13
-21893.8
-21892.4
-21886
-21876.3
-21861.8
-21844
-21821.6
-21796
-21765.9
-21732.8
-21695.4
-21654.8
-21610.1
-21562.6
-21510.7
-21456.2
-21397.7
-21336.2
-21271
-21203.1
-21131.2
-21056.9
-20978.9
-20898
-20813.9
-20727.2
-20636.9
-20544.4
-20448.6
-20350.1
-20248.5
-19965.3
-19662
-19286.9
-18888.1
-18398
-17884.3
-17258.5
-16613.7
-15837.4
-15055.6
-14128.7
-13220.3
-12166
-11165.8
-10035.2
-9003.2
-7872.7
-6885.1
-5843.61
-4974.94
-4099.73
-3404.64
-2743.42
-2248.07
-1817.92
-1530.68
-1337.9
-1276.42
-21429.5
-21422.2
-21399.3
-21361.2
-21308.5
-21241.4
-21160.3
-21065.5
-20957.6
-20836.6
-20702.8
-20557.1
-20399.1
-20229.6
-20049.2
-19857.5
-19295.1
-18552.3
-17587.4
-16363.7
-14859.3
-13081.4
-11083.4
-8970.14
-6889.08
-5001.14
-3439.7
-2283.33
-1563
-1307.09
-20962.3
-20961.1
-20955.4
-20946.7
-20933.8
-20918
-20898
-20875.2
-20848.2
-20818.5
-20784.8
-20748.2
-20707.9
-20664.8
-20617.8
-20568.3
-20515.1
-20459.1
-20399.7
-20337.8
-20272.2
-20204.3
-20133.1
-20059.1
-19982.2
-19903
-19820.3
-19735.6
-19647.9
-19557.7
-19464.7
-19205
-18926.7
-18582.2
-18215.4
-17764
-17289.9
-16711.3
-16113.5
-15392.4
-14663.3
-13796.7
-12943.4
-11949.7
-11002
-9926.23
-8938.14
-7850.43
-6893.91
-5879.48
-5027.83
-4164.48
-3474.92
-2814.83
-2318.49
-1884.84
-1595.11
-1399.38
-1337.5
-20532
-20525.3
-20504.9
-20470.8
-20423.3
-20362.9
-20289.4
-20203.3
-20105.2
-19994.8
-19872.7
-19739.4
-19594.9
-19439.6
-19274.4
-19098.6
-18582.4
-17899
-17008.7
-15875
-14474
-12807.3
-10918.9
-8902.32
-6894.45
-5051.08
-3508.1
-2352.92
-1627.29
-1368.27
-20099.5
-20098.4
-20093.3
-20085.4
-20073.9
-20059.5
-20041.5
-20020.9
-19996.5
-19969.6
-19939
-19905.8
-19869.1
-19830
-19787.2
-19742
-19693.5
-19642.4
-19588.2
-19531.6
-19471.6
-19409.5
-19344.3
-19276.6
-19206.1
-19133.5
-19057.7
-18980
-18899.6
-18816.9
-18731.4
-18492.9
-18237
-17920
-17581.9
-17165.4
-16727.1
-16191.4
-15636.5
-14965.6
-14285
-13474
-12672
-11735.1
-10836.8
-9813.25
-8867.4
-7821.52
-6895.66
-5908.77
-5074.64
-4224.45
-3541.27
-2883.72
-2387.1
-1951
-1659.14
-1461
-1398.66
-19700.4
-19694.5
-19676
-19645.1
-19602
-19547.1
-19480.2
-19401.8
-19312.1
-19211.2
-19099.4
-18977.4
-18844.8
-18702.4
-18550.7
-18389.2
-17914.3
-17284.3
-16461.3
-15409.3
-14102.9
-12539.2
-10753.7
-8829.37
-6893.16
-5095.15
-3572.65
-2420.71
-1691.19
-1429.54
-19298.6
-19297.7
-19293
-19285.9
-19275.3
-19262.3
-19245.9
-19227.2
-19204.9
-19180.4
-19152.6
-19122.3
-19088.8
-19053
-19013.9
-18972.6
-18928.3
-18881.5
-18831.8
-18780
-18725
-18668
-18608.2
-18546.1
-18481.4
-18414.7
-18345.1
-18273.7
-18199.8
-18123.7
-18045.1
-17825.6
-17589.8
-17297.5
-16985.4
-16600.4
-16194.5
-15697.7
-15181.7
-14556.8
-13920.8
-13161.1
-12406.8
-11522.8
-10671.3
-9697.17
-8792.12
-7786.64
-6891.32
-5931.77
-5116.05
-4279.59
-3604.11
-2949.85
-2454.17
-2016.11
-1722.96
-1522.47
-1460.1
-18927.5
-18922.1
-18905.2
-18877.1
-18837.8
-18787.6
-18726.5
-18654.7
-18572.6
-18480.1
-18377.5
-18265.5
-18143.7
-18012.7
-17873.2
-17724.5
-17286.7
-16704.9
-15942.8
-14965.3
-13745.7
-12277.2
-10588.3
-8752.08
-6885.87
-5133.78
-3633.51
-2486.74
-1754.65
-1490.86
-18554.3
-18553.4
-18549.2
-18542.7
-18533
-18521.1
-18506.2
-18489
-18468.6
-18446.2
-18420.7
-18392.9
-18362.3
-18329.5
-18293.6
-18255.8
-18215.1
-18172.1
-18126.5
-18078.9
-18028.4
-17976
-17921
-17863.9
-17804.4
-17743
-17678.9
-17613.2
-17545.1
-17475
-17402.5
-17200.1
-16982.4
-16712.4
-16423.6
-16067.1
-15690.5
-15229
-14748.6
-14165.7
-13570.7
-12858.2
-12148.2
-11313.7
-10506.1
-9578.94
-8712.87
-7746.63
-6881.16
-5949.09
-5151.98
-4330.27
-3663.11
-3013.39
-2519.26
-2080.25
-1786.15
-1583.86
-1521.39
-18208.1
-18203.2
-18187.7
-18161.9
-18125.9
-18079.9
-18023.9
-17958
-17882.5
-17797.5
-17703.2
-17600.1
-17487.9
-17367.3
-17238.6
-17101.5
-16697.2
-16158.9
-15451.9
-14542.1
-13402.2
-12021.9
-10423.5
-8671.23
-6873.19
-5167.26
-3690.77
-2550.93
-1817.57
-1552.11
-17860.5
-17859.7
-17855.8
-17849.8
-17841
-17830.1
-17816.3
-17800.5
-17781.9
-17761.3
-17737.8
-17712.3
-17684.2
-17654
-17621
-17586.2
-17548.8
-17509.3
-17467.3
-17423.5
-17376.9
-17328.7
-17278
-17225.4
-17170.5
-17113.9
-17054.7
-16994.1
-16931.2
-16866.5
-16799.6
-16612.5
-16411.3
-16161.3
-15893.6
-15562.9
-15213
-14783.7
-14335.7
-13791.3
-13234
-12565.2
-11896.3
-11108
-10341.7
-9459.14
-8630.33
-7702.13
-6865.8
-5961.23
-5182.85
-4376.73
-3718.47
-3074.43
-2582.42
-2143.42
-1848.68
-1645.14
-1582.49
-17537.8
-17533.2
-17519
-17495.3
-17462.2
-17419.9
-17368.3
-17307.7
-17238.2
-17159.9
-17072.9
-16977.8
-16874.3
-16762.9
-16644.1
-16517.3
-16143.2
-15644.1
-14987.2
-14139.2
-13072.3
-11773.7
-10260
-8587.54
-6855.64
-5195.89
-3744.49
-2613.25
-1879.86
-1613.2
-17213.1
-17212.3
-17208.7
-17203.2
-17195.1
-17185
-17172.4
-17157.9
-17140.7
-17121.7
-17100.1
-17076.6
-17050.6
-17022.9
-16992.5
-16960.4
-16925.8
-16889.4
-16850.7
-16810.2
-16767.2
-16722.7
-16675.9
-16627.3
-16576.6
-16524.3
-16469.6
-16413.5
-16355.4
-16295.5
-16233.5
-16060.4
-15873.9
-15642.1
-15393.6
-15086.3
-14760.6
-14360.5
-13942.2
-13433.1
-12910.5
-12282.1
-11651.4
-10906.2
-10178.8
-9338.39
-8545.34
-7653.66
-6846.03
-5968.44
-5209.29
-4418.99
-3770.63
-3132.8
-2643.97
-2205.38
-1910.8
-1706.04
-1643.62
-16911.5
-16907.3
-16894.2
-16872.4
-16841.9
-16802.8
-16755.2
-16699.3
-16635.1
-16562.8
-16482.5
-16394.5
-16298.8
-16195.8
-16085.7
-15968.3
-15621.5
-15158
-14546.6
-13755
-12755.2
-11532.3
-10098.1
-8501.51
-6833.76
-5220.05
-3794.87
-2673.74
-1941.51
-1674.1
-16608.4
-16607.7
-16604.4
-16599.3
-16591.8
-16582.6
-16570.9
-16557.5
-16541.6
-16524.1
-16504.1
-16482.4
-16458.4
-16432.8
-16404.7
-16375
-16343.1
-16309.4
-16273.6
-16236.2
-16196.4
-16155.2
-16111.9
-16066.9
-16019.9
-15971.5
-15920.8
-15868.9
-15815
-15759.5
-15702
-15541.4
-15368.2
-15152.8
-14921.8
-14635.7
-14332.1
-13958.7
-13567.5
-13090.7
-12600
-12008.9
-11413.7
-10708.8
-10017.9
-9217.32
-8458.33
-7601.88
-6822.1
-5971.26
-5231.26
-4457.41
-3819.32
-3188.69
-2703.51
-2266.23
-1972.08
-1766.65
-1704.37
-16325.8
-16321.9
-16309.8
-16289.6
-16261.4
-16225.4
-16181.4
-16129.6
-16070.2
-16003.3
-15928.9
-15847.5
-15758.8
-15663.2
-15561.2
-15452.2
-15130.1
-14698.9
-14128.9
-13388.8
-12450.7
-11298.1
-9938.25
-8413.72
-6808.02
-5240.04
-3842.02
-2732.4
-2002.45
-1734.73
-16042.3
-16041.6
-16038.5
-16033.8
-16026.9
-16018.3
-16007.5
-15995.1
-15980.4
-15964.2
-15945.7
-15925.6
-15903.4
-15879.7
-15853.6
-15826.2
-15796.6
-15765.4
-15732.2
-15697.5
-15660.6
-15622.4
-15582.3
-15540.5
-15496.9
-15452
-15405
-15356.7
-15306.7
-15255.1
-15201.8
-15052.5
-14891.4
-14691
-14475.7
-14208.9
-13925.5
-13576.4
-13210.1
-12763
-12301.7
-11745.1
-11182.9
-10515.6
-9859.14
-9096.25
-8369.71
-7547.23
-6794.45
-5970.09
-5249.12
-4492.23
-3864.77
-3242.23
-2761.14
-2326.01
-2032.54
-1826.97
-1764.74
-15777.7
-15774.1
-15762.8
-15744.1
-15718
-15684.6
-15643.8
-15595.8
-15540.8
-15478.6
-15409.6
-15334
-15251.7
-15162.9
-15068.1
-14966.7
-14667
-14265.1
-13732.8
-13039.9
-12158.6
-11071
-9780.83
-8324.66
-6778.87
-5256.13
-3886.03
-2789.2
-2062.61
-1794.99
-15511.6
-15511
-15508.1
-15503.8
-15497.4
-15489.4
-15479.4
-15467.9
-15454.2
-15439.2
-15422.1
-15403.4
-15382.8
-15360.8
-15336.6
-15311.1
-15283.6
-15254.7
-15223.8
-15191.6
-15157.4
-15121.9
-15084.6
-15045.7
-15005.2
-14963.4
-14919.7
-14874.9
-14828.3
-14780.3
-14730.6
-14591.7
-14441.6
-14254.7
-14053.8
-13804.6
-13539.5
-13212.8
-12869.3
-12449.5
-12015.4
-11490.7
-10959.2
-10327
-9702.87
-8975.58
-8280.08
-7490.1
-6763.74
-5965.17
-5263.45
-4523.5
-3907.41
-3293.28
-2817.18
-2384.5
-2092.46
-1886.74
-1824.98
-15263.2
-15259.9
-15249.5
-15232.1
-15207.9
-15176.8
-15138.9
-15094.3
-15043.2
-14985.5
-14921.3
-14851
-14774.4
-14691.8
-14603.5
-14509.1
-14229.6
-13854.5
-13356.6
-12706.9
-11878
-10850.8
-9625.91
-8234.65
-6746.69
-5268.64
-3927.12
-2844.24
-2122.01
-1854.91
-15013.8
-15013.3
-15010.6
-15006.6
-15000.6
-14993.2
-14983.9
-14973.2
-14960.5
-14946.5
-14930.6
-14913.3
-14894.1
-14873.6
-14851.2
-14827.4
-14801.9
-14774.9
-14746.2
-14716.3
-14684.4
-14651.4
-14616.6
-14580.4
-14542.7
-14503.8
-14463
-14421.2
-14377.8
-14333.1
-14286.8
-14157.1
-14017
-13842.5
-13654.7
-13421.6
-13173.3
-12866.9
-12544.4
-12149.6
-11740.7
-11245.5
-10742.6
-10143.2
-9549.37
-8855.73
-8189.73
-7430.99
-6730.14
-5956.96
-5274.21
-4551.55
-3947.03
-3342.07
-2871.3
-2441.84
-2151.44
-1946.08
-1884.67
-14780
-14776.9
-14767.2
-14751.1
-14728.5
-14699.6
-14664.4
-14622.9
-14575.3
-14521.5
-14461.8
-14396.2
-14324.8
-14247.8
-14165.4
-14077.3
-13816.4
-13465.5
-12999.1
-12389.1
-11608.5
-10637.4
-9473.76
-8144.06
-6711.86
-5277.84
-3965.41
-2897.52
-2180.61
-1914.42
-14545.6
-14545.1
-14542.6
-14538.9
-14533.3
-14526.4
-14517.7
-14507.8
-14496
-14482.9
-14468.1
-14452
-14434.1
-14415
-14394.1
-14372
-14348.2
-14323.1
-14296.3
-14268.4
-14238.7
-14207.9
-14175.5
-14141.7
-14106.5
-14070.2
-14032.2
-13993.1
-13952.6
-13910.8
-13867.6
-13746.4
-13615.4
-13452.1
-13276.3
-13057.9
-12824.9
-12537.3
-12234
-11862.4
-11476.7
-11008.9
-10532.6
-9963.84
-9398.61
-8736.82
-8098.89
-7370.19
-6694
-5945.76
-5281.74
-4576.62
-3983.84
-3388.73
-2923.61
-2498.1
-2209.53
-2005.01
-1943.85
-14325.7
-14322.7
-14313.7
-14298.7
-14277.7
-14250.8
-14217.9
-14179.2
-14134.8
-14084.7
-14028.9
-13967.8
-13901.1
-13829.1
-13752.1
-13669.8
-13425.6
-13097
-12659.4
-12085.9
-11349.9
-10430.8
-9324.56
-8053.25
-6674.72
-5284
-4001.01
-2949.07
-2238.36
-1973.44
-14104.7
-14104.2
-14101.9
-14098.4
-14093.2
-14086.8
-14078.7
-14069.4
-14058.4
-14046.3
-14032.4
-14017.4
-14000.7
-13982.9
-13963.4
-13942.8
-13920.5
-13897.1
-13872.1
-13846
-13818.3
-13789.5
-13759.2
-13727.7
-13694.8
-13660.8
-13625.3
-13588.8
-13550.9
-13511.8
-13471.3
-13357.9
-13235.2
-13082.2
-12917.2
-12712.3
-12493.5
-12223.1
-11937.5
-11587.2
-11223
-10780.6
-10329.2
-9789.11
-9250.78
-8619.07
-8007.97
-7307.98
-6655.81
-5931.79
-5286.52
-4598.78
-4018.27
-3433.17
-2974.46
-2553.09
-2267.01
-2063.31
-2002.79
-13897.2
-13894.4
-13886
-13872
-13852.4
-13827.3
-13796.6
-13760.5
-13719.1
-13672.2
-13620.1
-13562.9
-13500.5
-13433.2
-13361.2
-13284.1
-13055.3
-12747
-12335.8
-11795.9
-11101.1
-10230.6
-9178.22
-7962.35
-6635.55
-5287.37
-4034.13
-2998.99
-2295.32
-2032.03
-13689
-13688.5
-13686.4
-13683.1
-13678.3
-13672.3
-13664.7
-13656.1
-13645.8
-13634.5
-13621.6
-13607.5
-13592
-13575.3
-13557.1
-13537.8
-13517
-13495.1
-13471.7
-13447.3
-13421.4
-13394.4
-13366.1
-13336.6
-13305.8
-13274
-13240.7
-13206.5
-13171
-13134.4
-13096.4
-12990.1
-12875
-12731.4
-12576.5
-12383.8
-12178
-11923.4
-11654.2
-11323.6
-10979.3
-10560.5
-10132.2
-9619.02
-9106
-8502.74
-7917.15
-7244.72
-6615.71
-5915.41
-5288.54
-4618.34
-4050.16
-3475.64
-3023.54
-2606.95
-2323.53
-2121.09
-2061.1
-13492.5
-13490
-13482.1
-13469
-13450.8
-13427.3
-13398.7
-13364.9
-13326.1
-13282.3
-13233.5
-13180
-13121.6
-13058.5
-12990.9
-12918.6
-12703.9
-12414.3
-12027.4
-11518.4
-10861.8
-10036.6
-9034.83
-7871.62
-6594.64
-5288.2
-4064.91
-3047.34
-2351.47
-2090.12
-13295.8
-13295.4
-13293.4
-13290.3
-13285.8
-13280.2
-13273.2
-13265.1
-13255.5
-13244.9
-13232.9
-13219.7
-13205.2
-13189.6
-13172.6
-13154.5
-13135.1
-13114.6
-13092.7
-13069.9
-13045.5
-13020.3
-12993.7
-12966.1
-12937.2
-12907.4
-12876.2
-12844.1
-12810.8
-12776.4
-12740.8
-12640.9
-12532.8
-12397.8
-12252.1
-12070.8
-11876.9
-11636.8
-11382.8
-11070.4
-10744.6
-10347.9
-9941.26
-9453.22
-8964.07
-8387.79
-7826.51
-7180.57
-6573.93
-5896.87
-5288.08
-4635.51
-4079.71
-3516.26
-3071.01
-2659.8
-2379.16
-2178.42
-2118.84
-13109.8
-13107.4
-13100.1
-13087.9
-13070.8
-13049
-13022.2
-12990.6
-12954.4
-12913.3
-12867.6
-12817.4
-12762.6
-12703.4
-12640
-12572.1
-12370.2
-12097.7
-11733.2
-11252.7
-10631.6
-9848.59
-8894.45
-7781.27
-6552.25
-5286.71
-4093.48
-3094.13
-2406.77
-2147.68
-12923.2
-12922.8
-12920.9
-12918.1
-12913.9
-12908.6
-12902.1
-12894.6
-12885.6
-12875.7
-12864.5
-12852.2
-12838.7
-12824.1
-12808.2
-12791.3
-12773.1
-12753.9
-12733.4
-12712
-12689.2
-12665.5
-12640.6
-12614.6
-12587.5
-12559.5
-12530.2
-12500
-12468.7
-12436.4
-12402.9
-12309
-12207.3
-12080.2
-11943
-11772.1
-11589.2
-11362.6
-11122.6
-10827.2
-10518.6
-10142.4
-9756.04
-9291.66
-8825.07
-8274.34
-7736.32
-7115.75
-6530.86
-5876.34
-5285.56
-4650.37
-4107.33
-3555.01
-3117.2
-2711.46
-2434.21
-2235.07
-2176.29
-12746.3
-12744.1
-12737.4
-12726
-12710.2
-12689.8
-12664.8
-12635.3
-12601.4
-12562.9
-12520.1
-12472.9
-12421.5
-12365.8
-12306.2
-12242.3
-12052.3
-11795.5
-11451.6
-10997.7
-10409.6
-9666.09
-8756.86
-7691.31
-6508.55
-5283.14
-4120.04
-3139.53
-2461.32
-2204.77
-12569.3
-12568.9
-12567.2
-12564.5
-12560.7
-12555.8
-12549.8
-12542.8
-12534.5
-12525.3
-12514.9
-12503.4
-12490.8
-12477.2
-12462.3
-12446.5
-12429.5
-12411.5
-12392.3
-12372.2
-12350.8
-12328.6
-12305.1
-12280.7
-12255.3
-12228.9
-12201.3
-12173
-12143.5
-12113.1
-12081.6
-11993.1
-11897.3
-11777.4
-11648
-11486.8
-11314.1
-11100
-10872.9
-10593.3
-10300.7
-9943.7
-9576.39
-9134.26
-8688.97
-8162.51
-7646.66
-7050.49
-6486.59
-5854.14
-5280.99
-4663.21
-4132.89
-3592.1
-3161.86
-2762.12
-2488.33
-2291.2
-2233.1
-12400.3
-12398.2
-12392
-12381.6
-12367
-12348.2
-12325
-12297.5
-12265.7
-12229.7
-12189.5
-12145.2
-12096.8
-12044.4
-11988.2
-11928
-11749
-11506.7
-11182
-10752.6
-10195.3
-9488.85
-8622.03
-7601.9
-6463.78
-5277.7
-4144.74
-3183.58
-2515.11
-2261.36
-12231.4
-12231.1
-12229.5
-12227.1
-12223.6
-12219.2
-12213.7
-12207.3
-12199.7
-12191.2
-12181.6
-12171
-12159.3
-12146.7
-12132.8
-12118
-12102.1
-12085.3
-12067.3
-12048.4
-12028.3
-12007.4
-11985.4
-11962.4
-11938.4
-11913.6
-11887.6
-11860.9
-11833.1
-11804.5
-11774.7
-11691.3
-11600.9
-11487.8
-11365.6
-11213.3
-11050.1
-10847.5
-10632.6
-10367.7
-10090.2
-9751.1
-9401.71
-8980.58
-8555.5
-8052.15
-7557.52
-6984.86
-6441.29
-5830.44
-5274.59
-4674.23
-4156.62
-3627.7
-3205.17
-2811.88
-2541.64
-2346.88
-2289.33
-12069.2
-12067.5
-12062.1
-12052.8
-12039.7
-12022.5
-12001.1
-11975.6
-11946
-11912.3
-11874.4
-11832.8
-11787.1
-11737.8
-11684.8
-11628
-11459
-11230.2
-10923.2
-10516.8
-9988.22
-9316.63
-8489.94
-7513.16
-6418.14
-5270.58
-4167.72
-3226.35
-2568.13
-2317.42
-11907.3
-11906.8
-11905.6
-11903.5
-11900.5
-11896.7
-11891.9
-11886.2
-11879.5
-11871.9
-11863.2
-11853.5
-11842.8
-11831.1
-11818.3
-11804.6
-11789.7
-11773.9
-11757
-11739.3
-11720.4
-11700.7
-11680
-11658.3
-11635.7
-11612.3
-11587.8
-11562.5
-11536.3
-11509.2
-11481.2
-11402.4
-11317
-11210.1
-11094.7
-10950.6
-10796.3
-10604.6
-10401
-10149.8
-9886.38
-9564.23
-9231.73
-8830.48
-8424.61
-7943.29
-7469.05
-6919.01
-6395.23
-5805.39
-5266.74
-4683.53
-4178.88
-3661.78
-3247.45
-2860.63
-2594.45
-2401.93
-2345.3
-11750.3
-11748.6
-11744.3
-11736.9
-11725.8
-11710.7
-11691.4
-11667.9
-11640.3
-11608.6
-11573
-11533.7
-11490.6
-11444
-11393.9
-11340.3
-11180.6
-10964.3
-10673.9
-10289
-9787.48
-9148.8
-8360.25
-7425.01
-6371.74
-5262
-4189.19
-3267.99
-2620.5
-2373.05
-11592.8
-11593.3
-11592.2
-11590.6
-11588.6
-11585.8
-11582.1
-11577.8
-11572.2
-11565.9
-11558.3
-11549.8
-11540.1
-11529.5
-11517.7
-11505
-11491.1
-11476.3
-11460.4
-11443.7
-11425.8
-11407.3
-11387.6
-11367.2
-11345.8
-11323.6
-11300.4
-11276.6
-11251.8
-11226.2
-11199.6
-11125.1
-11044.4
-10943.3
-10834.2
-10697.9
-10551.8
-10370.2
-10177.2
-9938.97
-9688.88
-9382.68
-9066.18
-8683.79
-8296.21
-7835.97
-7381.29
-6853.12
-6348.52
-5779.27
-5257.47
-4691.36
-4199.61
-3694.58
-3288.52
-2908.53
-2646.46
-2456.48
-2400.66
-11434.6
-11436.2
-11435.4
-11431.6
-11424.1
-11411.9
-11395
-11373.4
-11347.6
-11317.7
-11284
-11246.7
-11205.9
-11161.8
-11114.4
-11063.7
-10912.7
-10708.1
-10433.3
-10068.5
-9592.56
-8985.06
-8232.86
-7337.53
-6324.75
-5252.16
-4209.32
-3308.61
-2672.24
-2428.23
-11284.5
-11280.6
-11282.4
-11283.5
-11283
-11282.4
-11281.2
-11279.3
-11276.1
-11271.7
-11265.8
-11258.7
-11250.2
-11240.6
-11229.6
-11217.7
-11204.6
-11190.5
-11175.5
-11159.6
-11142.6
-11125
-11106.3
-11086.9
-11066.6
-11045.6
-11023.6
-11001
-10977.6
-10953.3
-10928.2
-10857.7
-10781.4
-10685.8
-10582.5
-10453.5
-10315.2
-10143.2
-9960.29
-9734.21
-9496.73
-9205.66
-8904.4
-8540
-8169.94
-7729.94
-7294.13
-6787.17
-6301.25
-5752.19
-5247
-4697.92
-4219.03
-3726.28
-3328.57
-2955.72
-2697.79
-2510.65
-2455.53
-11121.7
-11119.5
-11128.5
-11135.8
-11134.9
-11126.5
-11111.6
-11091.3
-11066.6
-11037.9
-11005.7
-10970.3
-10931.5
-10889.7
-10844.8
-10796.8
-10654
-10460.5
-10200.3
-9854.67
-9402.92
-8825.09
-8107.68
-7250.78
-6277.36
-5241.27
-4228.27
-3348.28
-2723.35
-2482.97
-10950
-10961.1
-10959.8
-10963.6
-10973.2
-10983
-10987.2
-10992.5
-10992.8
-10991.6
-10987.4
-10981.3
-10973.4
-10964
-10953.3
-10941.7
-10928.9
-10915.3
-10900.7
-10885.4
-10869.2
-10852.3
-10834.5
-10816
-10796.7
-10776.8
-10755.9
-10734.5
-10712.3
-10689.4
-10665.6
-10598.9
-10526.8
-10436.3
-10338.7
-10216.6
-10085.7
-9922.68
-9749.32
-9534.87
-9309.37
-9032.76
-8746.04
-8398.91
-8045.67
-7625.19
-7207.68
-6721.26
-6253.68
-5724.3
-5235.69
-4703.29
-4237.54
-3756.86
-3367.92
-3002.1
-2748.77
-2564.24
-2510.23
-10676
-10755.4
-10819
-10854.1
-10863.1
-10855.9
-10840.2
-10819.4
-10794.9
-10767
-10736
-10702.2
-10665.3
-10625.6
-10583.2
-10537.8
-10402.8
-10219.8
-9973.66
-9646.21
-9217.57
-8668.19
-7984.28
-7164.65
-6229.67
-5229.57
-4246.29
-3387.2
-2773.99
-2537.39
-10635.1
-10493.5
-10493.3
-10612.9
-10656.9
-10698.4
-10727.6
-10733.6
-10736.1
-10731.8
-10725.9
-10717.5
-10708.2
-10697.6
-10686.4
-10674.3
-10661.5
-10648
-10633.9
-10619.1
-10603.5
-10587.3
-10570.4
-10552.8
-10534.6
-10515.7
-10495.9
-10475.7
-10454.7
-10433
-10410.5
-10347.5
-10279.3
-10193.9
-10101.5
-9986.05
-9862.16
-9707.86
-9543.59
-9340.27
-9126.25
-8863.5
-8590.79
-8260.23
-7923.33
-7521.64
-7122.01
-6655.48
-6205.99
-5695.79
-5223.66
-4707.71
-4255.11
-3786.56
-3406.43
-3047.88
-2799.13
-2617.42
-2564.45
-9673.29
-10260.3
-10567.8
-10616.4
-10612.6
-10596.7
-10576.7
-10554.3
-10529.6
-10502.5
-10472.9
-10440.7
-10405.9
-10368.4
-10328.3
-10285.4
-10157.9
-9985.08
-9752.31
-9442.34
-9035.96
-8514.06
-7862.65
-7079.32
-6181.99
-5217.34
-4263.57
-3425.45
-2824.18
-2591.52
-7906.44
-8126.22
-9529.61
-10632.2
-10600.8
-10562.3
-10526.9
-10507.8
-10489.8
-10476.6
-10463.4
-10452.1
-10440.3
-10429.2
-10417.3
-10405.5
-10393
-10380.2
-10366.7
-10352.7
-10338
-10322.8
-10306.9
-10290.4
-10273.2
-10255.4
-10236.9
-10217.8
-10198.1
-10177.7
-10156.6
-10097.2
-10033
-9952.42
-9865.45
-9756.44
-9639.59
-9493.77
-9338.59
-9146.19
-8943.61
-8694.53
-8435.72
-8121.63
-7800.82
-7417.99
-7035.86
-6589.54
-6157.53
-5667.17
-5210.73
-4712.18
-4271.84
-3816.45
-3444.36
-3093.9
-2849.1
-2670.96
-2618.41
-6765.57
-8557.45
-10315.2
-10191.4
-10133.9
-10100
-10074.4
-10051.1
-10027.7
-10002.9
-9976.26
-9947.53
-9916.46
-9883.05
-9847.35
-9809.16
-9695.51
-9541.21
-9333.05
-9055.23
-8689.91
-8218.9
-7627.99
-6912.77
-6086.83
-5190.38
-4294.46
-3498.39
-2921.57
-2696.86
-7379.95
-7561.82
-8729.82
-9764.69
-9808.93
-9793.62
-9783.72
-9769.57
-9755.83
-9743.59
-9731.18
-9720.22
-9708.93
-9698.45
-9687.49
-9676.85
-9665.7
-9654.47
-9642.72
-9630.74
-9618.13
-9605.22
-9591.71
-9577.75
-9563.22
-9548.26
-9532.64
-9516.61
-9499.97
-9482.81
-9465.06
-9415.17
-9361.15
-9293.34
-9220
-9128.13
-9029.35
-8906.09
-8774.47
-8611.14
-8438.53
-8225.89
-8004.02
-7733.89
-7456.65
-7124.26
-6790.64
-6398.48
-6016.53
-5579.45
-5169.87
-4718.1
-4316.46
-3896.47
-3551.51
-3222.85
-2992.98
-2823.49
-2774.19
-9029.34
-9195.93
-9346.28
-9394.44
-9403.88
-9398.86
-9387.27
-9372.01
-9354.15
-9334.05
-9311.86
-9287.68
-9261.43
-9233.17
-9202.96
-9170.65
-9074.47
-8943.77
-8767.14
-8530.74
-8218.65
-7814.07
-7302.88
-6678.48
-5949.22
-5146.95
-4332.91
-3598.15
-3058.2
-2845.79
-9257.2
-9149.7
-9090.2
-9086.38
-9051.46
-9058.36
-9058.44
-9064
-9067.01
-9068.35
-9068.5
-9066.31
-9063.37
-9058.6
-9053.19
-9046.5
-9039.23
-9031.01
-9022.26
-9012.8
-9002.76
-8992.18
-8981.07
-8969.41
-8957.27
-8944.66
-8931.48
-8917.92
-8903.84
-8889.28
-8874.22
-8831.85
-8785.93
-8728.27
-8665.87
-8587.65
-8503.46
-8398.28
-8285.79
-8145.97
-7997.85
-7815
-7623.57
-7389.88
-7148.97
-6859.16
-6566.6
-6221.25
-5882.51
-5492.88
-5124.77
-4716.32
-4349.98
-3964.39
-3645.09
-3338.82
-3123.44
-2963.69
-2917.29
-8782.48
-8816.59
-8816.65
-8811.93
-8807.8
-8802.22
-8794.24
-8783.66
-8770.58
-8755.12
-8737.44
-8717.72
-8695.99
-8672.36
-8646.93
-8619.62
-8537.97
-8426.64
-8275.79
-8073.35
-7805.14
-7455.82
-7011.69
-6464.83
-5819.7
-5101.39
-4362.5
-3686.06
-3182.61
-2982.92
-8555.59
-8557.69
-8551.58
-8548.88
-8549.8
-8548.25
-8547.58
-8544.52
-8541.54
-8537.85
-8533.72
-8529.42
-8524.51
-8519.47
-8513.77
-8507.86
-8501.35
-8494.49
-8487.09
-8479.31
-8470.97
-8462.26
-8453.03
-8443.37
-8433.25
-8422.73
-8411.69
-8400.3
-8388.44
-8376.16
-8363.44
-8327.5
-8288.45
-8239.26
-8185.94
-8118.98
-8046.8
-7956.51
-7859.79
-7739.38
-7611.55
-7453.46
-7287.46
-7084.32
-6874.12
-6620.42
-6363.11
-6058.11
-5757.22
-5409.37
-5078.49
-4709.19
-4375.53
-4022.1
-3727.35
-3442.89
-3241.85
-3091.9
-3048.5
-8325.69
-8321.27
-8318.73
-8315.27
-8310.27
-8303.52
-8295.01
-8284.81
-8272.95
-8259.4
-8244.19
-8227.36
-8208.87
-8188.77
-8167.14
-8143.88
-8074.16
-7978.78
-7849.19
-7674.78
-7442.94
-7139.69
-6752.03
-6271.33
-5699.19
-5055.32
-4384.9
-3763.25
-3295.22
-3108.22
-8091.02
-8088.58
-8088.36
-8088.97
-8087.5
-8085.93
-8083.72
-8081.26
-8078.32
-8075.16
-8071.59
-8067.69
-8063.41
-8058.79
-8053.75
-8048.37
-8042.6
-8036.45
-8029.92
-8023.06
-8015.75
-8008.15
-8000.13
-7991.76
-7983
-7973.93
-7964.42
-7954.62
-7944.43
-7933.88
-7922.94
-7892.09
-7858.54
-7816.27
-7770.37
-7712.7
-7650.43
-7572.45
-7488.77
-7384.47
-7273.51
-7136.05
-6991.35
-6813.89
-6629.64
-6406.65
-6179.52
-5909.33
-5641.39
-5330.27
-5032.53
-4698.48
-4394.67
-4071.03
-3799.44
-3535.83
-3348.7
-3208.43
-3167.94
-7889.34
-7889.9
-7887.58
-7884.03
-7879.15
-7872.87
-7865.18
-7856.09
-7845.62
-7833.74
-7820.47
-7805.85
-7789.83
-7772.45
-7753.76
-7733.68
-7673.52
-7591.16
-7479.06
-7327.83
-7126.22
-6861.53
-6521.51
-6097.24
-5588.31
-5010.12
-4401.54
-3830.78
-3396.6
-3221.96
-7688.75
-7689.13
-7688.54
-7687.58
-7686.58
-7685.06
-7683.27
-7681.14
-7678.66
-7675.9
-7672.78
-7669.36
-7665.58
-7661.52
-7657.08
-7652.38
-7647.31
-7641.94
-7636.22
-7630.23
-7623.86
-7617.23
-7610.25
-7602.96
-7595.35
-7587.46
-7579.2
-7570.69
-7561.84
-7552.68
-7543.19
-7516.43
-7487.33
-7450.68
-7410.85
-7360.79
-7306.69
-7238.88
-7166.02
-7075.1
-6978.21
-6858
-6731.17
-6575.33
-6413.05
-6216.17
-6014.87
-5774.67
-5535.36
-5256.41
-4988
-4685.5
-4408.75
-4112.45
-3862.39
-3618.49
-3444.63
-3313.76
-3276.04
-7517.03
-7516.09
-7514.25
-7511.21
-7506.92
-7501.4
-7494.65
-7486.68
-7477.51
-7467.11
-7455.52
-7442.76
-7428.79
-7413.65
-7397.38
-7379.9
-7327.55
-7255.86
-7158.17
-7026.17
-6849.74
-6617.37
-6317.58
-5941.46
-5487.17
-4966.73
-4413.66
-3889.69
-3487.42
-3324.66
-7343.32
-7343.08
-7342.67
-7342.04
-7341
-7339.72
-7338.11
-7336.26
-7334.09
-7331.67
-7328.93
-7325.93
-7322.63
-7319.07
-7315.18
-7311.06
-7306.62
-7301.92
-7296.93
-7291.68
-7286.11
-7280.31
-7274.2
-7267.83
-7261.18
-7254.28
-7247.06
-7239.62
-7231.89
-7223.89
-7215.6
-7192.22
-7166.79
-7134.75
-7099.94
-7056.16
-7008.82
-6949.44
-6885.57
-6805.79
-6720.66
-6614.89
-6503.09
-6365.47
-6221.81
-6047.12
-5867.94
-5653.54
-5439.06
-5188.21
-4945.68
-4671.25
-4418.86
-4147.47
-3917.24
-3691.74
-3530.35
-3408.49
-3373.35
-7194.6
-7194.16
-7192.53
-7189.82
-7186.04
-7181.19
-7175.26
-7168.26
-7160.22
-7151.1
-7140.93
-7129.74
-7117.49
-7104.22
-7089.96
-7074.64
-7028.75
-6965.88
-6880.14
-6764.11
-6608.73
-6403.48
-6137.72
-5802.69
-5395.58
-4925.76
-4422.25
-3940.98
-3568.46
-3416.94
-7045.18
-7045.11
-7044.71
-7044.08
-7043.19
-7042.06
-7040.66
-7039.03
-7037.12
-7034.99
-7032.59
-7029.94
-7027.04
-7023.9
-7020.49
-7016.86
-7012.96
-7008.82
-7004.42
-6999.81
-6994.91
-6989.8
-6984.43
-6978.83
-6972.97
-6966.91
-6960.56
-6954.01
-6947.21
-6940.17
-6932.88
-6912.3
-6889.93
-6861.72
-6831.08
-6792.51
-6750.79
-6698.42
-6642.05
-6571.58
-6496.29
-6402.65
-6303.49
-6181.26
-6053.39
-5897.59
-5737.34
-5545.12
-5352.15
-5125.8
-4906.01
-4656.48
-4425.89
-4177.04
-3964.93
-3756.47
-3606.7
-3493.35
-3460.6
-6917.02
-6916.53
-6915.1
-6912.72
-6909.38
-6905.11
-6899.87
-6893.7
-6886.59
-6878.55
-6869.57
-6859.7
-6848.89
-6837.17
-6824.59
-6811.07
-6770.55
-6715.02
-6639.23
-6536.54
-6398.77
-6216.36
-5979.41
-5679.46
-5313.07
-4887.53
-4428.12
-3985.56
-3640.56
-3499.58
-6788.16
-6788.07
-6787.72
-6787.18
-6786.38
-6785.38
-6784.14
-6782.7
-6781.01
-6779.12
-6776.99
-6774.65
-6772.07
-6769.3
-6766.27
-6763.06
-6759.61
-6755.94
-6752.05
-6747.96
-6743.62
-6739.1
-6734.35
-6729.38
-6724.19
-6718.82
-6713.19
-6707.4
-6701.37
-6695.13
-6688.67
-6670.44
-6650.61
-6625.6
-6598.42
-6564.2
-6527.18
-6480.67
-6430.58
-6367.91
-6300.88
-6217.43
-6128.96
-6019.74
-5905.27
-5765.57
-5621.53
-5448.39
-5274.05
-5069.02
-4869.2
-4641.69
-4430.55
-4202.01
-4006.36
-3813.57
-3674.52
-3569.17
-3538.61
-6677.29
-6676.88
-6675.61
-6673.49
-6670.53
-6666.72
-6662.07
-6656.59
-6650.28
-6643.13
-6635.15
-6626.38
-6616.77
-6606.36
-6595.17
-6583.16
-6547.13
-6497.73
-6430.26
-6338.74
-6215.78
-6052.65
-5840.15
-5570.2
-5238.97
-4852.15
-4431.89
-4024.31
-3704.61
-3573.46
-6566.02
-6565.94
-6565.63
-6565.14
-6564.43
-6563.54
-6562.44
-6561.15
-6559.64
-6557.96
-6556.06
-6553.97
-6551.68
-6549.2
-6546.51
-6543.64
-6540.56
-6537.29
-6533.82
-6530.17
-6526.3
-6522.27
-6518.03
-6513.6
-6508.97
-6504.18
-6499.16
-6493.99
-6488.61
-6483.04
-6477.28
-6461
-6443.31
-6420.97
-6396.71
-6366.13
-6333.04
-6291.45
-6246.64
-6190.52
-6130.47
-6055.62
-5976.19
-5878.01
-5774.96
-5649.01
-5518.88
-5362.18
-5203.98
-5017.54
-4835.24
-4627.19
-4433.39
-4223.13
-4042.38
-3863.97
-3734.76
-3636.89
-3608.31
-6469.66
-6469.29
-6468.15
-6466.26
-6463.6
-6460.2
-6456.04
-6451.14
-6445.49
-6439.09
-6431.96
-6424.11
-6415.51
-6406.19
-6396.18
-6385.42
-6353.17
-6308.91
-6248.43
-6166.33
-6055.88
-5909.08
-5717.43
-5473.23
-5172.44
-4819.53
-4434.05
-4058.06
-3761.59
-3639.55
-6373.15
-6373.07
-6372.8
-6372.36
-6371.72
-6370.92
-6369.93
-6368.77
-6367.42
-6365.91
-6364.2
-6362.33
-6360.27
-6358.05
-6355.62
-6353.05
-6350.28
-6347.35
-6344.23
-6340.96
-6337.48
-6333.86
-6330.05
-6326.07
-6321.92
-6317.61
-6313.1
-6308.45
-6303.62
-6298.62
-6293.44
-6278.82
-6262.92
-6242.84
-6221.02
-6193.51
-6163.75
-6126.3
-6085.96
-6035.39
-5981.25
-5913.71
-5841.98
-5753.21
-5659.94
-5545.79
-5427.66
-5285.18
-5141.02
-4970.84
-4803.97
-4613.18
-4434.85
-4241.05
-4073.81
-3908.59
-3788.41
-3697.52
-3670.73
-6288.6
-6288.27
-6287.25
-6285.54
-6283.15
-6280.09
-6276.35
-6271.93
-6266.84
-6261.08
-6254.66
-6247.58
-6239.84
-6231.45
-6222.43
-6212.74
-6183.67
-6143.78
-6089.22
-6015.11
-5915.3
-5782.46
-5608.7
-5386.73
-5112.47
-4789.44
-4435
-4087.62
-3812.5
-3698.93
-6204.2
-6204.13
-6203.88
-6203.48
-6202.91
-6202.18
-6201.29
-6200.24
-6199.02
-6197.66
-6196.12
-6194.42
-6192.56
-6190.55
-6188.37
-6186.04
-6183.54
-6180.89
-6178.07
-6175.11
-6171.97
-6168.7
-6165.26
-6161.66
-6157.91
-6154.01
-6149.94
-6145.74
-6141.37
-6136.85
-6132.17
-6118.94
-6104.57
-6086.41
-6066.68
-6041.79
-6014.86
-5980.95
-5944.42
-5898.58
-5849.51
-5788.23
-5723.12
-5642.46
-5557.64
-5453.7
-5346
-5215.94
-5084.1
-4928.25
-4775.07
-4599.69
-4435.25
-4256.39
-4101.45
-3948.39
-3836.52
-3752.18
-3727
-6128.84
-6128.54
-6127.61
-6126.07
-6123.91
-6121.13
-6117.74
-6113.74
-6109.14
-6103.92
-6098.11
-6091.7
-6084.69
-6077.09
-6068.91
-6060.14
-6033.8
-5997.65
-5948.18
-5880.94
-5790.31
-5669.54
-5511.33
-5308.81
-5057.92
-4761.48
-4435.02
-4113.8
-3858.46
-3752.82
-6053.94
-6053.88
-6053.65
-6053.29
-6052.77
-6052.11
-6051.3
-6050.35
-6049.24
-6048
-6046.61
-6045.07
-6043.38
-6041.56
-6039.57
-6037.46
-6035.19
-6032.78
-6030.23
-6027.54
-6024.69
-6021.72
-6018.59
-6015.32
-6011.92
-6008.38
-6004.68
-6000.87
-5996.9
-5992.8
-5988.55
-5976.53
-5963.48
-5946.97
-5929.05
-5906.42
-5881.94
-5851.1
-5817.88
-5776.16
-5731.51
-5675.67
-5616.35
-5542.77
-5465.37
-5370.41
-5271.93
-5152.86
-5032
-4888.97
-4748.09
-4586.66
-4434.87
-4269.72
-4126.11
-3984.39
-3880.25
-3802.1
-3778.4
-5985.09
-5984.81
-5983.97
-5982.57
-5980.61
-5978.09
-5975.01
-5971.37
-5967.19
-5962.45
-5957.16
-5951.34
-5944.96
-5938.06
-5930.63
-5922.65
-5898.71
-5865.83
-5820.83
-5759.62
-5677.07
-5566.97
-5422.54
-5237.37
-5007.49
-4735.17
-4434.36
-4137.42
-3900.68
-3802.54
-5917.06
-5917
-5916.8
-5916.47
-5916
-5915.4
-5914.66
-5913.79
-5912.79
-5911.66
-5910.39
-5908.99
-5907.45
-5905.79
-5903.98
-5902.06
-5900
-5897.8
-5895.48
-5893.03
-5890.44
-5887.73
-5884.89
-5881.92
-5878.82
-5875.6
-5872.23
-5868.76
-5865.15
-5861.41
-5857.55
-5846.6
-5834.72
-5819.68
-5803.37
-5782.75
-5760.46
-5732.34
-5702.08
-5664.03
-5623.32
-5572.35
-5518.22
-5451
-5380.28
-5293.41
-5203.28
-5094.19
-4983.33
-4852.03
-4722.46
-4573.95
-4433.9
-4281.6
-4148.62
-4017.66
-3920.86
-3848.65
-3826.35
-5851.87
-5851.61
-5850.85
-5849.57
-5847.79
-5845.5
-5842.7
-5839.39
-5835.59
-5831.28
-5826.47
-5821.18
-5815.38
-5809.1
-5802.34
-5795.09
-5773.32
-5743.4
-5702.45
-5646.73
-5571.53
-5471.16
-5339.35
-5170.14
-4959.69
-4709.86
-4433.19
-4159.36
-3940.5
-3849.63
-5787.93
-5787.87
-5787.68
-5787.38
-5786.95
-5786.41
-5785.74
-5784.95
-5784.04
-5783.01
-5781.86
-5780.58
-5779.19
-5777.68
-5776.04
-5774.29
-5772.42
-5770.42
-5768.31
-5766.09
-5763.73
-5761.27
-5758.69
-5755.98
-5753.17
-5750.24
-5747.18
-5744.02
-5740.75
-5737.35
-5733.84
-5723.88
-5713.09
-5699.4
-5684.59
-5665.81
-5645.57
-5619.96
-5592.45
-5557.79
-5520.75
-5474.31
-5425.02
-5363.71
-5299.24
-5219.94
-5137.65
-5037.95
-4936.54
-4816.35
-4697.54
-4561.33
-4432.56
-4292.58
-4169.97
-4049.36
-3959.87
-3893.28
-3872.53
-5723.24
-5723.01
-5722.32
-5721.16
-5719.55
-5717.48
-5714.94
-5711.95
-5708.51
-5704.61
-5700.25
-5695.46
-5690.21
-5684.53
-5678.41
-5671.85
-5652.14
-5625.04
-5587.95
-5537.45
-5469.26
-5378.18
-5258.46
-5104.57
-4912.88
-4684.86
-4431.8
-4180.72
-3979.6
-3895.96
-5659.92
-5659.87
-5659.7
-5659.43
-5659.05
-5658.56
-5657.95
-5657.24
-5656.42
-5655.49
-5654.45
-5653.3
-5652.05
-5650.69
-5649.21
-5647.63
-5645.94
-5644.15
-5642.24
-5640.24
-5638.11
-5635.89
-5633.56
-5631.13
-5628.59
-5625.95
-5623.19
-5620.34
-5617.38
-5614.32
-5611.15
-5602.18
-5592.44
-5580.11
-5566.72
-5549.8
-5531.51
-5508.43
-5483.56
-5452.3
-5418.8
-5376.88
-5332.27
-5276.89
-5218.49
-5146.76
-5072.15
-4981.79
-4889.73
-4780.55
-4672.56
-4548.44
-4431.28
-4303.2
-4191.63
-4080.66
-3999.54
-3937.46
-3919.56
SCALARS Stress_Shear double 1
LOOKUP_TABLE default
7.18671e+06
3.09826e+06
26643.4
162297
-43371.9
47500
-17961.5
16062.1
-11988.7
8475.32
-8388.65
4840.63
-6197.43
3436.18
-4641.18
2289.47
-3741.47
1544.72
-3074.71
1286.63
-2604.68
809.994
-2430.8
279.6
-2418.03
84.5315
-3390.97
-2471.42
-6207.42
8963.86
4013.03
-2377.25
-5355.06
1802.75
-3903.87
356.558
-2231.44
486.521
-1682.71
308.331
-1219.62
270.785
-899.273
186.072
-293.591
45.6378
-223.423
87.283
-104.938
17.105
-41.9897
19.1878
-30.7949
10.483
-18.9604
7.62318
-14.232
6.22264
-23.8397
2.71701e+06
422495
255842
129700
78449.4
51988.8
36925.3
27600.6
21471.1
17230.4
14269.6
12263.8
10992.5
11233.6
14287.8
25824.2
1106.36
383.387
8.71704
-162.59
-193.352
-141.574
573.657
-103.435
-8.04672
-5.32268
-4.46671
-6.77951
-10.037
-23.9963
-751854
309377
1.03235e+06
612949
503315
363599
272853
210968
166779
135942
111895
93863.6
79823.3
68484.8
59789.6
52285.9
46601.9
41423.3
37520
33844.6
31211.9
28735.6
27009.2
25575.9
24768.3
24971.3
25518.1
28431
35119.9
38760.7
46808.6
25374.9
8764.55
7406.43
4591.37
4423.3
2267.46
2558.24
1281.9
1649.13
719.299
1086.79
359.622
1146.64
1185.44
731.484
-120.09
208.652
14.8336
147.403
9.07205
91.6535
5.95409
54.8979
-4.50965
28.3013
-11.6663
12.3322
-24.15
-392888
464547
403274
283869
198519
142627
106432
82232.5
65605.5
53985.2
45921.3
40697.2
38216.2
39149
43985
47850.7
18305
7971.4
4257.83
2394.95
1363.7
758.126
1479.03
-58.6343
22.0585
33.0231
18.1423
-0.565454
-12.5609
-24.5671
180549
202739
249967
327213
334826
314694
292740
255086
223527
195447
169434
149608
130607
116820
103184
93483.7
83646.7
76843.1
69762.2
65045.8
60062.3
57030.1
53749.1
52290.8
50736.7
50715.9
50793.2
51745.3
52991.4
53096.9
51695.2
39365
26219.2
18708.6
11709.2
9792.17
6375.31
5690.73
3683.69
3505.74
2214.36
2311.51
1450.08
2227.96
2015.23
1409.21
153.146
476.539
107.353
288.027
76.7828
179.41
42.3422
104.677
9.71638
52.8441
-10.2437
20.0192
-24.9806
79315.9
174867
256275
250125
212527
173292
140569
115165
95981.7
81773.7
71545
64637.3
60672.6
59074.9
58263
55348.3
32359.7
16052.5
8756.85
5101.48
3112.07
2123.12
2420.67
407.943
200.887
129.05
69.2017
21.5008
-7.23902
-25.4351
-15845.5
61469.3
134907
170599
209026
216160
223846
213874
205440
190348
177348
162603
149663
137291
126179
116373
107439
99922.2
93010.6
87432
82309.4
78365.1
74792.1
72203.6
69956.2
68295.3
66937.1
65482.8
64286.4
62081.5
60114.4
49493.9
38243.4
28499.4
19908.2
15731.5
11027.2
9148.16
6441.85
5587.01
3947.03
3645.36
2773.69
3160.53
2832.66
2005.56
668.189
751.851
302.185
435.526
183.793
267.053
99.3382
153.007
35.664
75.7902
-2.77114
26.9431
-25.8861
-11716
99272.6
164238
187513
183652
167241
147406
128582
112427
99306.6
89105
81499.6
76015.5
71883.8
67894.7
62992.4
42436
23751.3
13426.4
7899.88
4866.28
3426.02
3193.57
950.135
419.303
245.391
132.276
51.171
2.32128
-26.2981
4656.06
40591.8
76442.8
106777
132630
148477
161511
164859
167441
163435
159688
152531
146001
138201
131051
123805
117140
110922
105193
100124
95455.4
91456.2
87788.9
84658.7
81796.7
79197.4
76777.4
74275
71851.2
69050.3
66266.4
56584.7
46563.2
36508.1
27360
21543.4
15760.2
12788.9
9337.98
7850.42
5765.81
5121.84
4067.32
4095.08
3555.94
2605.42
1226.13
1075.67
535.006
603.096
308.275
361.147
166.45
203.356
67.767
99.0204
8.18095
33.674
-26.7073
2085.97
61794.4
109358
137585
148069
146531
138477
127821
116885
106833
98153.8
90901.2
84825.6
79430
74060.1
68292.3
49448.9
30529.8
18069.8
10826.7
6723.86
4709.69
3899.63
1511.45
667.115
376.598
203.131
85.4496
14.5002
-27.0519
705.608
25379.1
50352.7
71525.5
91807.4
106023
119312
126494
132991
134664
136110
134216
132474
128747
125322
120929
116899
112510
108492
104460
100760
97191
93908.9
90748.6
87820.8
84905.4
82154.6
79265.8
76487.8
73444.3
70522.9
61421.7
52334.2
42582.2
33552.9
26733.6
20289.2
16362.9
12286.8
10169.9
7666.37
6655.76
5347.5
5030.95
4248.05
3208.67
1792.03
1438.89
796.945
789.451
446.348
462.676
240.489
256.702
103.759
123.276
21.2969
40.5269
-27.3957
-212.011
42036
77875.4
103332
118071
123944
123581
119478
113528
106947
100440
94310.4
88561.7
83008.4
77373.7
71536.4
54203.5
35998.2
22358.4
13734.2
8633.15
5980.57
4589.84
2075.41
941.502
520.842
280.179
123.054
28.4944
-27.6717
286.727
18033.1
35732.6
51612.1
66890.3
79117.9
90639.8
98633.6
106054
110199
114021
115177
116253
115414
114631
112615
110755
108143
105742
102923
100314
97482
94846.1
92057.6
89439
86668.4
84024.8
81202.4
78473.7
75542.3
72730.8
64344.5
56120.3
46940.3
38368.1
31100.3
24353.7
19702.3
15151.3
12461.6
9586
8196.85
6611.88
5964.24
4937.63
3813.12
2356
1829.46
1083.97
992.397
596.575
571.645
320.285
313.319
142.719
148.854
35.9661
47.6428
-27.9488
4.75449
30793.6
58170.3
79856.3
94959.8
103900
107805
108063
105941
102396
98097.8
93438.6
88581.1
83549
78293.3
72859.1
57175.3
40146.9
26111.6
16501.7
10531.1
7230.87
5281.99
2635.36
1238.44
676.614
362.581
163.349
43.8663
-28.1621
214.246
13467.7
26761.7
39052.7
51049.6
61210.8
71007.2
78578.1
85771.4
90742
95434.3
98123.4
100671
101594
102464
102123
101815
100624
99530.2
97819.9
96221.1
94196.6
92290.4
90061.1
87946.1
85565.5
83277.4
80758.6
78319
75672.8
73151.9
65617.6
58292.3
49826.8
41889.9
34571.3
27812.4
22682.2
17820.3
14648
11461.2
9704.36
7847.7
6887.11
5631.25
4415.34
2912.95
2236.44
1390.99
1209.1
757.498
687.347
405.139
372.999
184.192
175.744
51.9101
55.0264
-28.3785
-18.3556
23551.7
45200.9
63427.7
77477.2
87280.7
93250.6
96094.1
96577.4
95359.1
92973.1
89796.2
86052
81871.5
77326.4
72556.4
58683.4
43088.3
29236.3
19035.2
12359.6
8446.34
5977.32
3187.23
1552.67
842.275
449.679
205.933
60.3446
-28.5381
80.4567
10492.2
20897.9
30686.4
40305.4
48797.8
57057.3
63886.5
70453.5
75496.5
80322.2
83666.3
86868.5
88765.1
90568.4
91301.1
92003.4
91840.6
91701.8
90891
90122.3
88841.4
87619.2
85987.5
84423.7
82528.7
80692.7
78587.9
76541.1
74272.3
72123.6
65540.7
59147.4
51483.2
44276
37176
30618.3
25235.6
20219.2
16671.4
13242.2
11148.3
9041.61
7791.9
6326.68
5012.66
3460.25
2652.07
1712.63
1437.18
927.558
809.172
494.431
435.583
227.822
203.943
68.8731
62.7245
-28.703
-27.4907
18687.4
36193.7
51547.2
64149.7
73788.2
80553.1
84775.1
86887.3
87309.1
86428.2
84558.3
81921.8
78686.7
74977.6
70982.1
59005.2
44980.2
31712.7
21273.9
14074.3
9612.86
6671.05
3728.48
1879.01
1016.28
540.943
250.537
77.7574
-28.8178
51.901
8432.43
16809
24795.9
32679
39824.1
46823.6
52859.4
58714.7
63499.1
68120
71641.9
75040.5
77411.1
79681.5
81050.4
82361.5
82891.4
83405.3
83269.7
83133.6
82471.3
81827.4
80745.6
79697.3
78289.3
76913.2
75246.6
73618.2
71752.7
70000.2
64400.2
58941.1
52121.7
45688.2
38982.8
32775.5
27330.8
22298.4
18486.1
14888.2
12502
10178.1
8667.87
7016.13
5600.47
3994.9
3069.66
2043.28
1673.85
1104.86
936.215
587.406
500.769
273.222
233.365
86.6025
70.7716
-28.9403
-21.9499
15215.7
29668.4
42692.8
53837.3
62868.9
69742.2
74589.2
77640
79146.6
79375
78566.5
76912.7
74579.4
71704.4
68492.2
58396.3
45990.6
33568.8
23186.1
15642.8
10717.5
7356.08
4256.91
2212.52
1197.01
635.818
296.917
95.9706
-29.0179
24.0449
6933.84
13834.1
20470.7
27041.2
33108.6
39079.2
44378.8
49550
53950.9
58229.1
61683.1
65035.9
67582.9
70036.8
71748.6
73394.7
74364.3
75298.6
75642.8
75962.8
75783.2
75596.9
74980.4
74373.7
73405.7
72449.1
71196.7
69965.5
68490.1
67118.7
62475.6
57915.4
51948
46293.8
40092.7
34330.3
28975.1
24039.7
20069
16374.4
13748.4
11246.3
9506.75
7692.94
6175.19
4515.7
3484.69
2379.05
1916.53
1288.44
1067.53
683.961
568.152
320.467
263.825
105.247
79.0264
-29.105
-21.5648
12638.4
24757.3
35890.3
45696.1
53962
60591.8
65616.7
69148.5
71329.9
72336.1
72343.5
71504.5
69964.8
67854.2
65375.3
57066.5
46267.1
34851.6
24758
17042.1
11747.8
8023.78
4770.14
2548.92
1382.93
733.775
344.863
114.883
-29.1524
12.8392
5804.27
11585.9
17183.7
22736.7
27933.9
33064.2
37712.7
42267.5
46255.3
50150
53418.5
56605.1
59158.9
61630.9
63498.2
65301.2
66531.3
67718.9
68388.2
69021.8
69201.5
69360.3
69116.8
68867.8
68273.1
67675.5
66789.2
65911.1
64790.2
63763.7
60009.9
56285.1
51145
46249.4
40611.4
35348.7
30194.9
25445
21410.3
17686.2
14875.9
12237
10301.2
8349.78
6733.43
5020.78
3893.82
2715.89
2163.25
1476.47
1202.52
783.291
637.625
369.127
295.336
124.479
87.612
-29.2118
-19.0431
10661.3
20955.8
30545.2
39169.7
46647.3
52869.4
57818.6
61539.6
64106.9
65632
66239.3
66044.2
65166.3
63718.5
61890.9
55217
45957
35628.5
25996.6
18260.1
12694.7
8666.73
5265.98
2884.44
1572.48
834.251
394.159
134.406
-29.2343
5.3184
4926.58
9837.84
14615.8
19362.6
23849.6
28288.9
32372.8
36386.6
39974.3
43490.3
46523.9
49491.6
51959.4
54357.2
56263.6
58111.2
59479.1
60803.6
61681.9
62520.1
62956.8
63365.4
63409.1
63438.2
63146.9
62843.4
62266.8
61689.1
60876.7
60149.4
57194.2
54222.9
49863.1
45685
40633.8
35894.9
31022.7
26523.2
22506.2
18812.8
15873.7
13140.2
11042.1
8978.27
7269.92
5507.31
4293.19
3050.08
2411.26
1667.36
1340.03
884.846
708.705
419.027
327.694
144.278
96.446
-29.2713
-17.0531
9105.34
17942.9
26261.3
33860.3
40588.1
46339.9
51077.1
54807.5
57564.2
59415.5
60446.9
60742.4
60396.2
59502
58232.1
53011.3
45188.3
35969.4
26919.3
19292.1
13551
9277.95
5742.13
3215.81
1764.1
936.658
444.579
154.452
-29.2732
1.31951
4228.64
8446.46
12565
16661.1
20562.5
24428.9
28027.2
31571.7
34790
37952.4
40738.2
43470.8
45805.5
48081.1
49956.9
51780.7
53205
54588.1
55591.1
56554.1
57167.3
57749.7
58007.4
58245.7
58193.2
58123.1
57800.4
57470.1
56918.3
56442.9
54185.6
51877.8
48236
44721.2
40254.6
36040.5
31502.5
27297.6
23365.5
19753.8
16738.6
13950.7
11723.9
9572.33
7780.98
5973.33
4680.26
3378.85
2658.46
1859.72
1479.16
988.132
781.05
470
360.768
164.606
105.483
-29.2922
-15.2918
7854.99
15509.3
22771.7
29486
35527
40799.9
45258.4
48891.4
51707.2
53745.6
55063.9
55721.2
55790.1
55345.4
54540.2
50581
44070.4
35942.1
27550.5
20138.9
14311.4
9851
6196.04
3540.07
1956.19
1040.35
495.87
174.929
-29.277
-0.913823
3663.72
7319.61
10899.8
14463.3
17877.8
21265.8
24447.5
27587.2
30473.1
33314.7
35858.5
38359.3
40540.8
42672.5
44477.9
46238.1
47665.9
49056.2
50124.4
51154.6
51883
52580.6
52992.7
53383.3
53513.9
53624
53504.1
53372.6
53035.7
52766.9
51106.1
49370.5
46375.6
43461.9
39558.4
35853.6
31679.4
27795.8
24001.2
20512.8
17469
14664.3
12341.2
10125.9
8262.45
6416.14
5052.2
3699.22
2902.58
2051.77
1618.85
1092.35
854.246
521.694
394.405
185.288
114.721
-29.2817
-13.746
6833.48
13513.2
19890.9
25843.3
31267.3
36079.8
40234
43709.4
46500.3
48627.9
50129.3
51045.1
51429.7
51342.1
50915.9
48032.1
42698.7
35613.2
27920.8
20808
14974.2
10381.5
6625.92
3855.03
2147.41
1144.78
547.832
195.769
-29.2524
-2.29331
3198.55
6391.32
9525.25
12646.5
15651.6
18636.2
21459.6
24249.5
26839.3
29393.4
31709.7
33990.7
36013.7
37994.7
39708.4
41383
42780.8
44145.3
45237.5
46294.8
47093
47861.9
48381.6
48879.5
49147.1
49393.2
49432.4
49457.6
49294.7
49192.6
48034
46784.8
44364.1
41987.6
38615
35393.7
31596.8
28047.6
24430.4
21098.2
18067.9
15279.8
12891.1
10635
8711.54
6834.12
5407.26
4009.35
3141.99
2242.35
1758.35
1197.05
927.999
573.945
428.5
206.27
124.138
-29.2453
-12.2089
5987.62
11855.3
17486.1
22781.7
27657.1
32040.5
35888.1
39175.2
41888.7
44037.8
45645.6
46738.9
47358.1
47548.4
47425.9
45445
41152.2
35042.7
28062.7
21310.2
15539.9
10866.2
7030.19
4158.83
2336.51
1249.41
600.26
216.901
-29.2038
-3.18799
2811.28
5618.24
8378.68
11129.3
13788
16430.6
18945.4
21433.1
23760.9
26060
28166.9
30244.9
32112.6
33945.1
35557.2
37135.9
38483.4
39801.7
40889.8
41946.5
42781.4
43589
44180.2
44750.4
45117.7
45463.7
45625
45771.2
45746.8
45776.6
45034.2
44192.3
42273.8
40370.4
37488.5
34717
31297.4
28084.2
24672.9
21520.4
18539.7
15797.2
13371.4
11095.8
9125.2
7224.95
5743.26
4307.02
3374.75
2429.98
1896.56
1301.58
1001.82
626.522
462.846
227.518
133.647
-29.1868
-10.9071
5279.45
10463.8
15459.7
20187.9
24578.1
28568.6
32119.8
35206.3
37811
39935.7
41594
42802.7
43591
43993.6
44110.5
42877.4
39492.7
34281.8
28006.3
21657
16009.3
11302
7406.84
4449.54
2522.1
1353.6
652.892
238.235
-29.1348
-3.61931
2485.58
4967.89
7412.91
9850.22
12213.7
14564.5
16812.6
19038.6
21135.6
23209
25125.8
27018.8
28739.1
30429.7
31937.7
33417.3
34703.1
35963.4
37028.9
38066.5
38914.1
39737
40372.4
40987.9
41425.6
41842.8
42096
42333.9
42418.1
42550.6
42148.9
41644.1
40159.7
38668
36233
33874
30821.6
27937.7
24750.4
21793.8
18892.2
16219.5
13782.3
11506.6
9501.88
7587.43
6058.92
4590.79
3599.51
2613.5
2032.73
1405.39
1075.39
679.189
497.336
248.93
143.241
-29.1096
-9.81822
4681.05
9285.73
13738.6
17975.1
21936.9
25571.4
28843.1
31727.7
34206.5
36276.8
37945.6
39222.5
40128.5
40689.7
40992.2
40371.5
37770.9
33375.9
27781.7
21862
16385.5
11687.1
7754.48
4725.66
2703.01
1456.79
705.5
259.694
-29.0486
-3.95479
2209.31
4416.16
6592.74
8763.18
10873.7
12974
14991
16989.8
18883.3
20757.4
22502.8
24228.5
25811.4
27369.2
28774.9
30156.2
31374.6
32570.9
33602
34608.3
35451.9
36273.3
36932.3
37572.9
38058
38523.8
38844.5
39150.3
39318.2
39529.2
39403.3
39174.1
38061.1
36924.4
34891.1
32905.6
30203.7
27636.3
24682.7
21931.5
19132.4
16549.7
14123.6
11865.7
9839.58
7919.84
6352.53
4858.98
3814.69
2791.56
2165.92
1507.76
1148.3
731.617
531.809
270.343
152.913
-29.0165
-8.66411
4171.87
8281.68
12267.8
16077.4
19661.7
22975.6
25988.1
28676.4
31021.7
33018.7
34670
35980
36963.7
37640.4
38084.2
37959.2
36028.8
32365.9
27418.4
21941
16673.3
12021.2
8072.23
4986.01
2878.17
1558.42
757.855
281.198
-28.9464
-4.11633
1973.21
3944.56
5891.08
7832.68
9725.12
11609.3
13425.2
15225.9
16940.1
18638.2
20229.7
21804.7
23261
24695.9
26003.4
27290.2
28439.3
29569.3
30558.6
31526.3
32354.3
33162.5
33830
34480.8
34995.7
35492.6
35861.4
36216
36447.4
36717.2
36811.9
36806.1
36008.1
35174.8
33499.1
31848.3
29476
27207.7
24491.3
21949.1
19270.8
16793
14398.3
12173
10138.3
8221.62
6623.6
5110.72
4019.43
2963.37
2295.5
1608.38
1220.22
783.765
566.112
291.884
162.529
-28.9086
-7.86588
3734.7
7418.5
11000.6
14437.4
17687.8
20713.5
23487.2
25988.1
28198.1
30110.5
31724.7
33042.1
34072.6
34830.6
35379.8
35652.2
34290.8
31279.7
26938.8
21906
16876.7
12303.6
8358.93
5229.41
3046.59
1657.96
809.736
302.672
-28.8311
-4.02903
1770.12
3538.81
5286.94
7031.1
8734.58
10431.3
12071.6
13699.2
15255.2
16797.6
18251.1
19690.8
21031.2
22353.2
23568.2
24765.3
25845.6
26909.4
27853.3
28777.9
29582.7
30369.8
31034.9
31684.9
32216
32730.8
33132.5
33520.8
33799.4
34112.2
34381.5
34554.6
34021.9
33445.9
32085.9
30732.8
28666.1
26677.6
24196
21862.2
19317.5
16956.3
14609.3
12430.1
10398.1
8492.81
6871.68
5345.48
4213.02
3128.18
2420.97
1706.74
1290.95
835.346
600.212
313.323
172.181
-28.7882
-7.11193
3357.48
6672.83
9903.88
13014.3
15969.6
18736.7
21291.9
23616.5
25693.5
27515.4
29079.8
30385.7
31439.6
32252
32877.7
33464.6
32582.3
30146.1
26367.1
21772.3
17001.7
12535.4
8614.24
5455.06
3207.39
1754.92
860.932
324.048
-28.7039
-3.9297
1594.4
3187.7
4763.84
6336.75
7875.72
9409.13
10895.6
12371.3
13787.3
15191.8
16521.8
17840.1
19074.7
20293.7
21422.1
22535.1
23548.7
24548.1
25444.7
26324.5
27100.9
27861.7
28516.4
29157.8
29695
30217.4
30640.1
31050.3
31362.8
31705.8
32111.5
32426.3
32115.2
31755.9
30672.3
29581.6
27795.7
26065.8
23812.7
21683.2
19280.8
17044.2
14759
12637
10618.5
8732.44
7095.77
5562.11
4394.31
3284.98
2541.52
1802.28
1360.08
886.137
633.919
334.627
181.787
-28.6564
-6.4528
3030.16
6025.19
8949.79
11773.6
14467.3
17002.5
19358.6
21518.9
23467.5
25196.7
26703.3
27984.3
29044
29889.7
30568.7
31401.2
30919.3
28986.8
25723.2
21553.1
17054.5
12717.7
8837.93
5662.28
3359.81
1848.84
911.237
345.255
-28.5658
-3.76171
1441.54
2882.23
4308.5
5732.11
7127.22
8517.72
9868.9
11210.9
12502.7
13784.9
15004.1
16213.5
17352
18477
19525.1
20559.9
21509.8
22447.2
23296.4
24130.8
24875.9
25607.2
26246.1
26873.1
27408.9
27931.3
28365.6
28788.5
29124.5
29487.7
29998.2
30423.6
30296.3
30118.2
29275.1
28414.3
26883.9
25391.1
23357.4
21425.4
19170.1
17063.2
14851.1
12795.4
10800.3
8940.58
7295.68
5760.13
4562.74
3433.11
2656.64
1894.6
1427.32
935.978
667.125
355.764
191.308
-28.5142
-5.90826
2744.71
5459.93
8115.89
10687
13148.4
15475.6
17650.6
19658.5
21484.8
23121.8
24565.7
25812.6
26864.9
27727.6
28441.6
29462.8
29313
27818.7
25023.9
21260.4
17040.9
12851.9
9029.82
5850.39
3503.07
1939.22
960.424
366.212
-28.4185
-3.54616
1308.05
2615.45
3910.63
5203.64
6472.52
7737.57
8969.47
10193.5
11375.1
12548.6
13668.5
14780.1
15831.4
16871
17845
18807.5
19697
20575.8
21378.4
22168
22880.3
23580.3
24199.8
24808.6
25337.4
25854
26293
26721.4
27072.5
27447.9
28037.2
28547.6
28571.5
28543.6
27908.2
27247.4
25947.6
24670.3
22844.4
21100.8
18994.5
17019.4
14889.1
12907.1
10944
9117.23
7470.98
5938.93
4717.53
3571.81
2765.67
1983.2
1492.35
984.598
699.69
376.596
200.735
-28.3626
-5.42802
2494.57
4964.23
7383.72
9731.42
11986
14126.3
16136.7
18003.8
19714.5
21261.5
22640.5
23847.1
24882.3
25749.4
26484
27647.2
27770.8
26655.6
24284.3
20905.9
16967.4
12940.4
9190.37
6019.16
3636.68
2025.72
1008.34
386.869
-28.2621
-3.36377
1190.69
2380.88
3560.67
4738.66
5896.11
7050.37
8176.5
9295.87
10379.2
11455.6
12486.2
13509.8
14481.8
15443.7
16349.3
17244.9
18077.6
18901
19658.5
20404.6
21083.4
21751.4
22349
22937
23454.7
23961.5
24399.6
24828.1
25187.7
25569.1
26216.2
26790.5
26937.8
27033.7
26577.1
26089.6
24997
23914.4
22284.1
20719
18761.1
16918.3
14876.5
12973.9
11050.6
9262.73
7621.65
6098.32
4858.3
3700.68
2868.26
2067.77
1554.94
1031.87
731.532
397.085
210.049
-28.2018
-4.9648
2274.39
4527.6
6738.09
8887.48
10957.5
12929.6
14790.4
16527.8
18130
19590.1
20903.6
22066
23077.1
23939.2
24683.1
25950
26296.9
25507.9
23516.9
20500
16840
12985.5
9320.21
6168.49
3760.25
2108.04
1054.84
407.176
-28.0963
-3.21129
1087.18
2173.98
3251.88
4328.28
5387.09
6443.23
7475.38
8501.69
9497.22
10486.8
11437.1
12381.3
13281.3
14172.5
15015.2
15849.3
16628.8
17400.2
18114.5
18818.6
19464.1
20100.1
20674.3
21240
21743.8
22237.7
22670.9
23095.3
23458.2
23840.8
24528.5
25149.3
25396.4
25593.3
25289.5
24951.1
24043.2
23135.6
21687.5
20289.9
18477.6
16765.5
14817
12998
11121.1
9377.33
7747.67
6237.84
4984.55
3819.07
2963.88
2147.88
1614.78
1077.6
762.501
417.194
219.182
-28.0322
-4.5612
2079.75
4141.4
6166.47
8139.28
10044.1
11864.7
13589.3
15207.3
16708
18085
19333.8
20449.6
21431.9
22281.8
23026.1
24365.6
24893
24383.1
22731.5
20051.4
16664.1
12989.4
9419.75
6298.11
3873.26
2185.8
1099.73
427.064
-27.9219
-3.04321
995.499
1990.71
2978.26
3964.56
4935.72
5904.63
6852.99
7796.25
8713.12
9624.86
10502.7
11375.4
12209.9
13036.7
13821.5
14598.9
15328.8
16051.7
16724.8
17388.9
18001.7
18606.2
19156.3
19698.9
20186.8
20665.8
21090.9
21508.1
21870.4
22250.5
22964.9
23618
23944.9
24223.4
24049.4
23838.8
23094.8
22343.4
21063.8
19822.1
18151.4
16566.9
14714.6
12981.9
11157.2
9461.95
7849.42
6357.61
5096.14
3926.73
3052.26
2223.27
1671.7
1121.64
792.529
436.856
228.133
-27.8541
-4.21616
1906.98
3798.42
5658.38
7473.41
9229.87
10913.6
12514.3
14022.5
15428.5
16726.4
17912
18980.3
19930.4
20762.7
21500.8
22887.6
23559.2
23286.7
21936.5
19568
16445
12954.4
9489.69
6407.97
3975.39
2258.7
1142.86
446.479
-27.7392
-2.92244
913.971
1827.74
2734.86
3640.96
4533.95
5425.04
6298.43
7167.37
8013.56
8855.32
9667.72
10475.7
11250.5
12018.6
12750.3
13475.4
14159.2
14836.8
15470.9
16097
16678.2
17252
17777.7
18296.9
18767.6
19230.4
19645.2
20052.9
20411.5
20786.1
21516
22190
22579.7
22923.3
22858.9
22756.9
22157.6
21544.9
20420.3
19322.9
17788.2
16327.4
14572.7
12928
11160
9517.19
7926.94
6457.51
5192.67
4023.25
3132.96
2293.6
1725.42
1163.8
821.495
455.957
236.894
-27.6678
-3.84954
1753.15
3492.88
5205.4
6879.11
8502.16
10062.1
11549.9
12957.2
14275.1
15498.2
16622.6
17643.3
18559.1
19370.1
20096.7
21510.5
22295.5
22223.6
21139.5
19057.5
16188.2
12883.4
9531.15
6498.29
4066.45
2326.54
1184.12
465.376
-27.546
-2.80437
841.17
1682.2
2517.46
3351.85
4174.84
4996.24
5802.32
6604.5
7386.98
8165.63
8918.71
9667.97
10388.4
11102.9
11785.7
12462.8
13103.6
13739.1
14336.3
14926.5
15477.1
16021.2
16522.8
17018.6
17471.4
17917
18320
18716.5
19069.1
19436.1
20172.5
20858
21296.2
21691
21718.6
21708.5
21236.2
20746.4
19763.4
18798.8
17394
16051.7
14395.1
12838.8
11131.5
9543.98
7981.09
6537.67
5274.35
4108.45
3205.93
2358.7
1775.86
1204.02
849.344
474.59
245.375
-27.4728
-3.5817
1615.36
3219.1
4799.2
6345.64
7848.1
9295.57
10680.1
11994.3
13230.2
14382.7
15448
16421.6
17302
18088.7
18799.9
20224.1
21096.6
21193.3
20343.5
18523.8
15896.8
12777.9
9544.53
6568.99
4146.14
2389.05
1223.36
483.704
-27.3463
-2.65046
775.896
1551.7
2322.45
3092.5
3852.57
4611.31
5356.74
6098.73
6823.59
7545.14
8244.33
8940.23
9610.93
10276.4
10914.2
11546.9
12147.8
12744
13306.5
13862.8
14384.2
14899.7
15377.6
15850.3
16284.8
16712.9
17102.9
17487.1
17831.8
18189.7
18925.3
19614.8
20089.7
20523.8
20628
20695.2
20334.1
19952.5
19098.3
18255.4
16973.6
15744.5
14185.1
12717
11073.3
9543.79
8012.45
6598.72
5341.27
4182.47
3271.07
2418.52
1822.94
1242.24
876.066
492.624
253.653
-27.2694
-3.32625
1491.57
2973.04
4433.88
5865.43
7258.65
8603.77
9893.8
11122.2
12281.6
13367.5
14376.4
15303.7
16148
16908.6
17601.5
19022.9
19961.1
20198.2
19553.5
17972.7
15575.3
12640.6
9531.01
6620.41
4214.39
2446.09
1260.51
501.428
-27.1382
-2.51832
717.136
1434.21
2146.87
2858.94
3562.24
4264.44
4955.02
5642.56
6315.16
6984.88
7634.96
8282.23
8907.38
9527.96
10124.1
10716
11279.6
11839.2
12369.1
12893.4
13386.8
13875.1
14329.9
14780
15196.1
15606.4
15982.7
16353.7
16689.2
17036.8
17766.1
18453.4
18954.8
19418.4
19585.8
19717.3
19452.9
19166.1
18428.6
17696.8
16530.8
15409.1
13945.4
12564.5
10986.7
9517.19
8021.39
6640.63
5393.3
4245.02
3328.13
2472.79
1866.48
1278.3
901.555
510.037
261.673
-27.0574
-3.09722
1379.9
2750.99
4104.01
5431.45
6725.36
7977.06
9180.39
10329.5
11417.7
12440.9
13395.8
14278.2
15086.3
15819.5
16492
17899.9
18885.4
19238.3
18772.3
17408.2
15227.3
12473.7
9491.6
6652.84
4271.17
2497.52
1295.46
518.516
-26.9214
-2.38358
664.013
1327.99
1988.08
2647.69
3299.57
3950.54
4591.33
5229.42
5854.44
6476.95
7082.15
7684.94
8268.26
8847.54
9405.32
9959.28
10488.3
11013.8
11512.9
12007.1
12473.9
12936.1
13368.3
13796.6
14194.4
14587
14949
15306.4
15631.7
15968.2
16686.4
17366.8
17886.2
18370.8
18589.7
18774.4
18593.7
18389.7
17757.4
17126.4
16069.1
15048.8
13678.7
12383.5
10873.2
9465.21
8008.6
6663.75
5430.67
4296.11
3377.1
2521.43
1906.41
1312.17
925.78
526.826
269.413
-26.8365
-2.9033
1278.73
2549.76
3804.91
5037.65
6240.99
7407.15
8530.72
9606.46
10628.3
11592.4
12495.8
13334.5
14106.8
14811.9
15462.3
16848.3
17865.5
18312.8
18001.8
16833.3
14855.7
12279
9427.19
6666.56
4316.41
2543.22
1328.13
534.929
-26.6973
-2.24754
615.822
1231.62
1844
2455.99
3061.13
3665.53
4260.99
4854.05
5435.63
6015.03
6579.12
7141.14
7685.97
8227.21
8749.46
9268.36
9765.06
10258.7
10728.9
11194.8
11636.2
12073.5
12484.1
12891.1
13270.8
13645.9
13993.5
14336.9
14651.4
14976.1
15679.6
16349.1
16879.5
17377.9
17638.2
17866.3
17757.6
17625.4
17087.6
16547.8
15591.8
14666.7
13387.5
12176
10734.3
9389.01
7974.71
6668.51
5453.48
4335.78
3417.86
2564.35
1942.61
1343.74
948.68
542.919
276.879
-26.6065
-2.72865
1186.64
2366.53
3532.45
4678.69
5799.08
6886.66
7936.61
8944.26
9904
10812.5
11666.9
12463.3
13200.3
13876.7
14504
15861.3
16897.1
17420.4
17242.9
16250.6
14463
12058.5
9338.86
6662.06
4350.24
2583.17
1358.5
550.657
-26.4638
-2.13398
571.799
1143.59
1712.36
2280.83
2843.21
3405
3958.92
4510.7
5052.39
5592.19
6118.39
6642.85
7152.07
7658.11
8147.31
8633.59
9100.06
9563.93
10006.8
10445.9
10863.1
11276.7
11666.3
12052.8
12414.7
12772.4
13105.4
13434.7
13737.8
14050.4
14736.4
15391.8
15927.1
16433.4
16726.3
16989.3
16942.1
16872.1
16418.9
15961.5
15099.8
14264.2
13073
11943.2
10570.8
9289.19
7920.13
6655.21
5461.89
4364.09
3450.43
2601.52
1975.08
1373
970.24
558.308
284.066
-26.3663
-2.55809
1102.36
2198.82
3282.97
4349.83
5393.95
6409.04
7390.82
8335.11
9236.74
10092.7
10900.3
11655.9
12358.1
13005.9
13609.3
14932.4
15975.8
16558.8
16495.8
15661.7
14051.5
11813.8
9227.62
6639.83
4372.83
2617.4
1386.56
565.696
-26.2183
-2.04039
531.407
1062.82
1591.57
2120.09
2643.2
3165.85
3681.58
4195.4
4700.33
5203.64
5694.85
6184.6
6660.81
7134.18
7592.6
8048.47
8486.61
8922.51
9339.65
9753.33
10147.5
10538.5
10907.8
11274.4
11618.9
11959.6
12278.1
12593.2
12884.5
13184.7
13850.8
14489.5
15024.8
15533.9
15851.8
16142.2
16147.3
16130.6
15752.9
15369.8
14595.6
13843.6
12737.3
11686.8
10384.2
9166.72
7845.62
6624.22
5456.18
4381.09
3474.85
2632.87
2003.75
1399.89
990.415
572.994
290.935
-26.115
-2.40634
1024.78
2044.43
3053.26
4046.93
5020.61
5968.59
6887.04
7772.18
8619.24
9425.45
10188.4
10904.6
11572.8
12191.8
12770.8
14055.4
15097.1
15725.8
15760.3
15067.7
13622.7
11546.3
9094.3
6600.27
4384.29
2645.87
1412.26
580.023
-25.9611
-1.95168
494.1
988.216
1480
1971.63
2458.45
2944.95
3425.38
3904.11
4375.03
4844.56
5303.31
5760.85
6206.34
6649.31
7078.96
7506.38
7917.89
8327.48
8720.22
9109.89
9481.98
9851.34
10201.1
10548.5
10875.9
11200
11503.9
11804.9
12084.2
12371.8
13016.1
13636.1
14167.1
14674.6
15010.8
15322.2
15371.4
15400.4
15089.7
14773.3
14080.3
13406.4
12381.8
11408.2
10175.6
9022.61
7751.88
6576.14
5436.71
4387.05
3491.25
2658.48
2028.67
1424.41
1009.22
586.965
297.5
-25.8513
-2.27363
952.849
1901.3
2840.32
3766.16
4674.51
5560.11
6419.51
7249.25
8044.89
8803.93
9524.11
10202.2
10837
11427.4
11981.6
13224.1
14256.2
14918.5
15035.3
14469.3
13177.7
11257.2
8939.76
6543.86
4384.83
2668.65
1435.61
593.635
-25.6907
-1.89067
459.367
918.764
1376.16
1833.47
2286.56
2739.47
3187.09
3633.22
4072.54
4510.68
4939.21
5366.77
5783.58
6198.16
6600.83
7001.57
7387.94
7772.71
8142.29
8509.12
8860.12
9208.72
9539.55
9868.41
10179.1
10486.8
10776.3
11063.1
11330.2
11605.1
12226.2
12825.7
13348.8
13851.1
14199.9
14526.7
14612.5
14680.2
14429.1
14172.6
13554.6
12953.8
12007.7
11108.6
9945.85
8857.71
7639.49
6511.47
5403.74
4382.19
3499.68
2678.4
2049.82
1446.55
1026.62
600.173
303.769
-25.5734
-2.13416
885.569
1767.51
2641.46
3504.15
4351.7
5179.17
5983.35
6761.06
7508.13
8222.26
8901.44
9542.63
10144.6
10706.5
11235.8
12433.2
13449.1
14134.3
14320.1
13866.8
12718.1
10947.8
8765.08
6471.3
4374.81
2685.87
1456.65
606.546
-25.4008
-1.85692
426.656
853.368
1278.43
1703.52
2125
2546.46
2963.45
3379.14
3788.97
4197.84
4598.15
4997.71
5387.66
5775.62
6152.89
6528.49
6891.06
7252.3
7599.76
7944.8
8275.5
8604.13
8916.57
9227.38
9521.65
9813.32
10088.3
10361.1
10615.9
10878
11474.6
12052.3
12564.2
13058.2
13414.7
13752
13868
13968.4
13770.1
13567.2
13018.7
12486.1
11615.8
10788.8
9695.98
8672.71
7509.26
6430.64
5357.85
4366.71
3500.47
2692.72
2067.33
1466.37
1042.67
612.729
309.687
-25.2787
-2.02668
821.669
1640.69
2453.41
3256.99
4047.73
4820.81
5573.14
6301.7
7002.56
7673.67
8313.23
8918.43
9488.19
10021.7
10525.8
11675.5
12669.3
13368.3
13611.5
13258.8
12243.2
10618.3
8570.5
6382.82
4354.33
2697.56
1475.38
618.75
-25.0967
-1.83605
395.306
790.725
1184.98
1579.41
1971.02
2362.84
2751.11
3138.31
3520.61
3902.13
4276.08
4649.43
5014.16
5377.08
5730.34
6082.15
6422.04
6760.83
7087.07
7411.16
7722.21
8031.5
8325.99
8619.15
8897.24
9173.07
9433.73
9692.51
9934.78
10184.1
10754.9
11309.5
11807.7
12290.8
12650.5
12994.2
13134.8
13262.5
13111
12956.4
12472.5
12003.9
11206.6
10449.6
9426.64
8468.53
7361.76
6334.44
5299.41
4341.16
3493.83
2701.72
2081.32
1483.97
1057.42
624.594
315.33
-24.9644
-1.934
759.697
1518.31
2273.1
3021.38
3759.22
4481.49
5185.03
5866.95
6523.6
7153.22
7754.29
8324.22
8862.11
9367.22
9845.88
10945.8
11912.5
12617.4
12907.7
12644.9
11753.6
10269.7
8356.96
6279.09
4323.82
2703.91
1491.86
630.281
-24.7716
-1.92693
364.366
728.964
1093.28
1458.04
1821.28
2185.03
2546.53
2907.17
3263.98
3620.13
3969.52
4318.43
4659.43
4998.75
5329.17
5658.31
5976.39
6293.61
6599.28
6903.07
7194.94
7485.35
7762.19
8038.02
8300.07
8560.2
8806.49
9051.25
9280.87
9517.27
10061.4
10591.9
11073.9
11543.8
11903
12249.5
12409.8
12560.3
12450.1
12339.1
11915.3
11507
10780.2
10091.5
9138.4
8245.73
7197.59
6223.29
5228.85
4305.76
3479.99
2705.48
2091.85
1499.37
1070.86
635.806
320.665
-24.6275
-1.99373
697.073
1396.34
2096.4
2793.73
3482.95
4157.98
4815.42
5452.68
6066.54
6655.7
7219.01
7754.14
8260.35
8737.04
9190.01
10238.1
11173.5
11877.4
12205.9
12023.7
11249.2
9902.25
8125.11
6160.72
4283.67
2705.14
1506.2
641.18
-24.4224
-2.65623
331.784
664.645
998.678
1334.21
1670.62
2008.18
2345.46
2682.06
3015.84
3348.94
3675.66
4001.87
4320.4
4637.31
4945.69
5252.95
5549.76
5845.95
6131.42
6415.28
6688.23
6960.02
7219.36
7478
7724.07
7968.54
8200.42
8431.09
8647.89
8871.29
9387.71
9893.17
10357.1
10811.8
11167.2
11513.4
11689
11858.4
11785.1
11713.5
11346
10994.9
10336.7
9714.71
8831.73
8004.85
7017.33
6097.75
5146.69
4260.91
3459.25
2704.23
2099.07
1512.7
1083.05
646.438
325.686
-24.2647
-1.17196
628.149
1267.86
1917.98
2570.92
3216.98
3848.24
4461.51
5055.17
5626.89
6176.05
6701.92
7202.42
7676.98
8125.08
8552.08
9546.61
10446.8
11143.9
11503.1
11393.5
10729.4
9516.4
7875.54
6028.28
4234.26
2701.44
1518.5
651.5
-24.049
-1.65511
293.832
588.312
891.653
1197.54
1510.56
1825.71
2143.7
2460.49
2774.94
3087.9
3393.8
3698.85
3995.57
4290.69
4577.22
4862.84
5138.43
5413.71
5679.01
5943.04
6197.11
6450.37
6692.22
6933.73
7163.79
7392.58
7609.95
7826.44
8030.24
8240.52
8728.42
9207.96
9651.93
10089.7
10438.6
10781.9
10969.3
11154.2
11113.9
11078.4
10764.1
10467.4
9876.17
9319.89
8507.33
7746.79
6821.79
5958.61
5053.51
4207.16
3431.95
2698.27
2103.09
1524.11
1093.98
656.542
330.399
-23.8746
-8.15105
539.389
1115.81
1730.39
2352.8
2962.48
3551.89
4120.91
4670.46
5199.68
5708.66
6197.02
6662.84
7105.62
7524.89
7925.59
8864.81
9726.59
10411.9
10795.5
10752
10193.4
9112.14
7608.78
5882.37
4176.12
2693.16
1528.96
661.36
-23.6488
-25.6855
227.685
478.767
742.649
1022.93
1325.82
1629.5
1939.92
2246.2
2544.76
2841.04
3125.79
3409.66
3683.45
3956.01
4219.75
4483.06
4736.87
4990.83
5235.7
5479.7
5714.75
5949.38
6173.65
6397.95
6611.89
6824.91
7027.61
7229.78
7420.37
7617.36
8075.84
8528.61
8951.04
9370.44
9710.4
10048.6
10244.8
10442.6
10432.2
10430.3
10166.7
9922.59
9397.37
8906.22
8164.86
7471.49
6611.14
5806.18
4949.65
4144.89
3398.31
2687.92
2104
1533.83
1103.64
666.264
334.783
-23.4576
22.5842
366.566
915.545
1539.39
2151.04
2726.06
3269.29
3790.17
4293.31
4778.88
5247.2
5697.84
6128.82
6539.62
6929.77
7303.76
8185.98
9006.44
9675.84
10078.8
10096.6
9639.76
8689.27
7325.24
5723.64
4109.84
2680.78
1537.93
670.956
-23.2247
39.3218
99.6138
195.63
470.011
757.066
1104.13
1441.41
1759.84
2061.41
2341.85
2618.06
2875.73
3134.18
3381.46
3628.67
3867.96
4107.64
4339.02
4571.13
4795.34
5019.11
5235.07
5451
5657.62
5864.66
6062.38
6259.53
6447.4
6635.13
6812.25
6995.79
7423.98
7849.26
8248.62
8648.45
8977.35
9308.85
9511.27
9720.12
9737.15
9767
9552.36
9359.71
8900.15
8473.85
7804.98
7179.59
6386.25
5641.25
4835.76
4074.86
3358.63
2673.84
2101.8
1542.34
1111.94
675.882
338.767
-23.0245
-226.175
13.8402
584.561
1403.47
1997.97
2512.6
2994.88
3461.26
3915.8
4357.16
4784.75
5197.67
5593.71
5972.29
6332.96
6679.87
7503.48
8280.12
8930.29
9348.91
9424.44
9067.15
8247.41
7025.23
5552.81
4036.3
2665.13
1546.03
680.622
-22.8001
-801.852
-780.43
-763.183
-236.198
399.127
1004.85
1430.81
1677.19
1957.64
2181.73
2415.59
2634.29
2859.14
3076.97
3296.59
3511.05
3726.79
3935.94
4146.36
4350.14
4553.86
4750.83
4948.13
5137.09
5326.82
5508.19
5689.33
5862.17
6035.21
6198.68
6368.51
6765.65
7162.32
7537.66
7916.26
8233.14
8555.69
8763.67
8980.78
9025.33
9083.85
8919.52
8775.52
8384.3
8021.19
7428.25
6870.94
6147.79
5464.71
4712.2
3998.46
3312.88
2657.36
2096.24
1550.63
1118.62
685.904
342.264
-22.6066
585.291
-1502.7
973.123
1455.03
1884.44
2292.26
2706.51
3119.69
3527.79
3926.45
4314.08
4689.54
5050.54
5396.58
5727.25
6046.36
6809.24
7539.33
8167.08
8598.16
8729
8470.74
7783.84
6708.16
5370.9
3957.32
2648
1554.6
691.036
-22.4309
1033.87
-726.228
-2021.71
71.1871
1416.16
1333.23
1484.29
1613.77
1788.88
1971.55
2161.8
2354.55
2550.87
2746.08
2942.07
3135.27
3328.86
3517.86
3707.21
3891.49
4075.32
4253.8
4432
4603.78
4775.53
4940.71
5105.25
5263.17
5420.66
5570.64
5724.69
6092.44
6455.48
6810.12
7160.88
7470.78
7775.99
7996.62
8212.25
8293.36
8370.49
8266.76
8162.55
7849.89
7543.96
7035.47
6544.13
5896.58
5277.13
4579.43
3917.14
3261.1
2640.02
2087.1
1560
1123.33
697.834
344.478
-17.5487
-4.63073
745.96
893.693
1241.56
1635.93
2031.43
2421.28
2804.3
3179.12
3544.42
3899.26
4242.73
4573.82
4891.88
5196.27
5489.17
6196.56
6884.06
7490.24
7930.94
8110.29
7940.78
7374.17
6431.91
5217.86
3897.5
2643
1570.62
706.62
-12.5898
-599.691
1486.65
3105.99
1480.95
497.484
815.578
1016.94
1274.97
1489.55
1700.6
1905.38
2102.43
2296.69
2485.38
2672.5
2855.06
3036.48
3213.5
3389.56
3561.22
3731.82
3897.88
4062.91
4223.02
4382.15
4536.15
4689
4836.56
4982.96
5123.67
5266.12
5613.83
5952
6293.29
6622.89
6929.74
7220.93
7453.13
7665.93
7776.3
7865.08
7808.3
7731.4
7478.73
7213.25
6768.62
6324.7
5733.52
5160.18
4502.2
3877.13
3240.77
2644.15
2094.01
1579.22
1135.19
713.359
348.666
-12.4359
-475.42
1653.02
847.364
1138.37
1462.04
1831.73
2198.92
2557.85
2907.28
3246.86
3576.32
3895.23
4202.94
4498.99
4782.92
5056.63
5721.61
6375.81
6964.7
7411.87
7627.64
7525.99
7052.61
6215
5098.69
3853.02
2642.49
1586.18
719.374
-12.1533
516.743
689.214
795.356
1033.84
1194.56
1108.19
1180.45
1320.27
1444.75
1608.24
1768.67
1940.86
2109.97
2281.13
2450.45
2618.25
2784.73
2948.24
3110.72
3269.65
3427.52
3581.52
3734.53
3883.26
4031.06
4174.38
4316.64
4454.25
4590.8
4722.4
4855.46
5182.11
5500.15
5824.47
6138.06
6435.28
6717.89
6951.66
7166.87
7293.34
7398.35
7373.46
7327.25
7119.87
6896.75
6504.25
6108.03
5566.54
5038.09
4418.6
3828.48
3214.73
2639.8
2097.33
1592.08
1145.61
724.737
353.2
-11.9429
142.558
434.945
925.944
1137
1415.82
1720.09
2037.34
2357.77
2675.26
2986.68
3290.43
3585.49
3870.97
4146.32
4411.06
4666.83
5291.79
5913.49
6483.54
6932.62
7177.09
7133.17
6742.11
5999.57
4974.52
3800.8
2634.65
1596.5
729.452
-11.6559
-78.3894
183.718
448.372
601.646
754.341
929.709
1078.28
1219.73
1369.33
1513.71
1662.49
1812.68
1963.51
2115.58
2267.37
2418.85
2569.74
2718.95
2867.49
3013.53
3158.74
3300.91
3442.27
3580.07
3717.08
3850.26
3982.52
4110.76
4238.07
4361.03
4485.3
4791.94
5091
5398.65
5696.78
5983.42
6257.01
6489.76
6705.73
6843.89
6962.28
6963.38
6944.2
6775.66
6591.05
6245.03
5893.18
5397.76
4911.77
4329.78
3773.08
3183.22
2629.05
2096.72
1600.4
1154.01
733.818
357.204
-11.4433
-29.1321
377.177
688.793
1007.4
1303.58
1596.02
1888.85
2181.19
2471.06
2756.51
3036.08
3308.63
3573.18
3829.09
4075.8
4314.7
4901.71
5491.69
6041.59
6488.57
6754.91
6759.74
6441.41
5785.65
4846.4
3742.46
2621.14
1602.9
737.566
-11.1732
19.3573
171.626
323.238
488.699
648.976
798.322
951.018
1098.09
1244.26
1388.17
1531.57
1673.57
1815.63
1956.43
2097.12
2236.44
2375.47
2512.67
2649.47
2784.05
2918.02
3049.39
3180.13
3307.82
3434.87
3558.63
3681.6
3801.08
3919.75
4034.64
4150.68
4438.46
4719.52
5011.07
5294.09
5569.83
5833.74
6063.91
6278.69
6425.64
6554.09
6577.14
6580.64
6446.36
6295.68
5991.92
5680.57
5228.24
4782.22
4236.42
3712.18
3146.41
2613.12
2092.01
1605.14
1160.14
741.122
360.561
-10.962
5.4698
304.186
610.536
902.214
1187.65
1467.71
1743.56
2015.85
2284.33
2548.24
2806.81
3059.27
3304.81
3542.85
3772.89
3996.1
4547.41
5106.75
5635.8
6077.61
6360.15
6405.87
6151.5
5574.62
4715.69
3679.16
2602.82
1605.95
744.039
-10.7022
-3.83282
143.82
291.308
433.753
576.508
718.482
858.876
997.484
1135.56
1271.46
1407.19
1540.84
1674.33
1806.01
1937.39
2067
2196.28
2323.58
2450.51
2575.28
2699.54
2821.42
2942.76
3061.4
3179.48
3294.66
3409.16
3520.6
3631.33
3738.73
3847.17
4117.25
4381.41
4657.46
4925.89
5190.51
5444.45
5670.71
5882.92
6036.05
6172
6213.28
6235.89
6131.61
6010.85
5745.39
5470.9
5058.81
4650.27
4139.32
3646.46
3104.81
2592.43
2083.4
1606.55
1163.99
746.804
363.247
-10.5029
-1.84382
276.945
550.223
821.131
1087.82
1350.24
1608.52
1862.75
2112.74
2358.07
2598.32
2832.99
3061.46
3283.3
3498.06
3706.81
4224.71
4754.65
5262.53
5696.81
5990.83
6070.67
5872.42
5367.1
4583.2
3611.54
2580.1
1605.89
748.994
-10.2524
0.456432
132.191
263.606
395.133
526.313
656.278
786.162
914.702
1042.89
1169.66
1296.09
1420.92
1545.46
1668.36
1790.89
1911.69
2032.15
2150.66
2268.83
2384.94
2500.59
2614.03
2726.99
2837.5
2947.53
3054.95
3161.78
3265.87
3369.35
3469.85
3571.31
3824.93
4073.3
4334.57
4589.03
4842.53
5086.39
5307.76
5516.32
5673.53
5814.79
5871.14
5909.73
5831.64
5737.19
5506.32
5265.32
4890.66
4517.12
4039.58
3576.87
3059.19
2567.64
2071.31
1604.99
1165.76
751.024
365.295
-10.064
-0.258338
252.736
504.654
754.369
1001.52
1245.59
1486.18
1723.08
1955.98
2184.48
2408.25
2626.9
2839.95
3047.05
3247.84
3443.27
3930.05
4431.93
4918.65
5343.57
5645.17
5753.28
5604.17
5163.64
4449.65
3540.22
2553.37
1602.9
752.509
-9.83041
-0.494282
121.194
242.603
363.401
484.191
604.325
724.259
843.348
962.159
1079.88
1197.35
1313.48
1429.37
1543.82
1657.92
1770.47
1882.68
1993.12
2103.23
2211.46
2319.26
2425.05
2530.41
2633.54
2736.24
2836.6
2936.43
3033.8
3130.63
3224.8
3319.81
3558.15
3791.8
4039.06
4280.18
4522.7
4756.48
4972.28
5176.32
5335.91
5480.66
5549.38
5601.22
5545.98
5474.57
5274.95
5064.27
4724.36
4383.47
3937.82
3504.08
3010.03
2539.17
2055.98
1600.71
1165.49
753.895
366.708
-9.64146
-0.522837
233.144
465.471
696.454
925.549
1152.21
1375.97
1596.52
1813.48
2026.45
2235.12
2439.16
2638.14
2831.76
3019.73
3202.91
3660.73
4135.99
4601.83
5016.08
5322.05
5453.39
5347.18
4965.16
4316.1
3466.1
2523.23
1597.31
754.715
-9.41422
-0.319538
112.042
224.123
335.877
447.597
558.785
669.865
780.27
890.463
999.773
1108.87
1216.86
1324.63
1431.16
1537.38
1642.23
1746.77
1849.73
1952.39
2053.35
2153.92
2252.69
2351.06
2447.43
2543.41
2637.28
2730.68
2821.87
2912.57
3000.89
3089.98
3314.1
3534.02
3768
3996.47
4228.22
4452.05
4661.75
4860.68
5021.21
5167.96
5246.72
5309.47
5274.1
5222.85
5051.36
4868.14
4560.43
4249.9
3834.64
3428.59
2957.79
2507.34
2037.69
1593.81
1163.33
755.445
367.515
-9.23321
-0.420969
215.78
430.976
645.084
857.686
1068.28
1276.42
1481.76
1683.94
1882.55
2077.31
2267.9
2453.94
2635.16
2811.31
2983.16
3414.03
3864.07
4309.47
4712.12
5019.82
5170.05
5101.21
4771.97
4183.1
3389.72
2490.03
1589.28
755.68
-9.01149
-0.335078
103.846
207.771
311.385
414.991
518.162
621.243
723.771
826.121
927.727
1029.16
1129.63
1229.92
1329.13
1428.06
1525.79
1623.24
1719.29
1815.07
1909.33
2003.24
2095.53
2187.47
2277.61
2367.4
2455.29
2542.76
2628.25
2713.29
2796.2
2879.8
3090.71
3297.83
3519.29
3735.76
3957.05
4171.16
4374.41
4567.81
4728.13
4875.68
4962.47
5034.13
5015.96
4982.32
4836.1
4677.67
4399.71
4117.35
3730.93
3351.24
2903.18
2472.72
2016.89
1584.62
1159.48
755.803
367.775
-8.83761
-0.40188
200.26
400.022
598.886
796.486
992.376
1186.14
1377.46
1565.98
1751.34
1933.26
2111.43
2285.53
2455.31
2620.52
2781.87
3187.61
3613.8
4039.31
4429.71
4736.99
4902.41
4866.02
4584.31
4051.16
3311.57
2454.13
1579.01
755.466
-8.63058
-0.308747
96.4846
193.04
289.328
385.612
481.525
577.361
672.726
767.939
862.508
956.926
1050.51
1143.93
1236.41
1328.64
1419.81
1510.73
1600.41
1689.84
1777.92
1865.69
1952
2038
2122.39
2206.46
2288.83
2370.81
2451.03
2530.83
2608.72
2687.23
2885.83
3081.01
3290.66
3495.77
3706.97
3911.6
4108.23
4295.78
4455
4602.31
4695.46
4774.27
4771.01
4752.65
4629.14
4493.05
4242.55
3986.27
3627.16
3272.53
2846.59
2435.72
1993.81
1573.38
1154.05
755.075
367.502
-8.45274
-0.36753
186.241
372.051
557.089
741.037
923.497
1104.09
1282.54
1458.51
1631.66
1801.74
1968.47
2131.54
2290.73
2445.81
2597.43
2979.74
3383.43
3789.72
4167.49
4472.65
4650.09
4641.8
4402.79
3921.08
3232.42
2416.09
1566.81
754.208
-8.25005
-0.292795
89.8066
179.684
269.321
358.957
448.27
537.516
626.353
715.056
803.195
891.202
978.477
1065.6
1151.9
1237.98
1323.11
1408.02
1491.83
1575.41
1657.79
1739.89
1820.69
1901.2
1980.27
2059.05
2136.31
2213.22
2288.54
2363.49
2436.72
2510.51
2697.63
2881.65
3080.15
3274.53
3476
3671.47
3861.35
4042.89
4200.25
4346.54
4444.59
4529.08
4538.65
4533.56
4430.4
4314.43
4089.22
3857.07
3523.76
3192.89
2788.44
2396.63
1968.73
1560.22
1147.17
753.294
366.74
-8.0783
-0.338654
173.506
346.631
519.082
690.578
860.762
1029.3
1195.93
1360.36
1522.28
1681.44
1837.61
1990.49
2139.88
2285.58
2428.15
2788.61
3171.06
3558.84
3923.81
4225.47
4412.22
4428.2
4227.52
3793.24
3152.7
2376.24
1552.86
751.979
-7.87973
-0.272449
83.733
167.534
251.117
334.702
418.003
501.243
584.123
666.886
749.148
831.294
912.792
994.155
1074.78
1155.22
1234.8
1314.2
1392.61
1470.81
1547.94
1624.81
1700.52
1775.97
1850.14
1924.03
1996.56
2068.78
2139.56
2210.01
2278.91
2348.31
2524.73
2698.34
2886.35
3070.61
3262.76
3449.41
3632.54
3807.98
3962.91
4107.54
4209.27
4298.19
4318.76
4325.17
4240.21
4142.31
3940.36
3730.45
3421.45
3113.01
2729.33
2355.97
1942.06
1545.46
1139.07
750.594
365.552
-7.71396
-0.316037
161.893
323.445
484.402
644.515
803.46
960.943
1116.73
1270.55
1422.11
1571.22
1717.62
1861.08
2001.4
2138.39
2272.56
2612.61
2975.05
3345.06
3697.19
3994.26
4188.04
4224.89
4058.57
3667.96
3072.81
2334.89
1537.36
748.847
-7.52959
-0.252904
78.1897
156.445
234.501
312.561
390.37
468.122
545.555
622.885
699.768
776.546
852.749
928.829
1004.25
1079.5
1154
1228.32
1301.76
1375.01
1447.3
1519.36
1590.37
1661.15
1730.78
1800.16
1868.31
1936.18
2002.75
2069.03
2133.91
2199.24
2365.68
2529.56
2707.71
2882.43
3065.66
3243.84
3420.29
3589.62
3741.7
3884.14
3988.54
4080.79
4110.8
4127.09
4058.42
3976.72
3796.14
3606.72
3320.57
3033.3
2669.61
2314.1
1914.03
1529.32
1129.84
747.086
363.955
-7.35884
-0.29142
151.289
302.27
452.723
602.424
751.081
898.432
1044.26
1188.33
1330.38
1470.21
1607.62
1742.37
1874.29
2003.21
2129.59
2450.61
2794.23
3147.25
3486.67
3778.32
3977.19
4031.94
3896.36
3545.87
2993.37
2292.56
1520.61
744.953
-7.17817
-0.238033
73.1181
146.3
219.299
292.303
365.083
437.811
510.255
582.607
654.557
726.414
797.757
868.988
939.631
1010.12
1079.93
1149.58
1218.44
1287.13
1354.96
1422.58
1489.26
1555.73
1621.15
1686.36
1750.45
1814.3
1876.97
1939.37
2000.52
2062.06
2219.2
2374
2542.88
2708.6
2883.34
3053.42
3223.28
3386.55
3535.43
3675.3
3781.5
3876.17
3914.23
3939.01
3884.88
3817.7
3656.71
3486.15
3221.44
2954.08
2609.6
2271.28
1884.9
1511.95
1119.63
742.809
361.999
-7.01324
-0.268995
141.586
282.893
423.728
563.891
703.114
841.167
977.856
1112.95
1246.24
1377.53
1506.63
1633.33
1757.48
1878.92
1998.05
2301.34
2627.26
2964.1
3291
3576.63
3778.96
3849.01
3740.89
3427.21
2914.74
2249.53
1502.79
740.372
-6.8362
-0.220961
68.4777
137.017
205.388
273.764
341.94
410.068
477.941
545.733
613.163
680.507
747.393
814.174
880.428
946.545
1012.05
1077.41
1142.06
1206.55
1270.27
1333.8
1396.48
1458.96
1520.51
1581.86
1642.21
1702.32
1761.38
1820.19
1877.87
1935.9
2084.38
2230.72
2390.9
2548.18
2714.83
2877.2
3040.63
3197.96
3343.41
3480.43
3587.7
3684.05
3728.93
3760.98
3719.79
3665.6
3522.55
3369.29
3124.64
2875.95
2549.85
2227.99
1855.05
1493.66
1108.65
737.902
359.748
-6.67718
-0.251443
132.694
265.135
397.152
528.565
659.13
788.642
916.925
1043.77
1168.98
1292.39
1413.82
1533.09
1650.04
1764.53
1876.94
2163.69
2473
2794.43
3109.12
3388.28
3592.71
3675.76
3592.16
3312.21
2837.22
2206.08
1484.09
735.176
-6.51422
-0.20475
64.2261
128.511
192.641
256.776
320.733
384.644
448.326
511.936
575.218
638.422
701.215
763.91
826.131
888.229
949.771
1011.18
1071.95
1132.58
1192.51
1252.27
1311.26
1370.07
1428.04
1485.82
1542.7
1599.37
1655.08
1710.56
1765.02
1819.79
1960.21
2098.67
2250.69
2400.04
2559.05
2714.07
2871.28
3022.79
3164.67
3298.63
3406.39
3503.75
3554.42
3592.64
3563
3520.39
3393.75
3256.33
3030.43
2799.22
2490.63
2184.53
1824.69
1474.64
1097.01
732.472
357.221
-6.35012
-0.232168
124.551
248.87
372.809
496.202
618.826
740.5
861.062
980.323
1098.11
1214.26
1328.61
1441.01
1551.31
1659.38
1765.55
2036.92
2330.66
2637.51
2940.35
3212.76
3418.19
3512.24
3450.47
3201.36
2761.36
2162.67
1464.79
729.505
-6.19055
-0.192295
60.3279
120.714
180.955
241.201
301.288
361.33
421.167
480.94
540.413
599.816
658.849
717.791
776.304
834.706
892.604
950.381
1007.59
1064.65
1121.09
1177.37
1232.96
1288.38
1343.04
1397.52
1451.19
1504.67
1557.27
1609.67
1661.14
1712.9
1845.82
1976.93
2121.32
2263.24
2415.01
2563.06
2714.27
2860.14
2998.37
3129.12
3236.88
3334.73
3390.25
3433.72
3414.34
3382.06
3270.4
3147.47
2939.04
2724.15
2432.23
2141.13
1794.04
1455.05
1084.84
726.562
354.468
-6.0324
-0.214478
117.091
233.967
350.502
466.541
581.88
696.358
809.828
922.114
1033.06
1142.53
1250.36
1356.41
1460.57
1562.68
1663.08
1920.14
2199.33
2492.39
2783.82
3049.33
3254.83
3358.15
3315.8
3094.84
2687.42
2119.55
1445.07
723.434
-5.87614
-0.178147
56.7598
113.576
170.257
226.942
283.486
339.986
396.299
452.556
508.539
564.457
620.042
675.54
730.65
785.66
840.21
894.65
948.571
1002.37
1055.59
1108.67
1161.12
1213.41
1265.02
1316.46
1367.17
1417.7
1467.44
1516.98
1565.69
1614.65
1740.61
1864.9
2002.17
2137.14
2282.09
2423.58
2569.03
2709.47
2844.02
2971.51
3078.88
3176.8
3236.37
3284.26
3273.98
3250.89
3152.87
3043.17
2850.97
2651.26
2375.11
2098.23
1763.47
1435.17
1072.35
720.307
351.553
-5.72406
-0.200566
110.258
220.317
330.067
439.365
548.021
655.895
762.85
868.723
973.379
1076.69
1178.51
1278.71
1377.18
1473.79
1568.83
1812.61
2078.21
2358.28
2638.76
2897.31
3102.14
3213.22
3188.11
2992.8
2615.66
2076.95
1425.08
717.032
-5.58158
-0.16456
53.496
107.047
160.47
213.898
267.199
320.456
373.544
426.581
479.367
532.091
584.515
636.856
688.842
740.739
792.216
843.589
894.494
945.278
995.542
1045.68
1095.24
1144.65
1193.45
1242.09
1290.06
1337.87
1384.96
1431.87
1478.02
1524.39
1643.9
1761.86
1892.5
2020.99
2159.54
2294.84
2434.81
2570.04
2700.95
2825.14
2931.84
3029.45
3092.41
3143.98
3141.79
3126.82
3041.24
2943.55
2766.41
2580.79
2319.51
2056.07
1733.15
1415.18
1059.64
713.809
348.491
-5.42458
-0.185318
104.019
207.851
311.4
414.535
517.077
618.903
719.887
819.878
918.758
1016.41
1112.69
1207.51
1300.74
1392.27
1482.37
1713.85
1966.8
2234.7
2504.76
2756.42
2960.01
3077.53
3067.68
2895.67
2546.54
2035.29
1405.12
710.434
-5.28511
-0.154162
50.5158
101.085
151.534
201.987
252.325
302.619
352.758
402.851
452.71
502.512
552.04
601.488
650.612
699.654
748.309
796.868
845.002
893.021
940.566
987.994
1034.89
1081.66
1127.87
1173.93
1219.37
1264.68
1309.32
1353.8
1397.58
1441.56
1555.11
1667.2
1791.68
1914.13
2046.7
2176.2
2310.96
2441.23
2568.57
2689.48
2795.28
2892.31
2958.06
3012.68
3017.64
3009.87
2935.56
2848.79
2685.56
2512.96
2265.67
2014.87
1703.29
1395.21
1046.82
707.111
345.334
-5.13419
-0.170883
98.3356
196.494
294.391
391.901
488.857
585.152
680.669
775.268
868.849
961.302
1052.5
1142.36
1230.76
1317.62
1403.16
1623.28
1864.5
2121.02
2381.21
2626.11
2828.02
2950.86
2954.49
2803.58
2480.29
1994.78
1385.32
703.71
-4.99754
-0.140833
47.81
95.6713
143.418
191.167
238.811
286.411
333.864
381.277
428.468
475.604
522.49
569.296
615.802
662.235
708.308
754.29
799.886
845.37
890.421
935.366
979.826
1024.16
1067.99
1111.68
1154.81
1197.8
1240.2
1282.44
1324.05
1365.83
1473.87
1580.56
1699.34
1816.21
1943.21
2067.3
2197.16
2322.75
2446.61
2564.33
2669.04
2765.29
2833.32
2890.47
2901.72
2900.31
2836.18
2759.28
2608.85
2448.22
2213.99
1975.02
1674.21
1375.55
1034.1
700.339
342.141
-4.85272
-0.16141
93.1853
186.198
278.962
371.355
463.219
554.464
644.981
734.642
823.365
911.049
997.58
1082.88
1166.86
1249.41
1330.76
1540.42
1770.8
2016.72
2267.62
2505.96
2705.86
2833.04
2848.54
2716.68
2417.13
1955.64
1365.82
696.923
-4.72915
-0.133118
45.3678
90.7886
136.094
181.401
226.609
271.769
316.788
361.769
406.535
451.247
495.725
540.122
584.239
628.287
671.998
715.623
758.894
802.058
844.824
887.493
929.716
971.822
1013.47
1054.98
1095.98
1136.87
1177.2
1217.38
1257
1296.77
1399.76
1501.48
1615.01
1726.73
1848.57
1967.64
2092.92
2214.1
2334.65
2449.26
2552.79
2648.07
2717.97
2777.15
2793.97
2798.1
2743.18
2675.14
2536.45
2386.77
2164.7
1936.71
1646.07
1356.32
1021.55
693.586
338.926
-4.57954
-0.142862
88.568
176.963
265.105
352.874
440.12
526.769
612.723
697.87
782.149
865.469
947.726
1028.86
1108.79
1187.4
1264.92
1464.99
1685.42
1921.57
2163.79
2395.87
2593.53
2724.21
2750.11
2635.37
2357.47
1918.23
1346.9
690.199
-4.45823
-0.101685
43.1997
86.4364
129.569
172.694
215.719
258.69
301.514
344.301
386.869
429.381
471.667
513.869
555.802
597.671
639.221
680.687
721.829
762.866
803.539
844.123
884.298
924.364
964.015
1003.54
1042.6
1081.55
1120
1158.3
1196.1
1234.02
1332.4
1429.58
1538.3
1645.3
1762.4
1876.83
1997.86
2114.92
2232.32
2343.95
2446.24
2540.45
2611.84
2672.65
2694.34
2703.31
2656.65
2596.53
2468.54
2328.83
2117.98
1900.14
1619.04
1337.67
1009.29
686.889
335.734
-4.31447
-0.160041
84.5189
168.825
252.854
336.471
419.534
501.994
583.775
664.786
744.993
824.319
902.673
980.009
1056.24
1131.27
1205.3
1396.66
1608.01
1835.2
2069.38
2295.51
2490.81
2624.28
2659.23
2559.76
2301.51
1882.73
1328.67
683.599
-4.19496
-0.170062
41.3039
82.6994
123.92
165.145
206.25
247.287
288.152
328.974
369.554
410.074
450.357
490.555
530.484
570.356
609.919
649.404
688.594
727.682
766.439
805.119
843.426
881.631
919.468
957.179
994.48
1031.68
1068.42
1105.03
1141.18
1177.42
1271.63
1364.69
1469.07
1571.78
1684.56
1794.75
1911.86
2025.12
2139.58
2248.39
2349.4
2442.49
2515.07
2577.15
2603.07
2616.23
2576.92
2523.85
2405.51
2274.79
2074.23
1865.67
1593.42
1319.83
997.494
680.364
332.623
-4.0568
-0.0356673
81.081
161.954
242.389
322.287
401.536
480.135
558.056
635.246
711.707
787.38
862.179
936.07
1008.96
1080.77
1151.65
1335.15
1538.29
1757.33
1984.13
2204.68
2397.56
2533.2
2575.97
2490.03
2249.45
1849.33
1311.26
677.177
-3.94865
0.218087
39.9006
79.6254
119.378
159.025
198.482
237.854
276.972
316.025
354.782
393.46
431.878
470.204
508.259
546.265
583.978
621.623
659.01
696.303
733.308
770.249
806.861
843.38
879.583
915.665
951.383
987.007
1022.22
1057.3
1091.98
1126.73
1217.22
1306.58
1407.06
1505.91
1614.79
1721.14
1834.7
1944.47
2056.21
2162.37
2262.15
2354.05
2427.57
2490.6
2520.21
2536.91
2504.13
2457.21
2347.56
2224.84
2033.61
1833.46
1569.35
1302.94
986.231
674.09
329.599
-3.80509
-0.515796
78.7812
156.777
234.198
310.726
386.367
461.273
535.521
609.129
682.137
754.489
826.095
896.914
966.846
1035.79
1103.88
1280.41
1476.23
1687.95
1908.05
2123.47
2313.95
2451.22
2500.66
2426.56
2201.68
1818.37
1294.9
671.045
-3.69702
-1.21486
38.6699
78.1901
116.553
155.059
193.229
231.164
268.635
306.037
342.964
379.842
416.38
452.856
489.063
525.254
561.201
597.104
632.821
668.459
703.879
739.25
774.354
809.373
844.135
878.777
913.107
947.348
981.222
1014.97
1048.36
1081.79
1168.99
1255.11
1352.13
1447.54
1552.96
1655.86
1766.23
1872.84
1982.09
2085.82
2184.39
2275.11
2349.35
2413.05
2445.8
2465.49
2438.41
2396.81
2294.85
2179.18
1996.33
1803.69
1546.97
1287.09
975.589
668.094
326.706
-3.55765
1.49973
77.5388
154.964
229.574
302.56
374.296
445.303
515.873
586.08
655.945
725.362
794.187
862.351
929.726
996.191
1061.87
1232.32
1421.7
1626.93
1841.05
2051.78
2239.94
2378.38
2433.42
2369.53
2158.4
1790
1279.7
665.249
-3.44799
5.35455
41.0645
78.1941
117.822
155.945
192.69
229.284
264.827
300.082
334.815
369.43
403.823
438.212
472.508
506.848
541.126
575.391
609.629
643.798
677.865
711.888
745.724
779.472
813.027
846.456
879.618
912.69
945.43
978.041
1010.33
1042.64
1127.03
1210.32
1304.35
1396.76
1499.14
1599.01
1706.56
1810.36
1917.4
2018.9
2116.35
2205.92
2280.68
2344.82
2380.21
2402.34
2380.15
2343.06
2247.78
2138.21
1962.71
1776.69
1526.54
1272.51
965.722
662.473
323.999
-3.3113
-6.66833
85.5589
159.638
231.457
298.729
364.9
431.336
498.247
565.438
632.693
699.731
766.307
832.305
897.571
961.969
1025.61
1190.87
1374.69
1574.26
1783.12
1989.66
2175.6
2314.8
2374.41
2319.11
2119.78
1764.39
1265.77
659.825
-3.20703
-18.8389
42.3329
97.8182
132.581
168.481
204.165
237.43
267.394
299.099
329.58
360.921
392.611
424.59
457.095
489.735
522.7
555.665
588.816
621.884
654.955
687.972
720.85
753.628
786.243
818.717
850.945
883.077
914.891
946.571
977.947
1009.32
1091.34
1172.26
1263.73
1353.57
1453.34
1550.59
1655.71
1757.04
1862.15
1961.65
2058.09
2146.53
2221.68
2286
2323.6
2347.6
2329.55
2296.12
2206.57
2102.1
1932.94
1752.61
1508.18
1259.31
956.694
657.284
321.479
-3.06028
29.2622
101.355
194.129
242.79
296.413
354.739
416.933
481.329
546.671
612.291
677.728
742.679
807.028
870.628
933.355
995.325
1156.25
1335.38
1530.16
1734.49
1937.37
2121.26
2260.86
2324.04
2275.76
2086.26
1741.89
1253.32
654.858
-2.9468
113.751
144.967
182.64
220.253
240.16
238.894
249.264
270.567
291.151
319.063
346.601
377.677
408.313
440.573
472.578
505.247
537.695
570.423
602.934
635.46
667.855
700.1
732.194
764.122
795.874
827.377
858.767
889.841
920.766
951.411
982.015
1062.09
1141.02
1230.38
1318.06
1415.67
1510.7
1613.78
1713.01
1816.48
1914.24
2009.77
2097.18
2172.52
2236.9
2276.13
2301.63
2286.76
2256.42
2171.3
2071.24
1907.09
1731.74
1491.94
1247.62
948.56
652.53
319.193
-2.79538
-60.6127
336.878
225.059
238.26
280.208
337.812
400.731
465.48
530.602
595.566
660.045
723.845
786.937
849.217
910.594
971.209
1128.6
1303.89
1494.73
1695.33
1895.14
2077.21
2216.93
2282.8
2240.01
2058.33
1722.85
1242.51
650.368
-2.66541
139.381
513.167
775.468
473.708
265.844
234.275
222.685
244.643
266.06
296.708
326.629
359.517
391.746
424.908
457.667
490.604
523.26
555.851
588.228
620.406
652.443
684.21
715.847
747.207
778.44
809.354
840.169
870.64
900.989
930.991
961.089
1039.48
1117.02
1204.49
1290.73
1386.3
1479.99
1580.97
1679.14
1780.55
1877.81
1971.52
2059.29
2133.3
2199.26
2237.88
2266.42
2251.85
2225.98
2142.13
2047.47
1885.38
1715.44
1478.14
1238.15
941.687
648.118
317.572
-3.42682
-121.21
97.2178
113.302
191.47
250.795
309.77
369.23
428.902
488.491
547.768
606.616
664.934
722.625
779.648
835.949
891.62
1036.43
1198.2
1375.03
1561.93
1749.61
1922.88
2059.37
2129.77
2100.76
1941.86
1635.6
1186.51
623.292
-4.14457
-79.7466
-359.14
-586.681
-286.131
-27.6657
59.0685
141.365
186.289
228.748
260.42
292.047
320.106
348.507
375.651
403.047
429.993
457.101
483.977
510.957
537.769
564.613
591.305
618
644.5
670.997
697.27
723.506
749.509
775.458
801.13
826.984
894.3
961.199
1036.76
1111.65
1194.68
1276.67
1365.04
1451.84
1541.51
1628.84
1713.08
1793.91
1862.55
1926.5
1965.87
1999.27
1993.22
1980.38
1913.25
1839.6
1701
1557.73
1347.48
1135.86
866.455
599.082
294.177
-3.62448
228.112
-67.1497
84.0074
124.798
190.019
252.461
310.521
365.579
418.719
470.602
521.613
571.927
621.604
670.683
719.158
767.133
892.173
1032.4
1186.53
1350.68
1517.4
1674.18
1802.15
1875.82
1864.93
1739.82
1480.16
1084.26
573.98
-3.53153
-187.305
-72.6388
62.6368
45.7799
51.5858
106.728
124.166
153.271
177.311
203.973
230.094
256.281
282.516
308.157
333.866
358.924
384.023
408.536
433.077
457.13
481.178
504.835
528.476
551.767
575.045
598.006
620.933
643.576
666.174
688.483
710.949
769.369
827.425
893.033
958.105
1030.47
1101.99
1179.49
1255.71
1335.14
1412.63
1488.44
1561.41
1625.05
1684.72
1724.37
1758.85
1760.01
1755.09
1702.85
1644.42
1527.51
1405.63
1221.26
1034.49
791.801
549.734
270.274
-3.09358
-48.0434
69.8961
78.28
128.961
175.324
220.628
265.95
311.294
356.463
401.267
445.618
489.459
532.751
575.493
617.67
659.381
768.024
889.972
1024.41
1168.39
1315.96
1456.83
1575.08
1648.66
1650.4
1552.17
1332.31
984.609
525.027
-3.04883
33.2099
25.81
20.4979
59.9949
87.4572
102.341
124.794
143.724
165.218
185.713
206.686
227.495
248.235
269.048
289.705
310.431
331.031
351.636
372.151
392.609
412.99
433.27
453.49
473.561
493.589
513.438
533.238
552.85
572.408
591.756
611.216
661.94
712.329
769.395
825.982
889.092
951.471
1019.39
1086.21
1156.37
1224.87
1292.74
1358.14
1416.52
1471.4
1510.12
1544.18
1550.34
1550.82
1510.51
1464.1
1365.77
1262.01
1100.99
936.568
719.134
501.149
246.615
-2.64358
12.9638
32.1328
79.1014
116.321
154.511
192.934
231.408
269.808
308.044
346.06
383.822
421.288
458.411
495.166
531.519
567.523
661.576
767.473
884.621
1010.71
1140.92
1266.79
1374.88
1446.16
1456.47
1379.62
1193.6
889.09
477.221
-2.63079
-9.46835
15.226
40.0934
54.3495
70.6442
89.9206
107.48
125.751
143.576
161.592
179.446
197.301
215.133
232.895
250.67
268.351
286.046
303.634
321.226
338.707
356.175
373.53
390.864
408.072
425.258
442.305
459.321
476.194
493.026
509.699
526.465
570.283
613.827
663.312
712.385
767.316
821.62
881.02
939.482
1001.27
1061.63
1122.07
1180.38
1233.43
1283.4
1320.3
1353.04
1362.42
1366.58
1335.65
1298.85
1216.21
1127.95
987.7
843.361
649.47
454.106
223.655
-2.25305
-3.49202
35.1829
66.3891
100.158
133.578
166.854
200.002
233.009
265.852
298.504
330.946
363.145
395.073
426.708
458.026
489.069
570.32
662.087
763.97
874.147
988.697
1100.6
1198.52
1266.08
1281.93
1222
1064.73
798.745
431.291
-2.26492
2.43109
16.1847
29.9291
46.5363
62.4653
77.5508
93.1651
108.543
124.044
139.452
154.88
170.251
185.616
200.932
216.229
231.469
246.69
261.842
276.975
292.028
307.06
322.003
336.923
351.743
366.542
381.229
395.89
410.434
424.945
439.328
453.785
491.627
529.245
572.091
614.594
662.319
709.507
761.345
812.375
866.639
919.665
973.26
1024.99
1072.83
1117.95
1152.53
1183.35
1194.68
1201.19
1177.65
1148.48
1079.11
1004.04
882.2
755.781
583.619
409.264
201.735
-1.91549
0.813767
28.4249
57.8274
86.5325
115.25
143.903
172.459
200.899
229.195
257.328
285.28
313.026
340.546
367.825
394.839
421.629
491.831
571.293
659.78
755.868
856.363
955.435
1043.52
1106.52
1125.67
1079.12
946.203
714.391
387.84
-1.94605
-0.649983
13.2208
27.0745
40.176
53.4443
66.8948
80.2226
93.5848
106.904
120.208
133.495
146.747
159.989
173.185
186.371
199.501
212.621
225.678
238.722
251.695
264.654
277.536
290.4
303.18
315.942
328.61
341.258
353.808
366.33
378.748
391.224
423.922
456.429
493.519
530.315
571.741
612.703
657.872
702.337
749.884
796.343
843.704
889.412
932.304
972.758
1004.76
1033.34
1045.7
1053.58
1035.85
1012.73
954.557
890.678
785.078
674.542
522.233
367.17
181.129
-1.62477
-0.283392
24.9944
49.7045
74.551
99.3331
124.039
148.657
173.174
197.568
221.824
245.929
269.861
293.604
317.147
340.469
363.603
424.284
493.086
569.889
653.585
741.573
829.006
907.798
965.852
986.717
950.711
838.374
636.671
347.37
-1.66927
0.144098
11.5827
23.0097
34.6063
46.1635
57.6556
69.175
80.6637
92.1567
103.617
115.074
126.499
137.915
149.293
160.663
171.987
183.298
194.561
205.81
217.002
228.181
239.295
250.393
261.425
272.438
283.374
294.294
305.131
315.944
326.673
337.447
365.717
393.819
425.936
457.795
493.748
529.292
568.624
607.331
648.936
689.571
731.326
771.595
809.892
845.977
875.318
901.519
914.284
922.848
909.68
891.328
842.597
788.166
696.8
600.226
465.852
328.283
162.072
-1.37525
0.015317
21.4311
42.9066
64.3119
85.6825
106.992
128.23
149.385
170.435
191.371
212.18
232.844
253.351
273.69
293.844
313.842
366.339
425.946
492.625
565.51
642.48
719.497
789.721
842.765
864.245
836.529
741.521
566.126
310.309
-1.43012
-0.0583062
9.94661
19.9438
29.8731
39.8172
49.7656
59.6992
69.6227
79.5413
89.4364
99.3252
109.191
119.046
128.869
138.687
148.465
158.233
167.963
177.678
187.346
197.004
206.607
216.197
225.732
235.25
244.705
254.146
263.518
272.869
282.152
291.468
315.943
340.269
368.113
395.727
426.959
457.824
492.094
525.798
562.209
597.734
634.524
669.95
704.076
736.159
762.918
786.742
799.501
808.267
798.691
784.075
743.281
696.773
617.779
533.342
414.952
293.006
144.767
-1.16181
-0.0514918
18.5584
37.0797
55.5911
74.0686
92.492
110.857
129.152
147.357
165.469
183.475
201.356
219.109
236.721
254.176
271.501
317.014
368.759
426.749
490.308
557.699
625.548
688.055
736.287
757.672
736.454
655.936
503.26
277.048
-1.22465
-0.00138544
8.62495
17.2475
25.8656
34.4834
43.0924
51.696
60.2872
68.8784
77.4473
86.0111
94.5573
103.093
111.602
120.108
128.58
137.042
145.474
153.892
162.271
170.642
178.968
187.28
195.549
203.802
212.002
220.192
228.323
236.435
244.493
252.574
273.831
294.952
319.167
343.17
370.383
397.256
427.197
456.611
488.552
519.664
552.139
583.333
613.769
642.275
666.642
688.209
700.73
709.384
702.64
690.923
656.76
616.817
548.446
474.389
369.994
261.72
129.409
-0.980042
-0.0250849
16.1107
32.2073
48.2852
64.3357
80.3391
96.2956
112.193
128.013
143.756
159.41
174.958
190.399
205.721
220.91
235.989
275.63
320.752
371.406
427.059
486.28
546.237
601.985
645.811
666.693
650.542
581.994
448.591
247.971
-1.04956
-0.0113978
7.5133
15.038
22.5436
30.0518
37.5586
45.0562
52.5447
60.0341
67.5035
74.9679
82.4201
89.8604
97.2797
104.697
112.084
119.463
126.819
134.16
141.469
148.773
156.037
163.288
170.507
177.708
184.866
192.016
199.116
206.199
213.239
220.293
238.874
257.328
278.521
299.515
323.375
346.911
373.231
399.045
427.232
454.619
483.446
511.033
538.313
563.718
585.979
605.498
617.689
626.048
621.545
612.037
583.351
548.735
489.311
423.912
331.461
234.815
116.196
-0.826199
-0.0240303
14.1209
28.2232
42.315
56.3829
70.4087
84.3968
98.3344
112.205
126.012
139.743
153.381
166.931
180.381
193.715
206.954
241.785
281.475
326.098
375.236
427.697
481.078
531.127
571.126
591.34
579.099
520.225
402.713
223.487
-0.901943
-0.00437058
6.62554
13.2593
19.8788
26.4991
33.1201
39.7312
46.3344
52.9406
59.5277
66.11
72.6849
79.2467
85.7911
92.3354
98.8525
105.361
111.854
118.331
124.781
131.228
137.64
144.04
150.416
156.772
163.094
169.409
175.681
181.936
188.159
194.387
210.819
227.127
245.891
264.461
285.623
306.465
329.868
352.768
377.924
402.281
428.152
452.784
477.493
500.321
520.848
538.606
550.488
558.468
555.742
547.862
523.605
493.152
441.029
382.558
299.907
212.721
105.345
-0.696813
-0.0173283
12.5653
25.1137
37.6547
50.1749
62.6563
75.1078
87.5156
99.8628
112.158
124.387
136.534
148.608
160.594
172.478
184.279
215.349
250.788
290.687
334.712
381.853
430.041
475.557
512.461
532.035
522.741
471.377
366.348
204.057
-0.778334
-0.00157829
5.95543
11.9204
17.8704
23.8208
29.7751
35.7175
41.6535
47.5941
53.5163
59.4333
65.3475
71.2467
77.1316
83.018
88.8793
94.7318
100.575
106.399
112.202
118.003
123.773
129.53
135.271
140.991
146.682
152.367
158.015
163.645
169.252
174.856
189.669
204.356
221.289
238.026
257.156
275.957
297.164
317.85
340.725
362.772
386.423
408.788
431.572
452.401
471.642
487.996
499.684
507.279
505.959
499.191
478.373
450.946
404.457
351.127
275.997
195.933
97.1057
-0.587121
-0.0133689
11.4554
22.8934
34.3277
45.7432
57.1217
68.4765
79.7924
91.0519
102.268
113.426
124.508
135.527
146.469
157.317
168.091
196.475
228.877
265.402
305.773
349.113
393.586
435.858
470.545
489.658
482.474
436.49
340.4
190.226
-0.670832
0.00119962
5.5125
11.0354
16.5432
22.0507
27.565
33.0654
38.5602
44.0616
49.5442
55.0213
60.4996
65.9606
71.4097
76.8619
82.2897
87.7084
93.1225
98.5159
103.891
109.266
114.612
119.944
125.266
130.565
135.839
141.109
146.345
151.562
156.764
161.953
175.701
189.314
205.045
220.566
238.364
255.811
275.583
294.797
316.192
336.697
358.922
379.765
401.338
420.812
439.292
454.666
466.351
473.617
473.385
467.249
448.885
423.321
380.721
330.628
260.55
185.047
91.7751
-0.48484
-0.00821383
10.817
21.6155
32.4134
43.1936
53.9369
64.6613
75.3496
85.9829
96.5791
107.121
117.59
128.005
138.347
148.601
158.784
185.627
216.29
250.884
289.171
330.351
372.73
413.197
446.691
465.642
459.779
416.965
326.002
182.647
-0.551407
0.00780813
5.31554
10.6417
15.9519
21.2612
26.5807
31.8835
37.1813
42.4878
47.7743
53.0547
58.3403
63.6055
68.8604
74.1198
79.3549
84.5795
89.8046
95.0054
100.191
105.377
110.534
115.676
120.815
125.925
131.015
136.101
141.154
146.187
151.211
156.216
169.496
182.629
197.838
212.815
230.044
246.88
266.053
284.599
305.398
325.196
346.883
367.017
388.194
407.017
425.36
440.226
452.179
459.191
459.775
453.758
436.837
411.873
371.283
322.334
254.573
180.792
89.7092
-0.344986
-0.00917161
10.6971
21.3746
32.0543
42.7163
53.3393
63.9467
74.5189
85.0344
95.5163
105.946
116.301
126.605
136.839
146.983
157.055
183.621
213.976
248.235
286.175
327.017
369.106
409.381
442.852
462.018
456.66
414.624
324.589
182.147
-0.314411
-4.25411e-08
5.39236
10.7993
16.189
21.5764
26.9764
32.3574
37.7338
43.1204
48.485
53.8431
59.209
64.5517
69.8849
75.2241
80.5366
85.8385
91.1432
96.4207
101.684
106.949
112.183
117.402
122.619
127.805
132.972
138.137
143.266
148.376
153.48
158.549
172.04
185.368
200.816
216.016
233.524
250.609
270.102
288.922
310.085
330.174
352.267
372.696
394.308
413.403
432.187
447.257
459.611
466.686
467.548
461.361
444.459
418.979
377.981
328.084
259.274
184.099
91.4284
2.27965e-11
