# vtk DataFile Version 2.0
./vtk
ASCII

DATASET UNSTRUCTURED_GRID
POINTS 95 double
0 0 0.0
0.5 0 0.0
1 0 0.0
1.5 0 0.0
2 0 0.0
2.5 0 0.0
3 0 0.0
0 -0.75 0.0
1 -0.75 0.0
2 -0.75 0.0
3 -0.75 0.0
0 -1.5 0.0
0.5 -1.5 0.0
1 -1.5 0.0
1.5 -1.5 0.0
2 -1.5 0.0
2.5 -1.5 0.0
3 -1.5 0.0
0 -2.25 0.0
1 -2.25 0.0
2 -2.25 0.0
3 -2.25 0.0
0 -3 0.0
0.5 -3 0.0
1 -3 0.0
1.5 -3 0.0
2 -3 0.0
2.5 -3 0.0
3 -3 0.0
0 -3.75 0.0
1 -3.75 0.0
2 -3.75 0.0
3 -3.75 0.0
0 -4.5 0.0
0.5 -4.5 0.0
1 -4.5 0.0
1.5 -4.5 0.0
2 -4.5 0.0
2.5 -4.5 0.0
3 -4.5 0.0
0 -5.25 0.0
1 -5.25 0.0
2 -5.25 0.0
3 -5.25 0.0
0 -6 0.0
0.5 -6 0.0
1 -6 0.0
1.5 -6 0.0
2 -6 0.0
2.5 -6 0.0
3 -6 0.0
0 -6.75 0.0
1 -6.75 0.0
2 -6.75 0.0
3 -6.75 0.0
0 -7.5 0.0
0.5 -7.5 0.0
1 -7.5 0.0
1.5 -7.5 0.0
2 -7.5 0.0
2.5 -7.5 0.0
3 -7.5 0.0
0 -8.25 0.0
1 -8.25 0.0
2 -8.25 0.0
3 -8.25 0.0
0 -9 0.0
0.5 -9 0.0
1 -9 0.0
1.5 -9 0.0
2 -9 0.0
2.5 -9 0.0
3 -9 0.0
0 -9.75 0.0
1 -9.75 0.0
2 -9.75 0.0
3 -9.75 0.0
0 -10.5 0.0
0.5 -10.5 0.0
1 -10.5 0.0
1.5 -10.5 0.0
2 -10.5 0.0
2.5 -10.5 0.0
3 -10.5 0.0
0 -11.25 0.0
1 -11.25 0.0
2 -11.25 0.0
3 -11.25 0.0
0 -12 0.0
0.5 -12 0.0
1 -12 0.0
1.5 -12 0.0
2 -12 0.0
2.5 -12 0.0
3 -12 0.0

CELLS 24 216
8 11 13  2  0 12  8  1  7
8 13 15  4  2 14  9  3  8
8 15 17  6  4 16 10  5  9
8 22 24 13 11 23 19 12 18
8 24 26 15 13 25 20 14 19
8 26 28 17 15 27 21 16 20
8 33 35 24 22 34 30 23 29
8 35 37 26 24 36 31 25 30
8 37 39 28 26 38 32 27 31
8 44 46 35 33 45 41 34 40
8 46 48 37 35 47 42 36 41
8 48 50 39 37 49 43 38 42
8 55 57 46 44 56 52 45 51
8 57 59 48 46 58 53 47 52
8 59 61 50 48 60 54 49 53
8 66 68 57 55 67 63 56 62
8 68 70 59 57 69 64 58 63
8 70 72 61 59 71 65 60 64
8 77 79 68 66 78 74 67 73
8 79 81 70 68 80 75 69 74
8 81 83 72 70 82 76 71 75
8 88 90 79 77 89 85 78 84
8 90 92 81 79 91 86 80 85
8 92 94 83 81 93 87 82 86

CELL_TYPES 24
23
23
23
23
23
23
23
23
23
23
23
23
23
23
23
23
23
23
23
23
23
23
23
23

POINT_DATA 95
SCALARS Displacement_R double 1
LOOKUP_TABLE default
0
-4.1583e-05
-7.29994e-05
-0.000103044
-0.000122616
-0.000107976
-4.31608e-05
0
7.61572e-05
0.000218973
0.000383617
0
8.4392e-05
0.000173324
0.000257302
0.000344827
0.000413971
0.000440543
0
0.000169286
0.000292012
0.000314321
0
4.32654e-05
6.45744e-05
6.09081e-05
2.56914e-05
-4.18761e-05
-0.000141305
0
-9.0157e-05
-0.000262757
-0.000454659
0
-0.000121388
-0.000251916
-0.000349729
-0.000445058
-0.000544747
-0.000649481
0
-0.00029235
-0.00050099
-0.000731712
0
-0.000169134
-0.000295947
-0.000412483
-0.000530937
-0.000655182
-0.000786918
0
-0.000286947
-0.000549494
-0.000822644
0
-0.000134188
-0.000277063
-0.000420001
-0.000563144
-0.000708706
-0.000855875
0
-0.000266804
-0.000565445
-0.000872202
0
-0.0001176
-0.000246435
-0.000393419
-0.000549199
-0.0007129
-0.000857063
0
-0.000209272
-0.000475582
-0.000802652
0
-6.99696e-05
-0.000150502
-0.000244069
-0.000369008
-0.00051369
-0.000723492
0
-6.16886e-05
-0.000173881
-0.000431048
0
0
0
0
0
0
0
SCALARS Displacement_Z double 1
LOOKUP_TABLE default
-0.00316907
-0.00320448
-0.00330978
-0.00351623
-0.00382857
-0.00424895
-0.00480274
-0.00320253
-0.00337844
-0.00393633
-0.00500654
-0.00341764
-0.00346813
-0.00361818
-0.0038659
-0.00420266
-0.00464844
-0.00519728
-0.00368877
-0.00388481
-0.00444484
-0.00529297
-0.00390542
-0.00395466
-0.00405282
-0.00424365
-0.00451701
-0.00482424
-0.00521505
-0.00393893
-0.00398476
-0.00433978
-0.00492779
-0.00369942
-0.00367407
-0.00371502
-0.00383118
-0.00403949
-0.00429957
-0.00457458
-0.00325811
-0.00332437
-0.0036779
-0.00418962
-0.00274127
-0.00278404
-0.00290275
-0.00307034
-0.00327728
-0.00351323
-0.0037633
-0.00221537
-0.00246911
-0.00284593
-0.00330931
-0.00175914
-0.00185957
-0.0020134
-0.00218458
-0.00238621
-0.0026041
-0.00283495
-0.00134423
-0.00154706
-0.0019024
-0.00235524
-0.000950628
-0.00100529
-0.00109302
-0.0012368
-0.00139949
-0.00161253
-0.00188034
-0.000592362
-0.000684186
-0.000921946
-0.00138469
-0.000297452
-0.00030272
-0.000346041
-0.00039873
-0.000508646
-0.000626463
-0.00083298
-9.96042e-05
-0.000114574
-0.00017252
-0.000297321
-0
-0
-0
-0
-0
-0
-0
SCALARS Stress_R double 1
LOOKUP_TABLE default
16.2585
12.0768
11.9779
10.8383
7.62796
6.09076
1.7091
1.33227
0.347492
-0.58979
-1.76958
1.87491
1.86102
1.55465
1.89845
1.60068
1.73861
1.94631
-2.01613
-1.03273
-0.914914
-0.713204
0.365236
0.217957
0.143271
0.428393
0.598426
0.767333
0.609545
-0.0314434
0.125342
0.102737
0.064086
0.721788
0.33228
0.253648
0.132454
-0.0743531
-0.143162
-0.77949
0.176406
0.195501
0.106602
0.0185506
0.0260238
0.488359
0.142183
0.203677
0.0624508
-0.0225021
-0.0130109
0.493583
0.327576
0.163072
0.0155922
0.567568
0.507642
0.281553
0.1741
0.106894
-0.21082
0.112704
0.318103
0.233258
0.519327
0.39762
-1.12577
-1.03584
-0.65491
-0.797865
0.0174175
-0.402911
-0.716672
-1.01008
-0.549559
-0.131744
1.18204
-4.09627
-2.15386
-3.62131
-2.45359
-4.03306
-4.82783
-1.3439
-9.93077
-8.34208
-7.0523
-4.32205
-5.90861
-3.63195
-7.57072
-7.82086
-16.3991
-23.5365
-63.8349
SCALARS Stress_Theta double 1
LOOKUP_TABLE default
16.2727
12.373
12.684
11.8375
8.7136
8.62651
4.16295
1.34065
0.377787
-0.592063
-1.67783
1.87624
1.91561
1.68188
2.07678
1.84918
1.40677
1.46202
-2.01937
-1.10139
-1.09059
-1.51822
0.394976
0.101465
-0.066357
0.0793706
-0.0447524
0.278736
-0.135
-0.0370631
0.0964053
-0.016521
-0.455174
0.697465
0.33619
0.379617
0.256327
0.0824957
-0.10453
-0.808657
0.213759
0.467453
0.387688
0.0261294
0.0337842
0.595204
0.722272
0.491628
0.30749
0.04314
-0.106366
0.518409
0.557298
0.259717
-0.0777489
0.55294
0.454197
0.151003
0.0981205
0.0212301
-0.33864
-0.00533665
0.30726
0.0123905
0.174044
0.4442
-1.13094
-1.19879
-1.07358
-1.4355
-0.883624
-0.683573
-0.544733
-1.00797
-0.72899
-0.652629
0.242567
-4.10683
-2.32773
-3.89946
-3.39076
-5.75572
-8.53628
-6.53388
-9.93868
-8.70551
-8.47187
-7.62669
-5.91232
-3.60912
-7.57797
-7.77178
-17.1077
-25.3766
-67.8615
SCALARS Stress_Z double 1
LOOKUP_TABLE default
13.2584
10.967
13.1581
13.9352
11.7456
13.369
8.83936
3.0688
1.1058
-0.489351
-0.368692
7.13443
7.01903
7.60377
9.15295
8.40009
5.81776
3.97481
0.0637668
0.213406
0.24203
-0.799013
0.638144
1.00552
0.863256
-0.0599038
-0.910678
-0.84735
-2.23336
-0.74372
-0.187891
-1.32546
-4.50848
-5.89188
-1.63708
-2.37345
-3.58994
-5.33657
-5.55659
-9.57737
-1.2464
-2.99623
-5.08492
-7.22072
-0.307732
-2.14189
-6.44162
-5.51398
-7.21626
-8.41706
-9.57949
-1.8341
-6.29123
-8.02899
-10.3909
-6.42463
-5.49363
-9.30285
-9.73587
-10.543
-12.7592
-10.9072
-6.53534
-9.24901
-9.65622
-8.66145
-11.6683
-12.5579
-13.0785
-16.1296
-14.8998
-14.7747
-13.8531
-8.48683
-8.83129
-10.4284
-9.28009
-13.9283
-10.8831
-14.8597
-14.7067
-22.2532
-30.1276
-28.721
-16.6716
-15.9655
-17.7527
-21.6758
-6.52992
-3.64168
-8.78382
-9.22024
-23.215
-37.7411
-95.961
SCALARS Stress_Shear double 1
LOOKUP_TABLE default
-0.0498718
-0.62628
-1.67159
-2.69785
-3.45588
-4.30766
-4.43398
-0.0791476
-0.196379
0.00303442
-1.65234
-0.0289445
-0.771149
-1.66606
-3.17163
-4.19112
-3.99454
-3.6665
-0.0733072
-0.762457
-1.64462
-3.69181
0.0982141
-0.631359
-1.20852
-1.83179
-3.20175
-2.30057
-2.96567
0.0679554
-0.104405
-1.19537
-3.631
0.420722
-0.144682
-0.572329
-1.44453
-2.73575
-2.89028
-4.59988
-0.0241408
-0.492958
-1.89199
-2.91926
-0.030263
-0.170638
-1.18952
-1.36322
-2.19943
-2.66849
-3.15471
-0.192494
-1.26178
-2.20568
-3.09576
-0.675583
-0.821749
-1.68067
-2.01671
-2.53411
-3.21112
-3.0505
-0.537102
-1.44022
-1.99046
-2.61408
-0.536345
-0.885741
-1.40081
-2.0417
-2.1589
-3.10553
-3.99227
-0.121692
-0.541797
-1.13285
-2.72439
0.234525
-0.0350242
0.205377
-0.0694337
0.424659
-0.168801
-1.16074
0.314941
0.900548
1.93209
3.22851
-0.002
0.20856
0.738043
1.45474
3.93038
8.96208
24.6894
SCALARS Radial_Distance double 1
LOOKUP_TABLE default
0
0.5
1
1.5
2
2.5
3
0
1
2
3
0
0.5
1
1.5
2
2.5
3
0
1
2
3
0
0.5
1
1.5
2
2.5
3
0
1
2
3
0
0.5
1
1.5
2
2.5
3
0
1
2
3
0
0.5
1
1.5
2
2.5
3
0
1
2
3
0
0.5
1
1.5
2
2.5
3
0
1
2
3
0
0.5
1
1.5
2
2.5
3
0
1
2
3
0
0.5
1
1.5
2
2.5
3
0
1
2
3
0
0.5
1
1.5
2
2.5
3
SCALARS Depth double 1
LOOKUP_TABLE default
0
0
0
0
0
0
0
-0.75
-0.75
-0.75
-0.75
-1.5
-1.5
-1.5
-1.5
-1.5
-1.5
-1.5
-2.25
-2.25
-2.25
-2.25
-3
-3
-3
-3
-3
-3
-3
-3.75
-3.75
-3.75
-3.75
-4.5
-4.5
-4.5
-4.5
-4.5
-4.5
-4.5
-5.25
-5.25
-5.25
-5.25
-6
-6
-6
-6
-6
-6
-6
-6.75
-6.75
-6.75
-6.75
-7.5
-7.5
-7.5
-7.5
-7.5
-7.5
-7.5
-8.25
-8.25
-8.25
-8.25
-9
-9
-9
-9
-9
-9
-9
-9.75
-9.75
-9.75
-9.75
-10.5
-10.5
-10.5
-10.5
-10.5
-10.5
-10.5
-11.25
-11.25
-11.25
-11.25
-12
-12
-12
-12
-12
-12
-12
