# vtk DataFile Version 2.0
./vtk
ASCII

DATASET UNSTRUCTURED_GRID
POINTS 95 double
0 0 0.0
0.5 0 0.0
1 0 0.0
1.5 0 0.0
2 0 0.0
2.5 0 0.0
3 0 0.0
0 -0.75 0.0
1 -0.75 0.0
2 -0.75 0.0
3 -0.75 0.0
0 -1.5 0.0
0.5 -1.5 0.0
1 -1.5 0.0
1.5 -1.5 0.0
2 -1.5 0.0
2.5 -1.5 0.0
3 -1.5 0.0
0 -2.25 0.0
1 -2.25 0.0
2 -2.25 0.0
3 -2.25 0.0
0 -3 0.0
0.5 -3 0.0
1 -3 0.0
1.5 -3 0.0
2 -3 0.0
2.5 -3 0.0
3 -3 0.0
0 -3.75 0.0
1 -3.75 0.0
2 -3.75 0.0
3 -3.75 0.0
0 -4.5 0.0
0.5 -4.5 0.0
1 -4.5 0.0
1.5 -4.5 0.0
2 -4.5 0.0
2.5 -4.5 0.0
3 -4.5 0.0
0 -5.25 0.0
1 -5.25 0.0
2 -5.25 0.0
3 -5.25 0.0
0 -6 0.0
0.5 -6 0.0
1 -6 0.0
1.5 -6 0.0
2 -6 0.0
2.5 -6 0.0
3 -6 0.0
0 -6.75 0.0
1 -6.75 0.0
2 -6.75 0.0
3 -6.75 0.0
0 -7.5 0.0
0.5 -7.5 0.0
1 -7.5 0.0
1.5 -7.5 0.0
2 -7.5 0.0
2.5 -7.5 0.0
3 -7.5 0.0
0 -8.25 0.0
1 -8.25 0.0
2 -8.25 0.0
3 -8.25 0.0
0 -9 0.0
0.5 -9 0.0
1 -9 0.0
1.5 -9 0.0
2 -9 0.0
2.5 -9 0.0
3 -9 0.0
0 -9.75 0.0
1 -9.75 0.0
2 -9.75 0.0
3 -9.75 0.0
0 -10.5 0.0
0.5 -10.5 0.0
1 -10.5 0.0
1.5 -10.5 0.0
2 -10.5 0.0
2.5 -10.5 0.0
3 -10.5 0.0
0 -11.25 0.0
1 -11.25 0.0
2 -11.25 0.0
3 -11.25 0.0
0 -12 0.0
0.5 -12 0.0
1 -12 0.0
1.5 -12 0.0
2 -12 0.0
2.5 -12 0.0
3 -12 0.0

CELLS 24 216
8 11 13  2  0 12  8  1  7
8 13 15  4  2 14  9  3  8
8 15 17  6  4 16 10  5  9
8 22 24 13 11 23 19 12 18
8 24 26 15 13 25 20 14 19
8 26 28 17 15 27 21 16 20
8 33 35 24 22 34 30 23 29
8 35 37 26 24 36 31 25 30
8 37 39 28 26 38 32 27 31
8 44 46 35 33 45 41 34 40
8 46 48 37 35 47 42 36 41
8 48 50 39 37 49 43 38 42
8 55 57 46 44 56 52 45 51
8 57 59 48 46 58 53 47 52
8 59 61 50 48 60 54 49 53
8 66 68 57 55 67 63 56 62
8 68 70 59 57 69 64 58 63
8 70 72 61 59 71 65 60 64
8 77 79 68 66 78 74 67 73
8 79 81 70 68 80 75 69 74
8 81 83 72 70 82 76 71 75
8 88 90 79 77 89 85 78 84
8 90 92 81 79 91 86 80 85
8 92 94 83 81 93 87 82 86

CELL_TYPES 24
23
23
23
23
23
23
23
23
23
23
23
23
23
23
23
23
23
23
23
23
23
23
23
23

POINT_DATA 95
SCALARS Displacement_R double 1
LOOKUP_TABLE default
0
0.000154803
0.000309608
0.000464432
0.00061928
0.000774147
0.000929012
0
0.000309998
0.000620025
0.000930105
0
0.000155177
0.000310368
0.000465557
0.000620748
0.000775953
0.000931185
0
0.000310793
0.000621531
0.000932323
0
0.000155681
0.000311307
0.000466879
0.000622452
0.000777995
0.00093355
0
0.000312244
0.00062383
0.000935134
0
0.000156836
0.00031355
0.00046986
0.000625784
0.000781387
0.000937209
0
0.000316011
0.000629288
0.000940052
0
0.000160112
0.000319288
0.000477242
0.000634018
0.00078921
0.000943528
0
0.000325264
0.000641267
0.000948356
0
0.000167203
0.000332633
0.000493511
0.000649662
0.000802353
0.000955756
0
0.000333829
0.000657727
0.000956065
0
0.000163863
0.000327112
0.000493099
0.000653639
0.000809685
0.000943544
0
0.000300889
0.000603548
0.00089714
0
0.000118793
0.00024108
0.000369252
0.000509863
0.000652065
0.000814774
0
0.000132206
0.00029049
0.000522717
0
0
0
0
0
0
0
SCALARS Displacement_Z double 1
LOOKUP_TABLE default
0.0090392
0.00903914
0.00903892
0.00903856
0.00903809
0.00903749
0.00903682
0.00844984
0.00844953
0.00844863
0.00844733
0.00785989
0.0078598
0.00785955
0.00785915
0.00785862
0.00785797
0.00785725
0.00726932
0.00726897
0.00726803
0.00726655
0.00667791
0.00667787
0.00667771
0.00667739
0.00667682
0.00667612
0.00667528
0.00608545
0.00608548
0.00608497
0.00608327
0.00549113
0.00549119
0.00549161
0.00549221
0.00549246
0.00549195
0.00549057
0.00489365
0.00489532
0.00489864
0.00489746
0.00429053
0.00429194
0.00429516
0.00429936
0.00430312
0.00430585
0.00430525
0.00368078
0.00368925
0.00370604
0.00371263
0.00305854
0.00306125
0.00307384
0.00309001
0.00310828
0.00312036
0.00311965
0.00242425
0.00244807
0.00250555
0.00254016
0.00179622
0.00180623
0.0018218
0.00185614
0.00189339
0.00193937
0.00198377
0.00119305
0.00121844
0.00129894
0.00143968
0.000656619
0.000656768
0.000674964
0.000697429
0.000746479
0.000794109
0.000882983
0.000240408
0.000248436
0.000272675
0.000344333
-0
-0
-0
-0
-0
-0
-0
SCALARS Stress_R double 1
LOOKUP_TABLE default
20.4025
20.4033
20.4018
20.3959
20.3909
20.3884
20.387
20.3924
20.3907
20.3891
20.3867
20.38
20.3808
20.3822
20.3813
20.3892
20.388
20.3891
20.3776
20.3914
20.3911
20.3925
20.2752
20.3194
20.3241
20.3419
20.3763
20.3678
20.4223
20.3075
20.3655
20.4253
20.4163
20.0472
20.1687
20.1634
20.2404
20.3894
20.3448
20.4713
20.0634
20.3003
20.4428
20.5382
19.1027
19.9214
19.817
20.1547
20.4022
20.1045
20.8175
19.2115
19.9099
20.7618
20.857
20.6965
20.6181
20.6109
20.66
20.6091
20.6624
19.564
19.9719
19.8417
19.4804
20.6783
25.7448
26.6296
24.2382
23.9709
20.6421
21.5771
21.949
20.3269
20.4387
19.054
13.7634
40.1297
37.8962
37.495
35.0066
37.2689
35.6548
26.344
37.773
35.3811
26.7151
23.5073
62.9121
62.1042
66.7599
64.2502
68.578
89.5499
134.977
SCALARS Stress_Theta double 1
LOOKUP_TABLE default
20.4025
20.4034
20.4024
20.3982
20.3949
20.3918
20.3897
20.3924
20.3912
20.391
20.39
20.38
20.3814
20.383
20.3817
20.3897
20.3906
20.3935
20.3776
20.3891
20.3902
20.3952
20.2752
20.3168
20.3178
20.3368
20.371
20.3631
20.4195
20.3075
20.3548
20.3891
20.4079
20.0472
20.163
20.1451
20.1935
20.3122
20.292
20.4459
20.0634
20.2481
20.2993
20.3865
19.1028
19.878
19.7229
19.9949
20.1609
19.8188
20.5016
19.2118
19.7675
20.2036
20.4255
20.6966
20.5345
20.3811
20.1005
19.7424
19.9676
19.0556
19.9718
19.7877
18.9202
18.7591
25.7449
26.6014
24.45
23.8638
20.5704
19.9794
18.8318
20.3261
20.3778
19.0433
13.4301
40.1305
38.0922
37.7862
36.2416
38.8237
38.2264
30.0633
37.7736
35.8264
28.6813
27.0778
62.9129
62.1107
66.8305
64.3605
69.1676
90.6769
136.703
SCALARS Stress_Z double 1
LOOKUP_TABLE default
71.3655
71.3674
71.3663
71.3624
71.3605
71.3575
71.3547
71.4163
71.4168
71.4204
71.4234
71.4609
71.4653
71.471
71.4686
71.4838
71.4895
71.4976
71.5462
71.5572
71.5553
71.57
71.4543
71.5215
71.511
71.5401
71.5994
71.5814
71.6879
71.6964
71.7449
71.7292
71.7573
71.4471
71.6244
71.5631
71.5724
71.7117
71.6515
71.9344
72.0696
72.1774
71.9315
71.8676
70.7968
72.1567
71.6384
71.9332
71.9921
71.0421
72.1956
72.265
72.7876
72.4333
72.1759
76.6965
75.9628
75.204
73.6555
71.9431
71.8204
69.8034
75.323
74.516
71.3634
68.037
85.5778
87.2024
82.8519
81.6543
74.5704
71.4538
66.1234
69.5289
70.0123
67.1829
54.3168
93.7435
91.078
90.9883
89.741
96.2105
95.6276
81.9582
69.0468
67.0925
58.9943
62.7688
78.6857
77.6792
83.8777
81.3541
89.6941
119.653
178.842
SCALARS Stress_Shear double 1
LOOKUP_TABLE default
0.000710143
-0.000520615
-0.00142502
-0.00123455
-0.00180612
-0.000860096
0.000796878
0.00014227
-0.00291497
-0.00417723
5.99444e-05
-0.000742862
-0.00209423
-0.00369965
-0.00465788
-0.00644123
-0.0041758
-0.00133416
-0.00158384
0.000668019
-0.00380335
-0.0022931
0.00133838
0.00616355
0.010273
0.00701981
0.00150099
-0.000209965
-0.00152501
-0.00440008
0.0387739
0.0306521
-0.00589279
-0.00512119
0.0419961
0.086682
0.0915388
0.0793678
0.0369649
-0.00877336
-0.0113956
0.182033
0.192293
-0.0267505
0.0230672
0.182899
0.336445
0.364299
0.370529
0.196622
0.00905807
-0.0769204
0.618246
0.72393
-0.02958
-0.104014
0.464056
0.977659
1.10782
1.23614
0.647599
-0.0914753
0.196886
0.985524
1.34772
0.277921
0.355927
0.446684
0.90373
1.19559
1.38876
1.34322
1.29728
0.0453735
-0.171536
0.196102
1.92265
-0.502868
-1.15266
-2.3354
-2.62632
-3.75579
-2.95219
-0.878564
-0.299058
-3.99097
-7.1449
-10.2849
-0.0450143
-3.25722
-6.82787
-10.5315
-14.9826
-25.4151
-41.739
SCALARS Radial_Distance double 1
LOOKUP_TABLE default
0
0.5
1
1.5
2
2.5
3
0
1
2
3
0
0.5
1
1.5
2
2.5
3
0
1
2
3
0
0.5
1
1.5
2
2.5
3
0
1
2
3
0
0.5
1
1.5
2
2.5
3
0
1
2
3
0
0.5
1
1.5
2
2.5
3
0
1
2
3
0
0.5
1
1.5
2
2.5
3
0
1
2
3
0
0.5
1
1.5
2
2.5
3
0
1
2
3
0
0.5
1
1.5
2
2.5
3
0
1
2
3
0
0.5
1
1.5
2
2.5
3
SCALARS Depth double 1
LOOKUP_TABLE default
0
0
0
0
0
0
0
-0.75
-0.75
-0.75
-0.75
-1.5
-1.5
-1.5
-1.5
-1.5
-1.5
-1.5
-2.25
-2.25
-2.25
-2.25
-3
-3
-3
-3
-3
-3
-3
-3.75
-3.75
-3.75
-3.75
-4.5
-4.5
-4.5
-4.5
-4.5
-4.5
-4.5
-5.25
-5.25
-5.25
-5.25
-6
-6
-6
-6
-6
-6
-6
-6.75
-6.75
-6.75
-6.75
-7.5
-7.5
-7.5
-7.5
-7.5
-7.5
-7.5
-8.25
-8.25
-8.25
-8.25
-9
-9
-9
-9
-9
-9
-9
-9.75
-9.75
-9.75
-9.75
-10.5
-10.5
-10.5
-10.5
-10.5
-10.5
-10.5
-11.25
-11.25
-11.25
-11.25
-12
-12
-12
-12
-12
-12
-12
