# vtk DataFile Version 2.0
./vtk
ASCII

DATASET UNSTRUCTURED_GRID
POINTS 821 double
0 0 0.0
0.0556 0 0.0
0.1111 0 0.0
0.1667 0 0.0
0.2222 0 0.0
0.2778 0 0.0
0.3333 0 0.0
0.3889 0 0.0
0.4444 0 0.0
0.5 0 0.0
0.5556 0 0.0
0.6111 0 0.0
0.6667 0 0.0
0.7222 0 0.0
0.7778 0 0.0
0.8333 0 0.0
0.8889 0 0.0
0.9444 0 0.0
1 0 0.0
1.2924 0 0.0
1.5849 0 0.0
2.0484 0 0.0
2.5119 0 0.0
3.2465 0 0.0
3.9811 0 0.0
5.1453 0 0.0
6.3096 0 0.0
8.1548 0 0.0
10 0 0.0
0 -0.2222 0.0
0.1111 -0.2222 0.0
0.2222 -0.2222 0.0
0.3333 -0.2222 0.0
0.4444 -0.2222 0.0
0.5556 -0.2222 0.0
0.6667 -0.2222 0.0
0.7778 -0.2222 0.0
0.8889 -0.2222 0.0
1 -0.2222 0.0
1.5849 -0.2222 0.0
2.5119 -0.2222 0.0
3.9811 -0.2222 0.0
6.3096 -0.2222 0.0
10 -0.2222 0.0
0 -0.4444 0.0
0.0556 -0.4444 0.0
0.1111 -0.4444 0.0
0.1667 -0.4444 0.0
0.2222 -0.4444 0.0
0.2778 -0.4444 0.0
0.3333 -0.4444 0.0
0.3889 -0.4444 0.0
0.4444 -0.4444 0.0
0.5 -0.4444 0.0
0.5556 -0.4444 0.0
0.6111 -0.4444 0.0
0.6667 -0.4444 0.0
0.7222 -0.4444 0.0
0.7778 -0.4444 0.0
0.8333 -0.4444 0.0
0.8889 -0.4444 0.0
0.9444 -0.4444 0.0
1 -0.4444 0.0
1.2924 -0.4444 0.0
1.5849 -0.4444 0.0
2.0484 -0.4444 0.0
2.5119 -0.4444 0.0
3.2465 -0.4444 0.0
3.9811 -0.4444 0.0
5.1453 -0.4444 0.0
6.3096 -0.4444 0.0
8.1548 -0.4444 0.0
10 -0.4444 0.0
0 -0.6667 0.0
0.1111 -0.6667 0.0
0.2222 -0.6667 0.0
0.3333 -0.6667 0.0
0.4444 -0.6667 0.0
0.5556 -0.6667 0.0
0.6667 -0.6667 0.0
0.7778 -0.6667 0.0
0.8889 -0.6667 0.0
1 -0.6667 0.0
1.5849 -0.6667 0.0
2.5119 -0.6667 0.0
3.9811 -0.6667 0.0
6.3096 -0.6667 0.0
10 -0.6667 0.0
0 -0.8889 0.0
0.0556 -0.8889 0.0
0.1111 -0.8889 0.0
0.1667 -0.8889 0.0
0.2222 -0.8889 0.0
0.2778 -0.8889 0.0
0.3333 -0.8889 0.0
0.3889 -0.8889 0.0
0.4444 -0.8889 0.0
0.5 -0.8889 0.0
0.5556 -0.8889 0.0
0.6111 -0.8889 0.0
0.6667 -0.8889 0.0
0.7222 -0.8889 0.0
0.7778 -0.8889 0.0
0.8333 -0.8889 0.0
0.8889 -0.8889 0.0
0.9444 -0.8889 0.0
1 -0.8889 0.0
1.2924 -0.8889 0.0
1.5849 -0.8889 0.0
2.0484 -0.8889 0.0
2.5119 -0.8889 0.0
3.2465 -0.8889 0.0
3.9811 -0.8889 0.0
5.1453 -0.8889 0.0
6.3096 -0.8889 0.0
8.1548 -0.8889 0.0
10 -0.8889 0.0
0 -1.1111 0.0
0.1111 -1.1111 0.0
0.2222 -1.1111 0.0
0.3333 -1.1111 0.0
0.4444 -1.1111 0.0
0.5556 -1.1111 0.0
0.6667 -1.1111 0.0
0.7778 -1.1111 0.0
0.8889 -1.1111 0.0
1 -1.1111 0.0
1.5849 -1.1111 0.0
2.5119 -1.1111 0.0
3.9811 -1.1111 0.0
6.3096 -1.1111 0.0
10 -1.1111 0.0
0 -1.3333 0.0
0.0556 -1.3333 0.0
0.1111 -1.3333 0.0
0.1667 -1.3333 0.0
0.2222 -1.3333 0.0
0.2778 -1.3333 0.0
0.3333 -1.3333 0.0
0.3889 -1.3333 0.0
0.4444 -1.3333 0.0
0.5 -1.3333 0.0
0.5556 -1.3333 0.0
0.6111 -1.3333 0.0
0.6667 -1.3333 0.0
0.7222 -1.3333 0.0
0.7778 -1.3333 0.0
0.8333 -1.3333 0.0
0.8889 -1.3333 0.0
0.9444 -1.3333 0.0
1 -1.3333 0.0
1.2924 -1.3333 0.0
1.5849 -1.3333 0.0
2.0484 -1.3333 0.0
2.5119 -1.3333 0.0
3.2465 -1.3333 0.0
3.9811 -1.3333 0.0
5.1453 -1.3333 0.0
6.3096 -1.3333 0.0
8.1548 -1.3333 0.0
10 -1.3333 0.0
0 -1.5556 0.0
0.1111 -1.5556 0.0
0.2222 -1.5556 0.0
0.3333 -1.5556 0.0
0.4444 -1.5556 0.0
0.5556 -1.5556 0.0
0.6667 -1.5556 0.0
0.7778 -1.5556 0.0
0.8889 -1.5556 0.0
1 -1.5556 0.0
1.5849 -1.5556 0.0
2.5119 -1.5556 0.0
3.9811 -1.5556 0.0
6.3096 -1.5556 0.0
10 -1.5556 0.0
0 -1.7778 0.0
0.0556 -1.7778 0.0
0.1111 -1.7778 0.0
0.1667 -1.7778 0.0
0.2222 -1.7778 0.0
0.2778 -1.7778 0.0
0.3333 -1.7778 0.0
0.3889 -1.7778 0.0
0.4444 -1.7778 0.0
0.5 -1.7778 0.0
0.5556 -1.7778 0.0
0.6111 -1.7778 0.0
0.6667 -1.7778 0.0
0.7222 -1.7778 0.0
0.7778 -1.7778 0.0
0.8333 -1.7778 0.0
0.8889 -1.7778 0.0
0.9444 -1.7778 0.0
1 -1.7778 0.0
1.2924 -1.7778 0.0
1.5849 -1.7778 0.0
2.0484 -1.7778 0.0
2.5119 -1.7778 0.0
3.2465 -1.7778 0.0
3.9811 -1.7778 0.0
5.1453 -1.7778 0.0
6.3096 -1.7778 0.0
8.1548 -1.7778 0.0
10 -1.7778 0.0
0 -2 0.0
0.1111 -2 0.0
0.2222 -2 0.0
0.3333 -2 0.0
0.4444 -2 0.0
0.5556 -2 0.0
0.6667 -2 0.0
0.7778 -2 0.0
0.8889 -2 0.0
1 -2 0.0
1.5849 -2 0.0
2.5119 -2 0.0
3.9811 -2 0.0
6.3096 -2 0.0
10 -2 0.0
0 -2.2222 0.0
0.0556 -2.2222 0.0
0.1111 -2.2222 0.0
0.1667 -2.2222 0.0
0.2222 -2.2222 0.0
0.2778 -2.2222 0.0
0.3333 -2.2222 0.0
0.3889 -2.2222 0.0
0.4444 -2.2222 0.0
0.5 -2.2222 0.0
0.5556 -2.2222 0.0
0.6111 -2.2222 0.0
0.6667 -2.2222 0.0
0.7222 -2.2222 0.0
0.7778 -2.2222 0.0
0.8333 -2.2222 0.0
0.8889 -2.2222 0.0
0.9444 -2.2222 0.0
1 -2.2222 0.0
1.2924 -2.2222 0.0
1.5849 -2.2222 0.0
2.0484 -2.2222 0.0
2.5119 -2.2222 0.0
3.2465 -2.2222 0.0
3.9811 -2.2222 0.0
5.1453 -2.2222 0.0
6.3096 -2.2222 0.0
8.1548 -2.2222 0.0
10 -2.2222 0.0
0 -2.4444 0.0
0.1111 -2.4444 0.0
0.2222 -2.4444 0.0
0.3333 -2.4444 0.0
0.4444 -2.4444 0.0
0.5556 -2.4444 0.0
0.6667 -2.4444 0.0
0.7778 -2.4444 0.0
0.8889 -2.4444 0.0
1 -2.4444 0.0
1.5849 -2.4444 0.0
2.5119 -2.4444 0.0
3.9811 -2.4444 0.0
6.3096 -2.4444 0.0
10 -2.4444 0.0
0 -2.6667 0.0
0.0556 -2.6667 0.0
0.1111 -2.6667 0.0
0.1667 -2.6667 0.0
0.2222 -2.6667 0.0
0.2778 -2.6667 0.0
0.3333 -2.6667 0.0
0.3889 -2.6667 0.0
0.4444 -2.6667 0.0
0.5 -2.6667 0.0
0.5556 -2.6667 0.0
0.6111 -2.6667 0.0
0.6667 -2.6667 0.0
0.7222 -2.6667 0.0
0.7778 -2.6667 0.0
0.8333 -2.6667 0.0
0.8889 -2.6667 0.0
0.9444 -2.6667 0.0
1 -2.6667 0.0
1.2924 -2.6667 0.0
1.5849 -2.6667 0.0
2.0484 -2.6667 0.0
2.5119 -2.6667 0.0
3.2465 -2.6667 0.0
3.9811 -2.6667 0.0
5.1453 -2.6667 0.0
6.3096 -2.6667 0.0
8.1548 -2.6667 0.0
10 -2.6667 0.0
0 -2.8889 0.0
0.1111 -2.8889 0.0
0.2222 -2.8889 0.0
0.3333 -2.8889 0.0
0.4444 -2.8889 0.0
0.5556 -2.8889 0.0
0.6667 -2.8889 0.0
0.7778 -2.8889 0.0
0.8889 -2.8889 0.0
1 -2.8889 0.0
1.5849 -2.8889 0.0
2.5119 -2.8889 0.0
3.9811 -2.8889 0.0
6.3096 -2.8889 0.0
10 -2.8889 0.0
0 -3.1111 0.0
0.0556 -3.1111 0.0
0.1111 -3.1111 0.0
0.1667 -3.1111 0.0
0.2222 -3.1111 0.0
0.2778 -3.1111 0.0
0.3333 -3.1111 0.0
0.3889 -3.1111 0.0
0.4444 -3.1111 0.0
0.5 -3.1111 0.0
0.5556 -3.1111 0.0
0.6111 -3.1111 0.0
0.6667 -3.1111 0.0
0.7222 -3.1111 0.0
0.7778 -3.1111 0.0
0.8333 -3.1111 0.0
0.8889 -3.1111 0.0
0.9444 -3.1111 0.0
1 -3.1111 0.0
1.2924 -3.1111 0.0
1.5849 -3.1111 0.0
2.0484 -3.1111 0.0
2.5119 -3.1111 0.0
3.2465 -3.1111 0.0
3.9811 -3.1111 0.0
5.1453 -3.1111 0.0
6.3096 -3.1111 0.0
8.1548 -3.1111 0.0
10 -3.1111 0.0
0 -3.3333 0.0
0.1111 -3.3333 0.0
0.2222 -3.3333 0.0
0.3333 -3.3333 0.0
0.4444 -3.3333 0.0
0.5556 -3.3333 0.0
0.6667 -3.3333 0.0
0.7778 -3.3333 0.0
0.8889 -3.3333 0.0
1 -3.3333 0.0
1.5849 -3.3333 0.0
2.5119 -3.3333 0.0
3.9811 -3.3333 0.0
6.3096 -3.3333 0.0
10 -3.3333 0.0
0 -3.5556 0.0
0.0556 -3.5556 0.0
0.1111 -3.5556 0.0
0.1667 -3.5556 0.0
0.2222 -3.5556 0.0
0.2778 -3.5556 0.0
0.3333 -3.5556 0.0
0.3889 -3.5556 0.0
0.4444 -3.5556 0.0
0.5 -3.5556 0.0
0.5556 -3.5556 0.0
0.6111 -3.5556 0.0
0.6667 -3.5556 0.0
0.7222 -3.5556 0.0
0.7778 -3.5556 0.0
0.8333 -3.5556 0.0
0.8889 -3.5556 0.0
0.9444 -3.5556 0.0
1 -3.5556 0.0
1.2924 -3.5556 0.0
1.5849 -3.5556 0.0
2.0484 -3.5556 0.0
2.5119 -3.5556 0.0
3.2465 -3.5556 0.0
3.9811 -3.5556 0.0
5.1453 -3.5556 0.0
6.3096 -3.5556 0.0
8.1548 -3.5556 0.0
10 -3.5556 0.0
0 -3.7778 0.0
0.1111 -3.7778 0.0
0.2222 -3.7778 0.0
0.3333 -3.7778 0.0
0.4444 -3.7778 0.0
0.5556 -3.7778 0.0
0.6667 -3.7778 0.0
0.7778 -3.7778 0.0
0.8889 -3.7778 0.0
1 -3.7778 0.0
1.5849 -3.7778 0.0
2.5119 -3.7778 0.0
3.9811 -3.7778 0.0
6.3096 -3.7778 0.0
10 -3.7778 0.0
0 -4 0.0
0.0556 -4 0.0
0.1111 -4 0.0
0.1667 -4 0.0
0.2222 -4 0.0
0.2778 -4 0.0
0.3333 -4 0.0
0.3889 -4 0.0
0.4444 -4 0.0
0.5 -4 0.0
0.5556 -4 0.0
0.6111 -4 0.0
0.6667 -4 0.0
0.7222 -4 0.0
0.7778 -4 0.0
0.8333 -4 0.0
0.8889 -4 0.0
0.9444 -4 0.0
1 -4 0.0
1.2924 -4 0.0
1.5849 -4 0.0
2.0484 -4 0.0
2.5119 -4 0.0
3.2465 -4 0.0
3.9811 -4 0.0
5.1453 -4 0.0
6.3096 -4 0.0
8.1548 -4 0.0
10 -4 0.0
0 -4.3333 0.0
0.1111 -4.3333 0.0
0.2222 -4.3333 0.0
0.3333 -4.3333 0.0
0.4444 -4.3333 0.0
0.5556 -4.3333 0.0
0.6667 -4.3333 0.0
0.7778 -4.3333 0.0
0.8889 -4.3333 0.0
1 -4.3333 0.0
1.5849 -4.3333 0.0
2.5119 -4.3333 0.0
3.9811 -4.3333 0.0
6.3096 -4.3333 0.0
10 -4.3333 0.0
0 -4.6667 0.0
0.0556 -4.6667 0.0
0.1111 -4.6667 0.0
0.1667 -4.6667 0.0
0.2222 -4.6667 0.0
0.2778 -4.6667 0.0
0.3333 -4.6667 0.0
0.3889 -4.6667 0.0
0.4444 -4.6667 0.0
0.5 -4.6667 0.0
0.5556 -4.6667 0.0
0.6111 -4.6667 0.0
0.6667 -4.6667 0.0
0.7222 -4.6667 0.0
0.7778 -4.6667 0.0
0.8333 -4.6667 0.0
0.8889 -4.6667 0.0
0.9444 -4.6667 0.0
1 -4.6667 0.0
1.2924 -4.6667 0.0
1.5849 -4.6667 0.0
2.0484 -4.6667 0.0
2.5119 -4.6667 0.0
3.2465 -4.6667 0.0
3.9811 -4.6667 0.0
5.1453 -4.6667 0.0
6.3096 -4.6667 0.0
8.1548 -4.6667 0.0
10 -4.6667 0.0
0 -5 0.0
0.1111 -5 0.0
0.2222 -5 0.0
0.3333 -5 0.0
0.4444 -5 0.0
0.5556 -5 0.0
0.6667 -5 0.0
0.7778 -5 0.0
0.8889 -5 0.0
1 -5 0.0
1.5849 -5 0.0
2.5119 -5 0.0
3.9811 -5 0.0
6.3096 -5 0.0
10 -5 0.0
0 -5.3333 0.0
0.0556 -5.3333 0.0
0.1111 -5.3333 0.0
0.1667 -5.3333 0.0
0.2222 -5.3333 0.0
0.2778 -5.3333 0.0
0.3333 -5.3333 0.0
0.3889 -5.3333 0.0
0.4444 -5.3333 0.0
0.5 -5.3333 0.0
0.5556 -5.3333 0.0
0.6111 -5.3333 0.0
0.6667 -5.3333 0.0
0.7222 -5.3333 0.0
0.7778 -5.3333 0.0
0.8333 -5.3333 0.0
0.8889 -5.3333 0.0
0.9444 -5.3333 0.0
1 -5.3333 0.0
1.2924 -5.3333 0.0
1.5849 -5.3333 0.0
2.0484 -5.3333 0.0
2.5119 -5.3333 0.0
3.2465 -5.3333 0.0
3.9811 -5.3333 0.0
5.1453 -5.3333 0.0
6.3096 -5.3333 0.0
8.1548 -5.3333 0.0
10 -5.3333 0.0
0 -5.6667 0.0
0.1111 -5.6667 0.0
0.2222 -5.6667 0.0
0.3333 -5.6667 0.0
0.4444 -5.6667 0.0
0.5556 -5.6667 0.0
0.6667 -5.6667 0.0
0.7778 -5.6667 0.0
0.8889 -5.6667 0.0
1 -5.6667 0.0
1.5849 -5.6667 0.0
2.5119 -5.6667 0.0
3.9811 -5.6667 0.0
6.3096 -5.6667 0.0
10 -5.6667 0.0
0 -6 0.0
0.0556 -6 0.0
0.1111 -6 0.0
0.1667 -6 0.0
0.2222 -6 0.0
0.2778 -6 0.0
0.3333 -6 0.0
0.3889 -6 0.0
0.4444 -6 0.0
0.5 -6 0.0
0.5556 -6 0.0
0.6111 -6 0.0
0.6667 -6 0.0
0.7222 -6 0.0
0.7778 -6 0.0
0.8333 -6 0.0
0.8889 -6 0.0
0.9444 -6 0.0
1 -6 0.0
1.2924 -6 0.0
1.5849 -6 0.0
2.0484 -6 0.0
2.5119 -6 0.0
3.2465 -6 0.0
3.9811 -6 0.0
5.1453 -6 0.0
6.3096 -6 0.0
8.1548 -6 0.0
10 -6 0.0
0 -6.3333 0.0
0.1111 -6.3333 0.0
0.2222 -6.3333 0.0
0.3333 -6.3333 0.0
0.4444 -6.3333 0.0
0.5556 -6.3333 0.0
0.6667 -6.3333 0.0
0.7778 -6.3333 0.0
0.8889 -6.3333 0.0
1 -6.3333 0.0
1.5849 -6.3333 0.0
2.5119 -6.3333 0.0
3.9811 -6.3333 0.0
6.3096 -6.3333 0.0
10 -6.3333 0.0
0 -6.6667 0.0
0.0556 -6.6667 0.0
0.1111 -6.6667 0.0
0.1667 -6.6667 0.0
0.2222 -6.6667 0.0
0.2778 -6.6667 0.0
0.3333 -6.6667 0.0
0.3889 -6.6667 0.0
0.4444 -6.6667 0.0
0.5 -6.6667 0.0
0.5556 -6.6667 0.0
0.6111 -6.6667 0.0
0.6667 -6.6667 0.0
0.7222 -6.6667 0.0
0.7778 -6.6667 0.0
0.8333 -6.6667 0.0
0.8889 -6.6667 0.0
0.9444 -6.6667 0.0
1 -6.6667 0.0
1.2924 -6.6667 0.0
1.5849 -6.6667 0.0
2.0484 -6.6667 0.0
2.5119 -6.6667 0.0
3.2465 -6.6667 0.0
3.9811 -6.6667 0.0
5.1453 -6.6667 0.0
6.3096 -6.6667 0.0
8.1548 -6.6667 0.0
10 -6.6667 0.0
0 -7 0.0
0.1111 -7 0.0
0.2222 -7 0.0
0.3333 -7 0.0
0.4444 -7 0.0
0.5556 -7 0.0
0.6667 -7 0.0
0.7778 -7 0.0
0.8889 -7 0.0
1 -7 0.0
1.5849 -7 0.0
2.5119 -7 0.0
3.9811 -7 0.0
6.3096 -7 0.0
10 -7 0.0
0 -7.3333 0.0
0.0556 -7.3333 0.0
0.1111 -7.3333 0.0
0.1667 -7.3333 0.0
0.2222 -7.3333 0.0
0.2778 -7.3333 0.0
0.3333 -7.3333 0.0
0.3889 -7.3333 0.0
0.4444 -7.3333 0.0
0.5 -7.3333 0.0
0.5556 -7.3333 0.0
0.6111 -7.3333 0.0
0.6667 -7.3333 0.0
0.7222 -7.3333 0.0
0.7778 -7.3333 0.0
0.8333 -7.3333 0.0
0.8889 -7.3333 0.0
0.9444 -7.3333 0.0
1 -7.3333 0.0
1.2924 -7.3333 0.0
1.5849 -7.3333 0.0
2.0484 -7.3333 0.0
2.5119 -7.3333 0.0
3.2465 -7.3333 0.0
3.9811 -7.3333 0.0
5.1453 -7.3333 0.0
6.3096 -7.3333 0.0
8.1548 -7.3333 0.0
10 -7.3333 0.0
0 -7.6667 0.0
0.1111 -7.6667 0.0
0.2222 -7.6667 0.0
0.3333 -7.6667 0.0
0.4444 -7.6667 0.0
0.5556 -7.6667 0.0
0.6667 -7.6667 0.0
0.7778 -7.6667 0.0
0.8889 -7.6667 0.0
1 -7.6667 0.0
1.5849 -7.6667 0.0
2.5119 -7.6667 0.0
3.9811 -7.6667 0.0
6.3096 -7.6667 0.0
10 -7.6667 0.0
0 -8 0.0
0.0556 -8 0.0
0.1111 -8 0.0
0.1667 -8 0.0
0.2222 -8 0.0
0.2778 -8 0.0
0.3333 -8 0.0
0.3889 -8 0.0
0.4444 -8 0.0
0.5 -8 0.0
0.5556 -8 0.0
0.6111 -8 0.0
0.6667 -8 0.0
0.7222 -8 0.0
0.7778 -8 0.0
0.8333 -8 0.0
0.8889 -8 0.0
0.9444 -8 0.0
1 -8 0.0
1.2924 -8 0.0
1.5849 -8 0.0
2.0484 -8 0.0
2.5119 -8 0.0
3.2465 -8 0.0
3.9811 -8 0.0
5.1453 -8 0.0
6.3096 -8 0.0
8.1548 -8 0.0
10 -8 0.0
0 -9 0.0
0.1111 -9 0.0
0.2222 -9 0.0
0.3333 -9 0.0
0.4444 -9 0.0
0.5556 -9 0.0
0.6667 -9 0.0
0.7778 -9 0.0
0.8889 -9 0.0
1 -9 0.0
1.5849 -9 0.0
2.5119 -9 0.0
3.9811 -9 0.0
6.3096 -9 0.0
10 -9 0.0
0 -10 0.0
0.0556 -10 0.0
0.1111 -10 0.0
0.1667 -10 0.0
0.2222 -10 0.0
0.2778 -10 0.0
0.3333 -10 0.0
0.3889 -10 0.0
0.4444 -10 0.0
0.5 -10 0.0
0.5556 -10 0.0
0.6111 -10 0.0
0.6667 -10 0.0
0.7222 -10 0.0
0.7778 -10 0.0
0.8333 -10 0.0
0.8889 -10 0.0
0.9444 -10 0.0
1 -10 0.0
1.2924 -10 0.0
1.5849 -10 0.0
2.0484 -10 0.0
2.5119 -10 0.0
3.2465 -10 0.0
3.9811 -10 0.0
5.1453 -10 0.0
6.3096 -10 0.0
8.1548 -10 0.0
10 -10 0.0
0 -11 0.0
0.1111 -11 0.0
0.2222 -11 0.0
0.3333 -11 0.0
0.4444 -11 0.0
0.5556 -11 0.0
0.6667 -11 0.0
0.7778 -11 0.0
0.8889 -11 0.0
1 -11 0.0
1.5849 -11 0.0
2.5119 -11 0.0
3.9811 -11 0.0
6.3096 -11 0.0
10 -11 0.0
0 -12 0.0
0.0556 -12 0.0
0.1111 -12 0.0
0.1667 -12 0.0
0.2222 -12 0.0
0.2778 -12 0.0
0.3333 -12 0.0
0.3889 -12 0.0
0.4444 -12 0.0
0.5 -12 0.0
0.5556 -12 0.0
0.6111 -12 0.0
0.6667 -12 0.0
0.7222 -12 0.0
0.7778 -12 0.0
0.8333 -12 0.0
0.8889 -12 0.0
0.9444 -12 0.0
1 -12 0.0
1.2924 -12 0.0
1.5849 -12 0.0
2.0484 -12 0.0
2.5119 -12 0.0
3.2465 -12 0.0
3.9811 -12 0.0
5.1453 -12 0.0
6.3096 -12 0.0
8.1548 -12 0.0
10 -12 0.0
0 -13 0.0
0.1111 -13 0.0
0.2222 -13 0.0
0.3333 -13 0.0
0.4444 -13 0.0
0.5556 -13 0.0
0.6667 -13 0.0
0.7778 -13 0.0
0.8889 -13 0.0
1 -13 0.0
1.5849 -13 0.0
2.5119 -13 0.0
3.9811 -13 0.0
6.3096 -13 0.0
10 -13 0.0
0 -14 0.0
0.0556 -14 0.0
0.1111 -14 0.0
0.1667 -14 0.0
0.2222 -14 0.0
0.2778 -14 0.0
0.3333 -14 0.0
0.3889 -14 0.0
0.4444 -14 0.0
0.5 -14 0.0
0.5556 -14 0.0
0.6111 -14 0.0
0.6667 -14 0.0
0.7222 -14 0.0
0.7778 -14 0.0
0.8333 -14 0.0
0.8889 -14 0.0
0.9444 -14 0.0
1 -14 0.0
1.2924 -14 0.0
1.5849 -14 0.0
2.0484 -14 0.0
2.5119 -14 0.0
3.2465 -14 0.0
3.9811 -14 0.0
5.1453 -14 0.0
6.3096 -14 0.0
8.1548 -14 0.0
10 -14 0.0

CELLS 252 2268
8  0  2 46 44  1 30 45 29
8  2  4 48 46  3 31 47 30
8  4  6 50 48  5 32 49 31
8  6  8 52 50  7 33 51 32
8  8 10 54 52  9 34 53 33
8 10 12 56 54 11 35 55 34
8 12 14 58 56 13 36 57 35
8 14 16 60 58 15 37 59 36
8 16 18 62 60 17 38 61 37
8 18 20 64 62 19 39 63 38
8 20 22 66 64 21 40 65 39
8 22 24 68 66 23 41 67 40
8 24 26 70 68 25 42 69 41
8 26 28 72 70 27 43 71 42
8 44 46 90 88 45 74 89 73
8 46 48 92 90 47 75 91 74
8 48 50 94 92 49 76 93 75
8 50 52 96 94 51 77 95 76
8 52 54 98 96 53 78 97 77
8  54  56 100  98  55  79  99  78
8  56  58 102 100  57  80 101  79
8  58  60 104 102  59  81 103  80
8  60  62 106 104  61  82 105  81
8  62  64 108 106  63  83 107  82
8  64  66 110 108  65  84 109  83
8  66  68 112 110  67  85 111  84
8  68  70 114 112  69  86 113  85
8  70  72 116 114  71  87 115  86
8  88  90 134 132  89 118 133 117
8  90  92 136 134  91 119 135 118
8  92  94 138 136  93 120 137 119
8  94  96 140 138  95 121 139 120
8  96  98 142 140  97 122 141 121
8  98 100 144 142  99 123 143 122
8 100 102 146 144 101 124 145 123
8 102 104 148 146 103 125 147 124
8 104 106 150 148 105 126 149 125
8 106 108 152 150 107 127 151 126
8 108 110 154 152 109 128 153 127
8 110 112 156 154 111 129 155 128
8 112 114 158 156 113 130 157 129
8 114 116 160 158 115 131 159 130
8 132 134 178 176 133 162 177 161
8 134 136 180 178 135 163 179 162
8 136 138 182 180 137 164 181 163
8 138 140 184 182 139 165 183 164
8 140 142 186 184 141 166 185 165
8 142 144 188 186 143 167 187 166
8 144 146 190 188 145 168 189 167
8 146 148 192 190 147 169 191 168
8 148 150 194 192 149 170 193 169
8 150 152 196 194 151 171 195 170
8 152 154 198 196 153 172 197 171
8 154 156 200 198 155 173 199 172
8 156 158 202 200 157 174 201 173
8 158 160 204 202 159 175 203 174
8 176 178 222 220 177 206 221 205
8 178 180 224 222 179 207 223 206
8 180 182 226 224 181 208 225 207
8 182 184 228 226 183 209 227 208
8 184 186 230 228 185 210 229 209
8 186 188 232 230 187 211 231 210
8 188 190 234 232 189 212 233 211
8 190 192 236 234 191 213 235 212
8 192 194 238 236 193 214 237 213
8 194 196 240 238 195 215 239 214
8 196 198 242 240 197 216 241 215
8 198 200 244 242 199 217 243 216
8 200 202 246 244 201 218 245 217
8 202 204 248 246 203 219 247 218
8 220 222 266 264 221 250 265 249
8 222 224 268 266 223 251 267 250
8 224 226 270 268 225 252 269 251
8 226 228 272 270 227 253 271 252
8 228 230 274 272 229 254 273 253
8 230 232 276 274 231 255 275 254
8 232 234 278 276 233 256 277 255
8 234 236 280 278 235 257 279 256
8 236 238 282 280 237 258 281 257
8 238 240 284 282 239 259 283 258
8 240 242 286 284 241 260 285 259
8 242 244 288 286 243 261 287 260
8 244 246 290 288 245 262 289 261
8 246 248 292 290 247 263 291 262
8 264 266 310 308 265 294 309 293
8 266 268 312 310 267 295 311 294
8 268 270 314 312 269 296 313 295
8 270 272 316 314 271 297 315 296
8 272 274 318 316 273 298 317 297
8 274 276 320 318 275 299 319 298
8 276 278 322 320 277 300 321 299
8 278 280 324 322 279 301 323 300
8 280 282 326 324 281 302 325 301
8 282 284 328 326 283 303 327 302
8 284 286 330 328 285 304 329 303
8 286 288 332 330 287 305 331 304
8 288 290 334 332 289 306 333 305
8 290 292 336 334 291 307 335 306
8 308 310 354 352 309 338 353 337
8 310 312 356 354 311 339 355 338
8 312 314 358 356 313 340 357 339
8 314 316 360 358 315 341 359 340
8 316 318 362 360 317 342 361 341
8 318 320 364 362 319 343 363 342
8 320 322 366 364 321 344 365 343
8 322 324 368 366 323 345 367 344
8 324 326 370 368 325 346 369 345
8 326 328 372 370 327 347 371 346
8 328 330 374 372 329 348 373 347
8 330 332 376 374 331 349 375 348
8 332 334 378 376 333 350 377 349
8 334 336 380 378 335 351 379 350
8 352 354 398 396 353 382 397 381
8 354 356 400 398 355 383 399 382
8 356 358 402 400 357 384 401 383
8 358 360 404 402 359 385 403 384
8 360 362 406 404 361 386 405 385
8 362 364 408 406 363 387 407 386
8 364 366 410 408 365 388 409 387
8 366 368 412 410 367 389 411 388
8 368 370 414 412 369 390 413 389
8 370 372 416 414 371 391 415 390
8 372 374 418 416 373 392 417 391
8 374 376 420 418 375 393 419 392
8 376 378 422 420 377 394 421 393
8 378 380 424 422 379 395 423 394
8 396 398 442 440 397 426 441 425
8 398 400 444 442 399 427 443 426
8 400 402 446 444 401 428 445 427
8 402 404 448 446 403 429 447 428
8 404 406 450 448 405 430 449 429
8 406 408 452 450 407 431 451 430
8 408 410 454 452 409 432 453 431
8 410 412 456 454 411 433 455 432
8 412 414 458 456 413 434 457 433
8 414 416 460 458 415 435 459 434
8 416 418 462 460 417 436 461 435
8 418 420 464 462 419 437 463 436
8 420 422 466 464 421 438 465 437
8 422 424 468 466 423 439 467 438
8 440 442 486 484 441 470 485 469
8 442 444 488 486 443 471 487 470
8 444 446 490 488 445 472 489 471
8 446 448 492 490 447 473 491 472
8 448 450 494 492 449 474 493 473
8 450 452 496 494 451 475 495 474
8 452 454 498 496 453 476 497 475
8 454 456 500 498 455 477 499 476
8 456 458 502 500 457 478 501 477
8 458 460 504 502 459 479 503 478
8 460 462 506 504 461 480 505 479
8 462 464 508 506 463 481 507 480
8 464 466 510 508 465 482 509 481
8 466 468 512 510 467 483 511 482
8 484 486 530 528 485 514 529 513
8 486 488 532 530 487 515 531 514
8 488 490 534 532 489 516 533 515
8 490 492 536 534 491 517 535 516
8 492 494 538 536 493 518 537 517
8 494 496 540 538 495 519 539 518
8 496 498 542 540 497 520 541 519
8 498 500 544 542 499 521 543 520
8 500 502 546 544 501 522 545 521
8 502 504 548 546 503 523 547 522
8 504 506 550 548 505 524 549 523
8 506 508 552 550 507 525 551 524
8 508 510 554 552 509 526 553 525
8 510 512 556 554 511 527 555 526
8 528 530 574 572 529 558 573 557
8 530 532 576 574 531 559 575 558
8 532 534 578 576 533 560 577 559
8 534 536 580 578 535 561 579 560
8 536 538 582 580 537 562 581 561
8 538 540 584 582 539 563 583 562
8 540 542 586 584 541 564 585 563
8 542 544 588 586 543 565 587 564
8 544 546 590 588 545 566 589 565
8 546 548 592 590 547 567 591 566
8 548 550 594 592 549 568 593 567
8 550 552 596 594 551 569 595 568
8 552 554 598 596 553 570 597 569
8 554 556 600 598 555 571 599 570
8 572 574 618 616 573 602 617 601
8 574 576 620 618 575 603 619 602
8 576 578 622 620 577 604 621 603
8 578 580 624 622 579 605 623 604
8 580 582 626 624 581 606 625 605
8 582 584 628 626 583 607 627 606
8 584 586 630 628 585 608 629 607
8 586 588 632 630 587 609 631 608
8 588 590 634 632 589 610 633 609
8 590 592 636 634 591 611 635 610
8 592 594 638 636 593 612 637 611
8 594 596 640 638 595 613 639 612
8 596 598 642 640 597 614 641 613
8 598 600 644 642 599 615 643 614
8 616 618 662 660 617 646 661 645
8 618 620 664 662 619 647 663 646
8 620 622 666 664 621 648 665 647
8 622 624 668 666 623 649 667 648
8 624 626 670 668 625 650 669 649
8 626 628 672 670 627 651 671 650
8 628 630 674 672 629 652 673 651
8 630 632 676 674 631 653 675 652
8 632 634 678 676 633 654 677 653
8 634 636 680 678 635 655 679 654
8 636 638 682 680 637 656 681 655
8 638 640 684 682 639 657 683 656
8 640 642 686 684 641 658 685 657
8 642 644 688 686 643 659 687 658
8 660 662 706 704 661 690 705 689
8 662 664 708 706 663 691 707 690
8 664 666 710 708 665 692 709 691
8 666 668 712 710 667 693 711 692
8 668 670 714 712 669 694 713 693
8 670 672 716 714 671 695 715 694
8 672 674 718 716 673 696 717 695
8 674 676 720 718 675 697 719 696
8 676 678 722 720 677 698 721 697
8 678 680 724 722 679 699 723 698
8 680 682 726 724 681 700 725 699
8 682 684 728 726 683 701 727 700
8 684 686 730 728 685 702 729 701
8 686 688 732 730 687 703 731 702
8 704 706 750 748 705 734 749 733
8 706 708 752 750 707 735 751 734
8 708 710 754 752 709 736 753 735
8 710 712 756 754 711 737 755 736
8 712 714 758 756 713 738 757 737
8 714 716 760 758 715 739 759 738
8 716 718 762 760 717 740 761 739
8 718 720 764 762 719 741 763 740
8 720 722 766 764 721 742 765 741
8 722 724 768 766 723 743 767 742
8 724 726 770 768 725 744 769 743
8 726 728 772 770 727 745 771 744
8 728 730 774 772 729 746 773 745
8 730 732 776 774 731 747 775 746
8 748 750 794 792 749 778 793 777
8 750 752 796 794 751 779 795 778
8 752 754 798 796 753 780 797 779
8 754 756 800 798 755 781 799 780
8 756 758 802 800 757 782 801 781
8 758 760 804 802 759 783 803 782
8 760 762 806 804 761 784 805 783
8 762 764 808 806 763 785 807 784
8 764 766 810 808 765 786 809 785
8 766 768 812 810 767 787 811 786
8 768 770 814 812 769 788 813 787
8 770 772 816 814 771 789 815 788
8 772 774 818 816 773 790 817 789
8 774 776 820 818 775 791 819 790

CELL_TYPES 252
23
23
23
23
23
23
23
23
23
23
23
23
23
23
23
23
23
23
23
23
23
23
23
23
23
23
23
23
23
23
23
23
23
23
23
23
23
23
23
23
23
23
23
23
23
23
23
23
23
23
23
23
23
23
23
23
23
23
23
23
23
23
23
23
23
23
23
23
23
23
23
23
23
23
23
23
23
23
23
23
23
23
23
23
23
23
23
23
23
23
23
23
23
23
23
23
23
23
23
23
23
23
23
23
23
23
23
23
23
23
23
23
23
23
23
23
23
23
23
23
23
23
23
23
23
23
23
23
23
23
23
23
23
23
23
23
23
23
23
23
23
23
23
23
23
23
23
23
23
23
23
23
23
23
23
23
23
23
23
23
23
23
23
23
23
23
23
23
23
23
23
23
23
23
23
23
23
23
23
23
23
23
23
23
23
23
23
23
23
23
23
23
23
23
23
23
23
23
23
23
23
23
23
23
23
23
23
23
23
23
23
23
23
23
23
23
23
23
23
23
23
23
23
23
23
23
23
23
23
23
23
23
23
23
23
23
23
23
23
23
23
23
23
23
23
23
23
23
23
23
23
23

POINT_DATA 821
SCALARS Displacement_R double 1
LOOKUP_TABLE default
0
-0.047651
-0.0960852
-0.113833
-0.128176
-0.13449
-0.137558
-0.136373
-0.13299
-0.125178
-0.115992
-0.107571
-0.0984341
-0.0914348
-0.0843051
-0.0787611
-0.0733218
-0.0688656
-0.064578
-0.0510772
-0.0408791
-0.0322581
-0.0261754
-0.0203765
-0.0160587
-0.0115213
-0.00780935
-0.00353456
0
0
0.0263073
0.0196203
0.00902232
-0.00171543
-0.0136788
-0.022404
-0.0272757
-0.0296789
-0.0306741
-0.0273542
-0.0204622
-0.0136372
-0.00690833
0
0
0.00214864
0.000883683
0.0101418
0.0160474
0.0200646
0.021724
0.0218437
0.0203915
0.0187421
0.016408
0.0133983
0.0104797
0.0070175
0.00398042
0.000978447
-0.00155841
-0.00385505
-0.00574898
-0.0126092
-0.0149134
-0.0157618
-0.0150294
-0.0132113
-0.011289
-0.00850138
-0.00602409
-0.00275075
0
0
0.0094957
0.0156132
0.0200827
0.0217285
0.0207395
0.0179614
0.0143337
0.0104353
0.00670891
-0.00564061
-0.0101708
-0.0090283
-0.00514262
0
0
0.00210847
0.00497468
0.00792392
0.0113257
0.0132499
0.0151934
0.0163984
0.0173734
0.0180151
0.018293
0.0182712
0.0178474
0.0172807
0.0163793
0.0154583
0.0143218
0.0131848
0.0119371
0.00595313
0.00109112
-0.00362025
-0.00584562
-0.00703694
-0.00688673
-0.00574437
-0.004284
-0.00201509
0
0
0.00450074
0.00825964
0.0115464
0.0139274
0.0152888
0.0157817
0.015517
0.0146683
0.0134344
0.00521851
-0.00240655
-0.00495352
-0.00346334
0
0
0.0016785
0.00305633
0.00475656
0.006204
0.00759541
0.00877843
0.00990748
0.0108636
0.0116906
0.0123805
0.0128885
0.0132884
0.0135112
0.0136401
0.013621
0.0135161
0.0132942
0.0129989
0.0106495
0.00754913
0.00339369
0.000403403
-0.0021536
-0.0031628
-0.00327266
-0.00266967
-0.00132552
0
0
0.00246873
0.00482442
0.00694894
0.00873376
0.0101493
0.0111635
0.0117895
0.0120596
0.0120197
0.00876894
0.00252619
-0.00158888
-0.0019219
0
0
0.000939981
0.00195195
0.00288721
0.00384346
0.00471071
0.00556181
0.00634377
0.00708258
0.0077532
0.00836184
0.00890163
0.00936958
0.00977321
0.0101037
0.0103721
0.0105728
0.0107173
0.0108019
0.0104369
0.00916291
0.00659754
0.00412078
0.00139419
-0.000165941
-0.00111555
-0.00120353
-0.000685107
0
0
0.00159517
0.00312874
0.00457175
0.0058782
0.00701676
0.00796795
0.00872188
0.00927909
0.00964445
0.00917861
0.00528229
0.00106695
-0.000532904
0
0
0.00067286
0.00131538
0.00197253
0.00260317
0.00322674
0.00382247
0.00440107
0.00495007
0.00547088
0.00596155
0.00641574
0.00683916
0.00722275
0.00757391
0.00788444
0.0081613
0.00840175
0.00860856
0.00912621
0.00891833
0.00771967
0.00609744
0.00382278
0.00216227
0.00073033
0.000108165
-9.63762e-05
0
0
0.00112019
0.00221895
0.00327077
0.00425553
0.0051582
0.00596323
0.00666261
0.00725157
0.00772688
0.00858636
0.00668988
0.00311589
0.000705274
0
0
0.000484024
0.000972204
0.00145136
0.0019271
0.00239193
0.00284809
0.00329111
0.00372109
0.00413548
0.00453382
0.00491313
0.00527431
0.00561491
0.00593557
0.00623431
0.00651222
0.00676896
0.00700457
0.00787493
0.00822304
0.00795249
0.00710301
0.00546978
0.0039626
0.00230066
0.00127375
0.000440738
0
0
0.000862535
0.00171115
0.00253554
0.00332383
0.00406651
0.00475411
0.00538065
0.00594148
0.00643282
0.00790673
0.00743711
0.00472091
0.00180501
0
0
0.000392214
0.00078093
0.00117072
0.00155531
0.00193565
0.002309
0.00267608
0.00303427
0.00338426
0.00372446
0.00405328
0.00437161
0.00467705
0.00497085
0.00525068
0.00551791
0.00577111
0.00601103
0.00702762
0.0076682
0.00799015
0.0077207
0.0066832
0.00541144
0.00365184
0.00230908
0.000927731
0
0
0.000732112
0.00145483
0.00216141
0.00284537
0.00350074
0.00412114
0.00470273
0.00524179
0.005735
0.00753875
0.00802585
0.00606588
0.00278421
0
0
0.00034896
0.000693971
0.00104917
0.00140079
0.00174653
0.00208757
0.00242116
0.00274941
0.003071
0.00338669
0.00369424
0.00399524
0.00428734
0.00457179
0.00484654
0.00511273
0.0053688
0.00561558
0.0067326
0.00755624
0.00826035
0.00838184
0.00777764
0.00669369
0.00485304
0.00323456
0.00136803
0
0
0.000733131
0.00141485
0.00208375
0.00274181
0.00338316
0.0040005
0.00458937
0.00514562
0.00566581
0.00774612
0.00884357
0.00732973
0.00366106
0
0
0.000325808
0.000653161
0.00103004
0.0013975
0.00176027
0.00211828
0.00247261
0.00282125
0.00316489
0.00350237
0.00383252
0.00415617
0.00447153
0.00477954
0.0050785
0.00536936
0.00565068
0.00592325
0.00718541
0.00816654
0.00911288
0.00944796
0.00902925
0.00797514
0.00597528
0.00406451
0.0017662
0
0
0.000447104
0.00110942
0.0017438
0.00235556
0.00294603
0.00351315
0.00405577
0.00457199
0.00505984
0.00711147
0.0085403
0.00764086
0.00414545
0
0
0.000249868
0.000499367
0.000769808
0.00102988
0.00128714
0.00154086
0.0017948
0.00204559
0.00229501
0.00254128
0.00278405
0.00302353
0.00325865
0.0034899
0.00371612
0.00393797
0.00415431
0.00436581
0.00537998
0.00622447
0.00717721
0.00769984
0.00777545
0.00722781
0.00577967
0.00414634
0.00187495
0
0
0.000482141
0.000929163
0.00136457
0.00179392
0.00221693
0.00263072
0.00303338
0.00342282
0.00379717
0.00546716
0.0069323
0.00678649
0.00408122
0
0
0.000191256
0.000380687
0.000578968
0.000776875
0.000974101
0.00116943
0.00136176
0.00155207
0.00173964
0.00192536
0.00210795
0.00228876
0.00246647
0.00264209
0.00281449
0.00298446
0.003151
0.0033148
0.00411722
0.00481495
0.00567055
0.00622878
0.00653551
0.00630919
0.005302
0.00395528
0.00185109
0
0
0.000342039
0.000680607
0.00101573
0.00134715
0.00167331
0.00199223
0.00230314
0.00260505
0.00289707
0.00424051
0.00557753
0.00582403
0.00378589
0
0
0.000146896
0.00029357
0.000441922
0.000589306
0.000736166
0.000882201
0.00102715
0.00117092
0.00131378
0.0014554
0.00159548
0.00173432
0.00187141
0.00200702
0.00214066
0.00227263
0.0024024
0.00253032
0.00316494
0.00372926
0.00445645
0.00497415
0.00536401
0.00532231
0.00464264
0.00356984
0.00171769
0
0
0.000256392
0.000511351
0.000764774
0.00101568
0.00126332
0.00150645
0.00174458
0.00197697
0.00220295
0.00326449
0.0044042
0.00481654
0.00332165
0
0
0.000110429
0.000220506
0.000330574
0.000440204
0.000549719
0.000658545
0.000767086
0.000874816
0.00098208
0.0010886
0.00119406
0.00129882
0.00140237
0.00150507
0.0016064
0.00170674
0.00180559
0.00190329
0.0023918
0.00283365
0.00342044
0.00386049
0.00424524
0.00429676
0.00385454
0.00303506
0.0014936
0
0
0.000186977
0.000373765
0.000559455
0.000743487
0.000925538
0.00110478
0.00128087
0.0014533
0.00162162
0.00242377
0.00332908
0.00376586
0.00271994
0
0
7.82108e-05
0.000156468
0.000233445
0.000310424
0.000387203
0.000463735
0.000540225
0.000616282
0.000692171
0.000767613
0.000842462
0.000916875
0.000990565
0.00106371
0.00113602
0.00120768
0.00127841
0.0013484
0.00170078
0.00202258
0.00245988
0.00279898
0.00312394
0.00321163
0.00294773
0.00236918
0.00119006
0
0
0.000119584
0.000242714
0.000366018
0.000488483
0.000609718
0.000729163
0.000846633
0.000961853
0.00107456
0.00161746
0.00225526
0.00262861
0.00198609
0
0
4.5094e-05
8.99399e-05
0.000135116
0.000179604
0.000224707
0.000269455
0.000314291
0.000358806
0.000403245
0.000447425
0.000491276
0.000534914
0.000578157
0.000621146
0.000663686
0.00070593
0.000747673
0.000789079
0.000998379
0.00119294
0.00146228
0.00168131
0.00191007
0.00200172
0.00189653
0.00156515
0.000810359
0
0
6.47247e-05
0.000135712
0.000203893
0.000270951
0.000337239
0.000402662
0.000467219
0.000530817
0.000593349
0.000900693
0.00128648
0.00157816
0.00129475
0
0
2.25001e-05
4.49533e-05
7.12029e-05
9.67371e-05
0.000122286
0.000147609
0.000172876
0.000197977
0.000222986
0.000247875
0.000272561
0.000297159
0.000321537
0.000345811
0.000369849
0.000393765
0.000417427
0.00044095
0.000560724
0.000674012
0.00083518
0.000973217
0.00113158
0.00121884
0.00120028
0.00102982
0.000553778
0
0
3.6694e-05
7.29205e-05
0.000109299
0.000145635
0.00018184
0.000217754
0.000253327
0.000288488
0.00032317
0.000495467
0.000719888
0.000912713
0.000790316
0
0
1.24855e-05
2.49472e-05
3.7661e-05
5.05059e-05
6.31003e-05
7.56868e-05
8.81833e-05
0.00010064
0.000113043
0.000125412
0.000137693
0.000149949
0.000162117
0.000174248
0.000186287
0.000198276
0.000210166
0.000221996
0.000282748
0.000340397
0.00042412
0.000496264
0.000584008
0.000634531
0.000638124
0.000556146
0.000304321
0
0
1.37994e-05
2.75037e-05
4.12414e-05
5.49313e-05
6.85497e-05
8.20463e-05
9.54119e-05
0.000108627
0.000121672
0.000186747
0.000272845
0.00035039
0.00030974
0
0
0
0
0
0
0
0
0
0
0
0
0
0
0
0
0
0
0
0
0
0
0
0
0
0
0
0
0
0
SCALARS Displacement_Z double 1
LOOKUP_TABLE default
-1.42675
-1.13961
-0.942968
-0.809521
-0.707212
-0.618446
-0.546383
-0.46886
-0.399474
-0.338163
-0.291629
-0.258716
-0.233006
-0.211598
-0.194075
-0.17902
-0.166256
-0.155196
-0.145662
-0.107965
-0.0847991
-0.0615488
-0.0466586
-0.0312512
-0.0212366
-0.0108809
-0.00451999
0.000824526
0.00235706
-0.697453
-0.639326
-0.542944
-0.44438
-0.356351
-0.284627
-0.231963
-0.19459
-0.167079
-0.146069
-0.0851924
-0.0469126
-0.0214185
-0.00466501
0.00222369
-0.42742
-0.439384
-0.415323
-0.409447
-0.390416
-0.372687
-0.349704
-0.32658
-0.302897
-0.281262
-0.259104
-0.239712
-0.221764
-0.20539
-0.190666
-0.177512
-0.165746
-0.155225
-0.145749
-0.108997
-0.0857473
-0.0621681
-0.0472049
-0.0316771
-0.0216175
-0.0111947
-0.00481683
0.000552212
0.00208294
-0.311512
-0.313905
-0.298662
-0.277512
-0.252287
-0.226036
-0.201055
-0.178482
-0.158696
-0.141714
-0.0856167
-0.0474504
-0.0218149
-0.00497365
0.00193456
-0.254984
-0.247248
-0.246346
-0.241677
-0.238685
-0.232325
-0.226094
-0.218867
-0.211168
-0.203053
-0.194968
-0.18679
-0.178509
-0.170559
-0.162656
-0.155203
-0.147953
-0.141094
-0.134535
-0.105907
-0.084929
-0.0625635
-0.0476607
-0.0321671
-0.0220159
-0.011546
-0.00513499
0.000255177
0.00177975
-0.204086
-0.200351
-0.195444
-0.188337
-0.179239
-0.168849
-0.157854
-0.146737
-0.135894
-0.125644
-0.0832957
-0.0476747
-0.0221952
-0.00529458
0.00162199
-0.166989
-0.168392
-0.167298
-0.166542
-0.164694
-0.162739
-0.160177
-0.157403
-0.15432
-0.151016
-0.147428
-0.143706
-0.139857
-0.13592
-0.131933
-0.127935
-0.123935
-0.119952
-0.116002
-0.0969727
-0.0808345
-0.0615287
-0.0475536
-0.0325059
-0.0223599
-0.0119008
-0.00545592
-6.34689e-05
0.00145872
-0.143704
-0.143597
-0.141779
-0.138793
-0.134802
-0.130019
-0.124649
-0.118887
-0.112913
-0.106907
-0.0778705
-0.0471875
-0.022481
-0.00561262
0.00129347
-0.126305
-0.125768
-0.125548
-0.124893
-0.124215
-0.123204
-0.122077
-0.120736
-0.119244
-0.117579
-0.115797
-0.113887
-0.111865
-0.109762
-0.107572
-0.105334
-0.103038
-0.100698
-0.0983279
-0.0860385
-0.0744644
-0.0589261
-0.0466215
-0.0324976
-0.0225708
-0.012216
-0.00576752
-0.000395737
0.00112367
-0.111653
-0.111194
-0.110235
-0.108698
-0.106623
-0.104072
-0.101126
-0.0978606
-0.094354
-0.090694
-0.0709935
-0.0458599
-0.0225996
-0.00591372
0.000953132
-0.0998375
-0.0998831
-0.099682
-0.0994125
-0.098987
-0.0984731
-0.0978377
-0.0971038
-0.0962719
-0.0953459
-0.094329
-0.0932332
-0.092062
-0.0908228
-0.0895213
-0.0881672
-0.086763
-0.0853128
-0.0838243
-0.0756869
-0.0674451
-0.0553296
-0.0449182
-0.0320642
-0.0225813
-0.0124543
-0.00605541
-0.00073319
0.000779168
-0.0904631
-0.0903172
-0.0897785
-0.0888896
-0.0876729
-0.0861549
-0.0843701
-0.0823532
-0.0801407
-0.0777743
-0.0640598
-0.043863
-0.0224989
-0.00618471
0.00060566
-0.0827262
-0.0826628
-0.082562
-0.082374
-0.0821302
-0.081807
-0.081423
-0.0809687
-0.0804538
-0.0798745
-0.0792388
-0.0785472
-0.0778023
-0.0770089
-0.076168
-0.0752862
-0.0743632
-0.0734041
-0.0724104
-0.0667832
-0.0607857
-0.0513544
-0.0426868
-0.0312324
-0.0223611
-0.0125897
-0.00630719
-0.00106831
0.000429851
-0.0761686
-0.0760421
-0.0756942
-0.0751216
-0.0743334
-0.0733413
-0.0721624
-0.0708138
-0.0693141
-0.0676845
-0.0577432
-0.0414679
-0.0221657
-0.00641495
0.000255902
-0.0706088
-0.0705863
-0.0705131
-0.0703968
-0.0702271
-0.070014
-0.0697544
-0.069449
-0.0691008
-0.0687081
-0.0682743
-0.0678006
-0.067288
-0.0667388
-0.066154
-0.0655367
-0.0648871
-0.0642087
-0.0635017
-0.0594036
-0.0548792
-0.0474124
-0.0401868
-0.0300876
-0.0219165
-0.0126114
-0.00651395
-0.00139451
8.08563e-05
-0.0658436
-0.065772
-0.0655331
-0.0651357
-0.064584
-0.0638839
-0.0630444
-0.0620748
-0.0609862
-0.0597906
-0.052236
-0.0389083
-0.0216217
-0.00659775
-9.11147e-05
-0.0616939
-0.0616962
-0.0616495
-0.0615581
-0.0614508
-0.0612986
-0.061115
-0.0608975
-0.0606469
-0.0603625
-0.0600458
-0.0596981
-0.0593195
-0.0589121
-0.0584761
-0.058014
-0.0575255
-0.0570137
-0.056478
-0.0533278
-0.049768
-0.043701
-0.0376092
-0.0287295
-0.0212822
-0.0125244
-0.00667183
-0.00170705
-0.000263148
-0.0579962
-0.0579485
-0.0578345
-0.0575795
-0.0571821
-0.0566572
-0.0560174
-0.0552716
-0.0544285
-0.0534965
-0.0474794
-0.0363361
-0.0209116
-0.0067318
-0.000431271
-0.0542967
-0.0543599
-0.0544964
-0.0546103
-0.0546277
-0.0545515
-0.054431
-0.0542717
-0.0540807
-0.0538598
-0.0536115
-0.0533374
-0.0530382
-0.0527155
-0.0523695
-0.0520019
-0.0516127
-0.0512041
-0.0507755
-0.0482372
-0.0453292
-0.0402733
-0.0350708
-0.0272558
-0.0205115
-0.0123485
-0.00678204
-0.00200213
-0.000598178
-0.0483364
-0.0482912
-0.0481153
-0.0478828
-0.0475769
-0.0471948
-0.0467378
-0.0462081
-0.0456092
-0.0449452
-0.0405821
-0.0320921
-0.0193831
-0.00671621
-0.000829623
-0.0431965
-0.0431278
-0.0429525
-0.0427143
-0.0425333
-0.0423954
-0.0422624
-0.0421277
-0.0419855
-0.0418316
-0.0416659
-0.0414866
-0.041294
-0.0410874
-0.0408672
-0.0406334
-0.0403863
-0.0401266
-0.039854
-0.0382213
-0.0363167
-0.0329007
-0.0292431
-0.0234614
-0.0181904
-0.0114307
-0.00660489
-0.0023271
-0.00104295
-0.0376293
-0.0376114
-0.0374933
-0.0373172
-0.0371006
-0.0368417
-0.0365392
-0.0361924
-0.0358018
-0.0353685
-0.0324804
-0.0265815
-0.0169927
-0.00645187
-0.00122736
-0.033187
-0.0331586
-0.0331378
-0.0331152
-0.0330618
-0.0330133
-0.0329496
-0.0328753
-0.0327896
-0.0326931
-0.0325863
-0.0324697
-0.0323432
-0.0322072
-0.0320617
-0.0319071
-0.0317434
-0.0315712
-0.0313901
-0.0303012
-0.0290154
-0.0266617
-0.0240716
-0.0198184
-0.0157719
-0.0103143
-0.00625652
-0.00252969
-0.00138772
-0.0292664
-0.0292418
-0.0291859
-0.0290931
-0.0289657
-0.0288034
-0.0286075
-0.0283791
-0.0281194
-0.0278298
-0.025871
-0.0217307
-0.014571
-0.00602721
-0.00151792
-0.0257927
-0.0257934
-0.0257819
-0.0257604
-0.0257367
-0.0257026
-0.0256625
-0.0256139
-0.0255586
-0.0254959
-0.0254263
-0.0253499
-0.0252666
-0.0251767
-0.02508
-0.024977
-0.0248674
-0.0247518
-0.02463
-0.0238919
-0.0230109
-0.0213739
-0.0195365
-0.0164318
-0.0133752
-0.0090765
-0.0057614
-0.00260442
-0.00161932
-0.0226911
-0.0226801
-0.0226429
-0.0225822
-0.0224979
-0.0223899
-0.0222592
-0.0221062
-0.0219315
-0.0217359
-0.0203968
-0.0174896
-0.0122147
-0.00546951
-0.00168988
-0.0198922
-0.0198891
-0.0198817
-0.01987
-0.0198524
-0.0198301
-0.0198028
-0.0197706
-0.0197336
-0.0196917
-0.0196451
-0.0195938
-0.0195379
-0.0194774
-0.0194123
-0.0193428
-0.0192688
-0.0191906
-0.0191081
-0.0186062
-0.0180023
-0.0168675
-0.0155739
-0.0133386
-0.0110756
-0.00777742
-0.00514736
-0.00255188
-0.00172831
-0.0173579
-0.0173488
-0.0173242
-0.0172834
-0.0172267
-0.0171541
-0.0170662
-0.0169631
-0.0168454
-0.0167133
-0.0158029
-0.0137863
-0.00997903
-0.00480561
-0.00173575
-0.0150615
-0.0150554
-0.0150484
-0.0150402
-0.0150279
-0.0150128
-0.0149944
-0.0149725
-0.0149475
-0.0149192
-0.0148877
-0.0148531
-0.0148154
-0.0147748
-0.014731
-0.0146843
-0.0146347
-0.0145822
-0.0145268
-0.0141896
-0.0137817
-0.013009
-0.0121169
-0.0105445
-0.00891415
-0.00646062
-0.00443904
-0.0023753
-0.00170868
-0.0129657
-0.0129647
-0.012944
-0.0129126
-0.012872
-0.0128219
-0.0127625
-0.0126937
-0.0126154
-0.0125277
-0.0119228
-0.0105603
-0.00789276
-0.00405667
-0.00165035
-0.0111547
-0.0111347
-0.0111004
-0.0110778
-0.0110569
-0.01104
-0.0110225
-0.0110048
-0.0109859
-0.0109657
-0.0109439
-0.0109205
-0.0108953
-0.0108684
-0.0108397
-0.0108091
-0.0107767
-0.0107425
-0.0107065
-0.0104861
-0.01022
-0.00970926
-0.00911438
-0.00804582
-0.00690858
-0.00515489
-0.00365297
-0.00207758
-0.00155578
-0.00820002
-0.00820379
-0.00819956
-0.00818727
-0.00816871
-0.0081444
-0.00811464
-0.00807956
-0.00803926
-0.00799384
-0.00767609
-0.00694307
-0.00544317
-0.00312233
-0.00155433
-0.00592179
-0.00592465
-0.00593255
-0.00593832
-0.00594055
-0.00594063
-0.00593894
-0.00593565
-0.00593108
-0.00592517
-0.00591818
-0.00591003
-0.0059009
-0.00589071
-0.00587961
-0.00586753
-0.00585457
-0.0058407
-0.00582599
-0.00573385
-0.00562115
-0.00540062
-0.00514005
-0.00465998
-0.00413283
-0.00328909
-0.00252808
-0.00169631
-0.00140906
-0.00412459
-0.00411986
-0.00411552
-0.00410983
-0.00410232
-0.00409279
-0.00408115
-0.00406738
-0.00405146
-0.00403342
-0.00390522
-0.00360273
-0.00296284
-0.00192074
-0.00117442
-0.00255228
-0.00255459
-0.00255516
-0.00255478
-0.0025548
-0.00255354
-0.00255224
-0.00255024
-0.00254808
-0.00254542
-0.00254254
-0.00253926
-0.00253574
-0.00253187
-0.00252774
-0.00252329
-0.00251857
-0.00251354
-0.00250825
-0.00247536
-0.00243538
-0.00235671
-0.00226349
-0.00208901
-0.00189591
-0.00157852
-0.00128653
-0.000958355
-0.000844077
-0.00119459
-0.00119454
-0.00119352
-0.00119218
-0.00119037
-0.00118803
-0.00118517
-0.00118178
-0.00117787
-0.00117344
-0.00114223
-0.00106868
-0.000911029
-0.000650261
-0.000456941
0
0
0
0
0
0
0
0
0
0
0
0
0
0
0
0
0
0
0
0
0
0
0
0
0
0
0
0
0
SCALARS Stress_R double 1
LOOKUP_TABLE default
-93000.7
-79669.2
-54855.5
-32076.7
-22238.9
-14598.5
-8938.05
-4075.01
1104.64
5096.12
6636.55
6835.81
6534.16
5641.69
5136.84
4398.34
3982.25
3490.03
2750.19
1757
1061.01
652.983
375.234
266.388
163.952
125.826
89.1954
66.6658
49.4265
-3974.15
-5317.87
-10233.8
-8944.04
-7527.05
-5908.18
-3767.48
-2127.08
-1145.71
-417.577
242.136
205.398
116.645
71.4226
39.9734
359.306
-3946.89
-2472.67
1978.65
-170.957
-1088.91
-2403.49
-3130.7
-3686.49
-3430.58
-3935.6
-3706.41
-3734.87
-3560.09
-3223.52
-2909.67
-2504.15
-2182.32
-1794.3
-954.123
-211.9
-105.91
60.3429
60.5604
73.3092
64.6842
54.3764
42.6092
30.7755
3120.55
967.538
-201.204
-751.547
-1536.54
-2113.97
-2319.76
-2288.14
-2131.98
-1848.93
-642.516
-93.1063
31.3077
39.1244
22.3111
109.485
527.02
1052.92
1279.28
1109.47
353.896
181.889
-247.817
-387.494
-641.914
-836.1
-1061.51
-1236.46
-1346.44
-1459.8
-1460.72
-1519.36
-1484.27
-1506.88
-1131.22
-812.577
-460.918
-184.853
-94.1328
-2.46785
9.80063
25.0148
19.0491
14.0981
365.374
696.078
514.625
292.215
-33.2111
-343.659
-601.321
-799.354
-918.868
-1034.46
-776.815
-268.33
-39.3642
10.5113
5.90292
812.195
573.566
549.325
641.371
502.777
414.824
302.219
237.168
121.139
43.7714
-74.252
-164.093
-261.826
-346.069
-422.991
-493.047
-555.641
-608.641
-667.322
-687.113
-703.407
-479.514
-311.123
-176.464
-66.5688
-33.9434
-2.51528
-2.88317
-1.90612
606.15
432.52
369.958
276.074
158.222
33.7807
-90.5575
-206.119
-308.085
-417.974
-563.643
-321.372
-92.446
-15.9382
-9.81366
322.462
381.838
404.835
366.822
356.328
304.426
283.056
236.348
203.484
152.147
110.708
59.5273
13.6167
-32.6362
-79.1893
-120.117
-161.963
-197.012
-254.483
-348.661
-445.367
-372.624
-316.664
-201.161
-110.487
-65.9835
-27.8237
-22.9328
-17.3008
265.642
299.647
272.267
233.329
181.004
120.416
55.6015
-9.85026
-73.0119
-143.462
-335.947
-290.832
-124.502
-39.8656
-24.8903
289.776
264.995
255.806
255.229
242.384
230.364
214.393
198.143
178.066
157.384
134.787
111.293
87.474
62.3948
37.9492
12.5323
-10.4795
-33.7237
-66.7303
-155.672
-249.196
-253.951
-263.6
-190.673
-133.639
-87.6542
-50.529
-40.9997
-32.0542
234.657
216.798
205.823
186.3
160.739
130.356
96.2935
60.1112
22.6145
-18.7994
-178.591
-228.532
-138.371
-61.0316
-39.2575
198.604
202.863
203.898
197.086
193.603
185.162
178.714
168.368
159.316
146.999
135.734
122.094
109.1
94.6495
80.4061
65.5152
51.4002
37.0006
17.7641
-49.4962
-122.333
-158.323
-196.797
-164.927
-140.933
-101.578
-70.4803
-57.185
-46.0521
180.51
182.081
174.951
164.483
150.096
132.549
112.523
90.6439
67.4116
42.2127
-77.8927
-164.885
-140.451
-79.5016
-52.7946
180.801
178.5
177.999
176.401
173.406
168.916
164.565
158.669
152.889
145.911
138.88
130.79
122.763
113.78
104.937
95.3124
86.1685
76.4329
65.0025
14.3135
-40.823
-87.7248
-137.23
-137.003
-139.832
-110.93
-87.8842
-71.6856
-59.1493
179.432
175.163
170.899
163.902
154.748
143.389
130.275
115.685
99.8159
83.0765
-10.78
-112.688
-138.057
-95.6817
-65.3755
187.262
182.13
184.4
188.567
184.809
180.791
176.534
171.513
167.429
162.229
157.556
151.768
146.289
139.827
133.571
126.514
119.741
112.332
104.391
62.1062
16.4344
-36.5483
-92.3709
-114.895
-137.681
-118.986
-103.281
-84.7593
-71.2366
208.96
203.685
189.829
187.337
182.51
174.846
164.853
152.997
139.632
125.775
39.2359
-76.7978
-137.837
-110.329
-76.9709
149.719
153.943
156.629
152.082
147.951
145.856
143.282
140.12
136.874
132.967
129.095
124.615
120.202
115.23
110.344
104.962
99.7232
94.0641
88.0653
55.3446
20.0238
-24.9765
-72.4248
-97.8892
-122.265
-108.846
-97.8036
-79.5759
-67.9132
47.3079
52.3514
50.8065
46.0439
40.9987
36.1832
31.3086
26.2144
20.8286
15.5175
-17.7421
-65.9962
-94.3758
-77.868
-55.9364
50.9859
52.3154
44.8236
32.8979
29.4875
29.0357
28.402
27.9904
27.1761
26.1697
25.0239
23.6054
22.1674
20.454
18.7727
16.8382
14.9688
12.8742
10.9153
-1.82673
-15.0824
-34.7536
-56.154
-70.1198
-86.4491
-80.2412
-77.371
-64.7227
-57.7205
23.6868
21.5938
15.4761
14.8706
14.073
12.844
11.0983
8.87365
6.23843
3.68788
-15.8495
-49.4399
-78.9424
-75.9639
-59.1314
11.0976
8.99083
10.2933
13.1435
12.7643
12.2532
11.2351
10.2115
9.31705
8.30576
7.4734
6.4768
5.61192
4.5684
3.61859
2.49221
1.43496
0.213628
-0.802466
-8.54443
-16.3688
-30.0466
-44.7154
-57.9705
-72.9401
-72.5341
-74.4946
-64.609
-59.9389
3.88832
3.19713
2.7276
1.87218
1.05257
-0.0921212
-1.48622
-3.07997
-4.84949
-6.526
-18.8175
-42.0238
-67.782
-72.3873
-60.2531
-3.74249
-3.62751
-3.05506
-2.89172
-3.1658
-3.40342
-3.7094
-4.25565
-4.61248
-5.1399
-5.58591
-6.15771
-6.69689
-7.34143
-7.96612
-8.68533
-9.3883
-10.1779
-10.7987
-15.8828
-20.8699
-30.3322
-40.3473
-51.345
-63.7047
-66.0687
-70.323
-62.8692
-60.1001
-10.0527
-10.1833
-10.5941
-10.8945
-11.4409
-12.162
-13.0226
-14.0154
-15.1334
-16.174
-24.1352
-39.9813
-60.3632
-67.8448
-59.4551
-15.9396
-16.0464
-16.0848
-16.1615
-16.2319
-16.4161
-16.5862
-16.8051
-17.0229
-17.2975
-17.5706
-17.9128
-18.2407
-18.6429
-19.0232
-19.4774
-19.909
-20.4107
-20.7809
-24.0675
-27.1771
-33.5959
-40.2069
-48.477
-57.769
-60.7636
-65.4103
-59.8392
-58.4256
-22.7779
-22.8061
-22.8411
-23.1132
-23.4551
-23.8768
-24.3833
-24.9769
-25.6538
-26.2669
-31.1865
-41.3738
-55.7013
-62.6675
-56.9503
-29.1475
-28.7534
-28.9009
-29.2788
-29.2188
-29.3559
-29.3527
-29.4531
-29.5219
-29.6628
-29.7921
-29.9802
-30.1565
-30.3849
-30.5996
-30.8615
-31.1096
-31.4004
-31.5726
-33.5265
-35.2675
-39.1212
-42.9951
-48.1814
-54.1238
-56.2311
-59.9014
-55.6591
-55.1277
-36.4893
-36.3893
-36.0724
-36.102
-36.2895
-36.5364
-36.8214
-37.1403
-37.4926
-37.8131
-40.2022
-45.2688
-52.8124
-56.8536
-52.9316
-33.2266
-33.6811
-34.0833
-34.5401
-34.7436
-34.5444
-34.6224
-34.6446
-34.7265
-34.8107
-34.9127
-35.0339
-35.1584
-35.3072
-35.4532
-35.6253
-35.7922
-35.9845
-36.1513
-37.4544
-38.6679
-41.4699
-44.1967
-48.6811
-53.469
-56.9072
-61.4936
-59.4778
-60.0898
-29.9628
-30.2658
-31.7014
-32.2998
-32.6239
-32.8949
-33.171
-33.4741
-33.8112
-34.0833
-36.5702
-42.2925
-53.0933
-65.5714
-67.5288
-35.4419
-35.5612
-35.6021
-36.0367
-36.4624
-36.4076
-36.5355
-36.6001
-36.6979
-36.791
-36.8901
-36.9988
-37.1065
-37.227
-37.3448
-37.4771
-37.6065
-37.7508
-37.8907
-38.7957
-39.6999
-41.7519
-43.813
-47.7105
-51.8534
-56.8339
-62.4394
-63.333
-65.2581
-41.6082
-41.6396
-41.9797
-41.8801
-41.9033
-41.9708
-42.0697
-42.1952
-42.3438
-42.4825
-43.6359
-46.3445
-51.8903
-59.851
-62.2229
-45.9851
-45.9464
-45.8438
-45.5977
-45.5726
-45.7173
-45.7354
-45.7925
-45.8164
-45.8591
-45.8871
-45.9281
-45.9607
-46.0046
-46.0431
-46.0915
-46.1365
-46.1907
-46.2131
-46.5895
-46.917
-47.8122
-48.6237
-50.4023
-52.2357
-54.6733
-57.6147
-58.0791
-59.2841
-50.6039
-50.6766
-50.6234
-50.6406
-50.6567
-50.6799
-50.7091
-50.7426
-50.7805
-50.8214
-51.0983
-51.7768
-53.2076
-55.2383
-55.5414
-56.7986
-56.7954
-56.7836
-56.7751
-56.7663
-56.7604
-56.7539
-56.747
-56.7395
-56.7311
-56.7217
-56.7114
-56.7
-56.6876
-56.6741
-56.6596
-56.6439
-56.6274
-56.6095
-56.5051
-56.3673
-56.1166
-55.7973
-55.2288
-54.5715
-53.5039
-52.5505
-51.2846
-51.0091
SCALARS Stress_Z double 1
LOOKUP_TABLE default
-93000.7
-79329.1
-65155.2
-49746.9
-38807.2
-32119.4
-26205.9
-21166.8
-16383
-12468.4
-9426.35
-7704.29
-6296.71
-5398.53
-4573.9
-4012.06
-3485.74
-3103.5
-2807.88
-1727.75
-1158.57
-721.673
-498.166
-305.94
-210.187
-125.574
-81.0941
-44.1862
-25.7172
-3974.14
1586.9
-3155.6
-3739.14
-3283.67
-2929.64
-2628.41
-2271.37
-1959.38
-1679.3
-863.967
-409.711
-186.577
-76.6302
-27.051
359.295
-2612.51
-4913.67
-1621.64
-465.415
-244.054
-39.1602
-195.527
-270.075
-260.087
-389.289
-440.913
-480.18
-597.412
-625.887
-692.518
-699.084
-720.644
-705.201
-701.103
-535.336
-435.589
-322.156
-227.139
-163.221
-105.473
-72.1555
-43.031
-28.3203
3120.55
1547.14
848.302
774.648
608.22
390.56
183.587
16.936
-121.389
-223.477
-347.616
-253.162
-141.591
-67.5029
-29.4957
109.483
228.997
697.871
813.243
1191.36
912.582
883.47
733.219
652.598
565.086
487.596
412.829
328.085
268.436
192.133
150.894
91.4588
55.8541
5.07537
-126.571
-181.563
-213.069
-183.132
-157.679
-119.801
-87.3553
-62.8602
-42.1686
-30.6798
365.374
781.293
672.505
648.412
578.007
488.123
399.287
310.815
229.055
142.618
-78.6237
-135.85
-102.417
-58.775
-31.9143
812.195
690.053
558.484
644.167
617.347
596.699
548.64
529.176
492.394
467.387
431.064
397.704
363.788
329.793
298.026
266.226
235.735
205.87
172.816
76.105
-16.4312
-72.6766
-91.8969
-99.8821
-84.8655
-70.8244
-54.5894
-41.4054
-33.0699
606.15
454.733
438.161
419.366
389.565
356.198
319.17
280.264
240.688
196.663
34.1536
-59.6089
-70.9065
-51.0534
-34.2974
322.462
353.005
396.551
379.082
387.89
369.384
364.068
350.492
340.824
326.214
313.418
298.532
283.235
268.469
252.225
237.514
221.556
206.772
186.504
124.45
55.9026
3.79836
-33.3181
-55.7113
-57.2083
-56.0542
-47.4419
-40.7676
-35.4393
265.642
302.195
294.554
286.14
273.712
258.389
241.022
221.976
201.862
179.12
76.726
-11.7612
-46.0786
-44.4221
-36.6653
289.776
276.394
263.01
265.668
260.626
258.256
253.055
248.92
243.367
237.648
231.223
224.331
217.317
209.697
202.118
194.052
186.252
178.052
167.62
128.458
83.4869
42.2133
4.03027
-23.0663
-35.4889
-43.1432
-41.3649
-40.2419
-37.8023
234.657
220.38
217.909
213.269
206.915
199.188
190.14
180.043
169.011
156.672
91.9749
18.7099
-26.3728
-38.7803
-39.0112
198.604
200.896
204.291
201.931
201.579
199.108
197.476
194.675
192.183
188.843
185.642
181.872
178.062
173.907
169.613
165.134
160.628
155.956
150.195
124.935
95.5019
63.0386
29.3824
1.24648
-17.9584
-31.9408
-36.2028
-39.8312
-40.1374
180.51
182.976
181.044
178.462
174.822
170.239
164.843
158.724
151.955
144.514
101.007
40.5669
-10.1382
-33.9564
-41.314
180.801
179.593
178.69
178.645
178.068
176.909
175.635
174.027
172.301
170.338
168.256
165.918
163.511
160.844
158.129
155.189
152.26
149.142
145.642
127.596
106.713
79.4484
49.8086
20.846
-3.01533
-22.1477
-31.7745
-39.5374
-42.4125
179.432
176.712
175.277
173.267
170.659
167.331
163.394
158.92
153.945
148.614
114.853
60.5226
4.19781
-29.7743
-43.5445
187.262
183.431
182.444
185.165
186.122
185.303
184.768
183.176
181.897
180.097
178.445
176.452
174.512
172.308
170.108
167.697
165.289
162.713
160.007
144.379
126.593
100.106
71.1523
39.2465
10.8218
-13.387
-27.8997
-39.3598
-44.5934
208.96
211.189
202.672
199.126
196.171
192.993
189.338
185.146
180.422
175.407
142.033
84.2316
18.0607
-26.1151
-45.6772
149.719
153.109
139.404
134.196
138.877
140.679
141.205
141.17
140.719
139.973
139.027
137.861
136.579
135.11
133.566
131.86
130.11
128.23
126.244
114.416
100.922
80.0548
57.3895
31.6844
8.14687
-11.5801
-24.5201
-34.4534
-39.8112
47.3079
26.4461
31.2305
36.6373
38.1557
38.3983
38.0311
37.3031
36.3229
35.2943
26.9319
10.6373
-9.91002
-25.0035
-33.9627
50.9859
52.2909
39.0458
29.1739
29.4789
29.9245
29.7514
29.7993
29.6343
29.4841
29.2583
28.9832
28.6824
28.3149
27.9423
27.5022
27.0686
26.5727
26.1186
22.813
19.1207
13.0729
5.4986
-2.19866
-12.0147
-19.0757
-25.7189
-30.8897
-34.8194
23.6868
24.4256
21.1877
19.9284
19.057
18.3939
17.7841
17.1566
16.4813
15.88
11.0201
0.96983
-13.6419
-26.481
-35.7192
11.0976
9.32428
9.02121
10.6683
11.2147
11.5506
11.7318
11.6391
11.5868
11.362
11.2037
10.9384
10.7265
10.4402
10.1932
9.88919
9.61377
9.29384
9.04431
6.98354
4.91498
1.04159
-3.573
-9.00175
-16.0406
-21.4993
-27.4847
-32.1426
-36.4133
3.88832
3.63682
3.32041
3.00705
2.83126
2.59662
2.29578
1.93956
1.53644
1.17227
-1.74224
-8.02954
-18.1646
-28.4363
-37.0901
-3.74249
-3.63716
-3.43371
-3.19475
-3.03415
-3.06781
-3.05009
-3.19545
-3.27575
-3.40699
-3.51769
-3.65036
-3.77799
-3.92369
-4.06715
-4.22946
-4.3894
-4.56821
-4.69538
-5.90339
-7.09123
-9.51058
-12.3097
-15.9572
-20.7837
-24.6946
-29.6068
-33.4223
-37.6046
-10.0527
-10.1194
-10.277
-10.3262
-10.4198
-10.5557
-10.723
-10.9185
-11.1409
-11.3283
-12.9834
-16.7352
-23.2805
-30.7135
-38.0725
-15.9396
-16.0118
-16.0122
-16.0237
-16.0433
-16.0769
-16.1169
-16.1595
-16.2031
-16.2552
-16.3044
-16.3703
-16.429
-16.507
-16.5762
-16.6642
-16.744
-16.8405
-16.8946
-17.5651
-18.1625
-19.5405
-21.0678
-23.2064
-26.1519
-28.4884
-32.0106
-34.7018
-38.4071
-22.7779
-22.7964
-22.7484
-22.7819
-22.8311
-22.8922
-22.9642
-23.0484
-23.1452
-23.211
-23.9445
-25.7183
-29.0498
-33.2745
-38.6864
-29.1475
-28.7954
-28.6447
-28.8989
-28.9302
-29.0058
-29.0263
-29.051
-29.0614
-29.0762
-29.0857
-29.1024
-29.1147
-29.1354
-29.1514
-29.1762
-29.1963
-29.2247
-29.216
-29.4424
-29.5739
-30.037
-30.511
-31.146
-32.3127
-32.8646
-34.7048
-35.963
-38.8514
-36.4893
-36.8234
-36.4708
-36.314
-36.2345
-36.1859
-36.1516
-36.1241
-36.1001
-36.0569
-35.918
-35.7838
-35.7722
-36.1686
-38.9679
-33.2266
-33.6435
-34.2012
-34.3993
-34.6452
-34.5384
-34.546
-34.5108
-34.4986
-34.4837
-34.4746
-34.4713
-34.4683
-34.4725
-34.4749
-34.4842
-34.4909
-34.5029
-34.5048
-34.6452
-34.7262
-35.0635
-35.3732
-35.9993
-36.9304
-37.8638
-39.762
-41.5548
-44.4753
-29.9628
-31.6818
-32.2199
-32.1498
-32.1995
-32.2739
-32.3565
-32.4451
-32.5397
-32.6186
-33.2539
-34.7359
-37.9807
-43.6703
-50.6437
-35.4419
-35.5592
-37.1648
-37.7355
-37.4353
-37.1806
-37.0638
-36.9853
-36.9373
-36.9113
-36.8955
-36.8941
-36.8968
-36.9095
-36.924
-36.9463
-36.9693
-36.9988
-37.027
-37.2556
-37.4899
-38.0548
-38.6429
-39.8186
-41.1595
-43.156
-45.629
-48.2472
-51.2514
-41.6082
-41.6624
-41.8672
-41.8474
-41.8462
-41.8511
-41.8625
-41.8806
-41.9049
-41.9271
-42.1625
-42.784
-44.2474
-47.1803
-51.3451
-45.9851
-45.9458
-45.8899
-45.7944
-45.6588
-45.6979
-45.6828
-45.6994
-45.702
-45.715
-45.7221
-45.7339
-45.7425
-45.754
-45.7636
-45.7751
-45.7855
-45.7975
-45.8029
-45.8783
-45.9449
-46.12
-46.2921
-46.6723
-47.1182
-47.8176
-48.8105
-49.907
-51.4697
-50.6039
-50.6306
-50.6395
-50.6337
-50.6272
-50.6217
-50.617
-50.6124
-50.6077
-50.6022
-50.5683
-50.5004
-50.4012
-50.4245
-51.2671
-56.7986
-56.7954
-56.7813
-56.7781
-56.7641
-56.7604
-56.754
-56.7469
-56.7396
-56.731
-56.7218
-56.7114
-56.7001
-56.6876
-56.6741
-56.6596
-56.644
-56.6274
-56.6093
-56.5053
-56.3666
-56.1173
-55.7955
-55.2305
-54.5673
-53.5077
-52.5433
-51.2904
-51.0004
SCALARS Stress_Theta double 1
LOOKUP_TABLE default
-243712
-163297
-95320.9
-67600
-47474
-36836
-29081.4
-19488.8
-10865.7
-4294.24
57.2329
812.912
798.516
835.085
667.307
597.8
469.715
353.224
132.508
151.785
23.1763
4.37479
1.90204
3.24287
-0.429728
0.150462
0.583024
-0.0841192
0.239769
-113660
-59958.2
-37684
-24063.6
-12520.2
-5017.61
-2256.69
-1075.82
-555.601
-337.282
-19.0887
-1.68425
-0.130014
0.11712
0.280238
-20840.7
-26134.7
-35169.5
-30466.3
-28731.5
-23830.4
-19923.7
-16461.2
-13445.1
-10452.8
-8425.16
-6264.94
-4552.52
-3420.23
-2466.25
-1870.42
-1369.2
-1038.56
-761.406
-220.268
-56.4176
-12.1076
-7.14432
-1.07867
-0.632682
-0.323771
-0.32481
-0.363481
0.441544
-18493
-18662.9
-17003.1
-13933.4
-10489.9
-7505.48
-5218.57
-3523.87
-2371.98
-1604.7
-273.075
-33.1692
-4.23197
-0.967791
0.527304
-9522.88
-11424.4
-11370.5
-11123.1
-10216.8
-9940.69
-9278.03
-8709.56
-8073.01
-7384.31
-6671.66
-5935.95
-5282.68
-4623.24
-4062.5
-3499.46
-3026.05
-2579.43
-2200.73
-1017.11
-427.558
-148.719
-56.8372
-16.9977
-7.03105
-3.23093
-1.9075
-1.1207
0.235203
-9823.31
-8704.61
-8179.2
-7307.86
-6346.83
-5359.57
-4411.62
-3562.46
-2838.3
-2251.49
-621.487
-105.178
-15.0621
-3.63223
-0.282815
-6135.32
-5819.51
-5839.69
-5595.65
-5498.72
-5338.62
-5200.19
-4987.42
-4766.83
-4506.02
-4261.24
-3999.13
-3738.78
-3475.5
-3218.26
-2964.48
-2724.1
-2494.77
-2285.38
-1334.4
-772.373
-337.936
-144.098
-50.7725
-22.1181
-9.393
-5.09621
-2.28503
-0.742609
-4427.01
-4595.7
-4464.6
-4213.89
-3895.87
-3532.05
-3146.88
-2761.63
-2393.22
-2053.78
-828.471
-194.502
-33.2818
-7.49773
-1.42782
-3370.77
-3447.18
-3400.44
-3392.05
-3322.96
-3278.78
-3200.76
-3120.93
-3026.54
-2929.94
-2820.71
-2708.55
-2592.74
-2472.05
-2352.27
-2229.03
-2108.77
-1990.77
-1880.91
-1298.14
-885.268
-458.227
-235.5
-96.1185
-43.4385
-18.6345
-9.7554
-4.15932
-2.05178
-2930.67
-2852.48
-2785.92
-2681.77
-2548.96
-2391.08
-2216.06
-2031.62
-1844.29
-1658.97
-861.135
-269.522
-56.9016
-12.7526
-2.97303
-2262.44
-2239.64
-2234.38
-2211.24
-2192.98
-2164.08
-2133.06
-2094.43
-2051.57
-2003.8
-1953.05
-1898.78
-1841.23
-1781.54
-1719.53
-1656.18
-1591.5
-1528.12
-1466.74
-1126.14
-848.172
-504.206
-299.466
-138.61
-68.7325
-30.4983
-15.6618
-6.65299
-3.81612
-1886.89
-1892.68
-1865.09
-1818.99
-1756.66
-1680.51
-1593.55
-1498.54
-1398.56
-1295.72
-794.578
-314.972
-81.9839
-19.1495
-4.94704
-1544.68
-1548.71
-1542.04
-1536.34
-1524.08
-1511.27
-1493.83
-1474.8
-1452.44
-1428.42
-1401.44
-1372.94
-1342.29
-1310.22
-1276.65
-1241.82
-1205.88
-1169.81
-1134.1
-932.646
-750.746
-499.118
-330.301
-171.598
-93.8847
-43.6622
-22.4986
-9.68532
-6.02255
-1341.69
-1333.39
-1318.33
-1293.92
-1261.11
-1220.71
-1173.87
-1121.78
-1065.76
-1006.82
-693.582
-332.435
-105.112
-26.2565
-7.35043
-1118.56
-1115.95
-1113.67
-1109.34
-1103.05
-1095.45
-1086.19
-1075.58
-1063.42
-1049.86
-1034.96
-1018.95
-1001.68
-983.551
-964.348
-944.428
-923.6
-902.457
-881.029
-759.923
-642.13
-466.492
-335.975
-193.606
-115.668
-56.6019
-29.8255
-13.134
-8.62842
-981.468
-976.748
-967.788
-953.734
-934.623
-911.48
-884.796
-854.964
-822.509
-787.819
-591.836
-330.268
-123.921
-33.5594
-10.1424
-824.223
-834.683
-836.635
-832.066
-831.371
-823.904
-816.302
-808.793
-800.463
-792.233
-783.121
-773.833
-763.721
-753.283
-742.116
-730.57
-718.381
-705.878
-692.987
-619.649
-543.963
-423.966
-326.567
-205.542
-132.253
-68.0006
-37.0997
-16.8751
-11.5443
-802.088
-775.074
-741.301
-726.55
-714.469
-701.261
-686.083
-668.848
-649.747
-628.913
-504.715
-316.985
-137.18
-40.5657
-13.2025
-881.83
-869.835
-755.988
-641.787
-631.819
-630.208
-628.524
-626.203
-623.346
-619.651
-615.357
-610.432
-604.929
-598.956
-592.459
-585.591
-578.253
-570.585
-562.611
-516.227
-466.093
-382.574
-308.744
-209.107
-141.93
-77.0169
-43.748
-20.6789
-14.7858
-850.774
-704.973
-547.314
-550.525
-547.927
-542.107
-534.096
-524.374
-513.236
-500.781
-423.205
-292.805
-144.803
-48.046
-17.4659
-641.102
-637.036
-562.485
-483.448
-478.395
-477.134
-475.381
-473.81
-471.903
-469.773
-467.298
-464.57
-461.503
-458.203
-454.586
-450.761
-446.643
-442.347
-437.767
-411.109
-380.742
-328.073
-278.074
-202.708
-147.674
-86.1246
-52.0827
-26.6915
-19.9788
-460.498
-452.004
-438.426
-431.658
-426.731
-421.874
-416.551
-410.58
-403.925
-396.502
-349.057
-261.935
-146.859
-55.667
-22.9542
-376.086
-380.848
-382.516
-382.359
-384.405
-382.783
-381.538
-379.698
-377.808
-375.871
-373.776
-371.694
-369.43
-367.149
-364.686
-362.174
-359.488
-356.721
-353.752
-336.926
-317.22
-282.549
-247.301
-191.56
-146.891
-92.0346
-59.1348
-32.6359
-25.59
-350.675
-349.132
-347.903
-346.426
-344.103
-341.184
-337.767
-333.888
-329.566
-324.761
-293.802
-233.58
-144.535
-61.9442
-28.5469
-313.714
-313.36
-313.166
-313.047
-312.469
-311.897
-311.099
-310.394
-309.492
-308.531
-307.426
-306.221
-304.894
-303.467
-301.926
-300.297
-298.558
-296.739
-294.774
-283.484
-270.036
-246.089
-220.582
-178.814
-142.829
-95.2561
-64.7285
-38.3241
-31.226
-289.026
-289.056
-288.457
-287.418
-285.985
-284.185
-282.028
-279.522
-276.681
-273.472
-252.302
-209.15
-139.705
-66.8422
-34.1011
-264.385
-264.433
-264.196
-263.906
-263.659
-263.294
-262.871
-262.361
-261.771
-261.103
-260.348
-259.532
-258.625
-257.663
-256.612
-255.508
-254.319
-253.075
-251.721
-243.867
-234.338
-217.094
-198.093
-166.221
-137.103
-96.5515
-68.9784
-43.6314
-36.7488
-246.015
-246.14
-245.742
-245.08
-244.153
-242.959
-241.501
-239.783
-237.814
-235.573
-220.47
-188.499
-133.727
-70.5659
-39.5111
-229.839
-228.724
-227.98
-227.856
-227.427
-227.265
-226.964
-226.674
-226.296
-225.871
-225.374
-224.823
-224.203
-223.532
-222.795
-222.011
-221.164
-220.274
-219.296
-213.587
-206.548
-193.7
-179.18
-154.391
-130.782
-96.521
-72.1981
-48.5346
-42.0996
-209.893
-211.794
-212.692
-212.71
-212.268
-211.506
-210.491
-209.255
-207.819
-206.179
-194.992
-170.817
-127.463
-73.4756
-44.7599
-157.288
-158.693
-178.922
-197.846
-198.015
-197.771
-197.546
-197.226
-196.878
-196.488
-196.061
-195.603
-195.106
-194.58
-194.013
-193.417
-192.781
-192.11
-191.396
-187.184
-182.062
-172.543
-161.653
-142.729
-123.884
-95.9529
-74.6002
-53.5094
-47.2324
-109.979
-140.139
-169.998
-169.256
-168.594
-167.918
-167.19
-166.389
-165.506
-164.519
-157.946
-143.413
-115.555
-77.0086
-53.8939
-115.064
-115.612
-128.552
-141.21
-141.51
-141.502
-141.534
-141.466
-141.392
-141.269
-141.132
-140.965
-140.78
-140.575
-140.35
-140.11
-139.85
-139.575
-139.28
-137.537
-135.314
-131.214
-126.249
-117.312
-107.81
-92.0121
-79.2093
-64.288
-60.0755
-129.22
-129.43
-129.721
-129.727
-129.637
-129.464
-129.219
-128.908
-128.537
-128.105
-125.014
-117.783
-102.844
-79.5935
-63.6598
-118.773
-118.546
-118.37
-118.207
-118.028
-117.968
-117.858
-117.784
-117.687
-117.603
-117.502
-117.405
-117.293
-117.181
-117.056
-116.927
-116.786
-116.639
-116.477
-115.528
-114.314
-112.008
-109.189
-104.046
-98.3334
-88.7832
-80.3867
-70.3864
-67.3738
-111.488
-111.575
-111.559
-111.497
-111.394
-111.259
-111.092
-110.897
-110.672
-110.42
-108.635
-104.429
-95.4391
-80.5126
-69.6232
-105.192
-105.174
-105.109
-105.056
-105.011
-104.976
-104.939
-104.9
-104.857
-104.809
-104.756
-104.698
-104.633
-104.563
-104.486
-104.405
-104.316
-104.222
-104.121
-103.528
-102.749
-101.327
-99.5201
-96.2946
-92.5759
-86.5183
-81.1269
-73.94
-72.3936
SCALARS Stress_Shear double 1
LOOKUP_TABLE default
129846
84995
39575.9
25430.8
14107.6
9955.37
7535.91
9116.92
8050.55
5169.48
1267.28
-90.4312
-653.604
-569.728
-621.388
-477.45
-442.213
-349.079
-371.369
-111.924
-142.23
20.7283
-53.6328
8.34545
-16.8813
3.92707
-5.52673
1.34733
-4.39976
21994.1
6783.06
11372.6
10083.8
8786.38
5150.07
3176.19
1847.57
1128.16
575.731
-12.1493
-26.4801
-9.32107
-3.83541
-4.48631
-11710.5
4444.35
12227.7
8798.04
11773.6
11155.9
12136.1
11148.3
10260.2
9190.77
8243.32
6699.08
5631
4723.24
3821.53
3180.57
2547.1
2130.79
1580.86
842.79
169.499
161.835
10.6372
45.139
-1.90914
14.3345
-2.90132
3.34426
-4.57622
-6169.22
2794.35
4414.87
5257.4
5238.84
5101.94
4326.95
3527.68
2796.5
2098.29
502.478
79.4772
10.8317
-1.28042
-4.68729
4356.58
1999.24
1124.76
2047.31
2155.76
2988.55
3092.95
3462.14
3674.93
3656.38
3605.3
3576.51
3472.48
3296.86
3140.75
2907.74
2724.49
2497.23
2259.05
1422.56
736.209
421.269
148.557
106.053
27.4608
29.0261
1.78377
5.76812
-4.80952
1576.42
571.462
1321.55
1869.41
2277.5
2384.59
2408.49
2302.67
2115.87
1899.88
842.636
226.269
47.1382
5.39077
-4.82616
-1036.18
-6.58268
625.323
643.236
944.9
1067.05
1287.23
1383.52
1509.2
1609.15
1706.24
1737.69
1775.27
1781.37
1778.23
1754.14
1729.01
1689.91
1640.29
1262.6
911.269
556.848
285.392
168.894
65.513
44.3726
9.1543
8.15395
-4.86497
-405.234
347.126
623.838
865.742
1049.42
1206.02
1290.81
1328.75
1322.1
1300.71
853.684
327.646
84.63
13.1487
-4.81003
271.255
172.76
180.896
324.006
398.914
515.182
591.19
679.077
755.933
817.362
872.489
922.571
964.667
994.04
1021.06
1034.29
1050.74
1055.15
1061.29
946.467
812.456
565.024
360.285
214.452
101.147
59.2818
16.9978
10.5234
-4.79247
103.238
145.542
298.907
437.502
561.078
657.338
735.336
790.335
822.895
849.088
719.199
368.19
115.743
20.8767
-4.68537
-66.0176
40.8488
123.546
168.016
229.343
276.506
331.121
375.49
421.384
462.764
503.319
536.348
568.914
595.541
620.325
639.595
658.762
672.39
689.81
678.347
647.222
505.206
374.536
235.65
127.843
71.4937
24.3533
12.743
-4.62506
-27.0079
90.8689
175.62
255.973
328.887
394.92
450.322
495.719
530.445
562.786
563.357
360.81
135.812
27.6964
-4.47822
17.4516
38.5094
66.831
102.839
134.479
168.104
198.963
229.495
258.887
285.963
312.207
336.328
359.482
379.867
399.452
416.017
432.424
445.623
462.836
485.807
495.746
423.643
349.512
234.918
142.144
79.4391
30.4992
14.6809
-4.38509
7.49282
53.7006
108.434
159.888
208.425
252.615
292.313
326.82
355.801
383.919
429.241
325.014
143.347
33.0153
-4.20561
-1.12833
21.6085
42.7613
65.0301
87.7969
107.661
128.908
148.511
168.25
186.866
205.197
222.11
238.708
253.842
268.533
281.653
294.432
305.487
319.635
350.273
373.647
341.194
303.994
217.369
143.7
82.4299
34.9936
16.2241
-4.08416
-5.50157
37.5939
68.9805
103.877
136.708
167.582
195.925
221.445
243.893
266.136
320.16
274.158
138.993
36.599
-3.87786
-10.4627
7.14546
27.0151
37.2394
49.3166
67.2289
81.2569
95.5419
109.729
123.056
136.271
148.478
160.529
171.538
182.379
192.153
201.745
210.226
221.097
248.816
273.765
261.973
247.396
187.346
134.005
80.5179
37.8554
17.2934
-3.72916
14.0457
4.44969
39.865
63.3971
87.265
108.687
128.096
145.687
161.51
177.615
225.057
213.152
124.793
38.7774
-3.51263
-10.4304
-30.1464
-43.4231
-9.26708
22.0578
37.7989
50.0778
59.0727
68.0173
75.8576
83.7147
90.9647
98.1882
104.936
111.619
117.829
123.932
129.528
136.485
157.721
177.672
179.829
179.33
146.966
115.646
74.1721
39.9405
17.741
-2.63514
2.33553
19.3179
29.8659
41.1189
53.2689
65.2789
76.835
87.7785
98.0084
108.113
144.495
153.425
107.513
41.0597
-1.63604
4.78655
34.3862
60.1129
45.7525
33.8847
33.6247
34.7402
38.4099
42.2498
46.806
51.2939
55.938
60.4872
64.9876
69.3919
73.6488
77.7897
81.7235
86.2233
102.987
118.264
127.031
132.429
117.784
100.574
69.0868
41.6576
18.2236
-1.44075
-9.08236
16.9129
19.2193
28.5804
35.8417
43.0717
50.3078
57.4134
64.2798
71.1234
98.8375
114.421
92.2092
41.2217
-1.19901
7.25723
7.20334
6.0377
12.8524
17.5364
18.6872
22.6611
25.7348
29.1246
32.238
35.3745
38.4019
41.4083
44.3486
47.2547
50.0915
52.8682
55.5617
58.5553
70.7884
82.32
91.6245
98.8314
93.2486
84.8323
62.0541
40.6948
18.0982
-1.01923
2.24831
4.56487
12.5518
17.9475
23.5016
28.9919
34.2965
39.3929
44.2775
49.1303
69.8787
85.924
77.2092
39.4531
-0.83816
-1.54983
2.07372
5.99358
7.53367
9.48919
12.2617
14.5468
17.0496
19.3495
21.6812
23.9658
26.2112
28.4428
30.6137
32.7726
34.8609
36.9225
38.9091
41.0886
50.2876
59.1017
67.4735
74.5508
73.7177
70.4388
54.5478
38.3101
17.4595
-0.683174
-0.623723
4.56342
8.13582
12.3195
16.3652
20.3118
24.146
27.8647
31.4615
35.0355
50.8911
65.4295
64.121
36.7769
-0.556024
0.211006
1.84611
3.38799
5.23777
7.07579
8.73783
10.4878
12.1833
13.8897
15.5609
17.2347
18.8758
20.5085
22.1097
23.6971
25.2492
26.7782
28.2677
29.8704
36.9402
43.7472
50.9907
57.3359
58.9484
58.4821
47.651
35.4233
16.5528
-0.422627
0.426845
2.83284
6.1969
9.16608
12.131
15.0554
17.9168
20.7084
23.4247
26.1186
38.4996
51.2077
53.7493
33.9849
-0.335854
1.26339
2.12579
2.8441
4.19942
5.58517
6.80847
8.15271
9.44223
10.7354
12.003
13.2648
14.5078
15.7429
16.9618
18.1714
19.3631
20.5391
21.6951
22.9079
28.5337
33.9384
40.2454
45.8002
48.6505
49.5783
42.1643
32.7856
15.632
-0.216305
-1.58486
3.19252
5.27597
7.67036
9.91944
12.155
14.3774
16.5772
18.7448
20.8986
31.0739
42.3222
46.7042
31.7611
-0.150312
2.91064
6.43888
9.01548
7.91665
7.26639
7.41522
7.93452
8.66243
9.49693
10.4066
11.3527
12.3262
13.3106
14.303
15.2948
16.2829
17.2631
18.2323
19.2911
24.087
28.7839
34.4471
39.5965
42.8037
44.5932
38.7225
31.0863
15.0686
-0.0463561
-1.4506
0.936593
2.44366
4.32474
5.93486
7.45579
8.92959
10.3705
11.7829
13.1576
19.9116
27.9877
32.859
24.4157
-0.177374
-0.102596
-1.56836
-2.86344
-1.10319
0.3836
1.14937
2.02638
2.70122
3.39164
3.99664
4.60075
5.15965
5.71358
6.24102
6.76217
7.26531
7.76093
8.24299
8.79178
11.1286
13.4471
16.414
19.2121
21.6311
23.4482
21.6233
18.704
9.34131
0.176568
1.56929
0.475721
1.61362
2.10963
2.74002
3.40967
4.09093
4.77295
5.44983
6.12074
9.42813
13.6193
16.941
13.9402
-0.0712703
-1.24197
-0.436299
0.427059
0.429589
0.659273
1.07094
1.31076
1.60207
1.83466
2.08901
2.31713
2.5554
2.78033
3.0104
3.23271
3.45727
3.67638
3.89596
4.13574
5.24191
6.3395
7.83248
9.2299
10.6469
11.6771
11.3273
10.0209
5.24279
0.0863622
-0.328393
0.586621
0.735204
1.11858
1.49484
1.86934
2.24049
2.60767
2.97055
3.32024
5.10318
7.45586
9.53707
8.34309
-0.121203
3.41959e-07
0.164533
0.328808
0.48711
0.646838
0.808673
0.970421
1.13263
1.29441
1.45601
1.61725
1.77744
1.93735
2.09605
2.25434
2.4113
2.56772
2.72273
2.87709
3.66516
4.41948
5.50701
6.46867
7.60527
8.33728
8.34465
7.4219
3.99625
4.12468e-15
