# vtk DataFile Version 2.0
./vtk
ASCII

DATASET UNSTRUCTURED_GRID
POINTS 95 double
0 0 0.0
0.5065 0 0.0
1.013 0 0.0
1.5195 0 0.0
2.026 0 0.0
2.5325 0 0.0
3.039 0 0.0
0 -0.775 0.0
1.013 -0.775 0.0
2.026 -0.775 0.0
3.039 -0.775 0.0
0 -1.55 0.0
0.5065 -1.55 0.0
1.013 -1.55 0.0
1.5195 -1.55 0.0
2.026 -1.55 0.0
2.5325 -1.55 0.0
3.039 -1.55 0.0
0 -2.325 0.0
1.013 -2.325 0.0
2.026 -2.325 0.0
3.039 -2.325 0.0
0 -3.1 0.0
0.5065 -3.1 0.0
1.013 -3.1 0.0
1.5195 -3.1 0.0
2.026 -3.1 0.0
2.5325 -3.1 0.0
3.039 -3.1 0.0
0 -3.875 0.0
1.013 -3.875 0.0
2.026 -3.875 0.0
3.039 -3.875 0.0
0 -4.65 0.0
0.5065 -4.65 0.0
1.013 -4.65 0.0
1.5195 -4.65 0.0
2.026 -4.65 0.0
2.5325 -4.65 0.0
3.039 -4.65 0.0
0 -5.425 0.0
1.013 -5.425 0.0
2.026 -5.425 0.0
3.039 -5.425 0.0
0 -6.2 0.0
0.5065 -6.2 0.0
1.013 -6.2 0.0
1.5195 -6.2 0.0
2.026 -6.2 0.0
2.5325 -6.2 0.0
3.039 -6.2 0.0
0 -6.975 0.0
1.013 -6.975 0.0
2.026 -6.975 0.0
3.039 -6.975 0.0
0 -7.75 0.0
0.5065 -7.75 0.0
1.013 -7.75 0.0
1.5195 -7.75 0.0
2.026 -7.75 0.0
2.5325 -7.75 0.0
3.039 -7.75 0.0
0 -8.525 0.0
1.013 -8.525 0.0
2.026 -8.525 0.0
3.039 -8.525 0.0
0 -9.3 0.0
0.5065 -9.3 0.0
1.013 -9.3 0.0
1.5195 -9.3 0.0
2.026 -9.3 0.0
2.5325 -9.3 0.0
3.039 -9.3 0.0
0 -10.075 0.0
1.013 -10.075 0.0
2.026 -10.075 0.0
3.039 -10.075 0.0
0 -10.85 0.0
0.5065 -10.85 0.0
1.013 -10.85 0.0
1.5195 -10.85 0.0
2.026 -10.85 0.0
2.5325 -10.85 0.0
3.039 -10.85 0.0
0 -11.625 0.0
1.013 -11.625 0.0
2.026 -11.625 0.0
3.039 -11.625 0.0
0 -12.4 0.0
0.5065 -12.4 0.0
1.013 -12.4 0.0
1.5195 -12.4 0.0
2.026 -12.4 0.0
2.5325 -12.4 0.0
3.039 -12.4 0.0

CELLS 24 216
8 11 13  2  0 12  8  1  7
8 13 15  4  2 14  9  3  8
8 15 17  6  4 16 10  5  9
8 22 24 13 11 23 19 12 18
8 24 26 15 13 25 20 14 19
8 26 28 17 15 27 21 16 20
8 33 35 24 22 34 30 23 29
8 35 37 26 24 36 31 25 30
8 37 39 28 26 38 32 27 31
8 44 46 35 33 45 41 34 40
8 46 48 37 35 47 42 36 41
8 48 50 39 37 49 43 38 42
8 55 57 46 44 56 52 45 51
8 57 59 48 46 58 53 47 52
8 59 61 50 48 60 54 49 53
8 66 68 57 55 67 63 56 62
8 68 70 59 57 69 64 58 63
8 70 72 61 59 71 65 60 64
8 77 79 68 66 78 74 67 73
8 79 81 70 68 80 75 69 74
8 81 83 72 70 82 76 71 75
8 88 90 79 77 89 85 78 84
8 90 92 81 79 91 86 80 85
8 92 94 83 81 93 87 82 86

CELL_TYPES 24
23
23
23
23
23
23
23
23
23
23
23
23
23
23
23
23
23
23
23
23
23
23
23
23

POINT_DATA 95
SCALARS Displacement_R double 1
LOOKUP_TABLE default
0
5.71951e-05
0.00011439
0.000171591
0.0002288
0.000286015
0.000343228
0
0.000115512
0.000231032
0.000346567
0
5.83116e-05
0.000116628
0.000174943
0.000233257
0.000291575
0.000349902
0
0.000117771
0.00023551
0.000353252
0
5.94825e-05
0.000118942
0.000178377
0.00023781
0.000297219
0.000356627
0
0.0001203
0.000240301
0.000360148
0
6.09248e-05
0.000121791
0.000182482
0.000243004
0.00030338
0.000363852
0
0.000123776
0.000246383
0.000367875
0
6.32247e-05
0.000126061
0.000188383
0.000250201
0.000311367
0.000372139
0
0.000129483
0.000255053
0.000377027
0
6.71233e-05
0.000133467
0.000197944
0.000260393
0.00032151
0.000382905
0
0.00013496
0.000265718
0.000385462
0
6.68655e-05
0.000133521
0.00020111
0.000266483
0.000329406
0.000383156
0
0.000122992
0.000246591
0.000366566
0
4.91949e-05
9.97314e-05
0.000152622
0.000210402
0.000269679
0.000337139
0
5.47384e-05
0.000119591
0.000212071
0
0
0
0
0
0
0
SCALARS Displacement_Z double 1
LOOKUP_TABLE default
0.00370624
0.00370606
0.0037055
0.00370458
0.00370329
0.00370164
0.00369964
0.00347559
0.00347484
0.00347261
0.00346895
0.00324313
0.00324293
0.00324236
0.00324143
0.00324013
0.00323846
0.00323644
0.00300883
0.00300806
0.00300583
0.00300212
0.00277262
0.00277243
0.00277191
0.00277102
0.00276972
0.00276807
0.00276601
0.00253439
0.00253379
0.00253177
0.00252803
0.00229381
0.00229364
0.00229341
0.00229293
0.00229201
0.0022905
0.0022882
0.00205034
0.00205045
0.00205015
0.00204669
0.00180296
0.00180331
0.00180433
0.00180537
0.00180601
0.00180595
0.00180403
0.00155112
0.00155422
0.00155976
0.00155973
0.00129252
0.00129376
0.00129863
0.00130487
0.00131173
0.00131518
0.0013136
0.00102763
0.00103736
0.00106008
0.00107166
0.000763742
0.000767903
0.000774162
0.000787895
0.000803
0.000821065
0.000838508
0.000509362
0.000519391
0.000551864
0.000608312
0.000281644
0.000281489
0.000288813
0.000297845
0.000316972
0.000336231
0.000369931
0.000103457
0.000106583
0.000116046
0.000142854
-0
-0
-0
-0
-0
-0
-0
SCALARS Stress_R double 1
LOOKUP_TABLE default
3.00048
3.00121
3.00101
3.0005
3.00016
2.99997
3.00015
3.00006
3.0003
3.00028
2.99989
2.99761
2.99898
2.9988
2.99878
3.00051
2.99971
3.00102
2.99695
3.00041
3.00115
3.00137
2.98005
2.9909
2.98968
2.99321
2.99959
2.99565
3.00755
2.9835
2.99685
3.00811
3.00762
2.93984
2.97063
2.96601
2.97971
3.00308
2.99065
3.01623
2.9426
2.98577
3.01296
3.03008
2.81032
2.9374
2.91677
2.96973
3.00155
2.9572
3.05856
2.82666
2.93276
3.04921
3.06469
3.05691
3.04685
3.0408
3.05653
3.02573
3.05796
2.87893
2.91664
2.89096
2.84532
3.00935
3.73221
3.90382
3.55983
3.52251
3.05414
3.16511
3.21811
2.83729
2.89142
2.7708
2.13858
5.81177
5.4709
5.42322
5.09749
5.31072
5.11774
3.90537
5.24815
4.9031
3.78022
3.28862
9.0088
8.77475
9.52062
9.15913
9.95943
12.4833
18.6521
SCALARS Stress_Theta double 1
LOOKUP_TABLE default
3.00048
3.00121
3.00104
3.00072
3.00057
3.00028
3.00036
3.00006
3.00034
3.00044
3.00019
2.99761
2.99905
2.99889
2.99879
3.00048
2.99992
3.00147
2.99695
3.00007
3.00084
3.00136
2.98005
2.99056
2.98885
2.99248
2.99867
2.99462
3.00667
2.9835
2.99532
3.00285
3.00599
2.93984
2.96977
2.96342
2.97323
2.99234
2.98325
3.01259
2.94261
2.97881
2.99339
3.00891
2.81034
2.9317
2.90445
2.94843
2.96967
2.9192
3.01571
2.82673
2.91383
2.97579
3.00781
3.05692
3.03509
3.01022
2.98141
2.91152
2.96661
2.81276
2.91663
2.88348
2.76861
2.7548
3.73225
3.9008
3.58583
3.50466
3.03528
2.93797
2.79548
2.8371
2.88316
2.76871
2.09088
5.81194
5.49568
5.46151
5.25765
5.52808
5.48119
4.41521
5.24831
4.95714
4.01061
3.70286
9.00892
8.77581
9.53147
9.17735
10.0452
12.6453
18.9016
SCALARS Stress_Z double 1
LOOKUP_TABLE default
8.99862
9.00037
9.00008
8.99988
9.00006
8.99991
9.00011
9.06274
9.0637
9.06422
9.06407
9.12149
9.12513
9.12505
9.12488
9.12851
9.12755
9.1315
9.18825
9.19379
9.19465
9.19577
9.22157
9.24316
9.23745
9.2442
9.25668
9.24666
9.27237
9.31043
9.33048
9.33499
9.33928
9.30448
9.36671
9.34755
9.35802
9.38679
9.36107
9.42486
9.4465
9.49464
9.48152
9.48119
9.30688
9.55073
9.46091
9.5236
9.53142
9.38178
9.56114
9.56842
9.67975
9.65286
9.63036
10.3614
10.2537
10.1335
9.93599
9.63476
9.68505
9.30335
10.0933
9.95057
9.4977
9.05358
11.7576
12.1327
11.4446
11.2757
10.1724
9.68409
8.96185
9.09595
9.24472
9.00539
7.39301
13.3245
12.8475
12.8499
12.639
13.3692
13.3709
11.5486
9.46866
9.13173
7.98196
8.16548
11.3247
11.0315
12.035
11.6879
13.1164
16.8315
24.9465
SCALARS Stress_Shear double 1
LOOKUP_TABLE default
3.41695e-05
-6.22372e-05
-9.60464e-05
-9.12214e-05
-0.000178445
-7.17336e-05
0.000100884
-6.74283e-05
-0.00021324
-0.000391586
-1.75565e-05
-0.000227929
-0.00021068
-0.000205979
-0.000357835
-0.000553547
-0.000380428
-0.00023126
-0.00049419
0.000402429
-9.08062e-05
-0.000577551
-0.000271941
0.000857169
0.00179897
0.00129627
0.000876626
0.000313249
-0.000501156
-0.00151401
0.00567173
0.00506969
-0.00163481
-0.00199339
0.00557278
0.0122772
0.0127459
0.0121511
0.00528676
-0.00264102
-0.00361047
0.0250904
0.0274602
-0.00514361
0.000238166
0.0242136
0.0455378
0.0486907
0.0511263
0.0267991
0.000257229
-0.00897976
0.0825317
0.0959229
0.00118948
-0.0080389
0.0639807
0.130726
0.150412
0.160445
0.084477
-0.00572837
0.0299301
0.133649
0.181184
0.0432696
0.0490133
0.0628089
0.121072
0.166095
0.18979
0.183573
0.18148
0.00391333
-0.0126266
0.0446039
0.256514
-0.0733899
-0.151175
-0.30191
-0.352888
-0.498857
-0.449986
-0.250168
-0.04354
-0.515814
-0.919691
-1.31047
-0.00980694
-0.440546
-0.9361
-1.43455
-2.09142
-3.40574
-5.65887
SCALARS Radial_Distance double 1
LOOKUP_TABLE default
0
0.5065
1.013
1.5195
2.026
2.5325
3.039
0
1.013
2.026
3.039
0
0.5065
1.013
1.5195
2.026
2.5325
3.039
0
1.013
2.026
3.039
0
0.5065
1.013
1.5195
2.026
2.5325
3.039
0
1.013
2.026
3.039
0
0.5065
1.013
1.5195
2.026
2.5325
3.039
0
1.013
2.026
3.039
0
0.5065
1.013
1.5195
2.026
2.5325
3.039
0
1.013
2.026
3.039
0
0.5065
1.013
1.5195
2.026
2.5325
3.039
0
1.013
2.026
3.039
0
0.5065
1.013
1.5195
2.026
2.5325
3.039
0
1.013
2.026
3.039
0
0.5065
1.013
1.5195
2.026
2.5325
3.039
0
1.013
2.026
3.039
0
0.5065
1.013
1.5195
2.026
2.5325
3.039
SCALARS Depth double 1
LOOKUP_TABLE default
0
0
0
0
0
0
0
-0.775
-0.775
-0.775
-0.775
-1.55
-1.55
-1.55
-1.55
-1.55
-1.55
-1.55
-2.325
-2.325
-2.325
-2.325
-3.1
-3.1
-3.1
-3.1
-3.1
-3.1
-3.1
-3.875
-3.875
-3.875
-3.875
-4.65
-4.65
-4.65
-4.65
-4.65
-4.65
-4.65
-5.425
-5.425
-5.425
-5.425
-6.2
-6.2
-6.2
-6.2
-6.2
-6.2
-6.2
-6.975
-6.975
-6.975
-6.975
-7.75
-7.75
-7.75
-7.75
-7.75
-7.75
-7.75
-8.525
-8.525
-8.525
-8.525
-9.3
-9.3
-9.3
-9.3
-9.3
-9.3
-9.3
-10.075
-10.075
-10.075
-10.075
-10.85
-10.85
-10.85
-10.85
-10.85
-10.85
-10.85
-11.625
-11.625
-11.625
-11.625
-12.4
-12.4
-12.4
-12.4
-12.4
-12.4
-12.4
