# vtk DataFile Version 2.0
./vtk
ASCII

DATASET UNSTRUCTURED_GRID
POINTS 3327 double
0 0 0.0
0.4286 0 0.0
0.8571 0 0.0
1.2857 0 0.0
1.7143 0 0.0
2.1429 0 0.0
2.5714 0 0.0
3 0 0.0
3.4286 0 0.0
3.8571 0 0.0
4.2857 0 0.0
4.7143 0 0.0
5.1429 0 0.0
5.5714 0 0.0
6 0 0.0
6.7775 0 0.0
7.5549 0 0.0
8.5339 0 0.0
9.5128 0 0.0
10.7455 0 0.0
11.9781 0 0.0
13.5302 0 0.0
15.0823 0 0.0
17.0367 0 0.0
18.991 0 0.0
21.4518 0 0.0
23.9126 0 0.0
27.0111 0 0.0
30.1097 0 0.0
34.0112 0 0.0
37.9127 0 0.0
42.8254 0 0.0
47.738 0 0.0
53.9238 0 0.0
60.1096 0 0.0
67.8984 0 0.0
75.6873 0 0.0
85.4946 0 0.0
95.302 0 0.0
107.651 0 0.0
120 0 0.0
0 -0.1139 0.0
0.8571 -0.1139 0.0
1.7143 -0.1139 0.0
2.5714 -0.1139 0.0
3.4286 -0.1139 0.0
4.2857 -0.1139 0.0
5.1429 -0.1139 0.0
6 -0.1139 0.0
7.5549 -0.1139 0.0
9.5128 -0.1139 0.0
11.9781 -0.1139 0.0
15.0823 -0.1139 0.0
18.991 -0.1139 0.0
23.9126 -0.1139 0.0
30.1097 -0.1139 0.0
37.9127 -0.1139 0.0
47.738 -0.1139 0.0
60.1096 -0.1139 0.0
75.6873 -0.1139 0.0
95.302 -0.1139 0.0
120 -0.1139 0.0
0 -0.2278 0.0
0.4286 -0.2278 0.0
0.8571 -0.2278 0.0
1.2857 -0.2278 0.0
1.7143 -0.2278 0.0
2.1429 -0.2278 0.0
2.5714 -0.2278 0.0
3 -0.2278 0.0
3.4286 -0.2278 0.0
3.8571 -0.2278 0.0
4.2857 -0.2278 0.0
4.7143 -0.2278 0.0
5.1429 -0.2278 0.0
5.5714 -0.2278 0.0
6 -0.2278 0.0
6.7775 -0.2278 0.0
7.5549 -0.2278 0.0
8.5339 -0.2278 0.0
9.5128 -0.2278 0.0
10.7455 -0.2278 0.0
11.9781 -0.2278 0.0
13.5302 -0.2278 0.0
15.0823 -0.2278 0.0
17.0367 -0.2278 0.0
18.991 -0.2278 0.0
21.4518 -0.2278 0.0
23.9126 -0.2278 0.0
27.0111 -0.2278 0.0
30.1097 -0.2278 0.0
34.0112 -0.2278 0.0
37.9127 -0.2278 0.0
42.8254 -0.2278 0.0
47.738 -0.2278 0.0
53.9238 -0.2278 0.0
60.1096 -0.2278 0.0
67.8984 -0.2278 0.0
75.6873 -0.2278 0.0
85.4946 -0.2278 0.0
95.302 -0.2278 0.0
107.651 -0.2278 0.0
120 -0.2278 0.0
0 -0.3417 0.0
0.8571 -0.3417 0.0
1.7143 -0.3417 0.0
2.5714 -0.3417 0.0
3.4286 -0.3417 0.0
4.2857 -0.3417 0.0
5.1429 -0.3417 0.0
6 -0.3417 0.0
7.5549 -0.3417 0.0
9.5128 -0.3417 0.0
11.9781 -0.3417 0.0
15.0823 -0.3417 0.0
18.991 -0.3417 0.0
23.9126 -0.3417 0.0
30.1097 -0.3417 0.0
37.9127 -0.3417 0.0
47.738 -0.3417 0.0
60.1096 -0.3417 0.0
75.6873 -0.3417 0.0
95.302 -0.3417 0.0
120 -0.3417 0.0
0 -0.4556 0.0
0.4286 -0.4556 0.0
0.8571 -0.4556 0.0
1.2857 -0.4556 0.0
1.7143 -0.4556 0.0
2.1429 -0.4556 0.0
2.5714 -0.4556 0.0
3 -0.4556 0.0
3.4286 -0.4556 0.0
3.8571 -0.4556 0.0
4.2857 -0.4556 0.0
4.7143 -0.4556 0.0
5.1429 -0.4556 0.0
5.5714 -0.4556 0.0
6 -0.4556 0.0
6.7775 -0.4556 0.0
7.5549 -0.4556 0.0
8.5339 -0.4556 0.0
9.5128 -0.4556 0.0
10.7455 -0.4556 0.0
11.9781 -0.4556 0.0
13.5302 -0.4556 0.0
15.0823 -0.4556 0.0
17.0367 -0.4556 0.0
18.991 -0.4556 0.0
21.4518 -0.4556 0.0
23.9126 -0.4556 0.0
27.0111 -0.4556 0.0
30.1097 -0.4556 0.0
34.0112 -0.4556 0.0
37.9127 -0.4556 0.0
42.8254 -0.4556 0.0
47.738 -0.4556 0.0
53.9238 -0.4556 0.0
60.1096 -0.4556 0.0
67.8984 -0.4556 0.0
75.6873 -0.4556 0.0
85.4946 -0.4556 0.0
95.302 -0.4556 0.0
107.651 -0.4556 0.0
120 -0.4556 0.0
0 -0.5695 0.0
0.8571 -0.5695 0.0
1.7143 -0.5695 0.0
2.5714 -0.5695 0.0
3.4286 -0.5695 0.0
4.2857 -0.5695 0.0
5.1429 -0.5695 0.0
6 -0.5695 0.0
7.5549 -0.5695 0.0
9.5128 -0.5695 0.0
11.9781 -0.5695 0.0
15.0823 -0.5695 0.0
18.991 -0.5695 0.0
23.9126 -0.5695 0.0
30.1097 -0.5695 0.0
37.9127 -0.5695 0.0
47.738 -0.5695 0.0
60.1096 -0.5695 0.0
75.6873 -0.5695 0.0
95.302 -0.5695 0.0
120 -0.5695 0.0
0 -0.6834 0.0
0.4286 -0.6834 0.0
0.8571 -0.6834 0.0
1.2857 -0.6834 0.0
1.7143 -0.6834 0.0
2.1429 -0.6834 0.0
2.5714 -0.6834 0.0
3 -0.6834 0.0
3.4286 -0.6834 0.0
3.8571 -0.6834 0.0
4.2857 -0.6834 0.0
4.7143 -0.6834 0.0
5.1429 -0.6834 0.0
5.5714 -0.6834 0.0
6 -0.6834 0.0
6.7775 -0.6834 0.0
7.5549 -0.6834 0.0
8.5339 -0.6834 0.0
9.5128 -0.6834 0.0
10.7455 -0.6834 0.0
11.9781 -0.6834 0.0
13.5302 -0.6834 0.0
15.0823 -0.6834 0.0
17.0367 -0.6834 0.0
18.991 -0.6834 0.0
21.4518 -0.6834 0.0
23.9126 -0.6834 0.0
27.0111 -0.6834 0.0
30.1097 -0.6834 0.0
34.0112 -0.6834 0.0
37.9127 -0.6834 0.0
42.8254 -0.6834 0.0
47.738 -0.6834 0.0
53.9238 -0.6834 0.0
60.1096 -0.6834 0.0
67.8984 -0.6834 0.0
75.6873 -0.6834 0.0
85.4946 -0.6834 0.0
95.302 -0.6834 0.0
107.651 -0.6834 0.0
120 -0.6834 0.0
0 -0.7973 0.0
0.8571 -0.7973 0.0
1.7143 -0.7973 0.0
2.5714 -0.7973 0.0
3.4286 -0.7973 0.0
4.2857 -0.7973 0.0
5.1429 -0.7973 0.0
6 -0.7973 0.0
7.5549 -0.7973 0.0
9.5128 -0.7973 0.0
11.9781 -0.7973 0.0
15.0823 -0.7973 0.0
18.991 -0.7973 0.0
23.9126 -0.7973 0.0
30.1097 -0.7973 0.0
37.9127 -0.7973 0.0
47.738 -0.7973 0.0
60.1096 -0.7973 0.0
75.6873 -0.7973 0.0
95.302 -0.7973 0.0
120 -0.7973 0.0
0 -0.9112 0.0
0.4286 -0.9112 0.0
0.8571 -0.9112 0.0
1.2857 -0.9112 0.0
1.7143 -0.9112 0.0
2.1429 -0.9112 0.0
2.5714 -0.9112 0.0
3 -0.9112 0.0
3.4286 -0.9112 0.0
3.8571 -0.9112 0.0
4.2857 -0.9112 0.0
4.7143 -0.9112 0.0
5.1429 -0.9112 0.0
5.5714 -0.9112 0.0
6 -0.9112 0.0
6.7775 -0.9112 0.0
7.5549 -0.9112 0.0
8.5339 -0.9112 0.0
9.5128 -0.9112 0.0
10.7455 -0.9112 0.0
11.9781 -0.9112 0.0
13.5302 -0.9112 0.0
15.0823 -0.9112 0.0
17.0367 -0.9112 0.0
18.991 -0.9112 0.0
21.4518 -0.9112 0.0
23.9126 -0.9112 0.0
27.0111 -0.9112 0.0
30.1097 -0.9112 0.0
34.0112 -0.9112 0.0
37.9127 -0.9112 0.0
42.8254 -0.9112 0.0
47.738 -0.9112 0.0
53.9238 -0.9112 0.0
60.1096 -0.9112 0.0
67.8984 -0.9112 0.0
75.6873 -0.9112 0.0
85.4946 -0.9112 0.0
95.302 -0.9112 0.0
107.651 -0.9112 0.0
120 -0.9112 0.0
0 -1.0251 0.0
0.8571 -1.0251 0.0
1.7143 -1.0251 0.0
2.5714 -1.0251 0.0
3.4286 -1.0251 0.0
4.2857 -1.0251 0.0
5.1429 -1.0251 0.0
6 -1.0251 0.0
7.5549 -1.0251 0.0
9.5128 -1.0251 0.0
11.9781 -1.0251 0.0
15.0823 -1.0251 0.0
18.991 -1.0251 0.0
23.9126 -1.0251 0.0
30.1097 -1.0251 0.0
37.9127 -1.0251 0.0
47.738 -1.0251 0.0
60.1096 -1.0251 0.0
75.6873 -1.0251 0.0
95.302 -1.0251 0.0
120 -1.0251 0.0
0 -1.1389 0.0
0.4286 -1.1389 0.0
0.8571 -1.1389 0.0
1.2857 -1.1389 0.0
1.7143 -1.1389 0.0
2.1429 -1.1389 0.0
2.5714 -1.1389 0.0
3 -1.1389 0.0
3.4286 -1.1389 0.0
3.8571 -1.1389 0.0
4.2857 -1.1389 0.0
4.7143 -1.1389 0.0
5.1429 -1.1389 0.0
5.5714 -1.1389 0.0
6 -1.1389 0.0
6.7775 -1.1389 0.0
7.5549 -1.1389 0.0
8.5339 -1.1389 0.0
9.5128 -1.1389 0.0
10.7455 -1.1389 0.0
11.9781 -1.1389 0.0
13.5302 -1.1389 0.0
15.0823 -1.1389 0.0
17.0367 -1.1389 0.0
18.991 -1.1389 0.0
21.4518 -1.1389 0.0
23.9126 -1.1389 0.0
27.0111 -1.1389 0.0
30.1097 -1.1389 0.0
34.0112 -1.1389 0.0
37.9127 -1.1389 0.0
42.8254 -1.1389 0.0
47.738 -1.1389 0.0
53.9238 -1.1389 0.0
60.1096 -1.1389 0.0
67.8984 -1.1389 0.0
75.6873 -1.1389 0.0
85.4946 -1.1389 0.0
95.302 -1.1389 0.0
107.651 -1.1389 0.0
120 -1.1389 0.0
0 -1.2528 0.0
0.8571 -1.2528 0.0
1.7143 -1.2528 0.0
2.5714 -1.2528 0.0
3.4286 -1.2528 0.0
4.2857 -1.2528 0.0
5.1429 -1.2528 0.0
6 -1.2528 0.0
7.5549 -1.2528 0.0
9.5128 -1.2528 0.0
11.9781 -1.2528 0.0
15.0823 -1.2528 0.0
18.991 -1.2528 0.0
23.9126 -1.2528 0.0
30.1097 -1.2528 0.0
37.9127 -1.2528 0.0
47.738 -1.2528 0.0
60.1096 -1.2528 0.0
75.6873 -1.2528 0.0
95.302 -1.2528 0.0
120 -1.2528 0.0
0 -1.3667 0.0
0.4286 -1.3667 0.0
0.8571 -1.3667 0.0
1.2857 -1.3667 0.0
1.7143 -1.3667 0.0
2.1429 -1.3667 0.0
2.5714 -1.3667 0.0
3 -1.3667 0.0
3.4286 -1.3667 0.0
3.8571 -1.3667 0.0
4.2857 -1.3667 0.0
4.7143 -1.3667 0.0
5.1429 -1.3667 0.0
5.5714 -1.3667 0.0
6 -1.3667 0.0
6.7775 -1.3667 0.0
7.5549 -1.3667 0.0
8.5339 -1.3667 0.0
9.5128 -1.3667 0.0
10.7455 -1.3667 0.0
11.9781 -1.3667 0.0
13.5302 -1.3667 0.0
15.0823 -1.3667 0.0
17.0367 -1.3667 0.0
18.991 -1.3667 0.0
21.4518 -1.3667 0.0
23.9126 -1.3667 0.0
27.0111 -1.3667 0.0
30.1097 -1.3667 0.0
34.0112 -1.3667 0.0
37.9127 -1.3667 0.0
42.8254 -1.3667 0.0
47.738 -1.3667 0.0
53.9238 -1.3667 0.0
60.1096 -1.3667 0.0
67.8984 -1.3667 0.0
75.6873 -1.3667 0.0
85.4946 -1.3667 0.0
95.302 -1.3667 0.0
107.651 -1.3667 0.0
120 -1.3667 0.0
0 -1.4806 0.0
0.8571 -1.4806 0.0
1.7143 -1.4806 0.0
2.5714 -1.4806 0.0
3.4286 -1.4806 0.0
4.2857 -1.4806 0.0
5.1429 -1.4806 0.0
6 -1.4806 0.0
7.5549 -1.4806 0.0
9.5128 -1.4806 0.0
11.9781 -1.4806 0.0
15.0823 -1.4806 0.0
18.991 -1.4806 0.0
23.9126 -1.4806 0.0
30.1097 -1.4806 0.0
37.9127 -1.4806 0.0
47.738 -1.4806 0.0
60.1096 -1.4806 0.0
75.6873 -1.4806 0.0
95.302 -1.4806 0.0
120 -1.4806 0.0
0 -1.5945 0.0
0.4286 -1.5945 0.0
0.8571 -1.5945 0.0
1.2857 -1.5945 0.0
1.7143 -1.5945 0.0
2.1429 -1.5945 0.0
2.5714 -1.5945 0.0
3 -1.5945 0.0
3.4286 -1.5945 0.0
3.8571 -1.5945 0.0
4.2857 -1.5945 0.0
4.7143 -1.5945 0.0
5.1429 -1.5945 0.0
5.5714 -1.5945 0.0
6 -1.5945 0.0
6.7775 -1.5945 0.0
7.5549 -1.5945 0.0
8.5339 -1.5945 0.0
9.5128 -1.5945 0.0
10.7455 -1.5945 0.0
11.9781 -1.5945 0.0
13.5302 -1.5945 0.0
15.0823 -1.5945 0.0
17.0367 -1.5945 0.0
18.991 -1.5945 0.0
21.4518 -1.5945 0.0
23.9126 -1.5945 0.0
27.0111 -1.5945 0.0
30.1097 -1.5945 0.0
34.0112 -1.5945 0.0
37.9127 -1.5945 0.0
42.8254 -1.5945 0.0
47.738 -1.5945 0.0
53.9238 -1.5945 0.0
60.1096 -1.5945 0.0
67.8984 -1.5945 0.0
75.6873 -1.5945 0.0
85.4946 -1.5945 0.0
95.302 -1.5945 0.0
107.651 -1.5945 0.0
120 -1.5945 0.0
0 -1.7084 0.0
0.8571 -1.7084 0.0
1.7143 -1.7084 0.0
2.5714 -1.7084 0.0
3.4286 -1.7084 0.0
4.2857 -1.7084 0.0
5.1429 -1.7084 0.0
6 -1.7084 0.0
7.5549 -1.7084 0.0
9.5128 -1.7084 0.0
11.9781 -1.7084 0.0
15.0823 -1.7084 0.0
18.991 -1.7084 0.0
23.9126 -1.7084 0.0
30.1097 -1.7084 0.0
37.9127 -1.7084 0.0
47.738 -1.7084 0.0
60.1096 -1.7084 0.0
75.6873 -1.7084 0.0
95.302 -1.7084 0.0
120 -1.7084 0.0
0 -1.8223 0.0
0.4286 -1.8223 0.0
0.8571 -1.8223 0.0
1.2857 -1.8223 0.0
1.7143 -1.8223 0.0
2.1429 -1.8223 0.0
2.5714 -1.8223 0.0
3 -1.8223 0.0
3.4286 -1.8223 0.0
3.8571 -1.8223 0.0
4.2857 -1.8223 0.0
4.7143 -1.8223 0.0
5.1429 -1.8223 0.0
5.5714 -1.8223 0.0
6 -1.8223 0.0
6.7775 -1.8223 0.0
7.5549 -1.8223 0.0
8.5339 -1.8223 0.0
9.5128 -1.8223 0.0
10.7455 -1.8223 0.0
11.9781 -1.8223 0.0
13.5302 -1.8223 0.0
15.0823 -1.8223 0.0
17.0367 -1.8223 0.0
18.991 -1.8223 0.0
21.4518 -1.8223 0.0
23.9126 -1.8223 0.0
27.0111 -1.8223 0.0
30.1097 -1.8223 0.0
34.0112 -1.8223 0.0
37.9127 -1.8223 0.0
42.8254 -1.8223 0.0
47.738 -1.8223 0.0
53.9238 -1.8223 0.0
60.1096 -1.8223 0.0
67.8984 -1.8223 0.0
75.6873 -1.8223 0.0
85.4946 -1.8223 0.0
95.302 -1.8223 0.0
107.651 -1.8223 0.0
120 -1.8223 0.0
0 -1.9362 0.0
0.8571 -1.9362 0.0
1.7143 -1.9362 0.0
2.5714 -1.9362 0.0
3.4286 -1.9362 0.0
4.2857 -1.9362 0.0
5.1429 -1.9362 0.0
6 -1.9362 0.0
7.5549 -1.9362 0.0
9.5128 -1.9362 0.0
11.9781 -1.9362 0.0
15.0823 -1.9362 0.0
18.991 -1.9362 0.0
23.9126 -1.9362 0.0
30.1097 -1.9362 0.0
37.9127 -1.9362 0.0
47.738 -1.9362 0.0
60.1096 -1.9362 0.0
75.6873 -1.9362 0.0
95.302 -1.9362 0.0
120 -1.9362 0.0
0 -2.0501 0.0
0.4286 -2.0501 0.0
0.8571 -2.0501 0.0
1.2857 -2.0501 0.0
1.7143 -2.0501 0.0
2.1429 -2.0501 0.0
2.5714 -2.0501 0.0
3 -2.0501 0.0
3.4286 -2.0501 0.0
3.8571 -2.0501 0.0
4.2857 -2.0501 0.0
4.7143 -2.0501 0.0
5.1429 -2.0501 0.0
5.5714 -2.0501 0.0
6 -2.0501 0.0
6.7775 -2.0501 0.0
7.5549 -2.0501 0.0
8.5339 -2.0501 0.0
9.5128 -2.0501 0.0
10.7455 -2.0501 0.0
11.9781 -2.0501 0.0
13.5302 -2.0501 0.0
15.0823 -2.0501 0.0
17.0367 -2.0501 0.0
18.991 -2.0501 0.0
21.4518 -2.0501 0.0
23.9126 -2.0501 0.0
27.0111 -2.0501 0.0
30.1097 -2.0501 0.0
34.0112 -2.0501 0.0
37.9127 -2.0501 0.0
42.8254 -2.0501 0.0
47.738 -2.0501 0.0
53.9238 -2.0501 0.0
60.1096 -2.0501 0.0
67.8984 -2.0501 0.0
75.6873 -2.0501 0.0
85.4946 -2.0501 0.0
95.302 -2.0501 0.0
107.651 -2.0501 0.0
120 -2.0501 0.0
0 -2.164 0.0
0.8571 -2.164 0.0
1.7143 -2.164 0.0
2.5714 -2.164 0.0
3.4286 -2.164 0.0
4.2857 -2.164 0.0
5.1429 -2.164 0.0
6 -2.164 0.0
7.5549 -2.164 0.0
9.5128 -2.164 0.0
11.9781 -2.164 0.0
15.0823 -2.164 0.0
18.991 -2.164 0.0
23.9126 -2.164 0.0
30.1097 -2.164 0.0
37.9127 -2.164 0.0
47.738 -2.164 0.0
60.1096 -2.164 0.0
75.6873 -2.164 0.0
95.302 -2.164 0.0
120 -2.164 0.0
0 -2.2779 0.0
0.4286 -2.2779 0.0
0.8571 -2.2779 0.0
1.2857 -2.2779 0.0
1.7143 -2.2779 0.0
2.1429 -2.2779 0.0
2.5714 -2.2779 0.0
3 -2.2779 0.0
3.4286 -2.2779 0.0
3.8571 -2.2779 0.0
4.2857 -2.2779 0.0
4.7143 -2.2779 0.0
5.1429 -2.2779 0.0
5.5714 -2.2779 0.0
6 -2.2779 0.0
6.7775 -2.2779 0.0
7.5549 -2.2779 0.0
8.5339 -2.2779 0.0
9.5128 -2.2779 0.0
10.7455 -2.2779 0.0
11.9781 -2.2779 0.0
13.5302 -2.2779 0.0
15.0823 -2.2779 0.0
17.0367 -2.2779 0.0
18.991 -2.2779 0.0
21.4518 -2.2779 0.0
23.9126 -2.2779 0.0
27.0111 -2.2779 0.0
30.1097 -2.2779 0.0
34.0112 -2.2779 0.0
37.9127 -2.2779 0.0
42.8254 -2.2779 0.0
47.738 -2.2779 0.0
53.9238 -2.2779 0.0
60.1096 -2.2779 0.0
67.8984 -2.2779 0.0
75.6873 -2.2779 0.0
85.4946 -2.2779 0.0
95.302 -2.2779 0.0
107.651 -2.2779 0.0
120 -2.2779 0.0
0 -2.3918 0.0
0.8571 -2.3918 0.0
1.7143 -2.3918 0.0
2.5714 -2.3918 0.0
3.4286 -2.3918 0.0
4.2857 -2.3918 0.0
5.1429 -2.3918 0.0
6 -2.3918 0.0
7.5549 -2.3918 0.0
9.5128 -2.3918 0.0
11.9781 -2.3918 0.0
15.0823 -2.3918 0.0
18.991 -2.3918 0.0
23.9126 -2.3918 0.0
30.1097 -2.3918 0.0
37.9127 -2.3918 0.0
47.738 -2.3918 0.0
60.1096 -2.3918 0.0
75.6873 -2.3918 0.0
95.302 -2.3918 0.0
120 -2.3918 0.0
0 -2.5057 0.0
0.4286 -2.5057 0.0
0.8571 -2.5057 0.0
1.2857 -2.5057 0.0
1.7143 -2.5057 0.0
2.1429 -2.5057 0.0
2.5714 -2.5057 0.0
3 -2.5057 0.0
3.4286 -2.5057 0.0
3.8571 -2.5057 0.0
4.2857 -2.5057 0.0
4.7143 -2.5057 0.0
5.1429 -2.5057 0.0
5.5714 -2.5057 0.0
6 -2.5057 0.0
6.7775 -2.5057 0.0
7.5549 -2.5057 0.0
8.5339 -2.5057 0.0
9.5128 -2.5057 0.0
10.7455 -2.5057 0.0
11.9781 -2.5057 0.0
13.5302 -2.5057 0.0
15.0823 -2.5057 0.0
17.0367 -2.5057 0.0
18.991 -2.5057 0.0
21.4518 -2.5057 0.0
23.9126 -2.5057 0.0
27.0111 -2.5057 0.0
30.1097 -2.5057 0.0
34.0112 -2.5057 0.0
37.9127 -2.5057 0.0
42.8254 -2.5057 0.0
47.738 -2.5057 0.0
53.9238 -2.5057 0.0
60.1096 -2.5057 0.0
67.8984 -2.5057 0.0
75.6873 -2.5057 0.0
85.4946 -2.5057 0.0
95.302 -2.5057 0.0
107.651 -2.5057 0.0
120 -2.5057 0.0
0 -2.6196 0.0
0.8571 -2.6196 0.0
1.7143 -2.6196 0.0
2.5714 -2.6196 0.0
3.4286 -2.6196 0.0
4.2857 -2.6196 0.0
5.1429 -2.6196 0.0
6 -2.6196 0.0
7.5549 -2.6196 0.0
9.5128 -2.6196 0.0
11.9781 -2.6196 0.0
15.0823 -2.6196 0.0
18.991 -2.6196 0.0
23.9126 -2.6196 0.0
30.1097 -2.6196 0.0
37.9127 -2.6196 0.0
47.738 -2.6196 0.0
60.1096 -2.6196 0.0
75.6873 -2.6196 0.0
95.302 -2.6196 0.0
120 -2.6196 0.0
0 -2.7335 0.0
0.4286 -2.7335 0.0
0.8571 -2.7335 0.0
1.2857 -2.7335 0.0
1.7143 -2.7335 0.0
2.1429 -2.7335 0.0
2.5714 -2.7335 0.0
3 -2.7335 0.0
3.4286 -2.7335 0.0
3.8571 -2.7335 0.0
4.2857 -2.7335 0.0
4.7143 -2.7335 0.0
5.1429 -2.7335 0.0
5.5714 -2.7335 0.0
6 -2.7335 0.0
6.7775 -2.7335 0.0
7.5549 -2.7335 0.0
8.5339 -2.7335 0.0
9.5128 -2.7335 0.0
10.7455 -2.7335 0.0
11.9781 -2.7335 0.0
13.5302 -2.7335 0.0
15.0823 -2.7335 0.0
17.0367 -2.7335 0.0
18.991 -2.7335 0.0
21.4518 -2.7335 0.0
23.9126 -2.7335 0.0
27.0111 -2.7335 0.0
30.1097 -2.7335 0.0
34.0112 -2.7335 0.0
37.9127 -2.7335 0.0
42.8254 -2.7335 0.0
47.738 -2.7335 0.0
53.9238 -2.7335 0.0
60.1096 -2.7335 0.0
67.8984 -2.7335 0.0
75.6873 -2.7335 0.0
85.4946 -2.7335 0.0
95.302 -2.7335 0.0
107.651 -2.7335 0.0
120 -2.7335 0.0
0 -2.8474 0.0
0.8571 -2.8474 0.0
1.7143 -2.8474 0.0
2.5714 -2.8474 0.0
3.4286 -2.8474 0.0
4.2857 -2.8474 0.0
5.1429 -2.8474 0.0
6 -2.8474 0.0
7.5549 -2.8474 0.0
9.5128 -2.8474 0.0
11.9781 -2.8474 0.0
15.0823 -2.8474 0.0
18.991 -2.8474 0.0
23.9126 -2.8474 0.0
30.1097 -2.8474 0.0
37.9127 -2.8474 0.0
47.738 -2.8474 0.0
60.1096 -2.8474 0.0
75.6873 -2.8474 0.0
95.302 -2.8474 0.0
120 -2.8474 0.0
0 -2.9613 0.0
0.4286 -2.9613 0.0
0.8571 -2.9613 0.0
1.2857 -2.9613 0.0
1.7143 -2.9613 0.0
2.1429 -2.9613 0.0
2.5714 -2.9613 0.0
3 -2.9613 0.0
3.4286 -2.9613 0.0
3.8571 -2.9613 0.0
4.2857 -2.9613 0.0
4.7143 -2.9613 0.0
5.1429 -2.9613 0.0
5.5714 -2.9613 0.0
6 -2.9613 0.0
6.7775 -2.9613 0.0
7.5549 -2.9613 0.0
8.5339 -2.9613 0.0
9.5128 -2.9613 0.0
10.7455 -2.9613 0.0
11.9781 -2.9613 0.0
13.5302 -2.9613 0.0
15.0823 -2.9613 0.0
17.0367 -2.9613 0.0
18.991 -2.9613 0.0
21.4518 -2.9613 0.0
23.9126 -2.9613 0.0
27.0111 -2.9613 0.0
30.1097 -2.9613 0.0
34.0112 -2.9613 0.0
37.9127 -2.9613 0.0
42.8254 -2.9613 0.0
47.738 -2.9613 0.0
53.9238 -2.9613 0.0
60.1096 -2.9613 0.0
67.8984 -2.9613 0.0
75.6873 -2.9613 0.0
85.4946 -2.9613 0.0
95.302 -2.9613 0.0
107.651 -2.9613 0.0
120 -2.9613 0.0
0 -3.0752 0.0
0.8571 -3.0752 0.0
1.7143 -3.0752 0.0
2.5714 -3.0752 0.0
3.4286 -3.0752 0.0
4.2857 -3.0752 0.0
5.1429 -3.0752 0.0
6 -3.0752 0.0
7.5549 -3.0752 0.0
9.5128 -3.0752 0.0
11.9781 -3.0752 0.0
15.0823 -3.0752 0.0
18.991 -3.0752 0.0
23.9126 -3.0752 0.0
30.1097 -3.0752 0.0
37.9127 -3.0752 0.0
47.738 -3.0752 0.0
60.1096 -3.0752 0.0
75.6873 -3.0752 0.0
95.302 -3.0752 0.0
120 -3.0752 0.0
0 -3.1891 0.0
0.4286 -3.1891 0.0
0.8571 -3.1891 0.0
1.2857 -3.1891 0.0
1.7143 -3.1891 0.0
2.1429 -3.1891 0.0
2.5714 -3.1891 0.0
3 -3.1891 0.0
3.4286 -3.1891 0.0
3.8571 -3.1891 0.0
4.2857 -3.1891 0.0
4.7143 -3.1891 0.0
5.1429 -3.1891 0.0
5.5714 -3.1891 0.0
6 -3.1891 0.0
6.7775 -3.1891 0.0
7.5549 -3.1891 0.0
8.5339 -3.1891 0.0
9.5128 -3.1891 0.0
10.7455 -3.1891 0.0
11.9781 -3.1891 0.0
13.5302 -3.1891 0.0
15.0823 -3.1891 0.0
17.0367 -3.1891 0.0
18.991 -3.1891 0.0
21.4518 -3.1891 0.0
23.9126 -3.1891 0.0
27.0111 -3.1891 0.0
30.1097 -3.1891 0.0
34.0112 -3.1891 0.0
37.9127 -3.1891 0.0
42.8254 -3.1891 0.0
47.738 -3.1891 0.0
53.9238 -3.1891 0.0
60.1096 -3.1891 0.0
67.8984 -3.1891 0.0
75.6873 -3.1891 0.0
85.4946 -3.1891 0.0
95.302 -3.1891 0.0
107.651 -3.1891 0.0
120 -3.1891 0.0
0 -3.3029 0.0
0.8571 -3.3029 0.0
1.7143 -3.3029 0.0
2.5714 -3.3029 0.0
3.4286 -3.3029 0.0
4.2857 -3.3029 0.0
5.1429 -3.3029 0.0
6 -3.3029 0.0
7.5549 -3.3029 0.0
9.5128 -3.3029 0.0
11.9781 -3.3029 0.0
15.0823 -3.3029 0.0
18.991 -3.3029 0.0
23.9126 -3.3029 0.0
30.1097 -3.3029 0.0
37.9127 -3.3029 0.0
47.738 -3.3029 0.0
60.1096 -3.3029 0.0
75.6873 -3.3029 0.0
95.302 -3.3029 0.0
120 -3.3029 0.0
0 -3.4168 0.0
0.4286 -3.4168 0.0
0.8571 -3.4168 0.0
1.2857 -3.4168 0.0
1.7143 -3.4168 0.0
2.1429 -3.4168 0.0
2.5714 -3.4168 0.0
3 -3.4168 0.0
3.4286 -3.4168 0.0
3.8571 -3.4168 0.0
4.2857 -3.4168 0.0
4.7143 -3.4168 0.0
5.1429 -3.4168 0.0
5.5714 -3.4168 0.0
6 -3.4168 0.0
6.7775 -3.4168 0.0
7.5549 -3.4168 0.0
8.5339 -3.4168 0.0
9.5128 -3.4168 0.0
10.7455 -3.4168 0.0
11.9781 -3.4168 0.0
13.5302 -3.4168 0.0
15.0823 -3.4168 0.0
17.0367 -3.4168 0.0
18.991 -3.4168 0.0
21.4518 -3.4168 0.0
23.9126 -3.4168 0.0
27.0111 -3.4168 0.0
30.1097 -3.4168 0.0
34.0112 -3.4168 0.0
37.9127 -3.4168 0.0
42.8254 -3.4168 0.0
47.738 -3.4168 0.0
53.9238 -3.4168 0.0
60.1096 -3.4168 0.0
67.8984 -3.4168 0.0
75.6873 -3.4168 0.0
85.4946 -3.4168 0.0
95.302 -3.4168 0.0
107.651 -3.4168 0.0
120 -3.4168 0.0
0 -3.5307 0.0
0.8571 -3.5307 0.0
1.7143 -3.5307 0.0
2.5714 -3.5307 0.0
3.4286 -3.5307 0.0
4.2857 -3.5307 0.0
5.1429 -3.5307 0.0
6 -3.5307 0.0
7.5549 -3.5307 0.0
9.5128 -3.5307 0.0
11.9781 -3.5307 0.0
15.0823 -3.5307 0.0
18.991 -3.5307 0.0
23.9126 -3.5307 0.0
30.1097 -3.5307 0.0
37.9127 -3.5307 0.0
47.738 -3.5307 0.0
60.1096 -3.5307 0.0
75.6873 -3.5307 0.0
95.302 -3.5307 0.0
120 -3.5307 0.0
0 -3.6446 0.0
0.4286 -3.6446 0.0
0.8571 -3.6446 0.0
1.2857 -3.6446 0.0
1.7143 -3.6446 0.0
2.1429 -3.6446 0.0
2.5714 -3.6446 0.0
3 -3.6446 0.0
3.4286 -3.6446 0.0
3.8571 -3.6446 0.0
4.2857 -3.6446 0.0
4.7143 -3.6446 0.0
5.1429 -3.6446 0.0
5.5714 -3.6446 0.0
6 -3.6446 0.0
6.7775 -3.6446 0.0
7.5549 -3.6446 0.0
8.5339 -3.6446 0.0
9.5128 -3.6446 0.0
10.7455 -3.6446 0.0
11.9781 -3.6446 0.0
13.5302 -3.6446 0.0
15.0823 -3.6446 0.0
17.0367 -3.6446 0.0
18.991 -3.6446 0.0
21.4518 -3.6446 0.0
23.9126 -3.6446 0.0
27.0111 -3.6446 0.0
30.1097 -3.6446 0.0
34.0112 -3.6446 0.0
37.9127 -3.6446 0.0
42.8254 -3.6446 0.0
47.738 -3.6446 0.0
53.9238 -3.6446 0.0
60.1096 -3.6446 0.0
67.8984 -3.6446 0.0
75.6873 -3.6446 0.0
85.4946 -3.6446 0.0
95.302 -3.6446 0.0
107.651 -3.6446 0.0
120 -3.6446 0.0
0 -3.7585 0.0
0.8571 -3.7585 0.0
1.7143 -3.7585 0.0
2.5714 -3.7585 0.0
3.4286 -3.7585 0.0
4.2857 -3.7585 0.0
5.1429 -3.7585 0.0
6 -3.7585 0.0
7.5549 -3.7585 0.0
9.5128 -3.7585 0.0
11.9781 -3.7585 0.0
15.0823 -3.7585 0.0
18.991 -3.7585 0.0
23.9126 -3.7585 0.0
30.1097 -3.7585 0.0
37.9127 -3.7585 0.0
47.738 -3.7585 0.0
60.1096 -3.7585 0.0
75.6873 -3.7585 0.0
95.302 -3.7585 0.0
120 -3.7585 0.0
0 -3.8724 0.0
0.4286 -3.8724 0.0
0.8571 -3.8724 0.0
1.2857 -3.8724 0.0
1.7143 -3.8724 0.0
2.1429 -3.8724 0.0
2.5714 -3.8724 0.0
3 -3.8724 0.0
3.4286 -3.8724 0.0
3.8571 -3.8724 0.0
4.2857 -3.8724 0.0
4.7143 -3.8724 0.0
5.1429 -3.8724 0.0
5.5714 -3.8724 0.0
6 -3.8724 0.0
6.7775 -3.8724 0.0
7.5549 -3.8724 0.0
8.5339 -3.8724 0.0
9.5128 -3.8724 0.0
10.7455 -3.8724 0.0
11.9781 -3.8724 0.0
13.5302 -3.8724 0.0
15.0823 -3.8724 0.0
17.0367 -3.8724 0.0
18.991 -3.8724 0.0
21.4518 -3.8724 0.0
23.9126 -3.8724 0.0
27.0111 -3.8724 0.0
30.1097 -3.8724 0.0
34.0112 -3.8724 0.0
37.9127 -3.8724 0.0
42.8254 -3.8724 0.0
47.738 -3.8724 0.0
53.9238 -3.8724 0.0
60.1096 -3.8724 0.0
67.8984 -3.8724 0.0
75.6873 -3.8724 0.0
85.4946 -3.8724 0.0
95.302 -3.8724 0.0
107.651 -3.8724 0.0
120 -3.8724 0.0
0 -3.9863 0.0
0.8571 -3.9863 0.0
1.7143 -3.9863 0.0
2.5714 -3.9863 0.0
3.4286 -3.9863 0.0
4.2857 -3.9863 0.0
5.1429 -3.9863 0.0
6 -3.9863 0.0
7.5549 -3.9863 0.0
9.5128 -3.9863 0.0
11.9781 -3.9863 0.0
15.0823 -3.9863 0.0
18.991 -3.9863 0.0
23.9126 -3.9863 0.0
30.1097 -3.9863 0.0
37.9127 -3.9863 0.0
47.738 -3.9863 0.0
60.1096 -3.9863 0.0
75.6873 -3.9863 0.0
95.302 -3.9863 0.0
120 -3.9863 0.0
0 -4.1002 0.0
0.4286 -4.1002 0.0
0.8571 -4.1002 0.0
1.2857 -4.1002 0.0
1.7143 -4.1002 0.0
2.1429 -4.1002 0.0
2.5714 -4.1002 0.0
3 -4.1002 0.0
3.4286 -4.1002 0.0
3.8571 -4.1002 0.0
4.2857 -4.1002 0.0
4.7143 -4.1002 0.0
5.1429 -4.1002 0.0
5.5714 -4.1002 0.0
6 -4.1002 0.0
6.7775 -4.1002 0.0
7.5549 -4.1002 0.0
8.5339 -4.1002 0.0
9.5128 -4.1002 0.0
10.7455 -4.1002 0.0
11.9781 -4.1002 0.0
13.5302 -4.1002 0.0
15.0823 -4.1002 0.0
17.0367 -4.1002 0.0
18.991 -4.1002 0.0
21.4518 -4.1002 0.0
23.9126 -4.1002 0.0
27.0111 -4.1002 0.0
30.1097 -4.1002 0.0
34.0112 -4.1002 0.0
37.9127 -4.1002 0.0
42.8254 -4.1002 0.0
47.738 -4.1002 0.0
53.9238 -4.1002 0.0
60.1096 -4.1002 0.0
67.8984 -4.1002 0.0
75.6873 -4.1002 0.0
85.4946 -4.1002 0.0
95.302 -4.1002 0.0
107.651 -4.1002 0.0
120 -4.1002 0.0
0 -4.2141 0.0
0.8571 -4.2141 0.0
1.7143 -4.2141 0.0
2.5714 -4.2141 0.0
3.4286 -4.2141 0.0
4.2857 -4.2141 0.0
5.1429 -4.2141 0.0
6 -4.2141 0.0
7.5549 -4.2141 0.0
9.5128 -4.2141 0.0
11.9781 -4.2141 0.0
15.0823 -4.2141 0.0
18.991 -4.2141 0.0
23.9126 -4.2141 0.0
30.1097 -4.2141 0.0
37.9127 -4.2141 0.0
47.738 -4.2141 0.0
60.1096 -4.2141 0.0
75.6873 -4.2141 0.0
95.302 -4.2141 0.0
120 -4.2141 0.0
0 -4.328 0.0
0.4286 -4.328 0.0
0.8571 -4.328 0.0
1.2857 -4.328 0.0
1.7143 -4.328 0.0
2.1429 -4.328 0.0
2.5714 -4.328 0.0
3 -4.328 0.0
3.4286 -4.328 0.0
3.8571 -4.328 0.0
4.2857 -4.328 0.0
4.7143 -4.328 0.0
5.1429 -4.328 0.0
5.5714 -4.328 0.0
6 -4.328 0.0
6.7775 -4.328 0.0
7.5549 -4.328 0.0
8.5339 -4.328 0.0
9.5128 -4.328 0.0
10.7455 -4.328 0.0
11.9781 -4.328 0.0
13.5302 -4.328 0.0
15.0823 -4.328 0.0
17.0367 -4.328 0.0
18.991 -4.328 0.0
21.4518 -4.328 0.0
23.9126 -4.328 0.0
27.0111 -4.328 0.0
30.1097 -4.328 0.0
34.0112 -4.328 0.0
37.9127 -4.328 0.0
42.8254 -4.328 0.0
47.738 -4.328 0.0
53.9238 -4.328 0.0
60.1096 -4.328 0.0
67.8984 -4.328 0.0
75.6873 -4.328 0.0
85.4946 -4.328 0.0
95.302 -4.328 0.0
107.651 -4.328 0.0
120 -4.328 0.0
0 -4.6887 0.0
0.8571 -4.6887 0.0
1.7143 -4.6887 0.0
2.5714 -4.6887 0.0
3.4286 -4.6887 0.0
4.2857 -4.6887 0.0
5.1429 -4.6887 0.0
6 -4.6887 0.0
7.5549 -4.6887 0.0
9.5128 -4.6887 0.0
11.9781 -4.6887 0.0
15.0823 -4.6887 0.0
18.991 -4.6887 0.0
23.9126 -4.6887 0.0
30.1097 -4.6887 0.0
37.9127 -4.6887 0.0
47.738 -4.6887 0.0
60.1096 -4.6887 0.0
75.6873 -4.6887 0.0
95.302 -4.6887 0.0
120 -4.6887 0.0
0 -5.0493 0.0
0.4286 -5.0493 0.0
0.8571 -5.0493 0.0
1.2857 -5.0493 0.0
1.7143 -5.0493 0.0
2.1429 -5.0493 0.0
2.5714 -5.0493 0.0
3 -5.0493 0.0
3.4286 -5.0493 0.0
3.8571 -5.0493 0.0
4.2857 -5.0493 0.0
4.7143 -5.0493 0.0
5.1429 -5.0493 0.0
5.5714 -5.0493 0.0
6 -5.0493 0.0
6.7775 -5.0493 0.0
7.5549 -5.0493 0.0
8.5339 -5.0493 0.0
9.5128 -5.0493 0.0
10.7455 -5.0493 0.0
11.9781 -5.0493 0.0
13.5302 -5.0493 0.0
15.0823 -5.0493 0.0
17.0367 -5.0493 0.0
18.991 -5.0493 0.0
21.4518 -5.0493 0.0
23.9126 -5.0493 0.0
27.0111 -5.0493 0.0
30.1097 -5.0493 0.0
34.0112 -5.0493 0.0
37.9127 -5.0493 0.0
42.8254 -5.0493 0.0
47.738 -5.0493 0.0
53.9238 -5.0493 0.0
60.1096 -5.0493 0.0
67.8984 -5.0493 0.0
75.6873 -5.0493 0.0
85.4946 -5.0493 0.0
95.302 -5.0493 0.0
107.651 -5.0493 0.0
120 -5.0493 0.0
0 -5.41 0.0
0.8571 -5.41 0.0
1.7143 -5.41 0.0
2.5714 -5.41 0.0
3.4286 -5.41 0.0
4.2857 -5.41 0.0
5.1429 -5.41 0.0
6 -5.41 0.0
7.5549 -5.41 0.0
9.5128 -5.41 0.0
11.9781 -5.41 0.0
15.0823 -5.41 0.0
18.991 -5.41 0.0
23.9126 -5.41 0.0
30.1097 -5.41 0.0
37.9127 -5.41 0.0
47.738 -5.41 0.0
60.1096 -5.41 0.0
75.6873 -5.41 0.0
95.302 -5.41 0.0
120 -5.41 0.0
0 -5.7707 0.0
0.4286 -5.7707 0.0
0.8571 -5.7707 0.0
1.2857 -5.7707 0.0
1.7143 -5.7707 0.0
2.1429 -5.7707 0.0
2.5714 -5.7707 0.0
3 -5.7707 0.0
3.4286 -5.7707 0.0
3.8571 -5.7707 0.0
4.2857 -5.7707 0.0
4.7143 -5.7707 0.0
5.1429 -5.7707 0.0
5.5714 -5.7707 0.0
6 -5.7707 0.0
6.7775 -5.7707 0.0
7.5549 -5.7707 0.0
8.5339 -5.7707 0.0
9.5128 -5.7707 0.0
10.7455 -5.7707 0.0
11.9781 -5.7707 0.0
13.5302 -5.7707 0.0
15.0823 -5.7707 0.0
17.0367 -5.7707 0.0
18.991 -5.7707 0.0
21.4518 -5.7707 0.0
23.9126 -5.7707 0.0
27.0111 -5.7707 0.0
30.1097 -5.7707 0.0
34.0112 -5.7707 0.0
37.9127 -5.7707 0.0
42.8254 -5.7707 0.0
47.738 -5.7707 0.0
53.9238 -5.7707 0.0
60.1096 -5.7707 0.0
67.8984 -5.7707 0.0
75.6873 -5.7707 0.0
85.4946 -5.7707 0.0
95.302 -5.7707 0.0
107.651 -5.7707 0.0
120 -5.7707 0.0
0 -6.1313 0.0
0.8571 -6.1313 0.0
1.7143 -6.1313 0.0
2.5714 -6.1313 0.0
3.4286 -6.1313 0.0
4.2857 -6.1313 0.0
5.1429 -6.1313 0.0
6 -6.1313 0.0
7.5549 -6.1313 0.0
9.5128 -6.1313 0.0
11.9781 -6.1313 0.0
15.0823 -6.1313 0.0
18.991 -6.1313 0.0
23.9126 -6.1313 0.0
30.1097 -6.1313 0.0
37.9127 -6.1313 0.0
47.738 -6.1313 0.0
60.1096 -6.1313 0.0
75.6873 -6.1313 0.0
95.302 -6.1313 0.0
120 -6.1313 0.0
0 -6.492 0.0
0.4286 -6.492 0.0
0.8571 -6.492 0.0
1.2857 -6.492 0.0
1.7143 -6.492 0.0
2.1429 -6.492 0.0
2.5714 -6.492 0.0
3 -6.492 0.0
3.4286 -6.492 0.0
3.8571 -6.492 0.0
4.2857 -6.492 0.0
4.7143 -6.492 0.0
5.1429 -6.492 0.0
5.5714 -6.492 0.0
6 -6.492 0.0
6.7775 -6.492 0.0
7.5549 -6.492 0.0
8.5339 -6.492 0.0
9.5128 -6.492 0.0
10.7455 -6.492 0.0
11.9781 -6.492 0.0
13.5302 -6.492 0.0
15.0823 -6.492 0.0
17.0367 -6.492 0.0
18.991 -6.492 0.0
21.4518 -6.492 0.0
23.9126 -6.492 0.0
27.0111 -6.492 0.0
30.1097 -6.492 0.0
34.0112 -6.492 0.0
37.9127 -6.492 0.0
42.8254 -6.492 0.0
47.738 -6.492 0.0
53.9238 -6.492 0.0
60.1096 -6.492 0.0
67.8984 -6.492 0.0
75.6873 -6.492 0.0
85.4946 -6.492 0.0
95.302 -6.492 0.0
107.651 -6.492 0.0
120 -6.492 0.0
0 -6.8527 0.0
0.8571 -6.8527 0.0
1.7143 -6.8527 0.0
2.5714 -6.8527 0.0
3.4286 -6.8527 0.0
4.2857 -6.8527 0.0
5.1429 -6.8527 0.0
6 -6.8527 0.0
7.5549 -6.8527 0.0
9.5128 -6.8527 0.0
11.9781 -6.8527 0.0
15.0823 -6.8527 0.0
18.991 -6.8527 0.0
23.9126 -6.8527 0.0
30.1097 -6.8527 0.0
37.9127 -6.8527 0.0
47.738 -6.8527 0.0
60.1096 -6.8527 0.0
75.6873 -6.8527 0.0
95.302 -6.8527 0.0
120 -6.8527 0.0
0 -7.2133 0.0
0.4286 -7.2133 0.0
0.8571 -7.2133 0.0
1.2857 -7.2133 0.0
1.7143 -7.2133 0.0
2.1429 -7.2133 0.0
2.5714 -7.2133 0.0
3 -7.2133 0.0
3.4286 -7.2133 0.0
3.8571 -7.2133 0.0
4.2857 -7.2133 0.0
4.7143 -7.2133 0.0
5.1429 -7.2133 0.0
5.5714 -7.2133 0.0
6 -7.2133 0.0
6.7775 -7.2133 0.0
7.5549 -7.2133 0.0
8.5339 -7.2133 0.0
9.5128 -7.2133 0.0
10.7455 -7.2133 0.0
11.9781 -7.2133 0.0
13.5302 -7.2133 0.0
15.0823 -7.2133 0.0
17.0367 -7.2133 0.0
18.991 -7.2133 0.0
21.4518 -7.2133 0.0
23.9126 -7.2133 0.0
27.0111 -7.2133 0.0
30.1097 -7.2133 0.0
34.0112 -7.2133 0.0
37.9127 -7.2133 0.0
42.8254 -7.2133 0.0
47.738 -7.2133 0.0
53.9238 -7.2133 0.0
60.1096 -7.2133 0.0
67.8984 -7.2133 0.0
75.6873 -7.2133 0.0
85.4946 -7.2133 0.0
95.302 -7.2133 0.0
107.651 -7.2133 0.0
120 -7.2133 0.0
0 -7.574 0.0
0.8571 -7.574 0.0
1.7143 -7.574 0.0
2.5714 -7.574 0.0
3.4286 -7.574 0.0
4.2857 -7.574 0.0
5.1429 -7.574 0.0
6 -7.574 0.0
7.5549 -7.574 0.0
9.5128 -7.574 0.0
11.9781 -7.574 0.0
15.0823 -7.574 0.0
18.991 -7.574 0.0
23.9126 -7.574 0.0
30.1097 -7.574 0.0
37.9127 -7.574 0.0
47.738 -7.574 0.0
60.1096 -7.574 0.0
75.6873 -7.574 0.0
95.302 -7.574 0.0
120 -7.574 0.0
0 -7.9347 0.0
0.4286 -7.9347 0.0
0.8571 -7.9347 0.0
1.2857 -7.9347 0.0
1.7143 -7.9347 0.0
2.1429 -7.9347 0.0
2.5714 -7.9347 0.0
3 -7.9347 0.0
3.4286 -7.9347 0.0
3.8571 -7.9347 0.0
4.2857 -7.9347 0.0
4.7143 -7.9347 0.0
5.1429 -7.9347 0.0
5.5714 -7.9347 0.0
6 -7.9347 0.0
6.7775 -7.9347 0.0
7.5549 -7.9347 0.0
8.5339 -7.9347 0.0
9.5128 -7.9347 0.0
10.7455 -7.9347 0.0
11.9781 -7.9347 0.0
13.5302 -7.9347 0.0
15.0823 -7.9347 0.0
17.0367 -7.9347 0.0
18.991 -7.9347 0.0
21.4518 -7.9347 0.0
23.9126 -7.9347 0.0
27.0111 -7.9347 0.0
30.1097 -7.9347 0.0
34.0112 -7.9347 0.0
37.9127 -7.9347 0.0
42.8254 -7.9347 0.0
47.738 -7.9347 0.0
53.9238 -7.9347 0.0
60.1096 -7.9347 0.0
67.8984 -7.9347 0.0
75.6873 -7.9347 0.0
85.4946 -7.9347 0.0
95.302 -7.9347 0.0
107.651 -7.9347 0.0
120 -7.9347 0.0
0 -8.2953 0.0
0.8571 -8.2953 0.0
1.7143 -8.2953 0.0
2.5714 -8.2953 0.0
3.4286 -8.2953 0.0
4.2857 -8.2953 0.0
5.1429 -8.2953 0.0
6 -8.2953 0.0
7.5549 -8.2953 0.0
9.5128 -8.2953 0.0
11.9781 -8.2953 0.0
15.0823 -8.2953 0.0
18.991 -8.2953 0.0
23.9126 -8.2953 0.0
30.1097 -8.2953 0.0
37.9127 -8.2953 0.0
47.738 -8.2953 0.0
60.1096 -8.2953 0.0
75.6873 -8.2953 0.0
95.302 -8.2953 0.0
120 -8.2953 0.0
0 -8.656 0.0
0.4286 -8.656 0.0
0.8571 -8.656 0.0
1.2857 -8.656 0.0
1.7143 -8.656 0.0
2.1429 -8.656 0.0
2.5714 -8.656 0.0
3 -8.656 0.0
3.4286 -8.656 0.0
3.8571 -8.656 0.0
4.2857 -8.656 0.0
4.7143 -8.656 0.0
5.1429 -8.656 0.0
5.5714 -8.656 0.0
6 -8.656 0.0
6.7775 -8.656 0.0
7.5549 -8.656 0.0
8.5339 -8.656 0.0
9.5128 -8.656 0.0
10.7455 -8.656 0.0
11.9781 -8.656 0.0
13.5302 -8.656 0.0
15.0823 -8.656 0.0
17.0367 -8.656 0.0
18.991 -8.656 0.0
21.4518 -8.656 0.0
23.9126 -8.656 0.0
27.0111 -8.656 0.0
30.1097 -8.656 0.0
34.0112 -8.656 0.0
37.9127 -8.656 0.0
42.8254 -8.656 0.0
47.738 -8.656 0.0
53.9238 -8.656 0.0
60.1096 -8.656 0.0
67.8984 -8.656 0.0
75.6873 -8.656 0.0
85.4946 -8.656 0.0
95.302 -8.656 0.0
107.651 -8.656 0.0
120 -8.656 0.0
0 -9.0167 0.0
0.8571 -9.0167 0.0
1.7143 -9.0167 0.0
2.5714 -9.0167 0.0
3.4286 -9.0167 0.0
4.2857 -9.0167 0.0
5.1429 -9.0167 0.0
6 -9.0167 0.0
7.5549 -9.0167 0.0
9.5128 -9.0167 0.0
11.9781 -9.0167 0.0
15.0823 -9.0167 0.0
18.991 -9.0167 0.0
23.9126 -9.0167 0.0
30.1097 -9.0167 0.0
37.9127 -9.0167 0.0
47.738 -9.0167 0.0
60.1096 -9.0167 0.0
75.6873 -9.0167 0.0
95.302 -9.0167 0.0
120 -9.0167 0.0
0 -9.3773 0.0
0.4286 -9.3773 0.0
0.8571 -9.3773 0.0
1.2857 -9.3773 0.0
1.7143 -9.3773 0.0
2.1429 -9.3773 0.0
2.5714 -9.3773 0.0
3 -9.3773 0.0
3.4286 -9.3773 0.0
3.8571 -9.3773 0.0
4.2857 -9.3773 0.0
4.7143 -9.3773 0.0
5.1429 -9.3773 0.0
5.5714 -9.3773 0.0
6 -9.3773 0.0
6.7775 -9.3773 0.0
7.5549 -9.3773 0.0
8.5339 -9.3773 0.0
9.5128 -9.3773 0.0
10.7455 -9.3773 0.0
11.9781 -9.3773 0.0
13.5302 -9.3773 0.0
15.0823 -9.3773 0.0
17.0367 -9.3773 0.0
18.991 -9.3773 0.0
21.4518 -9.3773 0.0
23.9126 -9.3773 0.0
27.0111 -9.3773 0.0
30.1097 -9.3773 0.0
34.0112 -9.3773 0.0
37.9127 -9.3773 0.0
42.8254 -9.3773 0.0
47.738 -9.3773 0.0
53.9238 -9.3773 0.0
60.1096 -9.3773 0.0
67.8984 -9.3773 0.0
75.6873 -9.3773 0.0
85.4946 -9.3773 0.0
95.302 -9.3773 0.0
107.651 -9.3773 0.0
120 -9.3773 0.0
0 -9.738 0.0
0.8571 -9.738 0.0
1.7143 -9.738 0.0
2.5714 -9.738 0.0
3.4286 -9.738 0.0
4.2857 -9.738 0.0
5.1429 -9.738 0.0
6 -9.738 0.0
7.5549 -9.738 0.0
9.5128 -9.738 0.0
11.9781 -9.738 0.0
15.0823 -9.738 0.0
18.991 -9.738 0.0
23.9126 -9.738 0.0
30.1097 -9.738 0.0
37.9127 -9.738 0.0
47.738 -9.738 0.0
60.1096 -9.738 0.0
75.6873 -9.738 0.0
95.302 -9.738 0.0
120 -9.738 0.0
0 -10.0987 0.0
0.4286 -10.0987 0.0
0.8571 -10.0987 0.0
1.2857 -10.0987 0.0
1.7143 -10.0987 0.0
2.1429 -10.0987 0.0
2.5714 -10.0987 0.0
3 -10.0987 0.0
3.4286 -10.0987 0.0
3.8571 -10.0987 0.0
4.2857 -10.0987 0.0
4.7143 -10.0987 0.0
5.1429 -10.0987 0.0
5.5714 -10.0987 0.0
6 -10.0987 0.0
6.7775 -10.0987 0.0
7.5549 -10.0987 0.0
8.5339 -10.0987 0.0
9.5128 -10.0987 0.0
10.7455 -10.0987 0.0
11.9781 -10.0987 0.0
13.5302 -10.0987 0.0
15.0823 -10.0987 0.0
17.0367 -10.0987 0.0
18.991 -10.0987 0.0
21.4518 -10.0987 0.0
23.9126 -10.0987 0.0
27.0111 -10.0987 0.0
30.1097 -10.0987 0.0
34.0112 -10.0987 0.0
37.9127 -10.0987 0.0
42.8254 -10.0987 0.0
47.738 -10.0987 0.0
53.9238 -10.0987 0.0
60.1096 -10.0987 0.0
67.8984 -10.0987 0.0
75.6873 -10.0987 0.0
85.4946 -10.0987 0.0
95.302 -10.0987 0.0
107.651 -10.0987 0.0
120 -10.0987 0.0
0 -10.4593 0.0
0.8571 -10.4593 0.0
1.7143 -10.4593 0.0
2.5714 -10.4593 0.0
3.4286 -10.4593 0.0
4.2857 -10.4593 0.0
5.1429 -10.4593 0.0
6 -10.4593 0.0
7.5549 -10.4593 0.0
9.5128 -10.4593 0.0
11.9781 -10.4593 0.0
15.0823 -10.4593 0.0
18.991 -10.4593 0.0
23.9126 -10.4593 0.0
30.1097 -10.4593 0.0
37.9127 -10.4593 0.0
47.738 -10.4593 0.0
60.1096 -10.4593 0.0
75.6873 -10.4593 0.0
95.302 -10.4593 0.0
120 -10.4593 0.0
0 -10.82 0.0
0.4286 -10.82 0.0
0.8571 -10.82 0.0
1.2857 -10.82 0.0
1.7143 -10.82 0.0
2.1429 -10.82 0.0
2.5714 -10.82 0.0
3 -10.82 0.0
3.4286 -10.82 0.0
3.8571 -10.82 0.0
4.2857 -10.82 0.0
4.7143 -10.82 0.0
5.1429 -10.82 0.0
5.5714 -10.82 0.0
6 -10.82 0.0
6.7775 -10.82 0.0
7.5549 -10.82 0.0
8.5339 -10.82 0.0
9.5128 -10.82 0.0
10.7455 -10.82 0.0
11.9781 -10.82 0.0
13.5302 -10.82 0.0
15.0823 -10.82 0.0
17.0367 -10.82 0.0
18.991 -10.82 0.0
21.4518 -10.82 0.0
23.9126 -10.82 0.0
27.0111 -10.82 0.0
30.1097 -10.82 0.0
34.0112 -10.82 0.0
37.9127 -10.82 0.0
42.8254 -10.82 0.0
47.738 -10.82 0.0
53.9238 -10.82 0.0
60.1096 -10.82 0.0
67.8984 -10.82 0.0
75.6873 -10.82 0.0
85.4946 -10.82 0.0
95.302 -10.82 0.0
107.651 -10.82 0.0
120 -10.82 0.0
0 -11.1807 0.0
0.8571 -11.1807 0.0
1.7143 -11.1807 0.0
2.5714 -11.1807 0.0
3.4286 -11.1807 0.0
4.2857 -11.1807 0.0
5.1429 -11.1807 0.0
6 -11.1807 0.0
7.5549 -11.1807 0.0
9.5128 -11.1807 0.0
11.9781 -11.1807 0.0
15.0823 -11.1807 0.0
18.991 -11.1807 0.0
23.9126 -11.1807 0.0
30.1097 -11.1807 0.0
37.9127 -11.1807 0.0
47.738 -11.1807 0.0
60.1096 -11.1807 0.0
75.6873 -11.1807 0.0
95.302 -11.1807 0.0
120 -11.1807 0.0
0 -11.5413 0.0
0.4286 -11.5413 0.0
0.8571 -11.5413 0.0
1.2857 -11.5413 0.0
1.7143 -11.5413 0.0
2.1429 -11.5413 0.0
2.5714 -11.5413 0.0
3 -11.5413 0.0
3.4286 -11.5413 0.0
3.8571 -11.5413 0.0
4.2857 -11.5413 0.0
4.7143 -11.5413 0.0
5.1429 -11.5413 0.0
5.5714 -11.5413 0.0
6 -11.5413 0.0
6.7775 -11.5413 0.0
7.5549 -11.5413 0.0
8.5339 -11.5413 0.0
9.5128 -11.5413 0.0
10.7455 -11.5413 0.0
11.9781 -11.5413 0.0
13.5302 -11.5413 0.0
15.0823 -11.5413 0.0
17.0367 -11.5413 0.0
18.991 -11.5413 0.0
21.4518 -11.5413 0.0
23.9126 -11.5413 0.0
27.0111 -11.5413 0.0
30.1097 -11.5413 0.0
34.0112 -11.5413 0.0
37.9127 -11.5413 0.0
42.8254 -11.5413 0.0
47.738 -11.5413 0.0
53.9238 -11.5413 0.0
60.1096 -11.5413 0.0
67.8984 -11.5413 0.0
75.6873 -11.5413 0.0
85.4946 -11.5413 0.0
95.302 -11.5413 0.0
107.651 -11.5413 0.0
120 -11.5413 0.0
0 -11.902 0.0
0.8571 -11.902 0.0
1.7143 -11.902 0.0
2.5714 -11.902 0.0
3.4286 -11.902 0.0
4.2857 -11.902 0.0
5.1429 -11.902 0.0
6 -11.902 0.0
7.5549 -11.902 0.0
9.5128 -11.902 0.0
11.9781 -11.902 0.0
15.0823 -11.902 0.0
18.991 -11.902 0.0
23.9126 -11.902 0.0
30.1097 -11.902 0.0
37.9127 -11.902 0.0
47.738 -11.902 0.0
60.1096 -11.902 0.0
75.6873 -11.902 0.0
95.302 -11.902 0.0
120 -11.902 0.0
0 -12.2627 0.0
0.4286 -12.2627 0.0
0.8571 -12.2627 0.0
1.2857 -12.2627 0.0
1.7143 -12.2627 0.0
2.1429 -12.2627 0.0
2.5714 -12.2627 0.0
3 -12.2627 0.0
3.4286 -12.2627 0.0
3.8571 -12.2627 0.0
4.2857 -12.2627 0.0
4.7143 -12.2627 0.0
5.1429 -12.2627 0.0
5.5714 -12.2627 0.0
6 -12.2627 0.0
6.7775 -12.2627 0.0
7.5549 -12.2627 0.0
8.5339 -12.2627 0.0
9.5128 -12.2627 0.0
10.7455 -12.2627 0.0
11.9781 -12.2627 0.0
13.5302 -12.2627 0.0
15.0823 -12.2627 0.0
17.0367 -12.2627 0.0
18.991 -12.2627 0.0
21.4518 -12.2627 0.0
23.9126 -12.2627 0.0
27.0111 -12.2627 0.0
30.1097 -12.2627 0.0
34.0112 -12.2627 0.0
37.9127 -12.2627 0.0
42.8254 -12.2627 0.0
47.738 -12.2627 0.0
53.9238 -12.2627 0.0
60.1096 -12.2627 0.0
67.8984 -12.2627 0.0
75.6873 -12.2627 0.0
85.4946 -12.2627 0.0
95.302 -12.2627 0.0
107.651 -12.2627 0.0
120 -12.2627 0.0
0 -12.6233 0.0
0.8571 -12.6233 0.0
1.7143 -12.6233 0.0
2.5714 -12.6233 0.0
3.4286 -12.6233 0.0
4.2857 -12.6233 0.0
5.1429 -12.6233 0.0
6 -12.6233 0.0
7.5549 -12.6233 0.0
9.5128 -12.6233 0.0
11.9781 -12.6233 0.0
15.0823 -12.6233 0.0
18.991 -12.6233 0.0
23.9126 -12.6233 0.0
30.1097 -12.6233 0.0
37.9127 -12.6233 0.0
47.738 -12.6233 0.0
60.1096 -12.6233 0.0
75.6873 -12.6233 0.0
95.302 -12.6233 0.0
120 -12.6233 0.0
0 -12.984 0.0
0.4286 -12.984 0.0
0.8571 -12.984 0.0
1.2857 -12.984 0.0
1.7143 -12.984 0.0
2.1429 -12.984 0.0
2.5714 -12.984 0.0
3 -12.984 0.0
3.4286 -12.984 0.0
3.8571 -12.984 0.0
4.2857 -12.984 0.0
4.7143 -12.984 0.0
5.1429 -12.984 0.0
5.5714 -12.984 0.0
6 -12.984 0.0
6.7775 -12.984 0.0
7.5549 -12.984 0.0
8.5339 -12.984 0.0
9.5128 -12.984 0.0
10.7455 -12.984 0.0
11.9781 -12.984 0.0
13.5302 -12.984 0.0
15.0823 -12.984 0.0
17.0367 -12.984 0.0
18.991 -12.984 0.0
21.4518 -12.984 0.0
23.9126 -12.984 0.0
27.0111 -12.984 0.0
30.1097 -12.984 0.0
34.0112 -12.984 0.0
37.9127 -12.984 0.0
42.8254 -12.984 0.0
47.738 -12.984 0.0
53.9238 -12.984 0.0
60.1096 -12.984 0.0
67.8984 -12.984 0.0
75.6873 -12.984 0.0
85.4946 -12.984 0.0
95.302 -12.984 0.0
107.651 -12.984 0.0
120 -12.984 0.0
0 -13.3447 0.0
0.8571 -13.3447 0.0
1.7143 -13.3447 0.0
2.5714 -13.3447 0.0
3.4286 -13.3447 0.0
4.2857 -13.3447 0.0
5.1429 -13.3447 0.0
6 -13.3447 0.0
7.5549 -13.3447 0.0
9.5128 -13.3447 0.0
11.9781 -13.3447 0.0
15.0823 -13.3447 0.0
18.991 -13.3447 0.0
23.9126 -13.3447 0.0
30.1097 -13.3447 0.0
37.9127 -13.3447 0.0
47.738 -13.3447 0.0
60.1096 -13.3447 0.0
75.6873 -13.3447 0.0
95.302 -13.3447 0.0
120 -13.3447 0.0
0 -13.7053 0.0
0.4286 -13.7053 0.0
0.8571 -13.7053 0.0
1.2857 -13.7053 0.0
1.7143 -13.7053 0.0
2.1429 -13.7053 0.0
2.5714 -13.7053 0.0
3 -13.7053 0.0
3.4286 -13.7053 0.0
3.8571 -13.7053 0.0
4.2857 -13.7053 0.0
4.7143 -13.7053 0.0
5.1429 -13.7053 0.0
5.5714 -13.7053 0.0
6 -13.7053 0.0
6.7775 -13.7053 0.0
7.5549 -13.7053 0.0
8.5339 -13.7053 0.0
9.5128 -13.7053 0.0
10.7455 -13.7053 0.0
11.9781 -13.7053 0.0
13.5302 -13.7053 0.0
15.0823 -13.7053 0.0
17.0367 -13.7053 0.0
18.991 -13.7053 0.0
21.4518 -13.7053 0.0
23.9126 -13.7053 0.0
27.0111 -13.7053 0.0
30.1097 -13.7053 0.0
34.0112 -13.7053 0.0
37.9127 -13.7053 0.0
42.8254 -13.7053 0.0
47.738 -13.7053 0.0
53.9238 -13.7053 0.0
60.1096 -13.7053 0.0
67.8984 -13.7053 0.0
75.6873 -13.7053 0.0
85.4946 -13.7053 0.0
95.302 -13.7053 0.0
107.651 -13.7053 0.0
120 -13.7053 0.0
0 -14.066 0.0
0.8571 -14.066 0.0
1.7143 -14.066 0.0
2.5714 -14.066 0.0
3.4286 -14.066 0.0
4.2857 -14.066 0.0
5.1429 -14.066 0.0
6 -14.066 0.0
7.5549 -14.066 0.0
9.5128 -14.066 0.0
11.9781 -14.066 0.0
15.0823 -14.066 0.0
18.991 -14.066 0.0
23.9126 -14.066 0.0
30.1097 -14.066 0.0
37.9127 -14.066 0.0
47.738 -14.066 0.0
60.1096 -14.066 0.0
75.6873 -14.066 0.0
95.302 -14.066 0.0
120 -14.066 0.0
0 -14.4267 0.0
0.4286 -14.4267 0.0
0.8571 -14.4267 0.0
1.2857 -14.4267 0.0
1.7143 -14.4267 0.0
2.1429 -14.4267 0.0
2.5714 -14.4267 0.0
3 -14.4267 0.0
3.4286 -14.4267 0.0
3.8571 -14.4267 0.0
4.2857 -14.4267 0.0
4.7143 -14.4267 0.0
5.1429 -14.4267 0.0
5.5714 -14.4267 0.0
6 -14.4267 0.0
6.7775 -14.4267 0.0
7.5549 -14.4267 0.0
8.5339 -14.4267 0.0
9.5128 -14.4267 0.0
10.7455 -14.4267 0.0
11.9781 -14.4267 0.0
13.5302 -14.4267 0.0
15.0823 -14.4267 0.0
17.0367 -14.4267 0.0
18.991 -14.4267 0.0
21.4518 -14.4267 0.0
23.9126 -14.4267 0.0
27.0111 -14.4267 0.0
30.1097 -14.4267 0.0
34.0112 -14.4267 0.0
37.9127 -14.4267 0.0
42.8254 -14.4267 0.0
47.738 -14.4267 0.0
53.9238 -14.4267 0.0
60.1096 -14.4267 0.0
67.8984 -14.4267 0.0
75.6873 -14.4267 0.0
85.4946 -14.4267 0.0
95.302 -14.4267 0.0
107.651 -14.4267 0.0
120 -14.4267 0.0
0 -14.7873 0.0
0.8571 -14.7873 0.0
1.7143 -14.7873 0.0
2.5714 -14.7873 0.0
3.4286 -14.7873 0.0
4.2857 -14.7873 0.0
5.1429 -14.7873 0.0
6 -14.7873 0.0
7.5549 -14.7873 0.0
9.5128 -14.7873 0.0
11.9781 -14.7873 0.0
15.0823 -14.7873 0.0
18.991 -14.7873 0.0
23.9126 -14.7873 0.0
30.1097 -14.7873 0.0
37.9127 -14.7873 0.0
47.738 -14.7873 0.0
60.1096 -14.7873 0.0
75.6873 -14.7873 0.0
95.302 -14.7873 0.0
120 -14.7873 0.0
0 -15.148 0.0
0.4286 -15.148 0.0
0.8571 -15.148 0.0
1.2857 -15.148 0.0
1.7143 -15.148 0.0
2.1429 -15.148 0.0
2.5714 -15.148 0.0
3 -15.148 0.0
3.4286 -15.148 0.0
3.8571 -15.148 0.0
4.2857 -15.148 0.0
4.7143 -15.148 0.0
5.1429 -15.148 0.0
5.5714 -15.148 0.0
6 -15.148 0.0
6.7775 -15.148 0.0
7.5549 -15.148 0.0
8.5339 -15.148 0.0
9.5128 -15.148 0.0
10.7455 -15.148 0.0
11.9781 -15.148 0.0
13.5302 -15.148 0.0
15.0823 -15.148 0.0
17.0367 -15.148 0.0
18.991 -15.148 0.0
21.4518 -15.148 0.0
23.9126 -15.148 0.0
27.0111 -15.148 0.0
30.1097 -15.148 0.0
34.0112 -15.148 0.0
37.9127 -15.148 0.0
42.8254 -15.148 0.0
47.738 -15.148 0.0
53.9238 -15.148 0.0
60.1096 -15.148 0.0
67.8984 -15.148 0.0
75.6873 -15.148 0.0
85.4946 -15.148 0.0
95.302 -15.148 0.0
107.651 -15.148 0.0
120 -15.148 0.0
0 -15.5087 0.0
0.8571 -15.5087 0.0
1.7143 -15.5087 0.0
2.5714 -15.5087 0.0
3.4286 -15.5087 0.0
4.2857 -15.5087 0.0
5.1429 -15.5087 0.0
6 -15.5087 0.0
7.5549 -15.5087 0.0
9.5128 -15.5087 0.0
11.9781 -15.5087 0.0
15.0823 -15.5087 0.0
18.991 -15.5087 0.0
23.9126 -15.5087 0.0
30.1097 -15.5087 0.0
37.9127 -15.5087 0.0
47.738 -15.5087 0.0
60.1096 -15.5087 0.0
75.6873 -15.5087 0.0
95.302 -15.5087 0.0
120 -15.5087 0.0
0 -15.8693 0.0
0.4286 -15.8693 0.0
0.8571 -15.8693 0.0
1.2857 -15.8693 0.0
1.7143 -15.8693 0.0
2.1429 -15.8693 0.0
2.5714 -15.8693 0.0
3 -15.8693 0.0
3.4286 -15.8693 0.0
3.8571 -15.8693 0.0
4.2857 -15.8693 0.0
4.7143 -15.8693 0.0
5.1429 -15.8693 0.0
5.5714 -15.8693 0.0
6 -15.8693 0.0
6.7775 -15.8693 0.0
7.5549 -15.8693 0.0
8.5339 -15.8693 0.0
9.5128 -15.8693 0.0
10.7455 -15.8693 0.0
11.9781 -15.8693 0.0
13.5302 -15.8693 0.0
15.0823 -15.8693 0.0
17.0367 -15.8693 0.0
18.991 -15.8693 0.0
21.4518 -15.8693 0.0
23.9126 -15.8693 0.0
27.0111 -15.8693 0.0
30.1097 -15.8693 0.0
34.0112 -15.8693 0.0
37.9127 -15.8693 0.0
42.8254 -15.8693 0.0
47.738 -15.8693 0.0
53.9238 -15.8693 0.0
60.1096 -15.8693 0.0
67.8984 -15.8693 0.0
75.6873 -15.8693 0.0
85.4946 -15.8693 0.0
95.302 -15.8693 0.0
107.651 -15.8693 0.0
120 -15.8693 0.0
0 -16.23 0.0
0.8571 -16.23 0.0
1.7143 -16.23 0.0
2.5714 -16.23 0.0
3.4286 -16.23 0.0
4.2857 -16.23 0.0
5.1429 -16.23 0.0
6 -16.23 0.0
7.5549 -16.23 0.0
9.5128 -16.23 0.0
11.9781 -16.23 0.0
15.0823 -16.23 0.0
18.991 -16.23 0.0
23.9126 -16.23 0.0
30.1097 -16.23 0.0
37.9127 -16.23 0.0
47.738 -16.23 0.0
60.1096 -16.23 0.0
75.6873 -16.23 0.0
95.302 -16.23 0.0
120 -16.23 0.0
0 -16.5907 0.0
0.4286 -16.5907 0.0
0.8571 -16.5907 0.0
1.2857 -16.5907 0.0
1.7143 -16.5907 0.0
2.1429 -16.5907 0.0
2.5714 -16.5907 0.0
3 -16.5907 0.0
3.4286 -16.5907 0.0
3.8571 -16.5907 0.0
4.2857 -16.5907 0.0
4.7143 -16.5907 0.0
5.1429 -16.5907 0.0
5.5714 -16.5907 0.0
6 -16.5907 0.0
6.7775 -16.5907 0.0
7.5549 -16.5907 0.0
8.5339 -16.5907 0.0
9.5128 -16.5907 0.0
10.7455 -16.5907 0.0
11.9781 -16.5907 0.0
13.5302 -16.5907 0.0
15.0823 -16.5907 0.0
17.0367 -16.5907 0.0
18.991 -16.5907 0.0
21.4518 -16.5907 0.0
23.9126 -16.5907 0.0
27.0111 -16.5907 0.0
30.1097 -16.5907 0.0
34.0112 -16.5907 0.0
37.9127 -16.5907 0.0
42.8254 -16.5907 0.0
47.738 -16.5907 0.0
53.9238 -16.5907 0.0
60.1096 -16.5907 0.0
67.8984 -16.5907 0.0
75.6873 -16.5907 0.0
85.4946 -16.5907 0.0
95.302 -16.5907 0.0
107.651 -16.5907 0.0
120 -16.5907 0.0
0 -16.9513 0.0
0.8571 -16.9513 0.0
1.7143 -16.9513 0.0
2.5714 -16.9513 0.0
3.4286 -16.9513 0.0
4.2857 -16.9513 0.0
5.1429 -16.9513 0.0
6 -16.9513 0.0
7.5549 -16.9513 0.0
9.5128 -16.9513 0.0
11.9781 -16.9513 0.0
15.0823 -16.9513 0.0
18.991 -16.9513 0.0
23.9126 -16.9513 0.0
30.1097 -16.9513 0.0
37.9127 -16.9513 0.0
47.738 -16.9513 0.0
60.1096 -16.9513 0.0
75.6873 -16.9513 0.0
95.302 -16.9513 0.0
120 -16.9513 0.0
0 -17.312 0.0
0.4286 -17.312 0.0
0.8571 -17.312 0.0
1.2857 -17.312 0.0
1.7143 -17.312 0.0
2.1429 -17.312 0.0
2.5714 -17.312 0.0
3 -17.312 0.0
3.4286 -17.312 0.0
3.8571 -17.312 0.0
4.2857 -17.312 0.0
4.7143 -17.312 0.0
5.1429 -17.312 0.0
5.5714 -17.312 0.0
6 -17.312 0.0
6.7775 -17.312 0.0
7.5549 -17.312 0.0
8.5339 -17.312 0.0
9.5128 -17.312 0.0
10.7455 -17.312 0.0
11.9781 -17.312 0.0
13.5302 -17.312 0.0
15.0823 -17.312 0.0
17.0367 -17.312 0.0
18.991 -17.312 0.0
21.4518 -17.312 0.0
23.9126 -17.312 0.0
27.0111 -17.312 0.0
30.1097 -17.312 0.0
34.0112 -17.312 0.0
37.9127 -17.312 0.0
42.8254 -17.312 0.0
47.738 -17.312 0.0
53.9238 -17.312 0.0
60.1096 -17.312 0.0
67.8984 -17.312 0.0
75.6873 -17.312 0.0
85.4946 -17.312 0.0
95.302 -17.312 0.0
107.651 -17.312 0.0
120 -17.312 0.0
0 -26.7807 0.0
0.8571 -26.7807 0.0
1.7143 -26.7807 0.0
2.5714 -26.7807 0.0
3.4286 -26.7807 0.0
4.2857 -26.7807 0.0
5.1429 -26.7807 0.0
6 -26.7807 0.0
7.5549 -26.7807 0.0
9.5128 -26.7807 0.0
11.9781 -26.7807 0.0
15.0823 -26.7807 0.0
18.991 -26.7807 0.0
23.9126 -26.7807 0.0
30.1097 -26.7807 0.0
37.9127 -26.7807 0.0
47.738 -26.7807 0.0
60.1096 -26.7807 0.0
75.6873 -26.7807 0.0
95.302 -26.7807 0.0
120 -26.7807 0.0
0 -36.2495 0.0
0.4286 -36.2495 0.0
0.8571 -36.2495 0.0
1.2857 -36.2495 0.0
1.7143 -36.2495 0.0
2.1429 -36.2495 0.0
2.5714 -36.2495 0.0
3 -36.2495 0.0
3.4286 -36.2495 0.0
3.8571 -36.2495 0.0
4.2857 -36.2495 0.0
4.7143 -36.2495 0.0
5.1429 -36.2495 0.0
5.5714 -36.2495 0.0
6 -36.2495 0.0
6.7775 -36.2495 0.0
7.5549 -36.2495 0.0
8.5339 -36.2495 0.0
9.5128 -36.2495 0.0
10.7455 -36.2495 0.0
11.9781 -36.2495 0.0
13.5302 -36.2495 0.0
15.0823 -36.2495 0.0
17.0367 -36.2495 0.0
18.991 -36.2495 0.0
21.4518 -36.2495 0.0
23.9126 -36.2495 0.0
27.0111 -36.2495 0.0
30.1097 -36.2495 0.0
34.0112 -36.2495 0.0
37.9127 -36.2495 0.0
42.8254 -36.2495 0.0
47.738 -36.2495 0.0
53.9238 -36.2495 0.0
60.1096 -36.2495 0.0
67.8984 -36.2495 0.0
75.6873 -36.2495 0.0
85.4946 -36.2495 0.0
95.302 -36.2495 0.0
107.651 -36.2495 0.0
120 -36.2495 0.0
0 -45.7182 0.0
0.8571 -45.7182 0.0
1.7143 -45.7182 0.0
2.5714 -45.7182 0.0
3.4286 -45.7182 0.0
4.2857 -45.7182 0.0
5.1429 -45.7182 0.0
6 -45.7182 0.0
7.5549 -45.7182 0.0
9.5128 -45.7182 0.0
11.9781 -45.7182 0.0
15.0823 -45.7182 0.0
18.991 -45.7182 0.0
23.9126 -45.7182 0.0
30.1097 -45.7182 0.0
37.9127 -45.7182 0.0
47.738 -45.7182 0.0
60.1096 -45.7182 0.0
75.6873 -45.7182 0.0
95.302 -45.7182 0.0
120 -45.7182 0.0
0 -55.187 0.0
0.4286 -55.187 0.0
0.8571 -55.187 0.0
1.2857 -55.187 0.0
1.7143 -55.187 0.0
2.1429 -55.187 0.0
2.5714 -55.187 0.0
3 -55.187 0.0
3.4286 -55.187 0.0
3.8571 -55.187 0.0
4.2857 -55.187 0.0
4.7143 -55.187 0.0
5.1429 -55.187 0.0
5.5714 -55.187 0.0
6 -55.187 0.0
6.7775 -55.187 0.0
7.5549 -55.187 0.0
8.5339 -55.187 0.0
9.5128 -55.187 0.0
10.7455 -55.187 0.0
11.9781 -55.187 0.0
13.5302 -55.187 0.0
15.0823 -55.187 0.0
17.0367 -55.187 0.0
18.991 -55.187 0.0
21.4518 -55.187 0.0
23.9126 -55.187 0.0
27.0111 -55.187 0.0
30.1097 -55.187 0.0
34.0112 -55.187 0.0
37.9127 -55.187 0.0
42.8254 -55.187 0.0
47.738 -55.187 0.0
53.9238 -55.187 0.0
60.1096 -55.187 0.0
67.8984 -55.187 0.0
75.6873 -55.187 0.0
85.4946 -55.187 0.0
95.302 -55.187 0.0
107.651 -55.187 0.0
120 -55.187 0.0
0 -64.6557 0.0
0.8571 -64.6557 0.0
1.7143 -64.6557 0.0
2.5714 -64.6557 0.0
3.4286 -64.6557 0.0
4.2857 -64.6557 0.0
5.1429 -64.6557 0.0
6 -64.6557 0.0
7.5549 -64.6557 0.0
9.5128 -64.6557 0.0
11.9781 -64.6557 0.0
15.0823 -64.6557 0.0
18.991 -64.6557 0.0
23.9126 -64.6557 0.0
30.1097 -64.6557 0.0
37.9127 -64.6557 0.0
47.738 -64.6557 0.0
60.1096 -64.6557 0.0
75.6873 -64.6557 0.0
95.302 -64.6557 0.0
120 -64.6557 0.0
0 -74.1245 0.0
0.4286 -74.1245 0.0
0.8571 -74.1245 0.0
1.2857 -74.1245 0.0
1.7143 -74.1245 0.0
2.1429 -74.1245 0.0
2.5714 -74.1245 0.0
3 -74.1245 0.0
3.4286 -74.1245 0.0
3.8571 -74.1245 0.0
4.2857 -74.1245 0.0
4.7143 -74.1245 0.0
5.1429 -74.1245 0.0
5.5714 -74.1245 0.0
6 -74.1245 0.0
6.7775 -74.1245 0.0
7.5549 -74.1245 0.0
8.5339 -74.1245 0.0
9.5128 -74.1245 0.0
10.7455 -74.1245 0.0
11.9781 -74.1245 0.0
13.5302 -74.1245 0.0
15.0823 -74.1245 0.0
17.0367 -74.1245 0.0
18.991 -74.1245 0.0
21.4518 -74.1245 0.0
23.9126 -74.1245 0.0
27.0111 -74.1245 0.0
30.1097 -74.1245 0.0
34.0112 -74.1245 0.0
37.9127 -74.1245 0.0
42.8254 -74.1245 0.0
47.738 -74.1245 0.0
53.9238 -74.1245 0.0
60.1096 -74.1245 0.0
67.8984 -74.1245 0.0
75.6873 -74.1245 0.0
85.4946 -74.1245 0.0
95.302 -74.1245 0.0
107.651 -74.1245 0.0
120 -74.1245 0.0
0 -83.5932 0.0
0.8571 -83.5932 0.0
1.7143 -83.5932 0.0
2.5714 -83.5932 0.0
3.4286 -83.5932 0.0
4.2857 -83.5932 0.0
5.1429 -83.5932 0.0
6 -83.5932 0.0
7.5549 -83.5932 0.0
9.5128 -83.5932 0.0
11.9781 -83.5932 0.0
15.0823 -83.5932 0.0
18.991 -83.5932 0.0
23.9126 -83.5932 0.0
30.1097 -83.5932 0.0
37.9127 -83.5932 0.0
47.738 -83.5932 0.0
60.1096 -83.5932 0.0
75.6873 -83.5932 0.0
95.302 -83.5932 0.0
120 -83.5932 0.0
0 -93.062 0.0
0.4286 -93.062 0.0
0.8571 -93.062 0.0
1.2857 -93.062 0.0
1.7143 -93.062 0.0
2.1429 -93.062 0.0
2.5714 -93.062 0.0
3 -93.062 0.0
3.4286 -93.062 0.0
3.8571 -93.062 0.0
4.2857 -93.062 0.0
4.7143 -93.062 0.0
5.1429 -93.062 0.0
5.5714 -93.062 0.0
6 -93.062 0.0
6.7775 -93.062 0.0
7.5549 -93.062 0.0
8.5339 -93.062 0.0
9.5128 -93.062 0.0
10.7455 -93.062 0.0
11.9781 -93.062 0.0
13.5302 -93.062 0.0
15.0823 -93.062 0.0
17.0367 -93.062 0.0
18.991 -93.062 0.0
21.4518 -93.062 0.0
23.9126 -93.062 0.0
27.0111 -93.062 0.0
30.1097 -93.062 0.0
34.0112 -93.062 0.0
37.9127 -93.062 0.0
42.8254 -93.062 0.0
47.738 -93.062 0.0
53.9238 -93.062 0.0
60.1096 -93.062 0.0
67.8984 -93.062 0.0
75.6873 -93.062 0.0
85.4946 -93.062 0.0
95.302 -93.062 0.0
107.651 -93.062 0.0
120 -93.062 0.0
0 -102.531 0.0
0.8571 -102.531 0.0
1.7143 -102.531 0.0
2.5714 -102.531 0.0
3.4286 -102.531 0.0
4.2857 -102.531 0.0
5.1429 -102.531 0.0
6 -102.531 0.0
7.5549 -102.531 0.0
9.5128 -102.531 0.0
11.9781 -102.531 0.0
15.0823 -102.531 0.0
18.991 -102.531 0.0
23.9126 -102.531 0.0
30.1097 -102.531 0.0
37.9127 -102.531 0.0
47.738 -102.531 0.0
60.1096 -102.531 0.0
75.6873 -102.531 0.0
95.302 -102.531 0.0
120 -102.531 0.0
0 -111.999 0.0
0.4286 -111.999 0.0
0.8571 -111.999 0.0
1.2857 -111.999 0.0
1.7143 -111.999 0.0
2.1429 -111.999 0.0
2.5714 -111.999 0.0
3 -111.999 0.0
3.4286 -111.999 0.0
3.8571 -111.999 0.0
4.2857 -111.999 0.0
4.7143 -111.999 0.0
5.1429 -111.999 0.0
5.5714 -111.999 0.0
6 -111.999 0.0
6.7775 -111.999 0.0
7.5549 -111.999 0.0
8.5339 -111.999 0.0
9.5128 -111.999 0.0
10.7455 -111.999 0.0
11.9781 -111.999 0.0
13.5302 -111.999 0.0
15.0823 -111.999 0.0
17.0367 -111.999 0.0
18.991 -111.999 0.0
21.4518 -111.999 0.0
23.9126 -111.999 0.0
27.0111 -111.999 0.0
30.1097 -111.999 0.0
34.0112 -111.999 0.0
37.9127 -111.999 0.0
42.8254 -111.999 0.0
47.738 -111.999 0.0
53.9238 -111.999 0.0
60.1096 -111.999 0.0
67.8984 -111.999 0.0
75.6873 -111.999 0.0
85.4946 -111.999 0.0
95.302 -111.999 0.0
107.651 -111.999 0.0
120 -111.999 0.0
0 -121.468 0.0
0.8571 -121.468 0.0
1.7143 -121.468 0.0
2.5714 -121.468 0.0
3.4286 -121.468 0.0
4.2857 -121.468 0.0
5.1429 -121.468 0.0
6 -121.468 0.0
7.5549 -121.468 0.0
9.5128 -121.468 0.0
11.9781 -121.468 0.0
15.0823 -121.468 0.0
18.991 -121.468 0.0
23.9126 -121.468 0.0
30.1097 -121.468 0.0
37.9127 -121.468 0.0
47.738 -121.468 0.0
60.1096 -121.468 0.0
75.6873 -121.468 0.0
95.302 -121.468 0.0
120 -121.468 0.0
0 -130.937 0.0
0.4286 -130.937 0.0
0.8571 -130.937 0.0
1.2857 -130.937 0.0
1.7143 -130.937 0.0
2.1429 -130.937 0.0
2.5714 -130.937 0.0
3 -130.937 0.0
3.4286 -130.937 0.0
3.8571 -130.937 0.0
4.2857 -130.937 0.0
4.7143 -130.937 0.0
5.1429 -130.937 0.0
5.5714 -130.937 0.0
6 -130.937 0.0
6.7775 -130.937 0.0
7.5549 -130.937 0.0
8.5339 -130.937 0.0
9.5128 -130.937 0.0
10.7455 -130.937 0.0
11.9781 -130.937 0.0
13.5302 -130.937 0.0
15.0823 -130.937 0.0
17.0367 -130.937 0.0
18.991 -130.937 0.0
21.4518 -130.937 0.0
23.9126 -130.937 0.0
27.0111 -130.937 0.0
30.1097 -130.937 0.0
34.0112 -130.937 0.0
37.9127 -130.937 0.0
42.8254 -130.937 0.0
47.738 -130.937 0.0
53.9238 -130.937 0.0
60.1096 -130.937 0.0
67.8984 -130.937 0.0
75.6873 -130.937 0.0
85.4946 -130.937 0.0
95.302 -130.937 0.0
107.651 -130.937 0.0
120 -130.937 0.0
0 -140.406 0.0
0.8571 -140.406 0.0
1.7143 -140.406 0.0
2.5714 -140.406 0.0
3.4286 -140.406 0.0
4.2857 -140.406 0.0
5.1429 -140.406 0.0
6 -140.406 0.0
7.5549 -140.406 0.0
9.5128 -140.406 0.0
11.9781 -140.406 0.0
15.0823 -140.406 0.0
18.991 -140.406 0.0
23.9126 -140.406 0.0
30.1097 -140.406 0.0
37.9127 -140.406 0.0
47.738 -140.406 0.0
60.1096 -140.406 0.0
75.6873 -140.406 0.0
95.302 -140.406 0.0
120 -140.406 0.0
0 -149.875 0.0
0.4286 -149.875 0.0
0.8571 -149.875 0.0
1.2857 -149.875 0.0
1.7143 -149.875 0.0
2.1429 -149.875 0.0
2.5714 -149.875 0.0
3 -149.875 0.0
3.4286 -149.875 0.0
3.8571 -149.875 0.0
4.2857 -149.875 0.0
4.7143 -149.875 0.0
5.1429 -149.875 0.0
5.5714 -149.875 0.0
6 -149.875 0.0
6.7775 -149.875 0.0
7.5549 -149.875 0.0
8.5339 -149.875 0.0
9.5128 -149.875 0.0
10.7455 -149.875 0.0
11.9781 -149.875 0.0
13.5302 -149.875 0.0
15.0823 -149.875 0.0
17.0367 -149.875 0.0
18.991 -149.875 0.0
21.4518 -149.875 0.0
23.9126 -149.875 0.0
27.0111 -149.875 0.0
30.1097 -149.875 0.0
34.0112 -149.875 0.0
37.9127 -149.875 0.0
42.8254 -149.875 0.0
47.738 -149.875 0.0
53.9238 -149.875 0.0
60.1096 -149.875 0.0
67.8984 -149.875 0.0
75.6873 -149.875 0.0
85.4946 -149.875 0.0
95.302 -149.875 0.0
107.651 -149.875 0.0
120 -149.875 0.0
0 -159.343 0.0
0.8571 -159.343 0.0
1.7143 -159.343 0.0
2.5714 -159.343 0.0
3.4286 -159.343 0.0
4.2857 -159.343 0.0
5.1429 -159.343 0.0
6 -159.343 0.0
7.5549 -159.343 0.0
9.5128 -159.343 0.0
11.9781 -159.343 0.0
15.0823 -159.343 0.0
18.991 -159.343 0.0
23.9126 -159.343 0.0
30.1097 -159.343 0.0
37.9127 -159.343 0.0
47.738 -159.343 0.0
60.1096 -159.343 0.0
75.6873 -159.343 0.0
95.302 -159.343 0.0
120 -159.343 0.0
0 -168.812 0.0
0.4286 -168.812 0.0
0.8571 -168.812 0.0
1.2857 -168.812 0.0
1.7143 -168.812 0.0
2.1429 -168.812 0.0
2.5714 -168.812 0.0
3 -168.812 0.0
3.4286 -168.812 0.0
3.8571 -168.812 0.0
4.2857 -168.812 0.0
4.7143 -168.812 0.0
5.1429 -168.812 0.0
5.5714 -168.812 0.0
6 -168.812 0.0
6.7775 -168.812 0.0
7.5549 -168.812 0.0
8.5339 -168.812 0.0
9.5128 -168.812 0.0
10.7455 -168.812 0.0
11.9781 -168.812 0.0
13.5302 -168.812 0.0
15.0823 -168.812 0.0
17.0367 -168.812 0.0
18.991 -168.812 0.0
21.4518 -168.812 0.0
23.9126 -168.812 0.0
27.0111 -168.812 0.0
30.1097 -168.812 0.0
34.0112 -168.812 0.0
37.9127 -168.812 0.0
42.8254 -168.812 0.0
47.738 -168.812 0.0
53.9238 -168.812 0.0
60.1096 -168.812 0.0
67.8984 -168.812 0.0
75.6873 -168.812 0.0
85.4946 -168.812 0.0
95.302 -168.812 0.0
107.651 -168.812 0.0
120 -168.812 0.0
0 -178.281 0.0
0.8571 -178.281 0.0
1.7143 -178.281 0.0
2.5714 -178.281 0.0
3.4286 -178.281 0.0
4.2857 -178.281 0.0
5.1429 -178.281 0.0
6 -178.281 0.0
7.5549 -178.281 0.0
9.5128 -178.281 0.0
11.9781 -178.281 0.0
15.0823 -178.281 0.0
18.991 -178.281 0.0
23.9126 -178.281 0.0
30.1097 -178.281 0.0
37.9127 -178.281 0.0
47.738 -178.281 0.0
60.1096 -178.281 0.0
75.6873 -178.281 0.0
95.302 -178.281 0.0
120 -178.281 0.0
0 -187.75 0.0
0.4286 -187.75 0.0
0.8571 -187.75 0.0
1.2857 -187.75 0.0
1.7143 -187.75 0.0
2.1429 -187.75 0.0
2.5714 -187.75 0.0
3 -187.75 0.0
3.4286 -187.75 0.0
3.8571 -187.75 0.0
4.2857 -187.75 0.0
4.7143 -187.75 0.0
5.1429 -187.75 0.0
5.5714 -187.75 0.0
6 -187.75 0.0
6.7775 -187.75 0.0
7.5549 -187.75 0.0
8.5339 -187.75 0.0
9.5128 -187.75 0.0
10.7455 -187.75 0.0
11.9781 -187.75 0.0
13.5302 -187.75 0.0
15.0823 -187.75 0.0
17.0367 -187.75 0.0
18.991 -187.75 0.0
21.4518 -187.75 0.0
23.9126 -187.75 0.0
27.0111 -187.75 0.0
30.1097 -187.75 0.0
34.0112 -187.75 0.0
37.9127 -187.75 0.0
42.8254 -187.75 0.0
47.738 -187.75 0.0
53.9238 -187.75 0.0
60.1096 -187.75 0.0
67.8984 -187.75 0.0
75.6873 -187.75 0.0
85.4946 -187.75 0.0
95.302 -187.75 0.0
107.651 -187.75 0.0
120 -187.75 0.0
0 -197.218 0.0
0.8571 -197.218 0.0
1.7143 -197.218 0.0
2.5714 -197.218 0.0
3.4286 -197.218 0.0
4.2857 -197.218 0.0
5.1429 -197.218 0.0
6 -197.218 0.0
7.5549 -197.218 0.0
9.5128 -197.218 0.0
11.9781 -197.218 0.0
15.0823 -197.218 0.0
18.991 -197.218 0.0
23.9126 -197.218 0.0
30.1097 -197.218 0.0
37.9127 -197.218 0.0
47.738 -197.218 0.0
60.1096 -197.218 0.0
75.6873 -197.218 0.0
95.302 -197.218 0.0
120 -197.218 0.0
0 -206.687 0.0
0.4286 -206.687 0.0
0.8571 -206.687 0.0
1.2857 -206.687 0.0
1.7143 -206.687 0.0
2.1429 -206.687 0.0
2.5714 -206.687 0.0
3 -206.687 0.0
3.4286 -206.687 0.0
3.8571 -206.687 0.0
4.2857 -206.687 0.0
4.7143 -206.687 0.0
5.1429 -206.687 0.0
5.5714 -206.687 0.0
6 -206.687 0.0
6.7775 -206.687 0.0
7.5549 -206.687 0.0
8.5339 -206.687 0.0
9.5128 -206.687 0.0
10.7455 -206.687 0.0
11.9781 -206.687 0.0
13.5302 -206.687 0.0
15.0823 -206.687 0.0
17.0367 -206.687 0.0
18.991 -206.687 0.0
21.4518 -206.687 0.0
23.9126 -206.687 0.0
27.0111 -206.687 0.0
30.1097 -206.687 0.0
34.0112 -206.687 0.0
37.9127 -206.687 0.0
42.8254 -206.687 0.0
47.738 -206.687 0.0
53.9238 -206.687 0.0
60.1096 -206.687 0.0
67.8984 -206.687 0.0
75.6873 -206.687 0.0
85.4946 -206.687 0.0
95.302 -206.687 0.0
107.651 -206.687 0.0
120 -206.687 0.0
0 -216.156 0.0
0.8571 -216.156 0.0
1.7143 -216.156 0.0
2.5714 -216.156 0.0
3.4286 -216.156 0.0
4.2857 -216.156 0.0
5.1429 -216.156 0.0
6 -216.156 0.0
7.5549 -216.156 0.0
9.5128 -216.156 0.0
11.9781 -216.156 0.0
15.0823 -216.156 0.0
18.991 -216.156 0.0
23.9126 -216.156 0.0
30.1097 -216.156 0.0
37.9127 -216.156 0.0
47.738 -216.156 0.0
60.1096 -216.156 0.0
75.6873 -216.156 0.0
95.302 -216.156 0.0
120 -216.156 0.0
0 -225.625 0.0
0.4286 -225.625 0.0
0.8571 -225.625 0.0
1.2857 -225.625 0.0
1.7143 -225.625 0.0
2.1429 -225.625 0.0
2.5714 -225.625 0.0
3 -225.625 0.0
3.4286 -225.625 0.0
3.8571 -225.625 0.0
4.2857 -225.625 0.0
4.7143 -225.625 0.0
5.1429 -225.625 0.0
5.5714 -225.625 0.0
6 -225.625 0.0
6.7775 -225.625 0.0
7.5549 -225.625 0.0
8.5339 -225.625 0.0
9.5128 -225.625 0.0
10.7455 -225.625 0.0
11.9781 -225.625 0.0
13.5302 -225.625 0.0
15.0823 -225.625 0.0
17.0367 -225.625 0.0
18.991 -225.625 0.0
21.4518 -225.625 0.0
23.9126 -225.625 0.0
27.0111 -225.625 0.0
30.1097 -225.625 0.0
34.0112 -225.625 0.0
37.9127 -225.625 0.0
42.8254 -225.625 0.0
47.738 -225.625 0.0
53.9238 -225.625 0.0
60.1096 -225.625 0.0
67.8984 -225.625 0.0
75.6873 -225.625 0.0
85.4946 -225.625 0.0
95.302 -225.625 0.0
107.651 -225.625 0.0
120 -225.625 0.0
0 -235.093 0.0
0.8571 -235.093 0.0
1.7143 -235.093 0.0
2.5714 -235.093 0.0
3.4286 -235.093 0.0
4.2857 -235.093 0.0
5.1429 -235.093 0.0
6 -235.093 0.0
7.5549 -235.093 0.0
9.5128 -235.093 0.0
11.9781 -235.093 0.0
15.0823 -235.093 0.0
18.991 -235.093 0.0
23.9126 -235.093 0.0
30.1097 -235.093 0.0
37.9127 -235.093 0.0
47.738 -235.093 0.0
60.1096 -235.093 0.0
75.6873 -235.093 0.0
95.302 -235.093 0.0
120 -235.093 0.0
0 -244.562 0.0
0.4286 -244.562 0.0
0.8571 -244.562 0.0
1.2857 -244.562 0.0
1.7143 -244.562 0.0
2.1429 -244.562 0.0
2.5714 -244.562 0.0
3 -244.562 0.0
3.4286 -244.562 0.0
3.8571 -244.562 0.0
4.2857 -244.562 0.0
4.7143 -244.562 0.0
5.1429 -244.562 0.0
5.5714 -244.562 0.0
6 -244.562 0.0
6.7775 -244.562 0.0
7.5549 -244.562 0.0
8.5339 -244.562 0.0
9.5128 -244.562 0.0
10.7455 -244.562 0.0
11.9781 -244.562 0.0
13.5302 -244.562 0.0
15.0823 -244.562 0.0
17.0367 -244.562 0.0
18.991 -244.562 0.0
21.4518 -244.562 0.0
23.9126 -244.562 0.0
27.0111 -244.562 0.0
30.1097 -244.562 0.0
34.0112 -244.562 0.0
37.9127 -244.562 0.0
42.8254 -244.562 0.0
47.738 -244.562 0.0
53.9238 -244.562 0.0
60.1096 -244.562 0.0
67.8984 -244.562 0.0
75.6873 -244.562 0.0
85.4946 -244.562 0.0
95.302 -244.562 0.0
107.651 -244.562 0.0
120 -244.562 0.0
0 -254.031 0.0
0.8571 -254.031 0.0
1.7143 -254.031 0.0
2.5714 -254.031 0.0
3.4286 -254.031 0.0
4.2857 -254.031 0.0
5.1429 -254.031 0.0
6 -254.031 0.0
7.5549 -254.031 0.0
9.5128 -254.031 0.0
11.9781 -254.031 0.0
15.0823 -254.031 0.0
18.991 -254.031 0.0
23.9126 -254.031 0.0
30.1097 -254.031 0.0
37.9127 -254.031 0.0
47.738 -254.031 0.0
60.1096 -254.031 0.0
75.6873 -254.031 0.0
95.302 -254.031 0.0
120 -254.031 0.0
0 -263.5 0.0
0.4286 -263.5 0.0
0.8571 -263.5 0.0
1.2857 -263.5 0.0
1.7143 -263.5 0.0
2.1429 -263.5 0.0
2.5714 -263.5 0.0
3 -263.5 0.0
3.4286 -263.5 0.0
3.8571 -263.5 0.0
4.2857 -263.5 0.0
4.7143 -263.5 0.0
5.1429 -263.5 0.0
5.5714 -263.5 0.0
6 -263.5 0.0
6.7775 -263.5 0.0
7.5549 -263.5 0.0
8.5339 -263.5 0.0
9.5128 -263.5 0.0
10.7455 -263.5 0.0
11.9781 -263.5 0.0
13.5302 -263.5 0.0
15.0823 -263.5 0.0
17.0367 -263.5 0.0
18.991 -263.5 0.0
21.4518 -263.5 0.0
23.9126 -263.5 0.0
27.0111 -263.5 0.0
30.1097 -263.5 0.0
34.0112 -263.5 0.0
37.9127 -263.5 0.0
42.8254 -263.5 0.0
47.738 -263.5 0.0
53.9238 -263.5 0.0
60.1096 -263.5 0.0
67.8984 -263.5 0.0
75.6873 -263.5 0.0
85.4946 -263.5 0.0
95.302 -263.5 0.0
107.651 -263.5 0.0
120 -263.5 0.0
0 -272.968 0.0
0.8571 -272.968 0.0
1.7143 -272.968 0.0
2.5714 -272.968 0.0
3.4286 -272.968 0.0
4.2857 -272.968 0.0
5.1429 -272.968 0.0
6 -272.968 0.0
7.5549 -272.968 0.0
9.5128 -272.968 0.0
11.9781 -272.968 0.0
15.0823 -272.968 0.0
18.991 -272.968 0.0
23.9126 -272.968 0.0
30.1097 -272.968 0.0
37.9127 -272.968 0.0
47.738 -272.968 0.0
60.1096 -272.968 0.0
75.6873 -272.968 0.0
95.302 -272.968 0.0
120 -272.968 0.0
0 -282.437 0.0
0.4286 -282.437 0.0
0.8571 -282.437 0.0
1.2857 -282.437 0.0
1.7143 -282.437 0.0
2.1429 -282.437 0.0
2.5714 -282.437 0.0
3 -282.437 0.0
3.4286 -282.437 0.0
3.8571 -282.437 0.0
4.2857 -282.437 0.0
4.7143 -282.437 0.0
5.1429 -282.437 0.0
5.5714 -282.437 0.0
6 -282.437 0.0
6.7775 -282.437 0.0
7.5549 -282.437 0.0
8.5339 -282.437 0.0
9.5128 -282.437 0.0
10.7455 -282.437 0.0
11.9781 -282.437 0.0
13.5302 -282.437 0.0
15.0823 -282.437 0.0
17.0367 -282.437 0.0
18.991 -282.437 0.0
21.4518 -282.437 0.0
23.9126 -282.437 0.0
27.0111 -282.437 0.0
30.1097 -282.437 0.0
34.0112 -282.437 0.0
37.9127 -282.437 0.0
42.8254 -282.437 0.0
47.738 -282.437 0.0
53.9238 -282.437 0.0
60.1096 -282.437 0.0
67.8984 -282.437 0.0
75.6873 -282.437 0.0
85.4946 -282.437 0.0
95.302 -282.437 0.0
107.651 -282.437 0.0
120 -282.437 0.0
0 -291.906 0.0
0.8571 -291.906 0.0
1.7143 -291.906 0.0
2.5714 -291.906 0.0
3.4286 -291.906 0.0
4.2857 -291.906 0.0
5.1429 -291.906 0.0
6 -291.906 0.0
7.5549 -291.906 0.0
9.5128 -291.906 0.0
11.9781 -291.906 0.0
15.0823 -291.906 0.0
18.991 -291.906 0.0
23.9126 -291.906 0.0
30.1097 -291.906 0.0
37.9127 -291.906 0.0
47.738 -291.906 0.0
60.1096 -291.906 0.0
75.6873 -291.906 0.0
95.302 -291.906 0.0
120 -291.906 0.0
0 -301.375 0.0
0.4286 -301.375 0.0
0.8571 -301.375 0.0
1.2857 -301.375 0.0
1.7143 -301.375 0.0
2.1429 -301.375 0.0
2.5714 -301.375 0.0
3 -301.375 0.0
3.4286 -301.375 0.0
3.8571 -301.375 0.0
4.2857 -301.375 0.0
4.7143 -301.375 0.0
5.1429 -301.375 0.0
5.5714 -301.375 0.0
6 -301.375 0.0
6.7775 -301.375 0.0
7.5549 -301.375 0.0
8.5339 -301.375 0.0
9.5128 -301.375 0.0
10.7455 -301.375 0.0
11.9781 -301.375 0.0
13.5302 -301.375 0.0
15.0823 -301.375 0.0
17.0367 -301.375 0.0
18.991 -301.375 0.0
21.4518 -301.375 0.0
23.9126 -301.375 0.0
27.0111 -301.375 0.0
30.1097 -301.375 0.0
34.0112 -301.375 0.0
37.9127 -301.375 0.0
42.8254 -301.375 0.0
47.738 -301.375 0.0
53.9238 -301.375 0.0
60.1096 -301.375 0.0
67.8984 -301.375 0.0
75.6873 -301.375 0.0
85.4946 -301.375 0.0
95.302 -301.375 0.0
107.651 -301.375 0.0
120 -301.375 0.0
0 -310.843 0.0
0.8571 -310.843 0.0
1.7143 -310.843 0.0
2.5714 -310.843 0.0
3.4286 -310.843 0.0
4.2857 -310.843 0.0
5.1429 -310.843 0.0
6 -310.843 0.0
7.5549 -310.843 0.0
9.5128 -310.843 0.0
11.9781 -310.843 0.0
15.0823 -310.843 0.0
18.991 -310.843 0.0
23.9126 -310.843 0.0
30.1097 -310.843 0.0
37.9127 -310.843 0.0
47.738 -310.843 0.0
60.1096 -310.843 0.0
75.6873 -310.843 0.0
95.302 -310.843 0.0
120 -310.843 0.0
0 -320.312 0.0
0.4286 -320.312 0.0
0.8571 -320.312 0.0
1.2857 -320.312 0.0
1.7143 -320.312 0.0
2.1429 -320.312 0.0
2.5714 -320.312 0.0
3 -320.312 0.0
3.4286 -320.312 0.0
3.8571 -320.312 0.0
4.2857 -320.312 0.0
4.7143 -320.312 0.0
5.1429 -320.312 0.0
5.5714 -320.312 0.0
6 -320.312 0.0
6.7775 -320.312 0.0
7.5549 -320.312 0.0
8.5339 -320.312 0.0
9.5128 -320.312 0.0
10.7455 -320.312 0.0
11.9781 -320.312 0.0
13.5302 -320.312 0.0
15.0823 -320.312 0.0
17.0367 -320.312 0.0
18.991 -320.312 0.0
21.4518 -320.312 0.0
23.9126 -320.312 0.0
27.0111 -320.312 0.0
30.1097 -320.312 0.0
34.0112 -320.312 0.0
37.9127 -320.312 0.0
42.8254 -320.312 0.0
47.738 -320.312 0.0
53.9238 -320.312 0.0
60.1096 -320.312 0.0
67.8984 -320.312 0.0
75.6873 -320.312 0.0
85.4946 -320.312 0.0
95.302 -320.312 0.0
107.651 -320.312 0.0
120 -320.312 0.0

CELLS 1060 9540
8 62 64  2  0 63 42  1 41
8 64 66  4  2 65 43  3 42
8 66 68  6  4 67 44  5 43
8 68 70  8  6 69 45  7 44
8 70 72 10  8 71 46  9 45
8 72 74 12 10 73 47 11 46
8 74 76 14 12 75 48 13 47
8 76 78 16 14 77 49 15 48
8 78 80 18 16 79 50 17 49
8 80 82 20 18 81 51 19 50
8 82 84 22 20 83 52 21 51
8 84 86 24 22 85 53 23 52
8 86 88 26 24 87 54 25 53
8 88 90 28 26 89 55 27 54
8 90 92 30 28 91 56 29 55
8 92 94 32 30 93 57 31 56
8 94 96 34 32 95 58 33 57
8 96 98 36 34 97 59 35 58
8  98 100  38  36  99  60  37  59
8 100 102  40  38 101  61  39  60
8 124 126  64  62 125 104  63 103
8 126 128  66  64 127 105  65 104
8 128 130  68  66 129 106  67 105
8 130 132  70  68 131 107  69 106
8 132 134  72  70 133 108  71 107
8 134 136  74  72 135 109  73 108
8 136 138  76  74 137 110  75 109
8 138 140  78  76 139 111  77 110
8 140 142  80  78 141 112  79 111
8 142 144  82  80 143 113  81 112
8 144 146  84  82 145 114  83 113
8 146 148  86  84 147 115  85 114
8 148 150  88  86 149 116  87 115
8 150 152  90  88 151 117  89 116
8 152 154  92  90 153 118  91 117
8 154 156  94  92 155 119  93 118
8 156 158  96  94 157 120  95 119
8 158 160  98  96 159 121  97 120
8 160 162 100  98 161 122  99 121
8 162 164 102 100 163 123 101 122
8 186 188 126 124 187 166 125 165
8 188 190 128 126 189 167 127 166
8 190 192 130 128 191 168 129 167
8 192 194 132 130 193 169 131 168
8 194 196 134 132 195 170 133 169
8 196 198 136 134 197 171 135 170
8 198 200 138 136 199 172 137 171
8 200 202 140 138 201 173 139 172
8 202 204 142 140 203 174 141 173
8 204 206 144 142 205 175 143 174
8 206 208 146 144 207 176 145 175
8 208 210 148 146 209 177 147 176
8 210 212 150 148 211 178 149 177
8 212 214 152 150 213 179 151 178
8 214 216 154 152 215 180 153 179
8 216 218 156 154 217 181 155 180
8 218 220 158 156 219 182 157 181
8 220 222 160 158 221 183 159 182
8 222 224 162 160 223 184 161 183
8 224 226 164 162 225 185 163 184
8 248 250 188 186 249 228 187 227
8 250 252 190 188 251 229 189 228
8 252 254 192 190 253 230 191 229
8 254 256 194 192 255 231 193 230
8 256 258 196 194 257 232 195 231
8 258 260 198 196 259 233 197 232
8 260 262 200 198 261 234 199 233
8 262 264 202 200 263 235 201 234
8 264 266 204 202 265 236 203 235
8 266 268 206 204 267 237 205 236
8 268 270 208 206 269 238 207 237
8 270 272 210 208 271 239 209 238
8 272 274 212 210 273 240 211 239
8 274 276 214 212 275 241 213 240
8 276 278 216 214 277 242 215 241
8 278 280 218 216 279 243 217 242
8 280 282 220 218 281 244 219 243
8 282 284 222 220 283 245 221 244
8 284 286 224 222 285 246 223 245
8 286 288 226 224 287 247 225 246
8 310 312 250 248 311 290 249 289
8 312 314 252 250 313 291 251 290
8 314 316 254 252 315 292 253 291
8 316 318 256 254 317 293 255 292
8 318 320 258 256 319 294 257 293
8 320 322 260 258 321 295 259 294
8 322 324 262 260 323 296 261 295
8 324 326 264 262 325 297 263 296
8 326 328 266 264 327 298 265 297
8 328 330 268 266 329 299 267 298
8 330 332 270 268 331 300 269 299
8 332 334 272 270 333 301 271 300
8 334 336 274 272 335 302 273 301
8 336 338 276 274 337 303 275 302
8 338 340 278 276 339 304 277 303
8 340 342 280 278 341 305 279 304
8 342 344 282 280 343 306 281 305
8 344 346 284 282 345 307 283 306
8 346 348 286 284 347 308 285 307
8 348 350 288 286 349 309 287 308
8 372 374 312 310 373 352 311 351
8 374 376 314 312 375 353 313 352
8 376 378 316 314 377 354 315 353
8 378 380 318 316 379 355 317 354
8 380 382 320 318 381 356 319 355
8 382 384 322 320 383 357 321 356
8 384 386 324 322 385 358 323 357
8 386 388 326 324 387 359 325 358
8 388 390 328 326 389 360 327 359
8 390 392 330 328 391 361 329 360
8 392 394 332 330 393 362 331 361
8 394 396 334 332 395 363 333 362
8 396 398 336 334 397 364 335 363
8 398 400 338 336 399 365 337 364
8 400 402 340 338 401 366 339 365
8 402 404 342 340 403 367 341 366
8 404 406 344 342 405 368 343 367
8 406 408 346 344 407 369 345 368
8 408 410 348 346 409 370 347 369
8 410 412 350 348 411 371 349 370
8 434 436 374 372 435 414 373 413
8 436 438 376 374 437 415 375 414
8 438 440 378 376 439 416 377 415
8 440 442 380 378 441 417 379 416
8 442 444 382 380 443 418 381 417
8 444 446 384 382 445 419 383 418
8 446 448 386 384 447 420 385 419
8 448 450 388 386 449 421 387 420
8 450 452 390 388 451 422 389 421
8 452 454 392 390 453 423 391 422
8 454 456 394 392 455 424 393 423
8 456 458 396 394 457 425 395 424
8 458 460 398 396 459 426 397 425
8 460 462 400 398 461 427 399 426
8 462 464 402 400 463 428 401 427
8 464 466 404 402 465 429 403 428
8 466 468 406 404 467 430 405 429
8 468 470 408 406 469 431 407 430
8 470 472 410 408 471 432 409 431
8 472 474 412 410 473 433 411 432
8 496 498 436 434 497 476 435 475
8 498 500 438 436 499 477 437 476
8 500 502 440 438 501 478 439 477
8 502 504 442 440 503 479 441 478
8 504 506 444 442 505 480 443 479
8 506 508 446 444 507 481 445 480
8 508 510 448 446 509 482 447 481
8 510 512 450 448 511 483 449 482
8 512 514 452 450 513 484 451 483
8 514 516 454 452 515 485 453 484
8 516 518 456 454 517 486 455 485
8 518 520 458 456 519 487 457 486
8 520 522 460 458 521 488 459 487
8 522 524 462 460 523 489 461 488
8 524 526 464 462 525 490 463 489
8 526 528 466 464 527 491 465 490
8 528 530 468 466 529 492 467 491
8 530 532 470 468 531 493 469 492
8 532 534 472 470 533 494 471 493
8 534 536 474 472 535 495 473 494
8 558 560 498 496 559 538 497 537
8 560 562 500 498 561 539 499 538
8 562 564 502 500 563 540 501 539
8 564 566 504 502 565 541 503 540
8 566 568 506 504 567 542 505 541
8 568 570 508 506 569 543 507 542
8 570 572 510 508 571 544 509 543
8 572 574 512 510 573 545 511 544
8 574 576 514 512 575 546 513 545
8 576 578 516 514 577 547 515 546
8 578 580 518 516 579 548 517 547
8 580 582 520 518 581 549 519 548
8 582 584 522 520 583 550 521 549
8 584 586 524 522 585 551 523 550
8 586 588 526 524 587 552 525 551
8 588 590 528 526 589 553 527 552
8 590 592 530 528 591 554 529 553
8 592 594 532 530 593 555 531 554
8 594 596 534 532 595 556 533 555
8 596 598 536 534 597 557 535 556
8 620 622 560 558 621 600 559 599
8 622 624 562 560 623 601 561 600
8 624 626 564 562 625 602 563 601
8 626 628 566 564 627 603 565 602
8 628 630 568 566 629 604 567 603
8 630 632 570 568 631 605 569 604
8 632 634 572 570 633 606 571 605
8 634 636 574 572 635 607 573 606
8 636 638 576 574 637 608 575 607
8 638 640 578 576 639 609 577 608
8 640 642 580 578 641 610 579 609
8 642 644 582 580 643 611 581 610
8 644 646 584 582 645 612 583 611
8 646 648 586 584 647 613 585 612
8 648 650 588 586 649 614 587 613
8 650 652 590 588 651 615 589 614
8 652 654 592 590 653 616 591 615
8 654 656 594 592 655 617 593 616
8 656 658 596 594 657 618 595 617
8 658 660 598 596 659 619 597 618
8 682 684 622 620 683 662 621 661
8 684 686 624 622 685 663 623 662
8 686 688 626 624 687 664 625 663
8 688 690 628 626 689 665 627 664
8 690 692 630 628 691 666 629 665
8 692 694 632 630 693 667 631 666
8 694 696 634 632 695 668 633 667
8 696 698 636 634 697 669 635 668
8 698 700 638 636 699 670 637 669
8 700 702 640 638 701 671 639 670
8 702 704 642 640 703 672 641 671
8 704 706 644 642 705 673 643 672
8 706 708 646 644 707 674 645 673
8 708 710 648 646 709 675 647 674
8 710 712 650 648 711 676 649 675
8 712 714 652 650 713 677 651 676
8 714 716 654 652 715 678 653 677
8 716 718 656 654 717 679 655 678
8 718 720 658 656 719 680 657 679
8 720 722 660 658 721 681 659 680
8 744 746 684 682 745 724 683 723
8 746 748 686 684 747 725 685 724
8 748 750 688 686 749 726 687 725
8 750 752 690 688 751 727 689 726
8 752 754 692 690 753 728 691 727
8 754 756 694 692 755 729 693 728
8 756 758 696 694 757 730 695 729
8 758 760 698 696 759 731 697 730
8 760 762 700 698 761 732 699 731
8 762 764 702 700 763 733 701 732
8 764 766 704 702 765 734 703 733
8 766 768 706 704 767 735 705 734
8 768 770 708 706 769 736 707 735
8 770 772 710 708 771 737 709 736
8 772 774 712 710 773 738 711 737
8 774 776 714 712 775 739 713 738
8 776 778 716 714 777 740 715 739
8 778 780 718 716 779 741 717 740
8 780 782 720 718 781 742 719 741
8 782 784 722 720 783 743 721 742
8 806 808 746 744 807 786 745 785
8 808 810 748 746 809 787 747 786
8 810 812 750 748 811 788 749 787
8 812 814 752 750 813 789 751 788
8 814 816 754 752 815 790 753 789
8 816 818 756 754 817 791 755 790
8 818 820 758 756 819 792 757 791
8 820 822 760 758 821 793 759 792
8 822 824 762 760 823 794 761 793
8 824 826 764 762 825 795 763 794
8 826 828 766 764 827 796 765 795
8 828 830 768 766 829 797 767 796
8 830 832 770 768 831 798 769 797
8 832 834 772 770 833 799 771 798
8 834 836 774 772 835 800 773 799
8 836 838 776 774 837 801 775 800
8 838 840 778 776 839 802 777 801
8 840 842 780 778 841 803 779 802
8 842 844 782 780 843 804 781 803
8 844 846 784 782 845 805 783 804
8 868 870 808 806 869 848 807 847
8 870 872 810 808 871 849 809 848
8 872 874 812 810 873 850 811 849
8 874 876 814 812 875 851 813 850
8 876 878 816 814 877 852 815 851
8 878 880 818 816 879 853 817 852
8 880 882 820 818 881 854 819 853
8 882 884 822 820 883 855 821 854
8 884 886 824 822 885 856 823 855
8 886 888 826 824 887 857 825 856
8 888 890 828 826 889 858 827 857
8 890 892 830 828 891 859 829 858
8 892 894 832 830 893 860 831 859
8 894 896 834 832 895 861 833 860
8 896 898 836 834 897 862 835 861
8 898 900 838 836 899 863 837 862
8 900 902 840 838 901 864 839 863
8 902 904 842 840 903 865 841 864
8 904 906 844 842 905 866 843 865
8 906 908 846 844 907 867 845 866
8 930 932 870 868 931 910 869 909
8 932 934 872 870 933 911 871 910
8 934 936 874 872 935 912 873 911
8 936 938 876 874 937 913 875 912
8 938 940 878 876 939 914 877 913
8 940 942 880 878 941 915 879 914
8 942 944 882 880 943 916 881 915
8 944 946 884 882 945 917 883 916
8 946 948 886 884 947 918 885 917
8 948 950 888 886 949 919 887 918
8 950 952 890 888 951 920 889 919
8 952 954 892 890 953 921 891 920
8 954 956 894 892 955 922 893 921
8 956 958 896 894 957 923 895 922
8 958 960 898 896 959 924 897 923
8 960 962 900 898 961 925 899 924
8 962 964 902 900 963 926 901 925
8 964 966 904 902 965 927 903 926
8 966 968 906 904 967 928 905 927
8 968 970 908 906 969 929 907 928
8 992 994 932 930 993 972 931 971
8 994 996 934 932 995 973 933 972
8 996 998 936 934 997 974 935 973
8  998 1000  938  936  999  975  937  974
8 1000 1002  940  938 1001  976  939  975
8 1002 1004  942  940 1003  977  941  976
8 1004 1006  944  942 1005  978  943  977
8 1006 1008  946  944 1007  979  945  978
8 1008 1010  948  946 1009  980  947  979
8 1010 1012  950  948 1011  981  949  980
8 1012 1014  952  950 1013  982  951  981
8 1014 1016  954  952 1015  983  953  982
8 1016 1018  956  954 1017  984  955  983
8 1018 1020  958  956 1019  985  957  984
8 1020 1022  960  958 1021  986  959  985
8 1022 1024  962  960 1023  987  961  986
8 1024 1026  964  962 1025  988  963  987
8 1026 1028  966  964 1027  989  965  988
8 1028 1030  968  966 1029  990  967  989
8 1030 1032  970  968 1031  991  969  990
8 1054 1056  994  992 1055 1034  993 1033
8 1056 1058  996  994 1057 1035  995 1034
8 1058 1060  998  996 1059 1036  997 1035
8 1060 1062 1000  998 1061 1037  999 1036
8 1062 1064 1002 1000 1063 1038 1001 1037
8 1064 1066 1004 1002 1065 1039 1003 1038
8 1066 1068 1006 1004 1067 1040 1005 1039
8 1068 1070 1008 1006 1069 1041 1007 1040
8 1070 1072 1010 1008 1071 1042 1009 1041
8 1072 1074 1012 1010 1073 1043 1011 1042
8 1074 1076 1014 1012 1075 1044 1013 1043
8 1076 1078 1016 1014 1077 1045 1015 1044
8 1078 1080 1018 1016 1079 1046 1017 1045
8 1080 1082 1020 1018 1081 1047 1019 1046
8 1082 1084 1022 1020 1083 1048 1021 1047
8 1084 1086 1024 1022 1085 1049 1023 1048
8 1086 1088 1026 1024 1087 1050 1025 1049
8 1088 1090 1028 1026 1089 1051 1027 1050
8 1090 1092 1030 1028 1091 1052 1029 1051
8 1092 1094 1032 1030 1093 1053 1031 1052
8 1116 1118 1056 1054 1117 1096 1055 1095
8 1118 1120 1058 1056 1119 1097 1057 1096
8 1120 1122 1060 1058 1121 1098 1059 1097
8 1122 1124 1062 1060 1123 1099 1061 1098
8 1124 1126 1064 1062 1125 1100 1063 1099
8 1126 1128 1066 1064 1127 1101 1065 1100
8 1128 1130 1068 1066 1129 1102 1067 1101
8 1130 1132 1070 1068 1131 1103 1069 1102
8 1132 1134 1072 1070 1133 1104 1071 1103
8 1134 1136 1074 1072 1135 1105 1073 1104
8 1136 1138 1076 1074 1137 1106 1075 1105
8 1138 1140 1078 1076 1139 1107 1077 1106
8 1140 1142 1080 1078 1141 1108 1079 1107
8 1142 1144 1082 1080 1143 1109 1081 1108
8 1144 1146 1084 1082 1145 1110 1083 1109
8 1146 1148 1086 1084 1147 1111 1085 1110
8 1148 1150 1088 1086 1149 1112 1087 1111
8 1150 1152 1090 1088 1151 1113 1089 1112
8 1152 1154 1092 1090 1153 1114 1091 1113
8 1154 1156 1094 1092 1155 1115 1093 1114
8 1178 1180 1118 1116 1179 1158 1117 1157
8 1180 1182 1120 1118 1181 1159 1119 1158
8 1182 1184 1122 1120 1183 1160 1121 1159
8 1184 1186 1124 1122 1185 1161 1123 1160
8 1186 1188 1126 1124 1187 1162 1125 1161
8 1188 1190 1128 1126 1189 1163 1127 1162
8 1190 1192 1130 1128 1191 1164 1129 1163
8 1192 1194 1132 1130 1193 1165 1131 1164
8 1194 1196 1134 1132 1195 1166 1133 1165
8 1196 1198 1136 1134 1197 1167 1135 1166
8 1198 1200 1138 1136 1199 1168 1137 1167
8 1200 1202 1140 1138 1201 1169 1139 1168
8 1202 1204 1142 1140 1203 1170 1141 1169
8 1204 1206 1144 1142 1205 1171 1143 1170
8 1206 1208 1146 1144 1207 1172 1145 1171
8 1208 1210 1148 1146 1209 1173 1147 1172
8 1210 1212 1150 1148 1211 1174 1149 1173
8 1212 1214 1152 1150 1213 1175 1151 1174
8 1214 1216 1154 1152 1215 1176 1153 1175
8 1216 1218 1156 1154 1217 1177 1155 1176
8 1240 1242 1180 1178 1241 1220 1179 1219
8 1242 1244 1182 1180 1243 1221 1181 1220
8 1244 1246 1184 1182 1245 1222 1183 1221
8 1246 1248 1186 1184 1247 1223 1185 1222
8 1248 1250 1188 1186 1249 1224 1187 1223
8 1250 1252 1190 1188 1251 1225 1189 1224
8 1252 1254 1192 1190 1253 1226 1191 1225
8 1254 1256 1194 1192 1255 1227 1193 1226
8 1256 1258 1196 1194 1257 1228 1195 1227
8 1258 1260 1198 1196 1259 1229 1197 1228
8 1260 1262 1200 1198 1261 1230 1199 1229
8 1262 1264 1202 1200 1263 1231 1201 1230
8 1264 1266 1204 1202 1265 1232 1203 1231
8 1266 1268 1206 1204 1267 1233 1205 1232
8 1268 1270 1208 1206 1269 1234 1207 1233
8 1270 1272 1210 1208 1271 1235 1209 1234
8 1272 1274 1212 1210 1273 1236 1211 1235
8 1274 1276 1214 1212 1275 1237 1213 1236
8 1276 1278 1216 1214 1277 1238 1215 1237
8 1278 1280 1218 1216 1279 1239 1217 1238
8 1302 1304 1242 1240 1303 1282 1241 1281
8 1304 1306 1244 1242 1305 1283 1243 1282
8 1306 1308 1246 1244 1307 1284 1245 1283
8 1308 1310 1248 1246 1309 1285 1247 1284
8 1310 1312 1250 1248 1311 1286 1249 1285
8 1312 1314 1252 1250 1313 1287 1251 1286
8 1314 1316 1254 1252 1315 1288 1253 1287
8 1316 1318 1256 1254 1317 1289 1255 1288
8 1318 1320 1258 1256 1319 1290 1257 1289
8 1320 1322 1260 1258 1321 1291 1259 1290
8 1322 1324 1262 1260 1323 1292 1261 1291
8 1324 1326 1264 1262 1325 1293 1263 1292
8 1326 1328 1266 1264 1327 1294 1265 1293
8 1328 1330 1268 1266 1329 1295 1267 1294
8 1330 1332 1270 1268 1331 1296 1269 1295
8 1332 1334 1272 1270 1333 1297 1271 1296
8 1334 1336 1274 1272 1335 1298 1273 1297
8 1336 1338 1276 1274 1337 1299 1275 1298
8 1338 1340 1278 1276 1339 1300 1277 1299
8 1340 1342 1280 1278 1341 1301 1279 1300
8 1364 1366 1304 1302 1365 1344 1303 1343
8 1366 1368 1306 1304 1367 1345 1305 1344
8 1368 1370 1308 1306 1369 1346 1307 1345
8 1370 1372 1310 1308 1371 1347 1309 1346
8 1372 1374 1312 1310 1373 1348 1311 1347
8 1374 1376 1314 1312 1375 1349 1313 1348
8 1376 1378 1316 1314 1377 1350 1315 1349
8 1378 1380 1318 1316 1379 1351 1317 1350
8 1380 1382 1320 1318 1381 1352 1319 1351
8 1382 1384 1322 1320 1383 1353 1321 1352
8 1384 1386 1324 1322 1385 1354 1323 1353
8 1386 1388 1326 1324 1387 1355 1325 1354
8 1388 1390 1328 1326 1389 1356 1327 1355
8 1390 1392 1330 1328 1391 1357 1329 1356
8 1392 1394 1332 1330 1393 1358 1331 1357
8 1394 1396 1334 1332 1395 1359 1333 1358
8 1396 1398 1336 1334 1397 1360 1335 1359
8 1398 1400 1338 1336 1399 1361 1337 1360
8 1400 1402 1340 1338 1401 1362 1339 1361
8 1402 1404 1342 1340 1403 1363 1341 1362
8 1426 1428 1366 1364 1427 1406 1365 1405
8 1428 1430 1368 1366 1429 1407 1367 1406
8 1430 1432 1370 1368 1431 1408 1369 1407
8 1432 1434 1372 1370 1433 1409 1371 1408
8 1434 1436 1374 1372 1435 1410 1373 1409
8 1436 1438 1376 1374 1437 1411 1375 1410
8 1438 1440 1378 1376 1439 1412 1377 1411
8 1440 1442 1380 1378 1441 1413 1379 1412
8 1442 1444 1382 1380 1443 1414 1381 1413
8 1444 1446 1384 1382 1445 1415 1383 1414
8 1446 1448 1386 1384 1447 1416 1385 1415
8 1448 1450 1388 1386 1449 1417 1387 1416
8 1450 1452 1390 1388 1451 1418 1389 1417
8 1452 1454 1392 1390 1453 1419 1391 1418
8 1454 1456 1394 1392 1455 1420 1393 1419
8 1456 1458 1396 1394 1457 1421 1395 1420
8 1458 1460 1398 1396 1459 1422 1397 1421
8 1460 1462 1400 1398 1461 1423 1399 1422
8 1462 1464 1402 1400 1463 1424 1401 1423
8 1464 1466 1404 1402 1465 1425 1403 1424
8 1488 1490 1428 1426 1489 1468 1427 1467
8 1490 1492 1430 1428 1491 1469 1429 1468
8 1492 1494 1432 1430 1493 1470 1431 1469
8 1494 1496 1434 1432 1495 1471 1433 1470
8 1496 1498 1436 1434 1497 1472 1435 1471
8 1498 1500 1438 1436 1499 1473 1437 1472
8 1500 1502 1440 1438 1501 1474 1439 1473
8 1502 1504 1442 1440 1503 1475 1441 1474
8 1504 1506 1444 1442 1505 1476 1443 1475
8 1506 1508 1446 1444 1507 1477 1445 1476
8 1508 1510 1448 1446 1509 1478 1447 1477
8 1510 1512 1450 1448 1511 1479 1449 1478
8 1512 1514 1452 1450 1513 1480 1451 1479
8 1514 1516 1454 1452 1515 1481 1453 1480
8 1516 1518 1456 1454 1517 1482 1455 1481
8 1518 1520 1458 1456 1519 1483 1457 1482
8 1520 1522 1460 1458 1521 1484 1459 1483
8 1522 1524 1462 1460 1523 1485 1461 1484
8 1524 1526 1464 1462 1525 1486 1463 1485
8 1526 1528 1466 1464 1527 1487 1465 1486
8 1550 1552 1490 1488 1551 1530 1489 1529
8 1552 1554 1492 1490 1553 1531 1491 1530
8 1554 1556 1494 1492 1555 1532 1493 1531
8 1556 1558 1496 1494 1557 1533 1495 1532
8 1558 1560 1498 1496 1559 1534 1497 1533
8 1560 1562 1500 1498 1561 1535 1499 1534
8 1562 1564 1502 1500 1563 1536 1501 1535
8 1564 1566 1504 1502 1565 1537 1503 1536
8 1566 1568 1506 1504 1567 1538 1505 1537
8 1568 1570 1508 1506 1569 1539 1507 1538
8 1570 1572 1510 1508 1571 1540 1509 1539
8 1572 1574 1512 1510 1573 1541 1511 1540
8 1574 1576 1514 1512 1575 1542 1513 1541
8 1576 1578 1516 1514 1577 1543 1515 1542
8 1578 1580 1518 1516 1579 1544 1517 1543
8 1580 1582 1520 1518 1581 1545 1519 1544
8 1582 1584 1522 1520 1583 1546 1521 1545
8 1584 1586 1524 1522 1585 1547 1523 1546
8 1586 1588 1526 1524 1587 1548 1525 1547
8 1588 1590 1528 1526 1589 1549 1527 1548
8 1612 1614 1552 1550 1613 1592 1551 1591
8 1614 1616 1554 1552 1615 1593 1553 1592
8 1616 1618 1556 1554 1617 1594 1555 1593
8 1618 1620 1558 1556 1619 1595 1557 1594
8 1620 1622 1560 1558 1621 1596 1559 1595
8 1622 1624 1562 1560 1623 1597 1561 1596
8 1624 1626 1564 1562 1625 1598 1563 1597
8 1626 1628 1566 1564 1627 1599 1565 1598
8 1628 1630 1568 1566 1629 1600 1567 1599
8 1630 1632 1570 1568 1631 1601 1569 1600
8 1632 1634 1572 1570 1633 1602 1571 1601
8 1634 1636 1574 1572 1635 1603 1573 1602
8 1636 1638 1576 1574 1637 1604 1575 1603
8 1638 1640 1578 1576 1639 1605 1577 1604
8 1640 1642 1580 1578 1641 1606 1579 1605
8 1642 1644 1582 1580 1643 1607 1581 1606
8 1644 1646 1584 1582 1645 1608 1583 1607
8 1646 1648 1586 1584 1647 1609 1585 1608
8 1648 1650 1588 1586 1649 1610 1587 1609
8 1650 1652 1590 1588 1651 1611 1589 1610
8 1674 1676 1614 1612 1675 1654 1613 1653
8 1676 1678 1616 1614 1677 1655 1615 1654
8 1678 1680 1618 1616 1679 1656 1617 1655
8 1680 1682 1620 1618 1681 1657 1619 1656
8 1682 1684 1622 1620 1683 1658 1621 1657
8 1684 1686 1624 1622 1685 1659 1623 1658
8 1686 1688 1626 1624 1687 1660 1625 1659
8 1688 1690 1628 1626 1689 1661 1627 1660
8 1690 1692 1630 1628 1691 1662 1629 1661
8 1692 1694 1632 1630 1693 1663 1631 1662
8 1694 1696 1634 1632 1695 1664 1633 1663
8 1696 1698 1636 1634 1697 1665 1635 1664
8 1698 1700 1638 1636 1699 1666 1637 1665
8 1700 1702 1640 1638 1701 1667 1639 1666
8 1702 1704 1642 1640 1703 1668 1641 1667
8 1704 1706 1644 1642 1705 1669 1643 1668
8 1706 1708 1646 1644 1707 1670 1645 1669
8 1708 1710 1648 1646 1709 1671 1647 1670
8 1710 1712 1650 1648 1711 1672 1649 1671
8 1712 1714 1652 1650 1713 1673 1651 1672
8 1736 1738 1676 1674 1737 1716 1675 1715
8 1738 1740 1678 1676 1739 1717 1677 1716
8 1740 1742 1680 1678 1741 1718 1679 1717
8 1742 1744 1682 1680 1743 1719 1681 1718
8 1744 1746 1684 1682 1745 1720 1683 1719
8 1746 1748 1686 1684 1747 1721 1685 1720
8 1748 1750 1688 1686 1749 1722 1687 1721
8 1750 1752 1690 1688 1751 1723 1689 1722
8 1752 1754 1692 1690 1753 1724 1691 1723
8 1754 1756 1694 1692 1755 1725 1693 1724
8 1756 1758 1696 1694 1757 1726 1695 1725
8 1758 1760 1698 1696 1759 1727 1697 1726
8 1760 1762 1700 1698 1761 1728 1699 1727
8 1762 1764 1702 1700 1763 1729 1701 1728
8 1764 1766 1704 1702 1765 1730 1703 1729
8 1766 1768 1706 1704 1767 1731 1705 1730
8 1768 1770 1708 1706 1769 1732 1707 1731
8 1770 1772 1710 1708 1771 1733 1709 1732
8 1772 1774 1712 1710 1773 1734 1711 1733
8 1774 1776 1714 1712 1775 1735 1713 1734
8 1798 1800 1738 1736 1799 1778 1737 1777
8 1800 1802 1740 1738 1801 1779 1739 1778
8 1802 1804 1742 1740 1803 1780 1741 1779
8 1804 1806 1744 1742 1805 1781 1743 1780
8 1806 1808 1746 1744 1807 1782 1745 1781
8 1808 1810 1748 1746 1809 1783 1747 1782
8 1810 1812 1750 1748 1811 1784 1749 1783
8 1812 1814 1752 1750 1813 1785 1751 1784
8 1814 1816 1754 1752 1815 1786 1753 1785
8 1816 1818 1756 1754 1817 1787 1755 1786
8 1818 1820 1758 1756 1819 1788 1757 1787
8 1820 1822 1760 1758 1821 1789 1759 1788
8 1822 1824 1762 1760 1823 1790 1761 1789
8 1824 1826 1764 1762 1825 1791 1763 1790
8 1826 1828 1766 1764 1827 1792 1765 1791
8 1828 1830 1768 1766 1829 1793 1767 1792
8 1830 1832 1770 1768 1831 1794 1769 1793
8 1832 1834 1772 1770 1833 1795 1771 1794
8 1834 1836 1774 1772 1835 1796 1773 1795
8 1836 1838 1776 1774 1837 1797 1775 1796
8 1860 1862 1800 1798 1861 1840 1799 1839
8 1862 1864 1802 1800 1863 1841 1801 1840
8 1864 1866 1804 1802 1865 1842 1803 1841
8 1866 1868 1806 1804 1867 1843 1805 1842
8 1868 1870 1808 1806 1869 1844 1807 1843
8 1870 1872 1810 1808 1871 1845 1809 1844
8 1872 1874 1812 1810 1873 1846 1811 1845
8 1874 1876 1814 1812 1875 1847 1813 1846
8 1876 1878 1816 1814 1877 1848 1815 1847
8 1878 1880 1818 1816 1879 1849 1817 1848
8 1880 1882 1820 1818 1881 1850 1819 1849
8 1882 1884 1822 1820 1883 1851 1821 1850
8 1884 1886 1824 1822 1885 1852 1823 1851
8 1886 1888 1826 1824 1887 1853 1825 1852
8 1888 1890 1828 1826 1889 1854 1827 1853
8 1890 1892 1830 1828 1891 1855 1829 1854
8 1892 1894 1832 1830 1893 1856 1831 1855
8 1894 1896 1834 1832 1895 1857 1833 1856
8 1896 1898 1836 1834 1897 1858 1835 1857
8 1898 1900 1838 1836 1899 1859 1837 1858
8 1922 1924 1862 1860 1923 1902 1861 1901
8 1924 1926 1864 1862 1925 1903 1863 1902
8 1926 1928 1866 1864 1927 1904 1865 1903
8 1928 1930 1868 1866 1929 1905 1867 1904
8 1930 1932 1870 1868 1931 1906 1869 1905
8 1932 1934 1872 1870 1933 1907 1871 1906
8 1934 1936 1874 1872 1935 1908 1873 1907
8 1936 1938 1876 1874 1937 1909 1875 1908
8 1938 1940 1878 1876 1939 1910 1877 1909
8 1940 1942 1880 1878 1941 1911 1879 1910
8 1942 1944 1882 1880 1943 1912 1881 1911
8 1944 1946 1884 1882 1945 1913 1883 1912
8 1946 1948 1886 1884 1947 1914 1885 1913
8 1948 1950 1888 1886 1949 1915 1887 1914
8 1950 1952 1890 1888 1951 1916 1889 1915
8 1952 1954 1892 1890 1953 1917 1891 1916
8 1954 1956 1894 1892 1955 1918 1893 1917
8 1956 1958 1896 1894 1957 1919 1895 1918
8 1958 1960 1898 1896 1959 1920 1897 1919
8 1960 1962 1900 1898 1961 1921 1899 1920
8 1984 1986 1924 1922 1985 1964 1923 1963
8 1986 1988 1926 1924 1987 1965 1925 1964
8 1988 1990 1928 1926 1989 1966 1927 1965
8 1990 1992 1930 1928 1991 1967 1929 1966
8 1992 1994 1932 1930 1993 1968 1931 1967
8 1994 1996 1934 1932 1995 1969 1933 1968
8 1996 1998 1936 1934 1997 1970 1935 1969
8 1998 2000 1938 1936 1999 1971 1937 1970
8 2000 2002 1940 1938 2001 1972 1939 1971
8 2002 2004 1942 1940 2003 1973 1941 1972
8 2004 2006 1944 1942 2005 1974 1943 1973
8 2006 2008 1946 1944 2007 1975 1945 1974
8 2008 2010 1948 1946 2009 1976 1947 1975
8 2010 2012 1950 1948 2011 1977 1949 1976
8 2012 2014 1952 1950 2013 1978 1951 1977
8 2014 2016 1954 1952 2015 1979 1953 1978
8 2016 2018 1956 1954 2017 1980 1955 1979
8 2018 2020 1958 1956 2019 1981 1957 1980
8 2020 2022 1960 1958 2021 1982 1959 1981
8 2022 2024 1962 1960 2023 1983 1961 1982
8 2046 2048 1986 1984 2047 2026 1985 2025
8 2048 2050 1988 1986 2049 2027 1987 2026
8 2050 2052 1990 1988 2051 2028 1989 2027
8 2052 2054 1992 1990 2053 2029 1991 2028
8 2054 2056 1994 1992 2055 2030 1993 2029
8 2056 2058 1996 1994 2057 2031 1995 2030
8 2058 2060 1998 1996 2059 2032 1997 2031
8 2060 2062 2000 1998 2061 2033 1999 2032
8 2062 2064 2002 2000 2063 2034 2001 2033
8 2064 2066 2004 2002 2065 2035 2003 2034
8 2066 2068 2006 2004 2067 2036 2005 2035
8 2068 2070 2008 2006 2069 2037 2007 2036
8 2070 2072 2010 2008 2071 2038 2009 2037
8 2072 2074 2012 2010 2073 2039 2011 2038
8 2074 2076 2014 2012 2075 2040 2013 2039
8 2076 2078 2016 2014 2077 2041 2015 2040
8 2078 2080 2018 2016 2079 2042 2017 2041
8 2080 2082 2020 2018 2081 2043 2019 2042
8 2082 2084 2022 2020 2083 2044 2021 2043
8 2084 2086 2024 2022 2085 2045 2023 2044
8 2108 2110 2048 2046 2109 2088 2047 2087
8 2110 2112 2050 2048 2111 2089 2049 2088
8 2112 2114 2052 2050 2113 2090 2051 2089
8 2114 2116 2054 2052 2115 2091 2053 2090
8 2116 2118 2056 2054 2117 2092 2055 2091
8 2118 2120 2058 2056 2119 2093 2057 2092
8 2120 2122 2060 2058 2121 2094 2059 2093
8 2122 2124 2062 2060 2123 2095 2061 2094
8 2124 2126 2064 2062 2125 2096 2063 2095
8 2126 2128 2066 2064 2127 2097 2065 2096
8 2128 2130 2068 2066 2129 2098 2067 2097
8 2130 2132 2070 2068 2131 2099 2069 2098
8 2132 2134 2072 2070 2133 2100 2071 2099
8 2134 2136 2074 2072 2135 2101 2073 2100
8 2136 2138 2076 2074 2137 2102 2075 2101
8 2138 2140 2078 2076 2139 2103 2077 2102
8 2140 2142 2080 2078 2141 2104 2079 2103
8 2142 2144 2082 2080 2143 2105 2081 2104
8 2144 2146 2084 2082 2145 2106 2083 2105
8 2146 2148 2086 2084 2147 2107 2085 2106
8 2170 2172 2110 2108 2171 2150 2109 2149
8 2172 2174 2112 2110 2173 2151 2111 2150
8 2174 2176 2114 2112 2175 2152 2113 2151
8 2176 2178 2116 2114 2177 2153 2115 2152
8 2178 2180 2118 2116 2179 2154 2117 2153
8 2180 2182 2120 2118 2181 2155 2119 2154
8 2182 2184 2122 2120 2183 2156 2121 2155
8 2184 2186 2124 2122 2185 2157 2123 2156
8 2186 2188 2126 2124 2187 2158 2125 2157
8 2188 2190 2128 2126 2189 2159 2127 2158
8 2190 2192 2130 2128 2191 2160 2129 2159
8 2192 2194 2132 2130 2193 2161 2131 2160
8 2194 2196 2134 2132 2195 2162 2133 2161
8 2196 2198 2136 2134 2197 2163 2135 2162
8 2198 2200 2138 2136 2199 2164 2137 2163
8 2200 2202 2140 2138 2201 2165 2139 2164
8 2202 2204 2142 2140 2203 2166 2141 2165
8 2204 2206 2144 2142 2205 2167 2143 2166
8 2206 2208 2146 2144 2207 2168 2145 2167
8 2208 2210 2148 2146 2209 2169 2147 2168
8 2232 2234 2172 2170 2233 2212 2171 2211
8 2234 2236 2174 2172 2235 2213 2173 2212
8 2236 2238 2176 2174 2237 2214 2175 2213
8 2238 2240 2178 2176 2239 2215 2177 2214
8 2240 2242 2180 2178 2241 2216 2179 2215
8 2242 2244 2182 2180 2243 2217 2181 2216
8 2244 2246 2184 2182 2245 2218 2183 2217
8 2246 2248 2186 2184 2247 2219 2185 2218
8 2248 2250 2188 2186 2249 2220 2187 2219
8 2250 2252 2190 2188 2251 2221 2189 2220
8 2252 2254 2192 2190 2253 2222 2191 2221
8 2254 2256 2194 2192 2255 2223 2193 2222
8 2256 2258 2196 2194 2257 2224 2195 2223
8 2258 2260 2198 2196 2259 2225 2197 2224
8 2260 2262 2200 2198 2261 2226 2199 2225
8 2262 2264 2202 2200 2263 2227 2201 2226
8 2264 2266 2204 2202 2265 2228 2203 2227
8 2266 2268 2206 2204 2267 2229 2205 2228
8 2268 2270 2208 2206 2269 2230 2207 2229
8 2270 2272 2210 2208 2271 2231 2209 2230
8 2294 2296 2234 2232 2295 2274 2233 2273
8 2296 2298 2236 2234 2297 2275 2235 2274
8 2298 2300 2238 2236 2299 2276 2237 2275
8 2300 2302 2240 2238 2301 2277 2239 2276
8 2302 2304 2242 2240 2303 2278 2241 2277
8 2304 2306 2244 2242 2305 2279 2243 2278
8 2306 2308 2246 2244 2307 2280 2245 2279
8 2308 2310 2248 2246 2309 2281 2247 2280
8 2310 2312 2250 2248 2311 2282 2249 2281
8 2312 2314 2252 2250 2313 2283 2251 2282
8 2314 2316 2254 2252 2315 2284 2253 2283
8 2316 2318 2256 2254 2317 2285 2255 2284
8 2318 2320 2258 2256 2319 2286 2257 2285
8 2320 2322 2260 2258 2321 2287 2259 2286
8 2322 2324 2262 2260 2323 2288 2261 2287
8 2324 2326 2264 2262 2325 2289 2263 2288
8 2326 2328 2266 2264 2327 2290 2265 2289
8 2328 2330 2268 2266 2329 2291 2267 2290
8 2330 2332 2270 2268 2331 2292 2269 2291
8 2332 2334 2272 2270 2333 2293 2271 2292
8 2356 2358 2296 2294 2357 2336 2295 2335
8 2358 2360 2298 2296 2359 2337 2297 2336
8 2360 2362 2300 2298 2361 2338 2299 2337
8 2362 2364 2302 2300 2363 2339 2301 2338
8 2364 2366 2304 2302 2365 2340 2303 2339
8 2366 2368 2306 2304 2367 2341 2305 2340
8 2368 2370 2308 2306 2369 2342 2307 2341
8 2370 2372 2310 2308 2371 2343 2309 2342
8 2372 2374 2312 2310 2373 2344 2311 2343
8 2374 2376 2314 2312 2375 2345 2313 2344
8 2376 2378 2316 2314 2377 2346 2315 2345
8 2378 2380 2318 2316 2379 2347 2317 2346
8 2380 2382 2320 2318 2381 2348 2319 2347
8 2382 2384 2322 2320 2383 2349 2321 2348
8 2384 2386 2324 2322 2385 2350 2323 2349
8 2386 2388 2326 2324 2387 2351 2325 2350
8 2388 2390 2328 2326 2389 2352 2327 2351
8 2390 2392 2330 2328 2391 2353 2329 2352
8 2392 2394 2332 2330 2393 2354 2331 2353
8 2394 2396 2334 2332 2395 2355 2333 2354
8 2418 2420 2358 2356 2419 2398 2357 2397
8 2420 2422 2360 2358 2421 2399 2359 2398
8 2422 2424 2362 2360 2423 2400 2361 2399
8 2424 2426 2364 2362 2425 2401 2363 2400
8 2426 2428 2366 2364 2427 2402 2365 2401
8 2428 2430 2368 2366 2429 2403 2367 2402
8 2430 2432 2370 2368 2431 2404 2369 2403
8 2432 2434 2372 2370 2433 2405 2371 2404
8 2434 2436 2374 2372 2435 2406 2373 2405
8 2436 2438 2376 2374 2437 2407 2375 2406
8 2438 2440 2378 2376 2439 2408 2377 2407
8 2440 2442 2380 2378 2441 2409 2379 2408
8 2442 2444 2382 2380 2443 2410 2381 2409
8 2444 2446 2384 2382 2445 2411 2383 2410
8 2446 2448 2386 2384 2447 2412 2385 2411
8 2448 2450 2388 2386 2449 2413 2387 2412
8 2450 2452 2390 2388 2451 2414 2389 2413
8 2452 2454 2392 2390 2453 2415 2391 2414
8 2454 2456 2394 2392 2455 2416 2393 2415
8 2456 2458 2396 2394 2457 2417 2395 2416
8 2480 2482 2420 2418 2481 2460 2419 2459
8 2482 2484 2422 2420 2483 2461 2421 2460
8 2484 2486 2424 2422 2485 2462 2423 2461
8 2486 2488 2426 2424 2487 2463 2425 2462
8 2488 2490 2428 2426 2489 2464 2427 2463
8 2490 2492 2430 2428 2491 2465 2429 2464
8 2492 2494 2432 2430 2493 2466 2431 2465
8 2494 2496 2434 2432 2495 2467 2433 2466
8 2496 2498 2436 2434 2497 2468 2435 2467
8 2498 2500 2438 2436 2499 2469 2437 2468
8 2500 2502 2440 2438 2501 2470 2439 2469
8 2502 2504 2442 2440 2503 2471 2441 2470
8 2504 2506 2444 2442 2505 2472 2443 2471
8 2506 2508 2446 2444 2507 2473 2445 2472
8 2508 2510 2448 2446 2509 2474 2447 2473
8 2510 2512 2450 2448 2511 2475 2449 2474
8 2512 2514 2452 2450 2513 2476 2451 2475
8 2514 2516 2454 2452 2515 2477 2453 2476
8 2516 2518 2456 2454 2517 2478 2455 2477
8 2518 2520 2458 2456 2519 2479 2457 2478
8 2542 2544 2482 2480 2543 2522 2481 2521
8 2544 2546 2484 2482 2545 2523 2483 2522
8 2546 2548 2486 2484 2547 2524 2485 2523
8 2548 2550 2488 2486 2549 2525 2487 2524
8 2550 2552 2490 2488 2551 2526 2489 2525
8 2552 2554 2492 2490 2553 2527 2491 2526
8 2554 2556 2494 2492 2555 2528 2493 2527
8 2556 2558 2496 2494 2557 2529 2495 2528
8 2558 2560 2498 2496 2559 2530 2497 2529
8 2560 2562 2500 2498 2561 2531 2499 2530
8 2562 2564 2502 2500 2563 2532 2501 2531
8 2564 2566 2504 2502 2565 2533 2503 2532
8 2566 2568 2506 2504 2567 2534 2505 2533
8 2568 2570 2508 2506 2569 2535 2507 2534
8 2570 2572 2510 2508 2571 2536 2509 2535
8 2572 2574 2512 2510 2573 2537 2511 2536
8 2574 2576 2514 2512 2575 2538 2513 2537
8 2576 2578 2516 2514 2577 2539 2515 2538
8 2578 2580 2518 2516 2579 2540 2517 2539
8 2580 2582 2520 2518 2581 2541 2519 2540
8 2604 2606 2544 2542 2605 2584 2543 2583
8 2606 2608 2546 2544 2607 2585 2545 2584
8 2608 2610 2548 2546 2609 2586 2547 2585
8 2610 2612 2550 2548 2611 2587 2549 2586
8 2612 2614 2552 2550 2613 2588 2551 2587
8 2614 2616 2554 2552 2615 2589 2553 2588
8 2616 2618 2556 2554 2617 2590 2555 2589
8 2618 2620 2558 2556 2619 2591 2557 2590
8 2620 2622 2560 2558 2621 2592 2559 2591
8 2622 2624 2562 2560 2623 2593 2561 2592
8 2624 2626 2564 2562 2625 2594 2563 2593
8 2626 2628 2566 2564 2627 2595 2565 2594
8 2628 2630 2568 2566 2629 2596 2567 2595
8 2630 2632 2570 2568 2631 2597 2569 2596
8 2632 2634 2572 2570 2633 2598 2571 2597
8 2634 2636 2574 2572 2635 2599 2573 2598
8 2636 2638 2576 2574 2637 2600 2575 2599
8 2638 2640 2578 2576 2639 2601 2577 2600
8 2640 2642 2580 2578 2641 2602 2579 2601
8 2642 2644 2582 2580 2643 2603 2581 2602
8 2666 2668 2606 2604 2667 2646 2605 2645
8 2668 2670 2608 2606 2669 2647 2607 2646
8 2670 2672 2610 2608 2671 2648 2609 2647
8 2672 2674 2612 2610 2673 2649 2611 2648
8 2674 2676 2614 2612 2675 2650 2613 2649
8 2676 2678 2616 2614 2677 2651 2615 2650
8 2678 2680 2618 2616 2679 2652 2617 2651
8 2680 2682 2620 2618 2681 2653 2619 2652
8 2682 2684 2622 2620 2683 2654 2621 2653
8 2684 2686 2624 2622 2685 2655 2623 2654
8 2686 2688 2626 2624 2687 2656 2625 2655
8 2688 2690 2628 2626 2689 2657 2627 2656
8 2690 2692 2630 2628 2691 2658 2629 2657
8 2692 2694 2632 2630 2693 2659 2631 2658
8 2694 2696 2634 2632 2695 2660 2633 2659
8 2696 2698 2636 2634 2697 2661 2635 2660
8 2698 2700 2638 2636 2699 2662 2637 2661
8 2700 2702 2640 2638 2701 2663 2639 2662
8 2702 2704 2642 2640 2703 2664 2641 2663
8 2704 2706 2644 2642 2705 2665 2643 2664
8 2728 2730 2668 2666 2729 2708 2667 2707
8 2730 2732 2670 2668 2731 2709 2669 2708
8 2732 2734 2672 2670 2733 2710 2671 2709
8 2734 2736 2674 2672 2735 2711 2673 2710
8 2736 2738 2676 2674 2737 2712 2675 2711
8 2738 2740 2678 2676 2739 2713 2677 2712
8 2740 2742 2680 2678 2741 2714 2679 2713
8 2742 2744 2682 2680 2743 2715 2681 2714
8 2744 2746 2684 2682 2745 2716 2683 2715
8 2746 2748 2686 2684 2747 2717 2685 2716
8 2748 2750 2688 2686 2749 2718 2687 2717
8 2750 2752 2690 2688 2751 2719 2689 2718
8 2752 2754 2692 2690 2753 2720 2691 2719
8 2754 2756 2694 2692 2755 2721 2693 2720
8 2756 2758 2696 2694 2757 2722 2695 2721
8 2758 2760 2698 2696 2759 2723 2697 2722
8 2760 2762 2700 2698 2761 2724 2699 2723
8 2762 2764 2702 2700 2763 2725 2701 2724
8 2764 2766 2704 2702 2765 2726 2703 2725
8 2766 2768 2706 2704 2767 2727 2705 2726
8 2790 2792 2730 2728 2791 2770 2729 2769
8 2792 2794 2732 2730 2793 2771 2731 2770
8 2794 2796 2734 2732 2795 2772 2733 2771
8 2796 2798 2736 2734 2797 2773 2735 2772
8 2798 2800 2738 2736 2799 2774 2737 2773
8 2800 2802 2740 2738 2801 2775 2739 2774
8 2802 2804 2742 2740 2803 2776 2741 2775
8 2804 2806 2744 2742 2805 2777 2743 2776
8 2806 2808 2746 2744 2807 2778 2745 2777
8 2808 2810 2748 2746 2809 2779 2747 2778
8 2810 2812 2750 2748 2811 2780 2749 2779
8 2812 2814 2752 2750 2813 2781 2751 2780
8 2814 2816 2754 2752 2815 2782 2753 2781
8 2816 2818 2756 2754 2817 2783 2755 2782
8 2818 2820 2758 2756 2819 2784 2757 2783
8 2820 2822 2760 2758 2821 2785 2759 2784
8 2822 2824 2762 2760 2823 2786 2761 2785
8 2824 2826 2764 2762 2825 2787 2763 2786
8 2826 2828 2766 2764 2827 2788 2765 2787
8 2828 2830 2768 2766 2829 2789 2767 2788
8 2852 2854 2792 2790 2853 2832 2791 2831
8 2854 2856 2794 2792 2855 2833 2793 2832
8 2856 2858 2796 2794 2857 2834 2795 2833
8 2858 2860 2798 2796 2859 2835 2797 2834
8 2860 2862 2800 2798 2861 2836 2799 2835
8 2862 2864 2802 2800 2863 2837 2801 2836
8 2864 2866 2804 2802 2865 2838 2803 2837
8 2866 2868 2806 2804 2867 2839 2805 2838
8 2868 2870 2808 2806 2869 2840 2807 2839
8 2870 2872 2810 2808 2871 2841 2809 2840
8 2872 2874 2812 2810 2873 2842 2811 2841
8 2874 2876 2814 2812 2875 2843 2813 2842
8 2876 2878 2816 2814 2877 2844 2815 2843
8 2878 2880 2818 2816 2879 2845 2817 2844
8 2880 2882 2820 2818 2881 2846 2819 2845
8 2882 2884 2822 2820 2883 2847 2821 2846
8 2884 2886 2824 2822 2885 2848 2823 2847
8 2886 2888 2826 2824 2887 2849 2825 2848
8 2888 2890 2828 2826 2889 2850 2827 2849
8 2890 2892 2830 2828 2891 2851 2829 2850
8 2914 2916 2854 2852 2915 2894 2853 2893
8 2916 2918 2856 2854 2917 2895 2855 2894
8 2918 2920 2858 2856 2919 2896 2857 2895
8 2920 2922 2860 2858 2921 2897 2859 2896
8 2922 2924 2862 2860 2923 2898 2861 2897
8 2924 2926 2864 2862 2925 2899 2863 2898
8 2926 2928 2866 2864 2927 2900 2865 2899
8 2928 2930 2868 2866 2929 2901 2867 2900
8 2930 2932 2870 2868 2931 2902 2869 2901
8 2932 2934 2872 2870 2933 2903 2871 2902
8 2934 2936 2874 2872 2935 2904 2873 2903
8 2936 2938 2876 2874 2937 2905 2875 2904
8 2938 2940 2878 2876 2939 2906 2877 2905
8 2940 2942 2880 2878 2941 2907 2879 2906
8 2942 2944 2882 2880 2943 2908 2881 2907
8 2944 2946 2884 2882 2945 2909 2883 2908
8 2946 2948 2886 2884 2947 2910 2885 2909
8 2948 2950 2888 2886 2949 2911 2887 2910
8 2950 2952 2890 2888 2951 2912 2889 2911
8 2952 2954 2892 2890 2953 2913 2891 2912
8 2976 2978 2916 2914 2977 2956 2915 2955
8 2978 2980 2918 2916 2979 2957 2917 2956
8 2980 2982 2920 2918 2981 2958 2919 2957
8 2982 2984 2922 2920 2983 2959 2921 2958
8 2984 2986 2924 2922 2985 2960 2923 2959
8 2986 2988 2926 2924 2987 2961 2925 2960
8 2988 2990 2928 2926 2989 2962 2927 2961
8 2990 2992 2930 2928 2991 2963 2929 2962
8 2992 2994 2932 2930 2993 2964 2931 2963
8 2994 2996 2934 2932 2995 2965 2933 2964
8 2996 2998 2936 2934 2997 2966 2935 2965
8 2998 3000 2938 2936 2999 2967 2937 2966
8 3000 3002 2940 2938 3001 2968 2939 2967
8 3002 3004 2942 2940 3003 2969 2941 2968
8 3004 3006 2944 2942 3005 2970 2943 2969
8 3006 3008 2946 2944 3007 2971 2945 2970
8 3008 3010 2948 2946 3009 2972 2947 2971
8 3010 3012 2950 2948 3011 2973 2949 2972
8 3012 3014 2952 2950 3013 2974 2951 2973
8 3014 3016 2954 2952 3015 2975 2953 2974
8 3038 3040 2978 2976 3039 3018 2977 3017
8 3040 3042 2980 2978 3041 3019 2979 3018
8 3042 3044 2982 2980 3043 3020 2981 3019
8 3044 3046 2984 2982 3045 3021 2983 3020
8 3046 3048 2986 2984 3047 3022 2985 3021
8 3048 3050 2988 2986 3049 3023 2987 3022
8 3050 3052 2990 2988 3051 3024 2989 3023
8 3052 3054 2992 2990 3053 3025 2991 3024
8 3054 3056 2994 2992 3055 3026 2993 3025
8 3056 3058 2996 2994 3057 3027 2995 3026
8 3058 3060 2998 2996 3059 3028 2997 3027
8 3060 3062 3000 2998 3061 3029 2999 3028
8 3062 3064 3002 3000 3063 3030 3001 3029
8 3064 3066 3004 3002 3065 3031 3003 3030
8 3066 3068 3006 3004 3067 3032 3005 3031
8 3068 3070 3008 3006 3069 3033 3007 3032
8 3070 3072 3010 3008 3071 3034 3009 3033
8 3072 3074 3012 3010 3073 3035 3011 3034
8 3074 3076 3014 3012 3075 3036 3013 3035
8 3076 3078 3016 3014 3077 3037 3015 3036
8 3100 3102 3040 3038 3101 3080 3039 3079
8 3102 3104 3042 3040 3103 3081 3041 3080
8 3104 3106 3044 3042 3105 3082 3043 3081
8 3106 3108 3046 3044 3107 3083 3045 3082
8 3108 3110 3048 3046 3109 3084 3047 3083
8 3110 3112 3050 3048 3111 3085 3049 3084
8 3112 3114 3052 3050 3113 3086 3051 3085
8 3114 3116 3054 3052 3115 3087 3053 3086
8 3116 3118 3056 3054 3117 3088 3055 3087
8 3118 3120 3058 3056 3119 3089 3057 3088
8 3120 3122 3060 3058 3121 3090 3059 3089
8 3122 3124 3062 3060 3123 3091 3061 3090
8 3124 3126 3064 3062 3125 3092 3063 3091
8 3126 3128 3066 3064 3127 3093 3065 3092
8 3128 3130 3068 3066 3129 3094 3067 3093
8 3130 3132 3070 3068 3131 3095 3069 3094
8 3132 3134 3072 3070 3133 3096 3071 3095
8 3134 3136 3074 3072 3135 3097 3073 3096
8 3136 3138 3076 3074 3137 3098 3075 3097
8 3138 3140 3078 3076 3139 3099 3077 3098
8 3162 3164 3102 3100 3163 3142 3101 3141
8 3164 3166 3104 3102 3165 3143 3103 3142
8 3166 3168 3106 3104 3167 3144 3105 3143
8 3168 3170 3108 3106 3169 3145 3107 3144
8 3170 3172 3110 3108 3171 3146 3109 3145
8 3172 3174 3112 3110 3173 3147 3111 3146
8 3174 3176 3114 3112 3175 3148 3113 3147
8 3176 3178 3116 3114 3177 3149 3115 3148
8 3178 3180 3118 3116 3179 3150 3117 3149
8 3180 3182 3120 3118 3181 3151 3119 3150
8 3182 3184 3122 3120 3183 3152 3121 3151
8 3184 3186 3124 3122 3185 3153 3123 3152
8 3186 3188 3126 3124 3187 3154 3125 3153
8 3188 3190 3128 3126 3189 3155 3127 3154
8 3190 3192 3130 3128 3191 3156 3129 3155
8 3192 3194 3132 3130 3193 3157 3131 3156
8 3194 3196 3134 3132 3195 3158 3133 3157
8 3196 3198 3136 3134 3197 3159 3135 3158
8 3198 3200 3138 3136 3199 3160 3137 3159
8 3200 3202 3140 3138 3201 3161 3139 3160
8 3224 3226 3164 3162 3225 3204 3163 3203
8 3226 3228 3166 3164 3227 3205 3165 3204
8 3228 3230 3168 3166 3229 3206 3167 3205
8 3230 3232 3170 3168 3231 3207 3169 3206
8 3232 3234 3172 3170 3233 3208 3171 3207
8 3234 3236 3174 3172 3235 3209 3173 3208
8 3236 3238 3176 3174 3237 3210 3175 3209
8 3238 3240 3178 3176 3239 3211 3177 3210
8 3240 3242 3180 3178 3241 3212 3179 3211
8 3242 3244 3182 3180 3243 3213 3181 3212
8 3244 3246 3184 3182 3245 3214 3183 3213
8 3246 3248 3186 3184 3247 3215 3185 3214
8 3248 3250 3188 3186 3249 3216 3187 3215
8 3250 3252 3190 3188 3251 3217 3189 3216
8 3252 3254 3192 3190 3253 3218 3191 3217
8 3254 3256 3194 3192 3255 3219 3193 3218
8 3256 3258 3196 3194 3257 3220 3195 3219
8 3258 3260 3198 3196 3259 3221 3197 3220
8 3260 3262 3200 3198 3261 3222 3199 3221
8 3262 3264 3202 3200 3263 3223 3201 3222
8 3286 3288 3226 3224 3287 3266 3225 3265
8 3288 3290 3228 3226 3289 3267 3227 3266
8 3290 3292 3230 3228 3291 3268 3229 3267
8 3292 3294 3232 3230 3293 3269 3231 3268
8 3294 3296 3234 3232 3295 3270 3233 3269
8 3296 3298 3236 3234 3297 3271 3235 3270
8 3298 3300 3238 3236 3299 3272 3237 3271
8 3300 3302 3240 3238 3301 3273 3239 3272
8 3302 3304 3242 3240 3303 3274 3241 3273
8 3304 3306 3244 3242 3305 3275 3243 3274
8 3306 3308 3246 3244 3307 3276 3245 3275
8 3308 3310 3248 3246 3309 3277 3247 3276
8 3310 3312 3250 3248 3311 3278 3249 3277
8 3312 3314 3252 3250 3313 3279 3251 3278
8 3314 3316 3254 3252 3315 3280 3253 3279
8 3316 3318 3256 3254 3317 3281 3255 3280
8 3318 3320 3258 3256 3319 3282 3257 3281
8 3320 3322 3260 3258 3321 3283 3259 3282
8 3322 3324 3262 3260 3323 3284 3261 3283
8 3324 3326 3264 3262 3325 3285 3263 3284

CELL_TYPES 1060
23
23
23
23
23
23
23
23
23
23
23
23
23
23
23
23
23
23
23
23
23
23
23
23
23
23
23
23
23
23
23
23
23
23
23
23
23
23
23
23
23
23
23
23
23
23
23
23
23
23
23
23
23
23
23
23
23
23
23
23
23
23
23
23
23
23
23
23
23
23
23
23
23
23
23
23
23
23
23
23
23
23
23
23
23
23
23
23
23
23
23
23
23
23
23
23
23
23
23
23
23
23
23
23
23
23
23
23
23
23
23
23
23
23
23
23
23
23
23
23
23
23
23
23
23
23
23
23
23
23
23
23
23
23
23
23
23
23
23
23
23
23
23
23
23
23
23
23
23
23
23
23
23
23
23
23
23
23
23
23
23
23
23
23
23
23
23
23
23
23
23
23
23
23
23
23
23
23
23
23
23
23
23
23
23
23
23
23
23
23
23
23
23
23
23
23
23
23
23
23
23
23
23
23
23
23
23
23
23
23
23
23
23
23
23
23
23
23
23
23
23
23
23
23
23
23
23
23
23
23
23
23
23
23
23
23
23
23
23
23
23
23
23
23
23
23
23
23
23
23
23
23
23
23
23
23
23
23
23
23
23
23
23
23
23
23
23
23
23
23
23
23
23
23
23
23
23
23
23
23
23
23
23
23
23
23
23
23
23
23
23
23
23
23
23
23
23
23
23
23
23
23
23
23
23
23
23
23
23
23
23
23
23
23
23
23
23
23
23
23
23
23
23
23
23
23
23
23
23
23
23
23
23
23
23
23
23
23
23
23
23
23
23
23
23
23
23
23
23
23
23
23
23
23
23
23
23
23
23
23
23
23
23
23
23
23
23
23
23
23
23
23
23
23
23
23
23
23
23
23
23
23
23
23
23
23
23
23
23
23
23
23
23
23
23
23
23
23
23
23
23
23
23
23
23
23
23
23
23
23
23
23
23
23
23
23
23
23
23
23
23
23
23
23
23
23
23
23
23
23
23
23
23
23
23
23
23
23
23
23
23
23
23
23
23
23
23
23
23
23
23
23
23
23
23
23
23
23
23
23
23
23
23
23
23
23
23
23
23
23
23
23
23
23
23
23
23
23
23
23
23
23
23
23
23
23
23
23
23
23
23
23
23
23
23
23
23
23
23
23
23
23
23
23
23
23
23
23
23
23
23
23
23
23
23
23
23
23
23
23
23
23
23
23
23
23
23
23
23
23
23
23
23
23
23
23
23
23
23
23
23
23
23
23
23
23
23
23
23
23
23
23
23
23
23
23
23
23
23
23
23
23
23
23
23
23
23
23
23
23
23
23
23
23
23
23
23
23
23
23
23
23
23
23
23
23
23
23
23
23
23
23
23
23
23
23
23
23
23
23
23
23
23
23
23
23
23
23
23
23
23
23
23
23
23
23
23
23
23
23
23
23
23
23
23
23
23
23
23
23
23
23
23
23
23
23
23
23
23
23
23
23
23
23
23
23
23
23
23
23
23
23
23
23
23
23
23
23
23
23
23
23
23
23
23
23
23
23
23
23
23
23
23
23
23
23
23
23
23
23
23
23
23
23
23
23
23
23
23
23
23
23
23
23
23
23
23
23
23
23
23
23
23
23
23
23
23
23
23
23
23
23
23
23
23
23
23
23
23
23
23
23
23
23
23
23
23
23
23
23
23
23
23
23
23
23
23
23
23
23
23
23
23
23
23
23
23
23
23
23
23
23
23
23
23
23
23
23
23
23
23
23
23
23
23
23
23
23
23
23
23
23
23
23
23
23
23
23
23
23
23
23
23
23
23
23
23
23
23
23
23
23
23
23
23
23
23
23
23
23
23
23
23
23
23
23
23
23
23
23
23
23
23
23
23
23
23
23
23
23
23
23
23
23
23
23
23
23
23
23
23
23
23
23
23
23
23
23
23
23
23
23
23
23
23
23
23
23
23
23
23
23
23
23
23
23
23
23
23
23
23
23
23
23
23
23
23
23
23
23
23
23
23
23
23
23
23
23
23
23
23
23
23
23
23
23
23
23
23
23
23
23
23
23
23
23
23
23
23
23
23
23
23
23
23
23
23
23
23
23
23
23
23
23
23
23
23
23
23
23
23
23
23
23
23
23
23
23
23
23
23
23
23
23
23
23
23
23
23
23
23
23
23
23
23
23
23
23
23
23
23
23
23
23
23
23
23
23
23
23
23
23
23
23
23
23
23
23
23
23
23
23
23
23
23
23
23
23
23
23
23
23
23
23
23
23
23
23
23
23
23
23
23
23
23
23
23
23
23
23
23
23
23
23
23
23
23
23
23
23
23
23
23
23
23
23
23
23
23
23
23
23
23
23
23
23
23
23
23
23
23
23
23
23
23
23
23
23
23
23
23
23
23
23
23
23
23
23
23
23
23
23
23
23
23
23
23
23
23
23

POINT_DATA 3327
SCALARS Displacement_R double 1
LOOKUP_TABLE default
0
-0.000108097
-0.000215763
-0.000322747
-0.000428595
-0.000533009
-0.000635491
-0.00073588
-0.000833784
-0.000929075
-0.00102093
-0.00110948
-0.00119448
-0.00128064
-0.001344
-0.00137262
-0.00137824
-0.00139848
-0.00141257
-0.00143114
-0.00144702
-0.00147027
-0.00149285
-0.00152389
-0.00155266
-0.00158687
-0.00161525
-0.00164446
-0.00166614
-0.00168687
-0.00170228
-0.0017203
-0.00173828
-0.00176766
-0.00180314
-0.00186235
-0.00193112
-0.00202548
-0.00212308
-0.00218975
-0.00218584
0
-0.000204136
-0.00040522
-0.000600057
-0.000785566
-0.000957949
-0.00111271
-0.00122147
-0.00131219
-0.0013602
-0.00140401
-0.0014552
-0.0015178
-0.00158162
-0.00163305
-0.00166928
-0.0017047
-0.00176779
-0.00189224
-0.00207893
-0.00213907
0
-9.65663e-05
-0.000192694
-0.000288066
-0.000382211
-0.000474738
-0.000565204
-0.00065316
-0.000738032
-0.000819197
-0.000896339
-0.000967214
-0.00103172
-0.00107488
-0.00111476
-0.0011961
-0.00124472
-0.00128034
-0.00130886
-0.00133683
-0.00136117
-0.00139019
-0.00141774
-0.0014518
-0.00148308
-0.00151862
-0.0015481
-0.00157786
-0.00160002
-0.00162084
-0.00163632
-0.00165375
-0.00167113
-0.00169878
-0.00173245
-0.00178829
-0.00185337
-0.00194297
-0.0020348
-0.0020983
-0.00209234
0
-0.000181439
-0.000359587
-0.000530923
-0.000691351
-0.000835667
-0.000951991
-0.00102269
-0.00117823
-0.00125719
-0.00131846
-0.00138033
-0.00144843
-0.00151466
-0.00156705
-0.00160338
-0.00163756
-0.00169711
-0.00181451
-0.00199071
-0.0020457
0
-8.54233e-05
-0.000170378
-0.000254532
-0.000337368
-0.000418464
-0.000497257
-0.000573255
-0.000645659
-0.000713748
-0.000776138
-0.000831786
-0.000876302
-0.000904873
-0.000940063
-0.00103678
-0.00111243
-0.0011663
-0.00120618
-0.00124442
-0.00127602
-0.00131115
-0.0013431
-0.00138041
-0.00141392
-0.00145089
-0.00148132
-0.00151162
-0.00153415
-0.00155504
-0.00157048
-0.00158733
-0.001604
-0.00162996
-0.00166176
-0.00171424
-0.00177566
-0.00186046
-0.00194664
-0.0020069
-0.00199909
0
-0.000159523
-0.00031557
-0.000464292
-0.00060099
-0.000718894
-0.000804757
-0.000864533
-0.00104802
-0.00115577
-0.00123387
-0.00130602
-0.00137952
-0.00144807
-0.00150131
-0.00153761
-0.00157046
-0.00162642
-0.00173682
-0.00190262
-0.00195257
0
-7.46809e-05
-0.000148875
-0.00022223
-0.000294206
-0.000364339
-0.00043201
-0.000496651
-0.000557445
-0.000613389
-0.000663223
-0.000705398
-0.00073749
-0.000761206
-0.000795316
-0.000894964
-0.000985185
-0.00105578
-0.00110588
-0.00115368
-0.00119201
-0.00123304
-0.00126911
-0.00130966
-0.00134525
-0.00138364
-0.00141492
-0.00144573
-0.00146854
-0.00148944
-0.00150477
-0.00152103
-0.00153692
-0.00156119
-0.00159108
-0.00164021
-0.00169798
-0.00177795
-0.00185861
-0.00191555
-0.00190608
0
-0.000138442
-0.000273289
-0.000400478
-0.00051502
-0.000609685
-0.000674225
-0.00073065
-0.000924273
-0.00105682
-0.00115047
-0.00123238
-0.00131111
-0.00138187
-0.00143583
-0.00147197
-0.0015034
-0.00155574
-0.00165916
-0.00181465
-0.00185967
0
-6.43597e-05
-0.000128225
-0.000191233
-0.000252827
-0.000312527
-0.000369686
-0.000423724
-0.000473781
-0.000518935
-0.000558061
-0.000589949
-0.000614744
-0.000636978
-0.000670529
-0.000768253
-0.000865226
-0.000948911
-0.00100827
-0.00106464
-0.00110924
-0.00115586
-0.00119583
-0.00123953
-0.0012771
-0.00131686
-0.00134891
-0.00138016
-0.00140318
-0.00142406
-0.0014392
-0.00145483
-0.00146989
-0.00149246
-0.0015204
-0.0015662
-0.00162034
-0.00169544
-0.00177069
-0.00182425
-0.00181329
0
-0.000118232
-0.000232834
-0.000339687
-0.000433799
-0.000508536
-0.000558718
-0.000613752
-0.000808227
-0.000960555
-0.00106833
-0.00115947
-0.00124322
-0.00131605
-0.00137059
-0.00140646
-0.00143639
-0.00148506
-0.00158153
-0.00172677
-0.00176697
0
-5.44785e-05
-0.000108468
-0.000161602
-0.000213327
-0.000263167
-0.00031049
-0.000354721
-0.000395073
-0.000430778
-0.000461079
-0.000485482
-0.000505923
-0.000527626
-0.000560459
-0.000654226
-0.000753169
-0.000846058
-0.000913425
-0.000977391
-0.00102776
-0.00107964
-0.00112332
-0.00117005
-0.0012095
-0.00125057
-0.00128332
-0.00131495
-0.0013381
-0.00135889
-0.00137378
-0.00138876
-0.00140293
-0.00142381
-0.00144976
-0.00149223
-0.00154275
-0.00161297
-0.0016829
-0.00173304
-0.00172072
0
-9.89234e-05
-0.000194284
-0.000282075
-0.000357605
-0.000415582
-0.000455961
-0.000509747
-0.000700009
-0.000867052
-0.000987491
-0.00108733
-0.00117588
-0.00125065
-0.00130564
-0.00134111
-0.00136946
-0.00141443
-0.00150395
-0.00163903
-0.0016745
0
-4.50363e-05
-8.96018e-05
-0.000133338
-0.000175715
-0.00021628
-0.000254448
-0.000289691
-0.000321365
-0.00034891
-0.000372054
-0.000391018
-0.000408643
-0.000429895
-0.000461718
-0.000550655
-0.000648641
-0.000747327
-0.000821256
-0.000891898
-0.000947531
-0.00100435
-0.00105152
-0.00110115
-0.00114239
-0.00118469
-0.00121807
-0.00125002
-0.00127324
-0.00129389
-0.00130847
-0.00132276
-0.001336
-0.00135518
-0.0013791
-0.00141825
-0.00146515
-0.00153047
-0.00159516
-0.00164185
-0.0016283
0
-8.05077e-05
-0.000157629
-0.000227626
-0.00028639
-0.000330374
-0.000363708
-0.000415825
-0.000599035
-0.000776223
-0.000907907
-0.0010159
-0.00110903
-0.00118558
-0.0012409
-0.00127587
-0.00130255
-0.00134377
-0.00142636
-0.00155132
-0.00158215
0
-3.6037e-05
-7.16349e-05
-0.000106456
-0.000140011
-0.000171891
-0.000201583
-0.000228643
-0.000252612
-0.000273168
-0.000290506
-0.000305395
-0.000320957
-0.000341549
-0.000372068
-0.000455814
-0.000551061
-0.000652784
-0.00073179
-0.000808201
-0.000868593
-0.000930005
-0.000980475
-0.00103287
-0.00107579
-0.00111925
-0.00115319
-0.00118539
-0.00120862
-0.00122907
-0.00124329
-0.00125686
-0.00126912
-0.00128658
-0.00130845
-0.00134428
-0.00138757
-0.00144799
-0.0015075
-0.00155071
-0.00153603
0
-6.29851e-05
-0.000122867
-0.000176321
-0.00022003
-0.000252294
-0.000280171
-0.000330073
-0.000504636
-0.000688086
-0.00082962
-0.000945244
-0.00104269
-0.00112089
-0.00117639
-0.00121075
-0.00123569
-0.00127313
-0.00134879
-0.00146369
-0.00148995
0
-2.74724e-05
-5.45503e-05
-8.09278e-05
-0.000106177
-0.000129941
-0.000151809
-0.00017144
-0.000188578
-0.000203137
-0.000215691
-0.00022736
-0.000241181
-0.000260833
-0.000289794
-0.000368222
-0.000459662
-0.000562301
-0.00064499
-0.000726287
-0.000790955
-0.000856624
-0.000910197
-0.0009652
-0.00100971
-0.00105425
-0.00108868
-0.00112106
-0.00114423
-0.00116443
-0.00117824
-0.00119105
-0.00120229
-0.00121802
-0.00123781
-0.00127032
-0.00131001
-0.00136551
-0.00141989
-0.00145962
-0.00144389
0
-4.63298e-05
-8.99388e-05
-0.000128036
-0.000158222
-0.000180534
-0.000203805
-0.000250971
-0.000416027
-0.000602585
-0.000752632
-0.000875348
-0.000976866
-0.00105655
-0.00111212
-0.00114577
-0.00116889
-0.0012025
-0.00127123
-0.00137612
-0.00139788
0
-1.93261e-05
-3.8314e-05
-5.67007e-05
-7.41319e-05
-9.03203e-05
-0.000104965
-0.000117845
-0.0001289
-0.000138261
-0.000146767
-0.000155721
-0.000167897
-0.000186335
-0.000213529
-0.000286628
-0.000373657
-0.000475639
-0.00056078
-0.000646128
-0.000714614
-0.000784206
-0.000840685
-0.000898142
-0.000944143
-0.000989658
-0.00102451
-0.00105701
-0.00108007
-0.00109996
-0.00111332
-0.00112532
-0.00113551
-0.0011495
-0.00116719
-0.00119638
-0.00123246
-0.00128305
-0.00133235
-0.00136859
-0.00135189
0
-3.04998e-05
-5.87474e-05
-8.25752e-05
-0.000100557
-0.000114234
-0.000133301
-0.000177283
-0.000332427
-0.000519624
-0.000676935
-0.000806219
-0.000911549
-0.00099256
-0.00104808
-0.0010809
-0.00110215
-0.00113188
-0.00119369
-0.0012886
-0.00130593
0
-1.15739e-05
-2.28764e-05
-3.36955e-05
-4.37619e-05
-5.28655e-05
-6.08257e-05
-6.75403e-05
-7.31324e-05
-7.79081e-05
-8.28706e-05
-8.93843e-05
-9.98909e-05
-0.000116876
-0.000142139
-0.000209964
-0.00029228
-0.000392485
-0.000479049
-0.000567683
-0.000639557
-0.00071275
-0.000771939
-0.000831694
-0.000879077
-0.000925483
-0.000960691
-0.000993228
-0.00101613
-0.00103566
-0.00104852
-0.00105968
-0.00106879
-0.00108101
-0.00109658
-0.00112245
-0.00115492
-0.0012006
-0.00124486
-0.0012776
-0.00125999
0
-1.54382e-05
-2.91611e-05
-3.96857e-05
-4.65558e-05
-5.25339e-05
-6.75305e-05
-0.000107961
-0.000253088
-0.000439074
-0.000602513
-0.000737857
-0.000846733
-0.000928908
-0.000984245
-0.00101616
-0.00103546
-0.00106128
-0.00111615
-0.00120113
-0.00121408
0
-4.18524e-06
-8.17355e-06
-1.18107e-05
-1.49202e-05
-1.73742e-05
-1.91136e-05
-2.01523e-05
-2.0769e-05
-2.14086e-05
-2.31538e-05
-2.73525e-05
-3.61063e-05
-5.14356e-05
-7.46431e-05
-0.000137296
-0.000214804
-0.000312484
-0.000399648
-0.000490898
-0.000565765
-0.000642255
-0.00070396
-0.000765852
-0.00081451
-0.000861713
-0.000897205
-0.000929717
-0.000952408
-0.000971516
-0.000983833
-0.000994123
-0.00100213
-0.00101256
-0.00102598
-0.00104853
-0.00107739
-0.00111817
-0.00115741
-0.00118667
-0.00116819
0
-1.07467e-06
-1.02001e-06
9.29394e-07
4.30566e-06
5.39824e-06
-5.49888e-06
-4.20844e-05
-0.000177305
-0.000360769
-0.000529342
-0.00067026
-0.000782414
-0.000865586
-0.000920624
-0.000951536
-0.000968816
-0.00099069
-0.00103862
-0.0011137
-0.00112233
0
2.87671e-06
5.87043e-06
9.0733e-06
1.2565e-05
1.63887e-05
2.04856e-05
2.47338e-05
2.87261e-05
3.19148e-05
3.31964e-05
3.12857e-05
2.43963e-05
1.08905e-05
-1.01724e-05
-6.77917e-05
-0.000140548
-0.000235251
-0.000322402
-0.000415705
-0.000493212
-0.000572713
-0.000636746
-0.000700613
-0.000750436
-0.000798338
-0.000834044
-0.000866464
-0.000888889
-0.000907526
-0.000919266
-0.000928643
-0.000935516
-0.000944139
-0.000955403
-0.000974626
-0.000999863
-0.00103576
-0.00107
-0.00109578
-0.00107648
0
1.26715e-05
2.5858e-05
3.95992e-05
5.25728e-05
6.03562e-05
5.3687e-05
2.11729e-05
-0.000104416
-0.000284524
-0.000457396
-0.000603426
-0.000718583
-0.000802584
-0.000857204
-0.000887025
-0.00090223
-0.00092012
-0.000961104
-0.00102631
-0.00103064
0
9.65314e-06
1.93407e-05
2.90904e-05
3.88845e-05
4.86819e-05
5.83124e-05
6.75564e-05
7.59031e-05
8.27315e-05
8.69542e-05
8.73706e-05
8.24712e-05
7.09274e-05
5.20673e-05
-6.9366e-07
-6.88687e-05
-0.000160393
-0.000247113
-0.000342028
-0.000421868
-0.000504116
-0.000570292
-0.000635973
-0.000686848
-0.00073535
-0.000771199
-0.00080346
-0.000825568
-0.000843684
-0.000854811
-0.000863239
-0.000868955
-0.000875748
-0.000884842
-0.000900733
-0.000922346
-0.000953358
-0.000982619
-0.00100493
-0.000984828
0
2.58891e-05
5.16709e-05
7.66729e-05
9.87976e-05
0.000113095
0.000110848
8.25759e-05
-3.37971e-05
-0.000210133
-0.000386641
-0.000537352
-0.000655237
-0.000739893
-0.00079398
-0.000822625
-0.000835695
-0.000849567
-0.000883589
-0.000938937
-0.000939024
0
1.61885e-05
3.23287e-05
4.83843e-05
6.42418e-05
7.97787e-05
9.4722e-05
0.000108765
0.000121313
0.000131694
0.000138856
0.000141688
0.000138911
0.000129445
0.000112818
6.47034e-05
8.40225e-07
-8.75167e-05
-0.000173573
-0.000269783
-0.000351698
-0.000436455
-0.000504596
-0.000571927
-0.000623741
-0.000672739
-0.000708661
-0.000740695
-0.000762438
-0.000779984
-0.000790464
-0.000797908
-0.000802447
-0.000807386
-0.000814297
-0.000826851
-0.000844833
-0.000870977
-0.000895261
-0.000914126
-0.000893233
0
3.86662e-05
7.66151e-05
0.000112494
0.000143509
0.000164311
0.00016673
0.000142823
3.51147e-05
-0.000137416
-0.000317074
-0.000472061
-0.000592394
-0.000677532
-0.000730971
-0.00075836
-0.000769242
-0.000779063
-0.000806111
-0.000851626
-0.000847492
0
2.25261e-05
4.49239e-05
6.70953e-05
8.88359e-05
0.000109946
0.000130059
0.000148791
0.000165481
0.000179416
0.000189585
0.000194958
0.000194445
0.000187155
0.000172766
0.000129042
6.91299e-05
-1.62625e-05
-0.000101597
-0.000198912
-0.000282698
-0.000369748
-0.000439681
-0.000508496
-0.000561134
-0.000610523
-0.000646447
-0.000678188
-0.00069952
-0.000716449
-0.000726252
-0.000732675
-0.000736018
-0.000739082
-0.000743801
-0.000753012
-0.000767356
-0.000788651
-0.000807958
-0.000823402
-0.000801721
0
5.11095e-05
0.000100923
0.000147453
0.000187285
0.000214741
0.000222121
0.00020267
0.00010295
-6.60906e-05
-0.000248599
-0.000407493
-0.000529995
-0.000615437
-0.000668116
-0.00069417
-0.00070281
-0.000708545
-0.0007286
-0.00076429
-0.000755954
0
2.87178e-05
5.72327e-05
8.53888e-05
0.000112898
0.000139489
0.000164713
0.000188114
0.000208975
0.00022655
0.000239861
0.000247944
0.000249851
0.000244829
0.000232663
0.000193029
0.000136621
5.38119e-05
-3.09073e-05
-0.000129263
-0.000214773
-0.000303921
-0.000375487
-0.000445618
-0.000498968
-0.000548638
-0.000584495
-0.000615874
-0.000636752
-0.000653016
-0.000662113
-0.000667479
-0.000669612
-0.000670773
-0.000673292
-0.000679152
-0.000689845
-0.000706308
-0.000720627
-0.000732675
-0.000710197
0
6.33075e-05
0.000124791
0.000181888
0.000230626
0.000265028
0.00027772
0.000262791
0.000170233
4.01968e-06
-0.000181214
-0.000343673
-0.000468062
-0.000553626
-0.000605434
-0.000630082
-0.000636429
-0.000638045
-0.000651088
-0.000676961
-0.000664438
0
3.48057e-05
6.9342e-05
0.000103401
0.00013662
0.000168665
0.000199012
0.000227144
0.00025229
0.000273669
0.000290323
0.000301322
0.000305827
0.000303169
0.00029319
0.00025728
0.000203832
0.000123043
3.8669e-05
-6.07744e-05
-0.000147923
-0.000238987
-0.00031204
-0.000383311
-0.000437265
-0.0004871
-0.000522824
-0.000553772
-0.000574156
-0.000589706
-0.000598074
-0.000602346
-0.000603256
-0.000602489
-0.000602802
-0.000605301
-0.000612332
-0.000623984
-0.000633299
-0.000641984
-0.000618687
0
7.53507e-05
0.000148417
0.000216136
0.000274036
0.00031582
0.000334244
0.000323905
0.000237511
7.31062e-05
-0.000114901
-0.000280607
-0.000406592
-0.000492094
-0.000542923
-0.000566093
-0.000570098
-0.000567564
-0.000573572
-0.000589632
-0.000572931
0
4.08312e-05
8.13394e-05
0.000121267
0.000160196
0.00019773
0.000233287
0.000266289
0.000295916
0.000321346
0.000341607
0.000355796
0.000363082
0.00036293
0.000355085
0.000322438
0.000271311
0.000191788
0.000107307
6.65175e-06
-8.21412e-05
-0.000174924
-0.000249353
-0.000321563
-0.000376026
-0.000425895
-0.000461428
-0.00049187
-0.000511727
-0.000526513
-0.000534133
-0.000537272
-0.000536951
-0.000534227
-0.00053233
-0.00053146
-0.000534814
-0.000541683
-0.000545969
-0.000551326
-0.000527179
0
8.73194e-05
0.000171983
0.000250512
0.000317999
0.000367768
0.000392456
0.000386842
0.000305344
0.000141304
-4.96855e-05
-0.000218323
-0.000345595
-0.000430839
-0.000480576
-0.000502201
-0.00050382
-0.000497102
-0.00049605
-0.000502296
-0.000481418
0
4.68345e-05
9.32973e-05
0.000139111
0.000183792
0.000226917
0.000267836
0.000305929
0.000340328
0.00037013
0.000394379
0.000412048
0.000422439
0.000424826
0.000419276
0.000389112
0.000339634
0.0002604
0.0001751
7.31449e-05
-1.74873e-05
-0.00011168
-0.000187471
-0.000260345
-0.000315268
-0.000365007
-0.000400309
-0.000430156
-0.000449462
-0.000463429
-0.00047029
-0.000472252
-0.000470698
-0.000465985
-0.000461878
-0.00045763
-0.000457288
-0.000459403
-0.000458628
-0.000460699
-0.000435659
0
9.51685e-05
0.000187104
0.000271885
0.000344519
0.000398862
0.000428755
0.000430283
0.000366579
0.000222887
4.56712e-05
-0.000115191
-0.000236466
-0.000315352
-0.000358372
-0.000373337
-0.000367616
-0.000350864
-0.000334983
-0.000321945
-0.000294125
0
4.83696e-05
9.62601e-05
0.000143332
0.000189
0.000232838
0.00027416
0.00031246
0.00034695
0.000377017
0.000401922
0.00042107
0.000433993
0.000440361
0.000440251
0.000424003
0.000391091
0.000333471
0.000267149
0.000183434
0.000106011
2.29688e-05
-4.45907e-05
-0.000110029
-0.00015857
-0.000201702
-0.000230899
-0.000254188
-0.000267592
-0.000275337
-0.000276577
-0.000272364
-0.000264641
-0.00025236
-0.000239916
-0.000224684
-0.000212713
-0.00019982
-0.000185354
-0.000177173
-0.00015254
0
9.67933e-05
0.000189895
0.000275215
0.000348212
0.000404045
0.000438512
0.000449355
0.000413814
0.00030868
0.000163813
2.432e-05
-8.16113e-05
-0.00014694
-0.000177086
-0.000179974
-0.000161746
-0.000128978
-9.03945e-05
-4.86758e-05
-1.06639e-05
0
4.87127e-05
9.69125e-05
0.00014422
0.000190063
0.00023399
0.00027541
0.00031384
0.000348686
0.000379429
0.000405591
0.000426729
0.000442587
0.000452967
0.000457944
0.000453679
0.000435014
0.000396243
0.000347669
0.000282398
0.000219314
0.000149547
9.17787e-05
3.56945e-05
-5.42165e-06
-4.07979e-05
-6.33764e-05
-7.95284e-05
-8.68056e-05
-8.79935e-05
-8.35027e-05
-7.28569e-05
-5.89153e-05
-3.88693e-05
-1.80699e-05
8.22338e-06
3.19264e-05
5.9694e-05
8.7965e-05
0.00010639
0.000131352
0
9.67655e-05
0.000189775
0.000275092
0.000348729
0.000406849
0.000446461
0.000466154
0.000455073
0.000384699
0.00027283
0.000157838
6.99733e-05
1.97667e-05
3.23285e-06
1.2812e-05
4.3809e-05
9.27758e-05
0.000154222
0.000224603
0.000273595
0
4.84801e-05
9.64538e-05
0.000143547
0.000189219
0.000233046
0.000274506
0.000313185
0.000348602
0.000380347
0.000408071
0.000431458
0.000450336
0.000464576
0.000474256
0.000480558
0.00047428
0.000452242
0.000419985
0.000372762
0.000324557
0.000269338
0.000222701
0.000177392
0.000144751
0.000118035
0.000102626
9.4045e-05
9.31315e-05
9.87175e-05
0.000109055
0.00012629
0.000146512
0.000174451
0.000203628
0.000241047
0.000276559
0.000319118
0.000361256
0.00039008
0.00041607
0
9.60758e-05
0.000188573
0.000273872
0.000348527
0.000409442
0.000454382
0.000482368
0.000492908
0.000453986
0.000374812
0.00028646
0.000218909
0.000185188
0.00018288
0.000205209
0.00024916
0.000314458
0.000398903
0.000497938
0.000558842
0
4.80849e-05
9.5696e-05
0.000142483
0.000187956
0.000231725
0.000273345
0.000312455
0.000348667
0.000381644
0.000411125
0.000436865
0.000458743
0.000476662
0.000490686
0.000506461
0.000511173
0.000504119
0.000486862
0.000456966
0.000423723
0.000383787
0.000349246
0.000315832
0.000292553
0.000275268
0.000267515
0.000266857
0.000272501
0.000285004
0.000301272
0.000325193
0.000351745
0.000387662
0.000425238
0.000473837
0.000521226
0.000578534
0.000634572
0.00067409
0.000701821
0
9.5375e-05
0.000187475
0.000273057
0.000349161
0.000413243
0.000463545
0.000499314
0.000529289
0.000518996
0.000471628
0.000411229
0.000365763
0.000349669
0.000362061
0.000397313
0.000454324
0.000536034
0.00064359
0.000771273
0.000845184
0
4.7792e-05
9.51543e-05
0.000141771
0.000187206
0.000231113
0.000273108
0.000312882
0.000350115
0.000384524
0.000415906
0.000444061
0.000468893
0.000490324
0.0005084
0.000532811
0.000547436
0.00055396
0.000550535
0.000537134
0.000518646
0.000494334
0.000472526
0.000451844
0.000438636
0.000431412
0.00043171
0.000439246
0.000451579
0.00047108
0.000493321
0.000523971
0.000556883
0.000600827
0.000646816
0.000706639
0.000765971
0.000838023
0.000907973
0.000958602
0.00098885
0
9.50709e-05
0.000187216
0.000273578
0.000351615
0.000419195
0.000474878
0.000518025
0.000565768
0.00058176
0.000565045
0.000533273
0.000511209
0.000513639
0.000541054
0.000589291
0.000659396
0.000757562
0.000888327
0.00104467
0.00113288
0
4.77665e-05
9.51506e-05
0.000141874
0.000187553
0.000231883
0.000274533
0.00031524
0.000353734
0.000389772
0.000423193
0.000453824
0.000481586
0.000506405
0.000528314
0.000560734
0.000584452
0.000603431
0.000612836
0.000615087
0.000610978
0.000602343
0.000593629
0.000586251
0.000583635
0.000586945
0.000595582
0.000611487
0.000630574
0.000657082
0.000685289
0.000722662
0.000761933
0.00081392
0.000868328
0.000939404
0.00101074
0.00109756
0.00118141
0.00124367
0.00127731
0
9.54158e-05
0.000188256
0.000276023
0.000356528
0.000427956
0.000489087
0.000539336
0.00060361
0.000643987
0.000656686
0.000653737
0.000655963
0.000677547
0.000720141
0.000781311
0.000864471
0.000979098
0.00113316
0.00131819
0.00142223
0
4.81103e-05
9.58836e-05
0.000143078
0.000189358
0.000234458
0.000278091
0.000320032
0.000360049
0.000397933
0.000433548
0.000466744
0.000497449
0.000525591
0.00055119
0.000591178
0.000623379
0.000653941
0.000675347
0.000692463
0.000702281
0.000709178
0.000713701
0.000719964
0.000728281
0.000742437
0.000759589
0.000783939
0.000809767
0.000843227
0.000877342
0.000921387
0.00096699
0.00102701
0.00108983
0.00117218
0.00125558
0.00135721
0.00145495
0.00152946
0.00156753
0
9.65682e-05
0.000190885
0.000280772
0.000364339
0.000440016
0.000506738
0.000563947
0.000643878
0.000707127
0.000748017
0.000773719
0.000800713
0.000841792
0.000899533
0.000973459
0.00106955
0.00120061
0.00137804
0.0015918
0.00171344
0
4.88891e-05
9.74822e-05
0.000145571
0.000192862
0.000239122
0.000284102
0.00032761
0.000369443
0.000409416
0.000447415
0.000483304
0.000517015
0.000548476
0.000577697
0.000624976
0.000665234
0.000706721
0.00073946
0.000770743
0.000794011
0.000816164
0.000833893
0.000853923
0.000873341
0.000898486
0.000924206
0.000956966
0.000989447
0.00102973
0.00106965
0.00112027
0.00117214
0.00124016
0.00131138
0.00140501
0.00150054
0.00161708
0.00172866
0.0018161
0.00185985
0
9.86352e-05
0.000195305
0.000288106
0.000375392
0.000455786
0.000528337
0.000592499
0.000687539
0.000772505
0.000840454
0.000894371
0.000946238
0.00100686
0.00107952
0.0011659
0.00127474
0.00142214
0.001623
0.00186556
0.00200691
0
5.01499e-05
0.000100039
0.000149488
0.00019824
0.000246089
0.000292817
0.000338258
0.000382233
0.000424576
0.000465187
0.000503942
0.000540774
0.000575612
0.000608455
0.000662892
0.000710935
0.000762875
0.000806423
0.000851266
0.000887509
0.00092455
0.000955308
0.000989038
0.00101954
0.00105565
0.00108985
0.00113087
0.00116983
0.00121673
0.00126228
0.00131934
0.0013774
0.00145334
0.00153293
0.00163784
0.00174555
0.00187714
0.00200251
0.00210361
0.00215458
0
0.000101703
0.000201682
0.000298263
0.000389999
0.000475662
0.000554385
0.000625626
0.000735511
0.000841358
0.000935351
0.00101685
0.00109334
0.00117324
0.00126038
0.0013588
0.00148011
0.00164375
0.00186809
0.00213956
0.00230308
0
5.19341e-05
0.000103637
0.000154953
0.000205654
0.00025556
0.000304474
0.000352253
0.000398734
0.000443769
0.000487266
0.000529111
0.000569237
0.000607571
0.000644105
0.0007057
0.000761396
0.000823483
0.00087745
0.000935347
0.000984114
0.00103561
0.0010791
0.00112629
0.00116771
0.00121456
0.00125704
0.00130602
0.00135119
0.00140444
0.00145542
0.00151872
0.00158285
0.00166663
0.00175454
0.00187072
0.00199065
0.00213747
0.00227657
0.00239209
0.00245218
0
0.000105852
0.000210178
0.000311485
0.000408485
0.00050006
0.000585407
0.000663976
0.0007887
0.000914864
0.001034
0.00114227
0.00124279
0.00134137
0.00144235
0.00155223
0.00168568
0.00186541
0.00211323
0.00241377
0.00260235
0
5.42855e-05
0.000108363
0.000162096
0.00021528
0.000267753
0.000319335
0.000369901
0.000419302
0.000467399
0.000514109
0.000559323
0.000602973
0.000644984
0.000685343
0.000754221
0.000817561
0.000889636
0.000953752
0.00102429
0.00108515
0.00115063
0.00120646
0.00126669
0.00131867
0.00137588
0.00142626
0.00148281
0.00153384
0.00159307
0.00164921
0.00171853
0.00178858
0.00188008
0.00197627
0.0021037
0.00223588
0.00239817
0.00255096
0.0026816
0.00275323
0
0.000111179
0.000220984
0.000328059
0.000431235
0.000529474
0.000622011
0.000708285
0.000848079
0.000994245
0.00113773
0.00127181
0.00139544
0.00151177
0.0016257
0.00174637
0.00189153
0.00208714
0.00235847
0.00268831
0.00290533
0
5.72559e-05
0.00011432
0.000171073
0.000227325
0.000282926
0.000337712
0.000391568
0.000444355
0.000495939
0.000546245
0.000595165
0.000642629
0.00068856
0.00073294
0.00080934
0.000880428
0.000962455
0.00103655
0.00111938
0.00119193
0.00127086
0.00133851
0.0014112
0.00147323
0.0015402
0.00159798
0.00166153
0.00171798
0.00178277
0.00184374
0.0019188
0.0019946
0.00209368
0.00219805
0.00233673
0.00248117
0.00265922
0.00282569
0.00297205
0.00305827
0
0.000117801
0.000234334
0.000348339
0.000458724
0.0005645
0.000664922
0.000759405
0.000914723
0.00108079
0.00124792
0.00140669
0.00155215
0.00168495
0.00181072
0.00194136
0.00209775
0.00230901
0.00260382
0.00296335
0.00321277
0
6.09118e-05
0.000121642
0.000182083
0.000242052
0.000301411
0.000360001
0.000417716
0.000474421
0.000529984
0.000584335
0.000637363
0.000688998
0.000739157
0.000787818
0.000872091
0.000951136
0.00104319
0.00112718
0.00122203
0.00130586
0.00139764
0.00147649
0.0015609
0.00163226
0.00170821
0.00177271
0.00184258
0.00190389
0.00197372
0.00203917
0.00211965
0.00220097
0.00230749
0.00241994
0.00256985
0.00272654
0.0029207
0.00310093
0.0032634
0.00336812
0
0.000125867
0.000250526
0.000372766
0.000491536
0.000605862
0.000714995
0.000818321
0.000989826
0.00117587
0.00136597
0.00154811
0.00171375
0.00186138
0.00199761
0.00213727
0.00230432
0.00253095
0.00284923
0.00323898
0.00352546
0
6.53389e-05
0.000130501
0.000195382
0.000259806
0.000323634
0.000386711
0.000448934
0.000510169
0.00057028
0.000629201
0.000686814
0.000743048
0.000797811
0.00085108
0.000943689
0.001031
0.00113326
0.00122711
0.00133373
0.00142843
0.00153239
0.0016217
0.00171686
0.00179667
0.0018806
0.00195098
0.00202633
0.00209186
0.00216615
0.00223563
0.00232118
0.00240779
0.00252157
0.00264197
0.00280313
0.00297204
0.0031827
0.00337696
0.00355554
0.00368379
0
0.000135569
0.000269942
0.00040191
0.000530417
0.000654471
0.000773298
0.000886238
0.0010748
0.00128105
0.00149342
0.00169739
0.00188114
0.00204157
0.00218666
0.00233425
0.00251133
0.002753
0.00309474
0.00351553
0.00384453
0
7.06455e-05
0.000141109
0.000211293
0.00028101
0.000350125
0.000418473
0.000485954
0.000552422
0.000617746
0.000681845
0.000744605
0.000805939
0.00086576
0.000924027
0.00102555
0.0011215
0.00123423
0.00133797
0.00145612
0.00156122
0.00167656
0.00177541
0.00188015
0.00196729
0.00205799
0.00213323
0.00221307
0.00228207
0.00236016
0.00243319
0.00252342
0.00261503
0.00273592
0.00286407
0.00303651
0.00321762
0.00344515
0.00365403
0.00384811
0.00400642
0
0.000147158
0.000293079
0.000436499
0.000576315
0.000711477
0.000841156
0.000964632
0.00117131
0.00139808
0.001632
0.00185592
0.00205525
0.00222603
0.00237811
0.00253243
0.00271882
0.00297519
0.00334043
0.00379347
0.00417142
0
7.69705e-05
0.000153755
0.000230231
0.000306228
0.000381569
0.000456107
0.000529708
0.000602245
0.000673543
0.00074355
0.000812104
0.000879149
0.00094454
0.00100829
0.00111938
0.00122448
0.00134797
0.00146166
0.00159105
0.001706
0.00183176
0.00193906
0.00205194
0.00214507
0.00224107
0.00231995
0.00240319
0.00247476
0.00255598
0.00263196
0.00272651
0.00282274
0.0029506
0.00308628
0.00327004
0.00346337
0.00370805
0.00393272
0.00414073
0.00433761
0
0.000160937
0.000320542
0.000477424
0.00063038
0.000778265
0.000920151
0.00105523
0.00128126
0.00152895
0.00178349
0.00202509
0.00223694
0.00241513
0.00257208
0.00273181
0.00292675
0.00319746
0.00358635
0.00407339
0.00450785
0
8.44963e-05
0.00016877
0.000252753
0.000336141
0.000418853
0.000500615
0.000581396
0.000660928
0.000739154
0.00081587
0.000891045
0.000964451
0.00103609
0.00110578
0.00122735
0.00134201
0.00147673
0.00160032
0.00174065
0.00186476
0.00199974
0.00211417
0.00223344
0.00233091
0.00243057
0.00251156
0.00259709
0.00267009
0.00275384
0.00283199
0.00293056
0.00303093
0.00316571
0.00330862
0.00350374
0.0037095
0.00397134
0.00421386
0.00443279
0.00467947
0
0.000177351
0.000353172
0.000525885
0.000694147
0.000856664
0.00101239
0.00116039
0.00140728
0.0016763
0.0019502
0.00220648
0.00242696
0.0026091
0.00276859
0.00293236
0.0031351
0.00341984
0.00383277
0.00435634
0.00485624
0
9.34797e-05
0.000186743
0.000279508
0.00037174
0.000463012
0.000553397
0.000642411
0.000730249
0.000816289
0.000900901
0.000983411
0.00106424
0.0011427
0.00121931
0.00135165
0.00147725
0.00162276
0.00175708
0.001907
0.00204004
0.00218223
0.00230229
0.00242592
0.00252537
0.00262729
0.00270802
0.00279523
0.00286785
0.00295399
0.00303311
0.0031357
0.00323947
0.00338124
0.00353107
0.0037375
0.00395626
0.00423469
0.0044986
0.00472328
0.00503458
0
0.000165775
0.000331061
0.000495278
0.000657961
0.000818599
0.000976799
0.00113214
0.0014057
0.00173307
0.00211593
0.0025512
0.00303188
0.00355147
0.00411069
0.00472276
0.00541758
0.00624593
0.00727715
0.0085884
0.0107017
0
8.25554e-05
0.0001651
0.000247633
0.000330178
0.000412651
0.000495126
0.000577509
0.000659916
0.000742158
0.000824438
0.000906538
0.000988649
0.00107053
0.00115242
0.00130034
0.00144811
0.00163275
0.00181679
0.00204577
0.00227291
0.00255374
0.00282993
0.00316859
0.00349746
0.00389691
0.00427957
0.00474062
0.00517827
0.00570412
0.00620316
0.00680573
0.00738267
0.00808797
0.0087747
0.00962499
0.0104669
0.0115464
0.0126565
0.0140838
0.0157196
0
0.000189395
0.000378703
0.000567806
0.000756664
0.00094515
0.00113322
0.00132076
0.00165942
0.00208253
0.00260906
0.00326052
0.00405988
0.00502988
0.00619267
0.00757314
0.0092077
0.0111576
0.0135314
0.0165111
0.0203926
0
0.000106543
0.000213046
0.000319575
0.000426068
0.000532555
0.000638959
0.000745377
0.000851715
0.000958011
0.00106423
0.00117043
0.00127652
0.00138255
0.00148847
0.00168052
0.00187206
0.00211296
0.00235301
0.00265454
0.00295468
0.00333093
0.003705
0.00417256
0.00463661
0.00521442
0.00578632
0.00649532
0.007194
0.00805653
0.0089023
0.00994349
0.0109616
0.0122156
0.0134437
0.0149593
0.0164541
0.0183335
0.0202149
0.0225992
0.0248815
0
0.000239703
0.000479406
0.000719018
0.000958562
0.00119795
0.0014372
0.00167623
0.00210928
0.00265321
0.00333545
0.00418937
0.00525497
0.00657926
0.00821615
0.0102262
0.012679
0.0156612
0.0192985
0.0237788
0.0292868
0
0.000133722
0.000267413
0.000401125
0.000534833
0.000668523
0.000802176
0.000935832
0.00106948
0.00120306
0.00133666
0.00147022
0.00160376
0.00173722
0.00187069
0.00211266
0.00235451
0.00265877
0.0029628
0.00334509
0.00372689
0.00420667
0.00468542
0.00528648
0.00588539
0.00663625
0.00738309
0.00831744
0.00924473
0.0104016
0.0115467
0.0129709
0.0143765
0.0161206
0.0178385
0.0199684
0.0220686
0.0246738
0.0272426
0.030438
0.0335817
0
0.000296586
0.000593186
0.000889713
0.00118622
0.00148261
0.00177895
0.00207514
0.00261212
0.0032875
0.00413638
0.00520228
0.00653862
0.00821012
0.0102941
0.0128808
0.0160745
0.0199952
0.024788
0.0306387
0.0377985
0
0.000163234
0.000326427
0.000489655
0.000652876
0.000816091
0.000979255
0.00114245
0.00130562
0.00146875
0.00163189
0.00179502
0.00195811
0.00212115
0.0022842
0.00257992
0.00287548
0.00324753
0.00361932
0.00408719
0.0045546
0.00514251
0.00572962
0.0064676
0.00720402
0.00812875
0.00905058
0.0102065
0.0113569
0.0127965
0.0142261
0.0160104
0.0177771
0.0199754
0.0221453
0.0248376
0.0274874
0.0307688
0.0339978
0.0380073
0.0419798
0
0.000357242
0.000714511
0.00107171
0.0014289
0.00178599
0.00214304
0.00249996
0.00314717
0.00396149
0.00498556
0.00627249
0.007888
0.0099125
0.0124432
0.0155948
0.0195001
0.0243083
0.0301876
0.0373475
0.0461328
0
0.00019443
0.000388813
0.000583237
0.000777656
0.000972066
0.00116642
0.00136081
0.00155519
0.0017495
0.00194384
0.00213817
0.00233247
0.0025267
0.00272096
0.00307327
0.00342544
0.00386877
0.00431186
0.00486951
0.00542672
0.00612773
0.00682797
0.00770845
0.00858735
0.00969159
0.0107928
0.0121747
0.0135509
0.0152746
0.0169875
0.0191275
0.0212479
0.0238878
0.026494
0.0297259
0.0329053
0.036837
0.0407033
0.0455035
0.0502807
0
0.000421345
0.000842724
0.00126402
0.00168532
0.0021065
0.00252765
0.00294865
0.00371211
0.00467275
0.005881
0.00739969
0.00930665
0.0116973
0.0146873
0.0184131
0.0230317
0.0287166
0.0356565
0.0440831
0.0544196
0
0.000227399
0.000454742
0.000682135
0.00090952
0.0011369
0.00136421
0.00159156
0.0018189
0.00204617
0.00227347
0.00250074
0.002728
0.00295517
0.00318237
0.00359444
0.00400634
0.00452488
0.00504314
0.0056954
0.00634716
0.00716714
0.00798623
0.00901619
0.0100443
0.0113361
0.0126245
0.0142411
0.0158512
0.0178677
0.0198714
0.0223743
0.0248532
0.0279378
0.0309801
0.0347478
0.0384477
0.0430129
0.0474926
0.0530441
0.0585698
0
0.000489088
0.000978214
0.00146725
0.00195628
0.00244517
0.00293403
0.00342272
0.0043089
0.00542398
0.00682643
0.00858916
0.0108024
0.0135769
0.017046
0.021367
0.0267185
0.0332927
0.0412893
0.0509427
0.0627161
0
0.000262148
0.000524232
0.000786372
0.0010485
0.00131062
0.00157267
0.00183476
0.00209684
0.00235883
0.00262086
0.00288287
0.00314484
0.00340672
0.00366863
0.00414365
0.00461848
0.00521622
0.00581363
0.00656549
0.00731676
0.0082619
0.00920597
0.010393
0.0115779
0.0130665
0.0145509
0.0164133
0.0182676
0.0205894
0.0228954
0.0257741
0.0286229
0.0321637
0.0356502
0.0399587
0.0441772
0.0493626
0.0544285
0.0606763
0.0668744
0
0.000560027
0.0011201
0.00168005
0.00224001
0.00279981
0.00335956
0.00391911
0.0049338
0.00621052
0.00781621
0.00983427
0.0123679
0.0155432
0.0195122
0.0244525
0.030563
0.0380505
0.0471122
0.0579525
0.0710143
0
0.000298102
0.000596132
0.000894225
0.00119231
0.00149038
0.00178837
0.00208641
0.00238442
0.00268235
0.00298031
0.00327825
0.00357615
0.00387395
0.00417177
0.00471194
0.00525187
0.00593157
0.00661089
0.00746583
0.00832008
0.00939476
0.0104682
0.0118179
0.013165
0.0148573
0.0165447
0.0186616
0.0207687
0.0234066
0.0260253
0.029293
0.0325236
0.0365346
0.0404767
0.045336
0.0500757
0.0558716
0.0614956
0.068374
0.0751468
0
0.000631977
0.001264
0.00189591
0.0025278
0.00315953
0.0037912
0.00442265
0.00556772
0.00700851
0.00882058
0.0110981
0.0139574
0.017541
0.0220201
0.027594
0.0344832
0.0429075
0.0530506
0.0650456
0.0792189
0
0.000333481
0.000666881
0.00100035
0.00133381
0.00166726
0.00200062
0.00233403
0.00266743
0.00300072
0.00333405
0.00366736
0.00400063
0.00433379
0.00466698
0.00527129
0.00587536
0.00663581
0.00739585
0.00835243
0.00930826
0.0105108
0.011712
0.0132225
0.0147303
0.0166246
0.0185136
0.0208839
0.0232435
0.0261979
0.029131
0.0327911
0.036409
0.0408986
0.0453057
0.0507271
0.0559956
0.0624009
0.0685608
0.0760017
0.0832323
0
0.000699583
0.00139922
0.00209873
0.00279825
0.00349759
0.00419689
0.00489597
0.00616373
0.00775906
0.00976578
0.0122885
0.0154567
0.0194296
0.0243989
0.0305889
0.038247
0.0476141
0.058859
0.072001
0.087098
0
0.000364483
0.000728878
0.00109335
0.00145782
0.00182228
0.00218663
0.00255106
0.00291547
0.00327977
0.00364413
0.00400847
0.00437277
0.00473696
0.0051012
0.00576184
0.00642226
0.00725372
0.00808481
0.00913094
0.0101764
0.011492
0.0128064
0.0144597
0.0161106
0.0181858
0.0202562
0.0228558
0.0254458
0.0286918
0.0319178
0.0359487
0.0399372
0.0448939
0.0497626
0.0557538
0.0615619
0.0685922
0.0752858
0.0832396
0.0907991
0
0.000752567
0.0015052
0.00225772
0.00301027
0.00376267
0.00451508
0.00526729
0.00663159
0.00834879
0.0105096
0.0132275
0.0166439
0.0209337
0.0263105
0.0330287
0.0413752
0.051635
0.0639901
0.0783247
0.0941954
0
0.000384425
0.000768758
0.00115318
0.00153759
0.00192201
0.00230632
0.00269072
0.00307511
0.0034594
0.00384377
0.00422812
0.00461247
0.0049967
0.00538101
0.00607813
0.00677508
0.00765267
0.00853003
0.00963467
0.0107389
0.012129
0.0135185
0.0152673
0.0170149
0.0192136
0.0214097
0.0241712
0.0269272
0.0303894
0.033839
0.0381642
0.0424602
0.0478212
0.0531087
0.0596462
0.0660063
0.0737016
0.0809683
0.089442
0.0972333
0
0.000774363
0.00154882
0.00232318
0.00309762
0.00387197
0.00464641
0.00542075
0.00682548
0.00859424
0.0108213
0.0136251
0.017155
0.0215978
0.0271871
0.0342112
0.0430158
0.0539797
0.0673792
0.0830283
0.0996694
0
0.000383459
0.000766828
0.00115029
0.00153376
0.00191723
0.00230061
0.0026841
0.00306759
0.003451
0.00383451
0.00421803
0.00460157
0.00498503
0.00536859
0.00606444
0.00676025
0.00763661
0.00851299
0.00961679
0.0107207
0.0121112
0.0135021
0.0152542
0.0170071
0.0192157
0.0214258
0.024211
0.026999
0.0305134
0.0340314
0.038465
0.0429001
0.048486
0.0540565
0.0610449
0.0678971
0.0762933
0.0842353
0.0934117
0.10138
0
0.000742874
0.00148586
0.00222879
0.00297187
0.00371495
0.00445821
0.0052015
0.00655031
0.00824955
0.0103908
0.0130903
0.0164959
0.0207967
0.0262368
0.0331328
0.0418983
0.0530511
0.0671607
0.084248
0.102047
0
0.000349911
0.000699743
0.00104966
0.0013996
0.00174955
0.00209943
0.00244942
0.00279943
0.0031494
0.00349947
0.00384959
0.00419975
0.00454987
0.00490012
0.00553562
0.00617124
0.00697199
0.00777306
0.00878242
0.0097925
0.0110656
0.0123403
0.0139477
0.0155582
0.0175908
0.0196296
0.0222062
0.0247949
0.0280732
0.031375
0.035568
0.0398043
0.0452123
0.0506925
0.0577058
0.0648693
0.0738448
0.0825561
0.0928104
0.101394
0
0.000635529
0.00127117
0.00190681
0.00254263
0.00317853
0.00381468
0.00445098
0.00560601
0.00706194
0.00889826
0.0112167
0.0141483
0.0178642
0.0225928
0.0286453
0.0364643
0.0466909
0.0603302
0.0784529
0.0984133
0
0.000274241
0.000548423
0.000822679
0.00109695
0.00137124
0.00164549
0.00191984
0.00219422
0.00246857
0.00274303
0.00301755
0.00329211
0.00356667
0.00384137
0.00433984
0.00483852
0.00546691
0.00609578
0.00688848
0.0076822
0.00868322
0.00968644
0.0109528
0.0122235
0.0138299
0.0154453
0.017492
0.0195572
0.0221838
0.0248485
0.028257
0.0317461
0.0362563
0.0409366
0.0469654
0.0532537
0.0619982
0.0712733
0.0834847
0.092184
0
0.000439413
0.000878914
0.00131844
0.00175812
0.0021979
0.00263791
0.00307808
0.0038773
0.0048852
0.00615738
0.00776545
0.00980276
0.0123934
0.0157078
0.0199902
0.0256187
0.0332286
0.0440257
0.0601078
0.0838118
0
0.00015454
0.000309047
0.000463597
0.000618158
0.000772731
0.000927286
0.0010819
0.00123653
0.00139116
0.00154585
0.00170057
0.00185534
0.0020101
0.00216495
0.00244597
0.00272714
0.0030815
0.00343618
0.00388337
0.00433126
0.00489633
0.0054629
0.0061785
0.00689709
0.00780633
0.00872173
0.0098834
0.0110578
0.0125553
0.0140798
0.016039
0.0180563
0.0206907
0.0234672
0.027209
0.0313585
0.0373927
0.0446908
0.0543956
0.0702149
0
0.000161388
0.000322809
0.000484239
0.000645731
0.000807259
0.000968877
0.00113056
0.00142414
0.0017944
0.0022618
0.00285271
0.00360151
0.00455391
0.00577234
0.0073458
0.00940698
0.0121835
0.0161497
0.0230388
0.0453763
0
0
0
0
0
0
0
0
0
0
0
0
0
0
0
0
0
0
0
0
0
0
0
0
0
0
0
0
0
0
0
0
0
0
0
0
0
0
0
0
0
SCALARS Displacement_Z double 1
LOOKUP_TABLE default
0.398769
0.398758
0.398725
0.39867
0.398593
0.398493
0.39837
0.398224
0.398053
0.397858
0.397633
0.397379
0.397081
0.396735
0.396239
0.395485
0.394965
0.394409
0.39393
0.393388
0.392898
0.39233
0.391799
0.391165
0.390555
0.389808
0.389075
0.388162
0.387258
0.386124
0.384992
0.383562
0.38212
0.380272
0.378377
0.375903
0.37331
0.36986
0.366195
0.361308
0.356288
0.39877
0.398726
0.398593
0.39837
0.398052
0.397631
0.39708
0.396247
0.394976
0.39394
0.392906
0.391806
0.390561
0.38908
0.387262
0.384995
0.382122
0.378379
0.373312
0.366197
0.356289
0.39877
0.398759
0.398725
0.39867
0.398592
0.398491
0.398368
0.398221
0.398049
0.397852
0.397626
0.397369
0.397074
0.396716
0.396254
0.395518
0.394987
0.394432
0.393949
0.393406
0.392915
0.392344
0.391813
0.391178
0.390567
0.389819
0.389084
0.388171
0.387265
0.38613
0.384998
0.383567
0.382124
0.380277
0.378381
0.375907
0.373314
0.369864
0.366199
0.36131
0.356289
0.398768
0.398723
0.398589
0.398364
0.398044
0.39762
0.397064
0.396259
0.394999
0.393959
0.392923
0.39182
0.390573
0.389089
0.387269
0.385001
0.382127
0.378383
0.373316
0.366201
0.35629
0.398764
0.398753
0.398719
0.398663
0.398585
0.398483
0.398359
0.398211
0.398038
0.397839
0.397611
0.397352
0.397053
0.396693
0.396264
0.395551
0.395011
0.394454
0.393969
0.393424
0.392931
0.392359
0.391826
0.39119
0.390578
0.389829
0.389093
0.388179
0.387272
0.386137
0.385004
0.383572
0.382129
0.380281
0.378386
0.375911
0.373318
0.369868
0.366203
0.361313
0.356291
0.398759
0.398714
0.398579
0.398352
0.39803
0.397601
0.397039
0.396267
0.395024
0.393979
0.392939
0.391833
0.390584
0.389098
0.387276
0.385006
0.382131
0.378388
0.37332
0.366204
0.356292
0.398752
0.398741
0.398707
0.39865
0.398571
0.398469
0.398344
0.398194
0.39802
0.397819
0.39759
0.397327
0.397025
0.396671
0.396268
0.395581
0.395037
0.394476
0.393989
0.393441
0.392946
0.392373
0.39184
0.391202
0.390589
0.389838
0.389102
0.388186
0.387279
0.386143
0.385009
0.383577
0.382134
0.380285
0.37839
0.375915
0.373322
0.369871
0.366206
0.361315
0.356293
0.398744
0.398698
0.398563
0.398334
0.398009
0.397577
0.39701
0.396269
0.39505
0.393998
0.392954
0.391846
0.390595
0.389106
0.387283
0.385012
0.382136
0.378391
0.373323
0.366208
0.356293
0.398734
0.398723
0.398689
0.398632
0.398552
0.398449
0.398323
0.398172
0.397996
0.397794
0.397562
0.397298
0.396996
0.396649
0.396269
0.395607
0.395063
0.394498
0.394008
0.393458
0.392962
0.392387
0.391852
0.391213
0.3906
0.389848
0.389111
0.388194
0.387286
0.386149
0.385014
0.383582
0.382138
0.380289
0.378393
0.375919
0.373325
0.369875
0.366209
0.361318
0.356294
0.398723
0.398678
0.398541
0.39831
0.397983
0.397547
0.39698
0.396269
0.395075
0.394017
0.392969
0.391859
0.390605
0.389115
0.387289
0.385017
0.38214
0.378395
0.373327
0.366211
0.356295
0.398711
0.3987
0.398665
0.398608
0.398528
0.398424
0.398297
0.398145
0.397968
0.397764
0.397531
0.397266
0.396965
0.396629
0.396267
0.395629
0.395087
0.39452
0.394027
0.393475
0.392977
0.392401
0.391865
0.391225
0.39061
0.389857
0.389119
0.388201
0.387292
0.386154
0.385019
0.383586
0.382142
0.380293
0.378397
0.375922
0.373329
0.369878
0.366212
0.36132
0.356295
0.398698
0.398652
0.398514
0.398282
0.397952
0.397514
0.39695
0.396265
0.395099
0.394036
0.392984
0.391871
0.390615
0.389123
0.387295
0.385021
0.382144
0.378399
0.37333
0.366214
0.356296
0.398683
0.398672
0.398637
0.39858
0.398499
0.398394
0.398266
0.398113
0.397935
0.397729
0.397496
0.397231
0.396935
0.396608
0.396262
0.395646
0.39511
0.394541
0.394045
0.393491
0.392991
0.392414
0.391877
0.391235
0.39062
0.389866
0.389127
0.388208
0.387298
0.386159
0.385024
0.38359
0.382146
0.380296
0.3784
0.375925
0.373332
0.369881
0.366215
0.361322
0.356297
0.398667
0.398621
0.398482
0.398249
0.397917
0.397478
0.396919
0.396259
0.395121
0.394054
0.392999
0.391883
0.390625
0.38913
0.387301
0.385026
0.382147
0.378402
0.373333
0.366217
0.356297
0.398651
0.398639
0.398604
0.398546
0.398465
0.39836
0.398231
0.398077
0.397898
0.397692
0.397459
0.397196
0.396904
0.396588
0.396255
0.39566
0.39513
0.39456
0.394062
0.393507
0.393006
0.392427
0.391888
0.391246
0.390629
0.389874
0.389134
0.388214
0.387304
0.386164
0.385028
0.383594
0.382149
0.3803
0.378403
0.375928
0.373335
0.369884
0.366218
0.361324
0.356298
0.398633
0.398586
0.398447
0.398212
0.397879
0.39744
0.396889
0.396251
0.39514
0.394071
0.393012
0.391894
0.390634
0.389138
0.387307
0.38503
0.382151
0.378405
0.373336
0.366219
0.356298
0.398614
0.398602
0.398567
0.398509
0.398427
0.398322
0.398192
0.398038
0.397858
0.397653
0.39742
0.39716
0.396874
0.396567
0.396246
0.395669
0.395148
0.394578
0.394079
0.393522
0.393019
0.392439
0.3919
0.391256
0.390638
0.389882
0.389141
0.388221
0.387309
0.386169
0.385032
0.383598
0.382152
0.380303
0.378406
0.375931
0.373338
0.369886
0.36622
0.361325
0.356299
0.398594
0.398547
0.398407
0.398172
0.397838
0.397401
0.396859
0.396241
0.395156
0.394087
0.393026
0.391905
0.390643
0.389145
0.387312
0.385034
0.382154
0.378408
0.373339
0.366222
0.356299
0.398573
0.398562
0.398527
0.398468
0.398386
0.39828
0.398151
0.397996
0.397817
0.397611
0.397381
0.397124
0.396844
0.396545
0.396235
0.395676
0.395163
0.394595
0.394095
0.393536
0.393032
0.392451
0.391911
0.391266
0.390647
0.38989
0.389148
0.388226
0.387314
0.386173
0.385036
0.383601
0.382156
0.380306
0.378409
0.375934
0.37334
0.369889
0.366223
0.361327
0.356299
0.398552
0.398505
0.398364
0.398129
0.397795
0.39736
0.396829
0.396229
0.395169
0.394102
0.393039
0.391916
0.390651
0.389151
0.387317
0.385038
0.382157
0.37841
0.373341
0.366224
0.3563
0.398529
0.398518
0.398482
0.398424
0.398342
0.398236
0.398106
0.397952
0.397773
0.397569
0.39734
0.397088
0.396814
0.396523
0.396223
0.395679
0.395175
0.39461
0.394109
0.39355
0.393045
0.392463
0.391921
0.391275
0.390656
0.389897
0.389154
0.388232
0.387319
0.386178
0.38504
0.383605
0.382159
0.380308
0.378412
0.375936
0.373343
0.369891
0.366225
0.361329
0.3563
0.398506
0.398459
0.398319
0.398083
0.39775
0.39732
0.396798
0.396216
0.39518
0.394116
0.393051
0.391926
0.39066
0.389157
0.387322
0.385042
0.38216
0.378413
0.373344
0.366226
0.3563
0.398482
0.39847
0.398435
0.398377
0.398295
0.398189
0.398059
0.397905
0.397727
0.397525
0.397299
0.397051
0.396783
0.3965
0.396209
0.39568
0.395184
0.394623
0.394123
0.393563
0.393057
0.392474
0.391931
0.391284
0.390664
0.389904
0.38916
0.388237
0.387324
0.386182
0.385043
0.383608
0.382161
0.380311
0.378414
0.375939
0.373345
0.369893
0.366227
0.36133
0.356301
0.398457
0.398411
0.39827
0.398035
0.397704
0.397279
0.396768
0.396201
0.395188
0.394129
0.393063
0.391936
0.390667
0.389163
0.387326
0.385045
0.382163
0.378415
0.373346
0.366228
0.356301
0.398432
0.39842
0.398385
0.398327
0.398245
0.398139
0.39801
0.397857
0.397681
0.39748
0.397258
0.397014
0.396752
0.396477
0.396193
0.395678
0.395191
0.394634
0.394135
0.393575
0.393068
0.392484
0.391941
0.391293
0.390671
0.389911
0.389166
0.388242
0.387328
0.386185
0.385046
0.383611
0.382164
0.380313
0.378416
0.375941
0.373347
0.369895
0.366229
0.361331
0.356301
0.398406
0.398359
0.398219
0.397985
0.397657
0.397237
0.396737
0.396185
0.395194
0.394141
0.393074
0.391945
0.390675
0.389169
0.38733
0.385048
0.382165
0.378417
0.373348
0.36623
0.356301
0.398379
0.398368
0.398333
0.398275
0.398193
0.398088
0.39796
0.397808
0.397633
0.397435
0.397216
0.396977
0.396721
0.396452
0.396176
0.395674
0.395196
0.394643
0.394146
0.393586
0.393079
0.392495
0.39195
0.391301
0.390678
0.389917
0.389172
0.388247
0.387332
0.386189
0.385049
0.383613
0.382166
0.380315
0.378418
0.375942
0.373349
0.369897
0.36623
0.361332
0.356301
0.398352
0.398306
0.398166
0.397934
0.397609
0.397195
0.396705
0.396168
0.395197
0.394151
0.393084
0.391954
0.390682
0.389174
0.387334
0.385051
0.382167
0.378419
0.37335
0.366231
0.356301
0.398324
0.398312
0.398278
0.39822
0.398139
0.398035
0.397907
0.397757
0.397584
0.397389
0.397174
0.396939
0.396689
0.396427
0.396158
0.395668
0.395198
0.394651
0.394156
0.393597
0.393089
0.392504
0.391958
0.391309
0.390685
0.389923
0.389177
0.388251
0.387336
0.386192
0.385052
0.383615
0.382168
0.380317
0.37842
0.375944
0.37335
0.369898
0.366232
0.361333
0.356302
0.398296
0.39825
0.398111
0.397881
0.397559
0.397152
0.396673
0.396149
0.395198
0.39416
0.393094
0.391963
0.390688
0.389179
0.387338
0.385053
0.382169
0.378421
0.373351
0.366232
0.356302
0.398267
0.398255
0.398221
0.398163
0.398083
0.39798
0.397854
0.397705
0.397534
0.397342
0.397131
0.396901
0.396657
0.396401
0.396139
0.39566
0.395198
0.394656
0.394164
0.393606
0.393099
0.392513
0.391967
0.391316
0.390692
0.389928
0.389181
0.388255
0.387339
0.386195
0.385055
0.383618
0.38217
0.380319
0.378421
0.375946
0.373352
0.369899
0.366233
0.361334
0.356302
0.398237
0.398191
0.398054
0.397826
0.397509
0.397109
0.39664
0.396128
0.395197
0.394168
0.393103
0.391971
0.390695
0.389184
0.387341
0.385056
0.382171
0.378422
0.373353
0.366234
0.356302
0.398207
0.398196
0.398162
0.398105
0.398025
0.397923
0.397799
0.397652
0.397484
0.397295
0.397087
0.396862
0.396624
0.396374
0.396118
0.39565
0.395196
0.39466
0.394171
0.393615
0.393108
0.392522
0.391974
0.391323
0.390698
0.389934
0.389186
0.388259
0.387342
0.386197
0.385057
0.383619
0.382171
0.38032
0.378423
0.375947
0.373353
0.3699
0.366234
0.361335
0.356302
0.398176
0.398131
0.397996
0.39777
0.397458
0.397065
0.396607
0.396107
0.395194
0.394175
0.393112
0.391978
0.3907
0.389188
0.387344
0.385058
0.382172
0.378423
0.373354
0.366235
0.356301
0.398145
0.398134
0.3981
0.398044
0.397966
0.397865
0.397742
0.397597
0.397432
0.397247
0.397043
0.396823
0.39659
0.396346
0.396096
0.395638
0.395192
0.394663
0.394178
0.393623
0.393116
0.39253
0.391982
0.391329
0.390703
0.389938
0.38919
0.388262
0.387345
0.3862
0.385059
0.383621
0.382173
0.380321
0.378424
0.375948
0.373354
0.369901
0.366235
0.361335
0.356301
0.398114
0.398069
0.397935
0.397713
0.397406
0.397021
0.396572
0.396084
0.395189
0.39418
0.39312
0.391985
0.390706
0.389192
0.387346
0.38506
0.382173
0.378424
0.373355
0.366235
0.356301
0.398082
0.398071
0.398037
0.397982
0.397904
0.397805
0.397684
0.397542
0.397379
0.397197
0.396998
0.396783
0.396554
0.396317
0.396072
0.395624
0.395186
0.394664
0.394183
0.393629
0.393124
0.392537
0.391989
0.391335
0.390708
0.389943
0.389193
0.388265
0.387348
0.386202
0.38506
0.383622
0.382174
0.380322
0.378425
0.375949
0.373355
0.369902
0.366236
0.361336
0.356301
0.398049
0.398005
0.397873
0.397654
0.397352
0.396975
0.396537
0.39606
0.395183
0.394185
0.393127
0.391992
0.390711
0.389195
0.387349
0.385061
0.382174
0.378425
0.373355
0.366236
0.356301
0.398016
0.398005
0.397972
0.397917
0.397841
0.397743
0.397624
0.397484
0.397325
0.397147
0.396951
0.396741
0.396518
0.396286
0.396048
0.395609
0.39518
0.394664
0.394187
0.393636
0.393131
0.392544
0.391995
0.391341
0.390713
0.389947
0.389197
0.388268
0.38735
0.386204
0.385062
0.383624
0.382175
0.380323
0.378425
0.375949
0.373356
0.369903
0.366236
0.361336
0.3563
0.397803
0.397762
0.397636
0.39743
0.397147
0.396795
0.396389
0.395947
0.395126
0.394167
0.393127
0.391996
0.390715
0.389197
0.38735
0.385061
0.382174
0.378425
0.373355
0.366235
0.356297
0.397601
0.397591
0.397561
0.397512
0.397442
0.397354
0.397246
0.397121
0.396979
0.39682
0.396647
0.396461
0.396265
0.396061
0.39585
0.39546
0.395071
0.394596
0.394145
0.393615
0.393121
0.392542
0.391996
0.391343
0.390715
0.389948
0.389197
0.388268
0.387349
0.386202
0.38506
0.383622
0.382173
0.380321
0.378423
0.375947
0.373354
0.3699
0.366234
0.361335
0.356294
0.397409
0.397371
0.397258
0.397072
0.396819
0.396507
0.396147
0.395756
0.395016
0.394122
0.393114
0.391995
0.390715
0.389196
0.387347
0.385058
0.382171
0.378422
0.373353
0.366233
0.35629
0.397227
0.397218
0.397191
0.397146
0.397083
0.397004
0.396907
0.396795
0.396668
0.396527
0.396373
0.396208
0.396034
0.395852
0.395664
0.395314
0.39496
0.394521
0.394096
0.393587
0.393106
0.392535
0.391993
0.391342
0.390714
0.389947
0.389195
0.388265
0.387346
0.386199
0.385056
0.383618
0.382169
0.380318
0.37842
0.375944
0.373351
0.369897
0.366231
0.361333
0.356285
0.397054
0.39702
0.396918
0.396751
0.396525
0.396246
0.395926
0.395576
0.394905
0.394068
0.393096
0.39199
0.390713
0.389193
0.387343
0.385054
0.382167
0.378418
0.373349
0.366229
0.35628
0.39689
0.396882
0.396858
0.396818
0.396761
0.39669
0.396604
0.396503
0.396389
0.396263
0.396126
0.395978
0.395822
0.395659
0.39549
0.395173
0.394849
0.394441
0.39404
0.393551
0.393084
0.392523
0.391986
0.391337
0.39071
0.389942
0.38919
0.38826
0.38734
0.386193
0.385051
0.383613
0.382164
0.380313
0.378415
0.375939
0.373347
0.369893
0.366227
0.36133
0.356275
0.396736
0.396705
0.396613
0.396463
0.39626
0.396011
0.395723
0.395407
0.394794
0.39401
0.393071
0.39198
0.390707
0.389187
0.387337
0.385048
0.382161
0.378412
0.373344
0.366225
0.356269
0.396589
0.396582
0.39656
0.396523
0.396473
0.396408
0.396331
0.39624
0.396138
0.396025
0.395901
0.395769
0.395628
0.39548
0.395327
0.395037
0.394739
0.394358
0.393979
0.393511
0.393056
0.392505
0.391974
0.391329
0.390703
0.389935
0.389183
0.388252
0.387333
0.386186
0.385044
0.383606
0.382158
0.380306
0.378409
0.375933
0.373342
0.369887
0.366222
0.361326
0.356263
0.39645
0.396422
0.39634
0.396205
0.396022
0.395797
0.395536
0.395249
0.394684
0.393947
0.393041
0.391966
0.390698
0.389178
0.387328
0.38504
0.382154
0.378405
0.373338
0.366218
0.356256
0.396319
0.396312
0.396293
0.39626
0.396214
0.396156
0.396086
0.396004
0.395912
0.395809
0.395697
0.395577
0.395449
0.395314
0.395174
0.394907
0.394631
0.394274
0.393914
0.393465
0.393024
0.392483
0.391958
0.391316
0.390692
0.389925
0.389173
0.388242
0.387323
0.386176
0.385035
0.383598
0.382149
0.380299
0.378401
0.375926
0.373335
0.36988
0.366215
0.361322
0.356249
0.396195
0.39617
0.396095
0.395973
0.395807
0.395602
0.395365
0.395101
0.394578
0.393881
0.393006
0.391948
0.390685
0.389167
0.387317
0.38503
0.382145
0.378397
0.373331
0.366211
0.356241
0.396077
0.396071
0.396053
0.396023
0.395982
0.395929
0.395865
0.395791
0.395707
0.395613
0.395511
0.395401
0.395284
0.39516
0.39503
0.394784
0.394525
0.394189
0.393848
0.393415
0.392987
0.392456
0.391937
0.3913
0.390677
0.389911
0.38916
0.38823
0.387311
0.386165
0.385024
0.383587
0.38214
0.380289
0.378393
0.375918
0.373327
0.369872
0.366207
0.361317
0.356233
0.395966
0.395943
0.395875
0.395763
0.395612
0.395424
0.395206
0.394962
0.394474
0.393814
0.392967
0.391925
0.390669
0.389153
0.387304
0.385018
0.382134
0.378388
0.373322
0.366202
0.356224
0.39586
0.395855
0.395839
0.395811
0.395773
0.395725
0.395667
0.395598
0.395521
0.395435
0.395341
0.39524
0.395131
0.395017
0.394896
0.394666
0.394424
0.394106
0.393779
0.393363
0.392946
0.392425
0.391912
0.39128
0.39066
0.389895
0.389145
0.388215
0.387297
0.386152
0.385012
0.383575
0.382129
0.380279
0.378382
0.375908
0.373318
0.369863
0.366197
0.361312
0.356216
0.39576
0.395739
0.395677
0.395574
0.395435
0.395262
0.395059
0.394832
0.394374
0.393745
0.392924
0.391899
0.390649
0.389136
0.387289
0.385005
0.382122
0.378377
0.373312
0.366192
0.356206
0.395665
0.39566
0.395645
0.39562
0.395585
0.39554
0.395487
0.395424
0.395352
0.395273
0.395185
0.395091
0.39499
0.394883
0.39477
0.394554
0.394325
0.394023
0.39371
0.393307
0.392901
0.39239
0.391884
0.391256
0.390638
0.389876
0.389126
0.388198
0.38728
0.386136
0.384997
0.383562
0.382116
0.380266
0.378371
0.375897
0.373307
0.369853
0.366187
0.361305
0.356196
0.395575
0.395556
0.395498
0.395403
0.395273
0.395112
0.394923
0.39471
0.394277
0.393675
0.392878
0.391868
0.390626
0.389116
0.387271
0.384989
0.382109
0.378364
0.373301
0.366181
0.356186
0.395489
0.395485
0.395471
0.395447
0.395415
0.395373
0.395323
0.395265
0.395198
0.395124
0.395042
0.394954
0.394859
0.394758
0.394652
0.394447
0.39423
0.393941
0.39364
0.39325
0.392854
0.392352
0.391851
0.391228
0.390614
0.389853
0.389105
0.388178
0.387262
0.386119
0.384981
0.383547
0.382101
0.380253
0.378358
0.375884
0.373295
0.369842
0.366175
0.361298
0.356175
0.395408
0.39539
0.395336
0.395247
0.395126
0.394974
0.394796
0.394595
0.394183
0.393604
0.392829
0.391834
0.3906
0.389094
0.387252
0.384972
0.382094
0.378351
0.373289
0.366168
0.356164
0.39533
0.395326
0.395312
0.39529
0.39526
0.395221
0.395174
0.395119
0.395056
0.394986
0.394909
0.394826
0.394736
0.394641
0.39454
0.394345
0.394137
0.39386
0.393569
0.39319
0.392803
0.392309
0.391815
0.391197
0.390586
0.389828
0.389081
0.388156
0.387241
0.3861
0.384963
0.38353
0.382086
0.380238
0.378343
0.375871
0.373282
0.369829
0.366161
0.361291
0.356153
0.395256
0.395238
0.395188
0.395104
0.39499
0.394847
0.394678
0.394486
0.394092
0.393533
0.392776
0.391796
0.39057
0.389068
0.38723
0.384953
0.382077
0.378335
0.373275
0.366154
0.356141
0.395184
0.39518
0.395168
0.395147
0.395118
0.395082
0.395037
0.394985
0.394925
0.394859
0.394786
0.394707
0.394621
0.39453
0.394434
0.394247
0.394047
0.393779
0.393498
0.393129
0.392749
0.392264
0.391775
0.391162
0.390554
0.389799
0.389055
0.388131
0.387218
0.386079
0.384943
0.383512
0.382068
0.380221
0.378327
0.375856
0.373268
0.369816
0.366146
0.361282
0.356128
0.395116
0.3951
0.395052
0.394972
0.394864
0.394727
0.394566
0.394383
0.394003
0.393462
0.392722
0.391754
0.390537
0.38904
0.387206
0.384933
0.382059
0.378319
0.37326
0.366139
0.356115
0.395051
0.395047
0.395035
0.395015
0.394988
0.394953
0.39491
0.39486
0.394804
0.39474
0.39467
0.394594
0.394512
0.394425
0.394333
0.394153
0.39396
0.3937
0.393426
0.393065
0.392693
0.392215
0.391732
0.391123
0.390519
0.389767
0.389025
0.388104
0.387193
0.386056
0.384922
0.383492
0.382049
0.380204
0.37831
0.375839
0.373252
0.369801
0.36613
0.361272
0.356102
0.394987
0.394972
0.394926
0.39485
0.394746
0.394615
0.39446
0.394283
0.393916
0.39339
0.392664
0.391709
0.3905
0.38901
0.38718
0.38491
0.382039
0.378301
0.373243
0.366122
0.356089
0.394926
0.394923
0.394911
0.394892
0.394866
0.394832
0.394792
0.394744
0.394689
0.394628
0.394561
0.394488
0.394409
0.394324
0.394235
0.394061
0.393873
0.39362
0.393353
0.393
0.392634
0.392163
0.391685
0.391082
0.390481
0.389733
0.388994
0.388075
0.387166
0.386031
0.384898
0.38347
0.382029
0.380184
0.378292
0.375822
0.373235
0.369785
0.366113
0.361262
0.356075
0.394867
0.394852
0.394808
0.394735
0.394634
0.394508
0.394358
0.394187
0.39383
0.393316
0.392604
0.39166
0.390461
0.388977
0.387152
0.384886
0.382018
0.378282
0.373226
0.366104
0.356061
0.394809
0.394806
0.394795
0.394776
0.394751
0.394718
0.394679
0.394633
0.39458
0.394521
0.394456
0.394385
0.394308
0.394226
0.39414
0.39397
0.393787
0.393541
0.393279
0.392932
0.392572
0.392107
0.391634
0.391036
0.39044
0.389695
0.388959
0.388044
0.387137
0.386004
0.384873
0.383447
0.382007
0.380164
0.378272
0.375803
0.373216
0.369768
0.366094
0.36125
0.356046
0.394753
0.394738
0.394695
0.394625
0.394527
0.394405
0.394259
0.394092
0.393745
0.393241
0.392541
0.391608
0.390418
0.388941
0.387122
0.38486
0.381995
0.378261
0.373206
0.366084
0.356032
0.394697
0.394694
0.394683
0.394665
0.394641
0.394609
0.394571
0.394526
0.394475
0.394417
0.394354
0.394285
0.39421
0.39413
0.394045
0.39388
0.393701
0.39346
0.393203
0.392862
0.392508
0.392048
0.391581
0.390988
0.390395
0.389655
0.388922
0.38801
0.387106
0.385975
0.384847
0.383422
0.381984
0.380141
0.37825
0.375782
0.373196
0.36975
0.366074
0.361237
0.356016
0.394642
0.394628
0.394586
0.394517
0.394423
0.394303
0.394161
0.393998
0.393658
0.393164
0.392474
0.391553
0.390372
0.388903
0.38709
0.384833
0.381971
0.378239
0.373186
0.366064
0.356001
0.394588
0.394584
0.394574
0.394557
0.394533
0.394502
0.394464
0.394421
0.394371
0.394314
0.394253
0.394185
0.394112
0.394034
0.393951
0.393789
0.393614
0.393377
0.393125
0.392789
0.39244
0.391986
0.391524
0.390936
0.390348
0.389612
0.388883
0.387974
0.387073
0.385945
0.384818
0.383396
0.381959
0.380118
0.378228
0.375761
0.373175
0.369731
0.366053
0.361223
0.355985
0.394533
0.394519
0.394478
0.394411
0.394318
0.394202
0.394063
0.393903
0.39357
0.393084
0.392405
0.391494
0.390323
0.388862
0.387056
0.384804
0.381946
0.378216
0.373164
0.366043
0.355969
0.394478
0.394475
0.394464
0.394448
0.394424
0.394394
0.394357
0.394315
0.394266
0.394211
0.39415
0.394084
0.394013
0.393936
0.393855
0.393696
0.393524
0.393292
0.393043
0.392713
0.392369
0.391921
0.391463
0.390881
0.390298
0.389567
0.388841
0.387936
0.387038
0.385913
0.384789
0.383368
0.381933
0.380093
0.378204
0.375738
0.373153
0.36971
0.366032
0.361207
0.355953
0.394422
0.394409
0.394369
0.394303
0.394212
0.394098
0.393962
0.393806
0.393478
0.393001
0.392332
0.391431
0.390271
0.388819
0.38702
0.384773
0.381919
0.378191
0.373141
0.366021
0.355937
0.394366
0.394362
0.394352
0.394335
0.394312
0.394283
0.394247
0.394205
0.394157
0.394104
0.394044
0.393979
0.39391
0.393835
0.393755
0.393599
0.393431
0.393202
0.392958
0.392634
0.392294
0.391853
0.391399
0.390824
0.390244
0.38952
0.388797
0.387897
0.387001
0.385879
0.384757
0.383339
0.381905
0.380067
0.378179
0.375714
0.373129
0.369688
0.366009
0.361189
0.35592
0.389895
0.38989
0.389874
0.389847
0.389809
0.389761
0.389702
0.389632
0.389481
0.389246
0.388886
0.388345
0.387559
0.386454
0.38495
0.382941
0.380268
0.376671
0.371701
0.364689
0.354276
0.385731
0.38573
0.385727
0.385722
0.385716
0.385708
0.385698
0.385686
0.385673
0.385657
0.38564
0.385621
0.3856
0.385578
0.385554
0.385505
0.385451
0.385376
0.385292
0.385174
0.385043
0.384862
0.38466
0.384385
0.384079
0.383666
0.383216
0.382613
0.381966
0.381107
0.380198
0.378996
0.377732
0.376058
0.374293
0.371946
0.36945
0.366091
0.36244
0.357472
0.351766
0.381266
0.381263
0.381255
0.38124
0.38122
0.381194
0.381162
0.381125
0.381044
0.380917
0.380719
0.380414
0.379946
0.379237
0.378173
0.376606
0.374332
0.371059
0.366332
0.3594
0.348664
0.376266
0.376265
0.376263
0.376261
0.376256
0.376251
0.376245
0.376238
0.376229
0.376219
0.376208
0.376196
0.376183
0.376169
0.376153
0.376122
0.376088
0.376039
0.375984
0.375907
0.375822
0.3757
0.375567
0.375378
0.37517
0.374879
0.374558
0.374112
0.373623
0.372948
0.37221
0.371201
0.370105
0.36861
0.366991
0.364788
0.362399
0.359111
0.355531
0.350521
0.344929
0.370682
0.37068
0.370674
0.370664
0.37065
0.370633
0.370611
0.370585
0.370529
0.37044
0.370299
0.370076
0.369728
0.369184
0.368343
0.367052
0.365089
0.362127
0.357667
0.350882
0.340495
0.364456
0.364456
0.364455
0.364452
0.364449
0.364445
0.364441
0.364435
0.364428
0.364421
0.364412
0.364403
0.364393
0.364382
0.36437
0.364346
0.36432
0.364282
0.36424
0.36418
0.364114
0.36402
0.363915
0.363767
0.363601
0.363368
0.363109
0.362745
0.36234
0.361774
0.361147
0.360273
0.359307
0.357964
0.356484
0.354428
0.352159
0.349002
0.34551
0.340657
0.335315
0.357553
0.357552
0.357547
0.357539
0.357528
0.357513
0.357496
0.357475
0.357429
0.357357
0.357242
0.35706
0.356774
0.356322
0.355613
0.354504
0.352774
0.350086
0.34591
0.339414
0.329378
0.349944
0.349943
0.349942
0.349941
0.349938
0.349935
0.349931
0.349926
0.34992
0.349914
0.349907
0.3499
0.349891
0.349882
0.349872
0.349852
0.34983
0.349799
0.349764
0.349714
0.349659
0.34958
0.349492
0.349368
0.349229
0.349033
0.348813
0.348503
0.348156
0.347668
0.347122
0.346354
0.345497
0.34429
0.342944
0.341047
0.338928
0.335943
0.332606
0.32792
0.322718
0.341606
0.341605
0.341601
0.341594
0.341585
0.341573
0.341558
0.341541
0.341502
0.341441
0.341345
0.341192
0.340951
0.340567
0.33996
0.339
0.337478
0.335064
0.331222
0.325085
0.31533
0.332517
0.332517
0.332516
0.332514
0.332512
0.332509
0.332506
0.332502
0.332497
0.332492
0.332486
0.33248
0.332473
0.332466
0.332457
0.332441
0.332422
0.332396
0.332367
0.332326
0.332279
0.332214
0.33214
0.332036
0.331919
0.331754
0.331569
0.331306
0.331012
0.330595
0.330126
0.329461
0.328712
0.327648
0.326447
0.324735
0.322795
0.32002
0.316864
0.31235
0.307235
0.322654
0.322653
0.322649
0.322644
0.322636
0.322626
0.322614
0.3226
0.322569
0.322519
0.32244
0.322315
0.322116
0.3218
0.321295
0.320488
0.319191
0.317089
0.313647
0.307942
0.298439
0.311993
0.311992
0.311992
0.31199
0.311989
0.311987
0.311984
0.311981
0.311977
0.311973
0.311969
0.311964
0.311958
0.311952
0.311946
0.311933
0.311918
0.311897
0.311874
0.311842
0.311805
0.311753
0.311695
0.311612
0.311519
0.311388
0.311239
0.311029
0.310791
0.310453
0.31007
0.309523
0.308901
0.308005
0.30698
0.305493
0.303775
0.301262
0.29833
0.294015
0.288968
0.300509
0.300508
0.300506
0.300502
0.300496
0.300489
0.30048
0.300469
0.300446
0.300409
0.30035
0.300256
0.300106
0.299866
0.29948
0.298855
0.297827
0.296111
0.293176
0.288027
0.27883
0.28818
0.288179
0.288179
0.288178
0.288177
0.288175
0.288174
0.288171
0.288169
0.288166
0.288163
0.28816
0.288156
0.288152
0.288147
0.288139
0.288129
0.288114
0.288099
0.288076
0.288051
0.288015
0.287975
0.287918
0.287853
0.287762
0.287658
0.28751
0.287341
0.287099
0.286821
0.286419
0.285953
0.28527
0.284468
0.283272
0.281843
0.279677
0.277047
0.273004
0.268056
0.274981
0.274981
0.274979
0.274977
0.274974
0.274969
0.274964
0.274958
0.274944
0.274922
0.274887
0.274831
0.27474
0.274594
0.274353
0.273951
0.273262
0.272038
0.269773
0.265389
0.256662
0.260898
0.260898
0.260898
0.260897
0.260897
0.260896
0.260895
0.260894
0.260893
0.260892
0.260891
0.260889
0.260887
0.260886
0.260884
0.26088
0.260875
0.260869
0.260862
0.260852
0.26084
0.260824
0.260806
0.260779
0.260749
0.260706
0.260656
0.260584
0.260499
0.260375
0.260228
0.260006
0.259737
0.259323
0.258809
0.257995
0.256956
0.255267
0.253068
0.249441
0.244686
0.245918
0.245918
0.245918
0.245918
0.245917
0.245916
0.245915
0.245914
0.245911
0.245907
0.2459
0.245889
0.245869
0.245834
0.245768
0.245638
0.245367
0.24477
0.24339
0.240088
0.232155
0.230048
0.230048
0.230048
0.230048
0.230048
0.230049
0.230049
0.230049
0.23005
0.23005
0.230051
0.230052
0.230052
0.230053
0.230054
0.230056
0.230057
0.23006
0.230063
0.230067
0.230071
0.230077
0.230084
0.230093
0.230102
0.230115
0.230128
0.230144
0.230158
0.230172
0.23018
0.230174
0.230145
0.230064
0.229913
0.229588
0.229066
0.228035
0.226462
0.223487
0.219115
0.213304
0.213304
0.213305
0.213307
0.21331
0.213313
0.213316
0.213321
0.21333
0.213346
0.21337
0.213407
0.213465
0.213552
0.213681
0.21386
0.214076
0.214236
0.213989
0.212199
0.20561
0.195739
0.195739
0.195739
0.19574
0.195741
0.195742
0.195743
0.195745
0.195747
0.19575
0.195752
0.195755
0.195758
0.195762
0.195765
0.195773
0.195781
0.195793
0.195806
0.195824
0.195844
0.195873
0.195906
0.195951
0.196001
0.196072
0.19615
0.196258
0.196376
0.196538
0.196711
0.196943
0.197181
0.197478
0.19775
0.198022
0.198152
0.197995
0.197309
0.195345
0.191695
0.177425
0.177426
0.177428
0.177432
0.177437
0.177444
0.177452
0.177461
0.177482
0.177515
0.177568
0.177651
0.177781
0.177985
0.178301
0.178785
0.1795
0.180483
0.181578
0.181813
0.177438
0.158495
0.158495
0.158496
0.158497
0.158499
0.158501
0.158503
0.158506
0.158509
0.158513
0.158517
0.158522
0.158527
0.158533
0.158539
0.15855
0.158564
0.158583
0.158604
0.158634
0.158667
0.158715
0.158768
0.158843
0.158927
0.159045
0.159177
0.159362
0.159569
0.159858
0.160179
0.160625
0.161114
0.161778
0.162486
0.163396
0.164272
0.165192
0.165708
0.165253
0.162887
0.139113
0.139114
0.139117
0.139122
0.139129
0.139138
0.139149
0.139161
0.13919
0.139234
0.139305
0.139418
0.139596
0.139878
0.140324
0.141029
0.142134
0.143839
0.146296
0.149033
0.148181
0.119523
0.119523
0.119524
0.119525
0.119527
0.11953
0.119532
0.119536
0.119539
0.119544
0.119549
0.119554
0.11956
0.119566
0.119573
0.119587
0.119602
0.119624
0.119649
0.119683
0.119722
0.119777
0.119839
0.119927
0.120025
0.120164
0.120321
0.120543
0.120793
0.121148
0.121549
0.122116
0.122757
0.123666
0.124679
0.126134
0.127717
0.129773
0.131743
0.13344
0.13333
0.10001
0.100011
0.100014
0.100019
0.100026
0.100034
0.100045
0.100058
0.100086
0.100131
0.100202
0.100315
0.100495
0.100782
0.101244
0.101992
0.103215
0.105237
0.108658
0.113969
0.118536
0.0809432
0.0809434
0.0809441
0.0809452
0.0809467
0.0809486
0.080951
0.0809538
0.0809571
0.0809608
0.0809649
0.0809695
0.0809745
0.0809799
0.0809858
0.0809976
0.0810108
0.0810295
0.0810505
0.0810802
0.0811136
0.0811609
0.0812142
0.0812897
0.081375
0.081496
0.0816331
0.0818281
0.0820501
0.0823686
0.0827331
0.0832598
0.0838694
0.0847687
0.0858329
0.0873858
0.0893249
0.0922111
0.0956347
0.0999801
0.103581
0.0627256
0.0627263
0.0627284
0.0627319
0.0627367
0.062743
0.0627507
0.0627597
0.0627798
0.0628116
0.0628623
0.0629433
0.063073
0.063282
0.0636228
0.0641865
0.065148
0.0668471
0.0699382
0.0768752
0.0892409
0.0458129
0.0458131
0.0458134
0.045814
0.0458149
0.045816
0.0458173
0.0458189
0.0458207
0.0458228
0.0458251
0.0458277
0.0458305
0.0458335
0.0458368
0.0458435
0.0458509
0.0458614
0.0458732
0.04589
0.0459088
0.0459355
0.0459657
0.0460085
0.0460571
0.0461263
0.0462052
0.046318
0.0464479
0.0466363
0.046857
0.047177
0.047562
0.0481528
0.0488797
0.0500226
0.0514034
0.0542222
0.0575292
0.0647158
0.0752087
0.0306664
0.0306667
0.0306675
0.0306689
0.0306708
0.0306733
0.0306763
0.0306799
0.0306879
0.0307005
0.0307206
0.0307527
0.0308043
0.030888
0.0310258
0.0312572
0.0316685
0.0324511
0.0344119
0.0392545
0.0598122
0.0177275
0.0177275
0.0177276
0.0177277
0.0177279
0.0177281
0.0177284
0.0177287
0.0177291
0.0177296
0.01773
0.0177306
0.0177312
0.0177318
0.0177325
0.0177339
0.0177354
0.0177377
0.0177401
0.0177436
0.0177475
0.0177532
0.0177593
0.0177684
0.0177783
0.017793
0.0178089
0.0178326
0.0178584
0.0178988
0.0179433
0.0180103
0.0180866
0.0182294
0.0184226
0.0187378
0.0193699
0.0203402
0.023539
0.0280414
0.0410602
0.00740432
0.00740432
0.00740433
0.00740436
0.0074044
0.00740446
0.00740452
0.00740461
0.00740478
0.00740507
0.00740551
0.00740623
0.00740739
0.0074092
0.00741252
0.00741663
0.00743512
0.00745761
0.00779339
0.00889308
0.0182501
-0
-0
-0
-0
-0
-0
-0
-0
-0
-0
-0
-0
-0
-0
-0
-0
-0
-0
-0
-0
-0
-0
-0
-0
-0
-0
-0
-0
-0
-0
-0
-0
-0
-0
-0
-0
-0
-0
-0
-0
-0
SCALARS Stress_R double 1
LOOKUP_TABLE default
121.936
121.666
121.453
120.776
120.115
119.054
117.985
116.386
114.87
113.439
111.471
108.575
107.434
107.092
55.0689
18.0333
18.1361
17.2874
14.9486
13.7202
12.7291
12.0516
11.3859
10.6187
9.85163
8.79925
7.77886
6.72902
5.75131
5.01479
4.36379
4.04305
3.79771
3.81235
3.89984
4.05429
4.20733
4.109
3.88182
2.21121
0.710059
117.738
117.228
115.854
113.542
110.223
105.413
95.3741
54.6269
21.6319
15.9287
13.046
11.467
9.81119
7.70641
5.67836
4.29352
3.7238
3.81766
4.12136
3.79407
0.667195
113.663
113.35
113.12
112.404
111.708
110.453
109.238
107.508
105.757
103.019
99.8996
97.114
87.0975
81.1099
56.7886
32.1235
23.5636
19.2752
16.8406
14.7915
13.3182
12.3639
11.5383
10.6185
9.76598
8.66843
7.631
6.5817
5.60462
4.87535
4.22371
3.9017
3.65025
3.6557
3.73409
3.87513
4.02884
3.91966
3.70552
2.10659
0.62899
109.567
109.008
107.526
104.989
101.146
95.3978
79.0635
57.5181
27.2893
17.24
13.5609
11.5771
9.71094
7.55083
5.52951
4.15329
3.57613
3.64965
3.93542
3.61699
0.594604
105.578
105.221
104.997
104.208
103.475
102.099
100.817
98.713
96.7788
93.3378
90.5908
84.4471
72.8139
69.5198
57.9646
37.7597
29.6735
21.8809
17.807
15.7899
13.7825
12.6914
11.6249
10.6184
9.65731
8.53954
7.4712
6.43166
5.45345
4.73273
4.08201
3.75818
3.5017
3.49847
3.56568
3.69764
3.84295
3.73583
3.52916
2.00047
0.560748
101.566
100.97
99.4
96.6246
92.2889
85.3866
68.0675
57.7478
31.9483
18.2636
14.0262
11.6651
9.60085
7.38933
5.37669
4.01041
3.42692
3.48104
3.74972
3.44132
0.530203
97.6717
97.2953
97.0649
96.2295
95.4585
93.9899
92.6066
90.2906
88.0603
84.4093
80.8456
74.4353
63.9688
62.0105
57.0775
40.5592
33.7196
24.2041
18.7417
16.6668
14.2384
12.9882
11.7025
10.6097
9.54284
8.40661
7.30676
6.27793
5.29874
4.58745
3.93789
3.6132
3.35176
3.34059
3.39671
3.5201
3.65727
3.55234
3.35415
1.89501
0.500213
93.7599
93.1397
91.5022
88.5586
83.8589
76.0573
60.6833
56.1072
35.0703
19.282
14.4675
11.7381
9.48359
7.22293
5.22034
3.8652
3.27639
3.31188
3.56419
3.26693
0.473084
89.9685
89.5811
89.3444
88.4806
87.6836
86.1517
84.7043
82.2617
79.8787
76.1423
71.9711
66.4882
57.7917
56.6875
54.912
41.6444
36.1753
26.0177
19.747
17.4323
14.6697
13.2568
11.7679
10.5931
9.42247
8.26964
7.13806
6.12067
5.1408
4.4396
3.79166
3.46682
3.20065
3.18209
3.2273
3.34253
3.4718
3.36923
3.18037
1.79016
0.446547
86.1566
85.5254
83.8468
80.8093
75.9183
67.8362
55.2994
53.5844
36.8838
20.3034
14.8762
11.7973
9.3603
7.05216
5.06075
3.71787
3.12466
3.14221
3.37877
3.09366
0.422393
82.4756
82.0878
81.846
80.975
80.1622
78.6139
77.1241
74.6771
72.2099
68.6181
64.2733
59.9755
53.0418
52.4746
52.1908
41.6374
37.4454
27.3063
20.7469
18.0952
15.0623
13.497
11.8202
10.5679
9.29645
8.12833
6.9653
5.95995
4.9798
4.28928
3.64345
3.31908
3.04845
3.02303
3.05745
3.16495
3.2865
3.1865
3.00774
1.68586
0.398937
78.7701
78.1406
76.4557
73.4041
68.5071
60.745
50.9879
50.7196
37.6904
21.2629
15.2467
11.8436
9.23169
6.87762
4.89836
3.56879
2.97203
2.97225
3.1936
2.92158
0.377498
75.1916
74.8135
74.5695
73.7125
72.8996
71.3808
69.8842
67.5344
65.0612
61.8086
57.6431
54.447
49.0618
48.8352
49.261
40.9293
37.8363
28.1208
21.6614
18.6583
15.4143
13.7074
11.8599
10.5331
9.16498
7.98223
6.78865
5.79561
4.81587
4.13638
3.49335
3.16985
2.89522
2.86322
2.88713
2.98719
3.10119
3.00398
2.836
1.58196
0.35665
71.5942
70.9796
69.3271
66.3447
61.6248
54.6035
47.25
47.7549
37.7481
22.1021
15.5787
11.8774
9.09761
6.69917
4.73308
3.41784
2.81837
2.8018
3.0084
2.75033
0.337585
68.1224
67.7644
67.5216
66.7006
65.9037
64.4597
62.9953
60.8254
58.4328
55.6382
51.8743
49.601
45.5038
45.5171
46.2937
39.7532
37.59
28.5335
22.4351
19.1211
15.7274
13.8875
11.8874
10.4884
9.02813
7.83133
6.60833
5.62786
4.64925
3.98115
3.34159
3.01933
2.74111
2.70285
2.71648
2.8094
2.91598
2.8218
2.66519
1.47849
0.319087
64.6326
64.0465
62.465
59.6333
55.2532
49.2051
43.8305
44.7962
37.2609
22.7846
15.8736
11.8985
8.95803
6.51704
4.56514
3.26526
2.66384
2.631
2.82326
2.57994
0.302083
61.2651
60.9372
60.6992
59.9351
59.1708
57.8423
56.4484
54.5216
52.2915
50.0052
46.7581
45.2312
42.186
42.3873
43.3546
38.2665
36.8849
28.6158
23.0414
19.485
16.004
14.0369
11.9023
10.4331
8.88568
7.67533
6.42437
5.4567
4.48005
3.8236
3.18823
2.86751
2.58617
2.54189
2.54549
2.63153
2.73082
2.6399
2.49518
1.37538
0.285634
57.8814
57.337
55.8634
53.2563
49.3452
44.3621
40.5942
41.8838
36.3848
23.2963
16.1326
11.9068
8.81273
6.3313
4.39468
3.11112
2.5085
2.45988
2.63816
2.41032
0.270415
54.6143
54.3255
54.0962
53.4076
52.6919
51.5129
50.2248
48.5846
46.5836
44.8101
42.1226
41.1969
39.0106
39.3767
40.4689
36.5744
35.8564
28.4339
23.475
19.754
16.2453
14.1562
11.9042
10.3666
8.73739
7.51406
6.23684
5.28215
4.30837
3.66383
3.03336
2.71443
2.43045
2.38037
2.37421
2.45359
2.54571
2.45828
2.3259
1.27257
0.255735
51.3334
50.843
49.5103
47.1905
43.8395
39.9249
37.4686
39.0306
35.2382
23.6402
16.3567
11.9017
8.66147
6.14199
4.2218
2.95551
2.35241
2.28847
2.4531
2.24137
0.242044
48.1614
47.9194
47.7025
47.1052
46.4527
45.4493
44.2973
42.9699
41.2456
39.9636
37.8353
37.4012
35.9233
36.4477
37.6439
34.7504
34.607
28.0463
23.745
19.9351
16.4523
14.246
11.8925
10.2888
8.58303
7.34732
6.04576
5.10424
4.13432
3.50188
2.87706
2.56015
2.27401
2.21829
2.20264
2.27556
2.36063
2.27693
2.15726
1.17001
0.228874
44.9784
44.5525
43.3884
41.4052
38.6703
35.7802
34.4129
36.239
33.9113
23.83
16.5464
11.8829
8.50401
5.94918
4.0466
2.79851
2.19561
2.11678
2.26806
2.07304
0.216467
41.8948
41.7059
41.5046
41.011
40.4342
39.6248
38.6331
37.6297
36.212
35.389
33.7968
33.7756
32.8927
33.5784
34.8802
32.8473
33.2155
27.5041
23.8695
20.0376
16.6255
14.3074
11.8668
10.1992
8.42237
7.17495
5.85121
4.923
3.95802
3.33785
2.7194
2.40469
2.11687
2.05569
2.03081
2.09746
2.17557
2.09581
1.98919
1.06765
0.20456
38.8036
38.4504
37.4766
35.8652
33.7728
31.8427
31.403
33.5083
32.4738
23.8864
16.7023
11.8499
8.34014
5.7529
3.8692
2.6402
2.03814
1.94484
2.08303
1.90523
0.193206
35.8006
35.6689
35.486
35.1046
34.6134
34.009
33.195
32.5164
31.4201
31.021
29.9321
30.2702
29.8992
30.7559
32.1767
30.9049
31.7431
26.8521
23.8714
20.0724
16.7654
14.342
11.8267
10.0975
8.25521
6.99675
5.65322
4.73846
3.77956
3.17179
2.56047
2.24811
1.95909
1.89257
1.85873
1.91926
1.99052
1.91492
1.82161
0.96545
0.18233
32.7934
32.5187
31.7503
30.5318
29.0867
28.0472
28.4229
30.8369
30.9809
23.8337
16.8252
11.8022
8.16967
5.55323
3.68971
2.48064
1.88005
1.77267
1.898
1.73787
0.171804
29.8623
29.7902
29.628
29.3636
28.9648
28.5697
27.9439
27.5832
26.8118
26.8039
26.1834
26.8469
26.9289
27.9715
29.5323
28.9543
30.2392
26.1301
23.7764
20.0518
16.8731
14.351
11.7719
9.98363
8.08137
6.81259
5.45186
4.55065
3.59907
3.00379
2.40032
2.09044
1.8007
1.72896
1.68643
1.74098
1.80547
1.73424
1.65445
0.86335
0.161733
26.9307
26.7377
26.1827
25.3655
24.5562
24.3429
25.4602
28.2241
29.4777
23.6978
16.9163
11.7397
7.99245
5.35023
3.50824
2.31991
1.72136
1.60027
1.71297
1.5709
0.151819
24.0618
24.0495
23.9096
23.7632
23.4604
23.2732
22.8397
22.7853
22.3335
22.6892
22.5041
23.4747
23.97
25.219
26.9467
27.0206
28.745
25.3736
23.6109
19.9886
16.9498
14.3361
11.7019
9.85715
7.90065
6.62222
5.24715
4.35956
3.4166
2.83386
2.23901
1.9317
1.6417
1.56484
1.51388
1.56256
1.62035
1.55374
1.48761
0.761258
0.142364
21.1998
21.0887
20.748
20.3286
20.1326
20.6889
22.5053
25.6717
28.0035
23.505
16.9775
11.6621
7.80852
5.14414
3.32505
2.15822
1.56224
1.42779
1.52804
1.40433
0.132857
18.3838
18.4293
18.3123
18.281
18.0748
18.0884
17.8456
18.0819
17.9387
18.6351
18.8565
20.1277
21.0129
22.4945
24.4214
25.1292
27.2964
24.6179
23.4003
19.8964
16.9974
14.2991
11.6168
9.7181
7.71322
6.4257
5.03944
4.16537
3.23251
2.66222
2.07678
1.77205
1.48229
1.40036
1.34126
1.38417
1.4354
1.37347
1.32111
0.659323
0.123641
15.5756
15.5439
15.4118
15.3768
15.7642
17.0445
19.5428
23.1784
26.5901
23.2796
17.0103
11.5692
7.61754
4.93475
3.13996
1.99538
1.40248
1.25497
1.34293
1.23787
0.114372
12.8042
12.9032
12.8095
12.8868
12.7744
12.9772
12.9181
13.4273
13.5771
14.5972
15.201
16.7769
18.0408
19.7911
21.9572
23.2998
25.9272
23.8936
23.1708
19.7881
17.0183
14.2415
11.5167
9.56613
7.51891
6.22271
4.82863
3.96799
3.04671
2.48883
1.91357
1.61143
1.32236
1.23542
1.1684
1.20563
1.25029
1.19338
1.1548
0.557248
0.105419
10.0431
10.085
10.149
10.4747
11.4092
13.3767
16.5591
20.7487
25.2707
23.0465
17.0178
11.4616
7.41995
4.7225
2.95339
1.83171
1.24231
1.08203
1.15781
1.07159
0.0960394
7.30719
7.452
7.38181
7.55663
7.53372
7.90779
8.02254
8.78165
9.20836
10.5355
11.506
13.3956
15.0363
17.1045
19.5561
21.5572
24.6669
23.2334
22.9449
19.6762
17.0149
14.1648
11.4016
9.40093
7.31789
6.01306
4.61492
3.76739
2.85941
2.3137
1.74949
1.44984
1.16198
1.07002
0.995357
1.02696
1.06511
1.01339
0.988564
0.45509
0.087028
4.58524
4.69116
4.93255
5.58627
7.02554
9.65013
13.5346
18.3881
24.0734
22.828
17.004
11.3403
7.21626
4.50767
2.76547
1.66728
1.08176
0.908938
0.972626
0.905389
0.0773861
1.88335
2.05498
2.01161
2.26582
2.32774
2.8477
3.12311
4.10501
4.78737
6.40978
7.72616
9.96033
11.9671
14.4275
17.2287
19.9254
23.5508
22.6693
22.7485
19.5721
16.9927
14.0702
11.2731
9.22236
7.11069
5.79669
4.39864
3.56369
2.67083
2.13696
1.58471
1.28736
1.00125
0.904221
0.822171
0.848191
0.879855
0.833541
0.82236
0.352795
0.0680954
-0.806681
-0.653369
-0.260235
0.67949
2.5725
5.82508
10.4483
16.0621
23.0173
22.6493
16.9792
11.2097
7.00791
4.29077
2.5765
1.50226
0.920923
0.735723
0.787346
0.739173
0.0579584
-1.04923
-0.918428
-0.937206
-0.727191
-0.644227
-0.219323
0.0545887
0.841861
1.46046
2.74349
3.87431
5.63675
7.30552
9.22705
11.4389
13.7755
16.5341
16.1744
16.2547
13.9536
12.0738
9.87796
7.83971
6.31443
4.79217
3.84424
2.85689
2.27747
1.66115
1.30018
0.923848
0.724944
0.530425
0.466865
0.411513
0.429941
0.458809
0.426936
0.438086
0.151056
0.0152586
0.37892
0.456173
0.669748
1.12216
1.93806
3.2177
4.92021
6.87268
9.26481
9.06828
6.75955
4.29283
2.49145
1.37261
0.715056
0.329147
0.131237
0.0792937
0.120779
0.136141
0.00583068
-0.528133
-0.436819
-0.429326
-0.261879
-0.161751
0.134877
0.360472
0.827931
1.22682
1.88572
2.49154
3.3023
4.08651
4.91926
5.85299
6.89452
8.10888
8.05919
8.2284
7.14469
6.30278
5.09182
4.01854
3.135
2.28596
1.75136
1.20652
0.90605
0.585946
0.412858
0.227861
0.135322
0.0408204
0.0131037
-0.0149298
0.000155474
0.0218703
0.0149867
0.0551365
-0.0318307
0.0306672
-1.31282
-1.1974
-0.886208
-0.312481
0.580565
1.80949
3.29352
4.88796
7.00354
7.35769
5.80077
3.72378
2.07433
1.03917
0.456313
0.126132
-0.0497599
-0.108744
-0.0768077
-0.0255566
0.0517671
-2.0349
-1.93375
-1.90876
-1.71266
-1.57287
-1.24573
-0.974254
-0.501653
-0.0795082
0.532333
1.10683
1.81157
2.49565
3.2005
3.97018
4.90906
5.97585
6.16398
6.51894
5.8055
5.28287
4.27782
3.40736
2.60443
1.85023
1.35887
0.866649
0.603806
0.324754
0.179978
0.0235135
-0.0573598
-0.140827
-0.170881
-0.202964
-0.192064
-0.175654
-0.172214
-0.10648
-0.119276
0.0722077
-2.66335
-2.53011
-2.17787
-1.5674
-0.684715
0.447645
1.743
3.09444
4.98939
5.67514
4.73424
3.0711
1.61853
0.692192
0.19264
-0.0795012
-0.23212
-0.296896
-0.274367
-0.187133
0.0895244
-3.26565
-3.16303
-3.12954
-2.92663
-2.77202
-2.44469
-2.16354
-1.71326
-1.30318
-0.748452
-0.22258
0.392602
0.993104
1.60027
2.25225
3.1066
4.05893
4.39125
4.86153
4.44097
4.17884
3.38562
2.71847
2.01907
1.37622
0.941681
0.513255
0.292831
0.058985
-0.0563052
-0.183176
-0.251873
-0.323773
-0.355852
-0.391176
-0.384913
-0.373188
-0.359238
-0.268153
-0.210074
0.105891
-3.79615
-3.65984
-3.30293
-2.70505
-1.87575
-0.853778
0.281583
1.44776
3.16241
4.05095
3.60225
2.34872
1.12673
0.332557
-0.0750076
-0.287125
-0.415678
-0.485288
-0.472087
-0.348932
0.119508
-4.32589
-4.22848
-4.19146
-3.99581
-3.84066
-3.53095
-3.25916
-2.84494
-2.46301
-1.96674
-1.49357
-0.953755
-0.425851
0.105448
0.668672
1.45086
2.30897
2.7317
3.26923
3.08092
3.02601
2.4395
1.96767
1.38826
0.868704
0.502802
0.148265
-0.0253672
-0.210012
-0.294953
-0.391394
-0.447621
-0.507728
-0.541536
-0.579606
-0.578362
-0.570952
-0.546203
-0.430124
-0.304942
0.131958
-4.80172
-4.67083
-4.32998
-3.77024
-3.01242
-2.09951
-1.1002
-0.0792006
1.48362
2.49464
2.4361
1.57248
0.604216
-0.0374886
-0.345103
-0.495788
-0.600007
-0.673831
-0.67006
-0.511157
0.141512
-5.2923
-5.20304
-5.16578
-4.98438
-4.83676
-4.55264
-4.29977
-3.92581
-3.57813
-3.13687
-2.71433
-2.23843
-1.77244
-1.3021
-0.809061
-0.0885685
0.690773
1.17047
1.74549
1.74137
1.85043
1.45891
1.16986
0.721484
0.332997
0.0459161
-0.226077
-0.348999
-0.480808
-0.534869
-0.600287
-0.644012
-0.692332
-0.727689
-0.768241
-0.772387
-0.769122
-0.73329
-0.592721
-0.404499
0.149649
-5.74327
-5.62209
-5.30722
-4.79612
-4.1136
-3.30118
-2.41704
-1.51295
-0.0784045
1.00577
1.25728
0.756588
0.0565832
-0.415527
-0.61619
-0.704639
-0.784737
-0.862488
-0.868505
-0.673999
0.154611
-6.21857
-6.13857
-6.10274
-5.93828
-5.80179
-5.5455
-5.31495
-4.9804
-4.66737
-4.27533
-3.89869
-3.47652
-3.06278
-2.64212
-2.20548
-1.53753
-0.823861
-0.307637
0.287361
0.430692
0.670345
0.45941
0.339004
0.0283061
-0.22477
-0.424578
-0.606971
-0.675838
-0.751755
-0.774757
-0.808876
-0.840332
-0.877093
-0.913972
-0.956914
-0.966866
-0.967813
-0.920549
-0.75602
-0.509468
0.157716
-6.66554
-6.55555
-6.26981
-5.80894
-5.19783
-4.4741
-3.68643
-2.87725
-1.55002
-0.421382
0.0799815
-0.0862875
-0.51015
-0.798807
-0.886749
-0.912829
-0.969488
-1.05119
-1.06766
-0.837532
0.157196
-7.14297
-7.07207
-7.03841
-6.89092
-6.76646
-6.53693
-6.32857
-6.02987
-5.74887
-5.39937
-5.06263
-4.68509
-4.3148
-3.93457
-3.54332
-2.9192
-2.25938
-1.71838
-1.11247
-0.848728
-0.502852
-0.54763
-0.512948
-0.682617
-0.79838
-0.904191
-0.991495
-1.00363
-1.0213
-1.01341
-1.01631
-1.03599
-1.06163
-1.10016
-1.14553
-1.1618
-1.16731
-1.1081
-0.919901
-0.620887
0.154467
-7.60117
-7.50221
-7.24469
-6.83055
-6.28288
-5.63459
-4.92628
-4.19342
-2.95339
-1.79452
-1.08636
-0.944653
-1.08934
-1.18402
-1.15502
-1.11939
-1.15376
-1.23975
-1.26768
-1.0016
0.146958
-8.09388
-8.03129
-7.99989
-7.86795
-7.75483
-7.54922
-7.36092
-7.09322
-6.84005
-6.52611
-6.22276
-5.88153
-5.54654
-5.1986
-4.84336
-4.25421
-3.63706
-3.0767
-2.46309
-2.09766
-1.66237
-1.55366
-1.37572
-1.40317
-1.38141
-1.38815
-1.37642
-1.32993
-1.28781
-1.24959
-1.22176
-1.23037
-1.24555
-1.28602
-1.33402
-1.35717
-1.36785
-1.29613
-1.08434
-0.739649
0.136851
-8.57505
-8.48602
-8.25357
-7.88001
-7.38585
-6.79939
-6.15448
-5.48138
-4.30843
-3.12302
-2.23653
-1.80892
-1.67445
-1.5678
-1.41935
-1.32348
-1.33719
-1.42809
-1.46883
-1.16595
0.120584
-9.0939
-9.03851
-9.00909
-8.89048
-8.7871
-8.60164
-8.43023
-8.18802
-7.95768
-7.67228
-7.39561
-7.08281
-6.77535
-6.45214
-6.12439
-5.56087
-4.97521
-4.3961
-3.77347
-3.31822
-2.80376
-2.55176
-2.23987
-2.12536
-1.96689
-1.8712
-1.75799
-1.65193
-1.54943
-1.48186
-1.42426
-1.42277
-1.42838
-1.47122
-1.52219
-1.55283
-1.5696
-1.48475
-1.24893
-0.866825
0.101056
-9.60788
-9.52715
-9.31547
-8.97496
-8.52348
-7.9852
-7.38845
-6.7596
-5.63289
-4.4164
-3.3677
-2.67067
-2.25877
-1.94646
-1.67799
-1.52427
-1.5194
-1.61611
-1.6714
-1.33011
0.0735908
-10.1626
-10.1131
-10.0852
-9.97728
-9.88157
-9.71202
-9.55377
-9.3313
-9.11843
-8.85457
-8.59785
-8.30589
-8.01845
-7.71261
-7.40432
-6.85635
-6.29068
-5.6896
-5.053
-4.51397
-3.92492
-3.53691
-3.09739
-2.84196
-2.54802
-2.34814
-2.13242
-1.96686
-1.80439
-1.70893
-1.62299
-1.61259
-1.60976
-1.65554
-1.70994
-1.74877
-1.7729
-1.67414
-1.41289
-1.00391
0.0422916
-10.7184
-10.6441
-10.4482
-10.1325
-9.71234
-9.20849
-8.64491
-8.04506
-6.9423
-5.68324
-4.4778
-3.52184
-2.8351
-2.31588
-1.929
-1.72083
-1.69994
-1.80363
-1.87555
-1.49323
6.81728e-05
-11.3185
-11.2736
-11.2465
-11.1466
-11.0561
-10.8981
-10.7489
-10.5403
-10.3393
-10.0899
-9.84635
-9.56767
-9.29275
-8.99687
-8.70014
-8.15666
-7.59878
-6.96914
-6.31052
-5.68865
-5.02471
-4.50477
-3.9409
-3.54585
-3.1178
-2.81352
-2.49565
-2.27181
-2.05088
-1.92945
-1.81713
-1.79924
-1.78935
-1.83874
-1.89723
-1.94492
-1.97797
-1.86463
-1.57552
-1.15224
-0.0466224
-11.9252
-11.8553
-11.6699
-11.3702
-10.9697
-10.4863
-9.94072
-9.35441
-8.25127
-6.93194
-5.56577
-4.35517
-3.39632
-2.6719
-2.17055
-1.91232
-1.87847
-1.9906
-2.08152
-1.65428
-0.10795
-12.5806
-12.539
-12.512
-12.4171
-12.3293
-12.1781
-12.0337
-11.8327
-11.6377
-11.3957
-11.1582
-10.885
-10.6149
-10.3212
-10.0278
-9.47645
-8.91307
-8.24508
-7.55343
-6.84511
-6.10151
-5.4507
-4.7627
-4.22951
-3.66864
-3.26143
-2.84322
-2.56358
-2.28689
-2.14196
-2.00575
-1.98202
-1.96672
-2.02048
-2.08387
-2.14112
-2.18495
-2.05652
-1.73554
-1.31344
-0.174741
-13.2484
-13.1808
-13.0001
-12.7072
-12.314
-11.8366
-11.2931
-10.7039
-9.57326
-8.16985
-6.63032
-5.16331
-3.93499
-3.01016
-2.40076
-2.09795
-2.05469
-2.17694
-2.2895
-1.81181
-0.261074
-13.9703
-13.9304
-13.9028
-13.8097
-13.7218
-13.5724
-13.4281
-13.2283
-13.0331
-12.7907
-12.5518
-12.2758
-12.0022
-11.7023
-11.4036
-10.8303
-10.2465
-9.52723
-8.78846
-7.9859
-7.15366
-6.37013
-5.55522
-4.88543
-4.19287
-3.68595
-3.17065
-2.83907
-2.51054
-2.34512
-2.18802
-2.16036
-2.14157
-2.20051
-2.26981
-2.33734
-2.394
-2.25031
-1.89111
-1.48969
-0.35379
-14.7104
-14.6426
-14.4605
-14.1644
-13.7653
-13.2779
-12.7192
-12.1093
-10.9202
-9.40249
-7.66879
-5.93794
-4.44293
-3.3259
-2.6176
-2.27678
-2.22819
-2.36247
-2.49942
-1.96389
-0.473369
-15.5117
-15.4724
-15.4431
-15.3484
-15.2574
-15.1044
-14.9551
-14.7494
-14.5469
-14.2958
-14.0472
-13.7593
-13.4731
-13.1576
-12.844
-12.2322
-11.6111
-10.8242
-10.0209
-9.11227
-8.17828
-7.25754
-6.31003
-5.50552
-4.68231
-4.08085
-3.47327
-3.0951
-2.71992
-2.53761
-2.36315
-2.33368
-2.31361
-2.37858
-2.45497
-2.53356
-2.60512
-2.4468
-2.04039
-1.68307
-0.60037
-16.3374
-16.2671
-16.0766
-15.7661
-15.3463
-14.8315
-14.2382
-13.587
-12.3036
-10.6342
-8.6774
-6.67004
-4.91165
-3.61438
-2.81916
-2.44798
-2.39866
-2.54705
-2.71116
-2.1082
-0.763783
-17.2345
-17.193
-17.1613
-17.0611
-16.9633
-16.8006
-16.6405
-16.4207
-16.2034
-15.934
-15.6665
-15.3558
-15.0469
-14.7046
-14.3648
-13.6958
-13.0172
-12.1428
-11.2535
-10.2233
-9.16996
-8.10559
-7.01685
-6.08052
-5.12772
-4.43934
-3.74602
-3.3283
-2.91297
-2.71802
-2.53015
-2.50132
-2.48243
-2.55436
-2.6391
-2.72973
-2.818
-2.64691
-2.18076
-1.89612
-0.936098
-18.1618
-18.0857
-17.8792
-17.5414
-17.0839
-16.5212
-15.8702
-15.1553
-13.7343
-11.8676
-9.65003
-7.34884
-5.33191
-3.87065
-3.0034
-2.61055
-2.5657
-2.73041
-2.9243
-2.24193
-1.15783
-19.1683
-19.1279
-19.0904
-18.982
-18.8724
-18.6936
-18.5147
-18.2728
-18.0305
-17.7326
-17.4342
-17.0896
-16.7434
-16.3637
-15.9855
-15.2347
-14.4755
-13.4884
-12.4881
-11.316
-10.121
-8.90552
-7.66356
-6.60052
-5.51921
-4.75453
-3.98371
-3.53549
-3.08753
-2.88513
-2.68795
-2.66276
-2.64758
-2.72766
-2.82186
-2.92605
-3.03215
-2.85207
-2.30897
-2.13211
-1.38989
-20.2175
-20.1355
-19.9016
-19.5216
-19.0068
-18.3728
-17.6375
-16.8278
-15.2185
-13.0989
-10.5751
-7.96061
-5.69326
-4.0889
-3.16747
-2.76285
-2.72848
-2.91189
-3.13799
-2.36171
-1.68994
-21.3796
-21.3165
-21.2833
-21.1497
-21.0295
-20.8186
-20.6207
-20.3376
-20.0673
-19.721
-19.386
-18.986
-18.5955
-18.1497
-17.7205
-16.86
-15.9913
-14.8665
-13.7148
-12.3881
-11.0135
-9.64831
-8.23248
-7.05482
-5.84472
-5.01923
-4.17996
-3.71361
-3.24043
-3.03796
-2.83473
-2.81764
-2.80822
-2.89846
-3.00263
-3.123
-3.2467
-3.06428
-2.42178
-2.39439
-2.00194
-22.5829
-22.4722
-22.1997
-21.7581
-21.1613
-20.4275
-19.5771
-18.6262
-16.7737
-14.3326
-11.4475
-8.49447
-5.98362
-4.2596
-3.30524
-2.90134
-2.88537
-3.09042
-3.35104
-2.4639
-2.40702
-11.9037
-11.8643
-11.8355
-11.7472
-11.6688
-11.5316
-11.4022
-11.2182
-11.042
-10.8174
-10.6004
-10.3422
-10.0915
-9.80878
-9.51221
-8.97169
-8.41453
-7.69935
-6.97996
-6.14453
-5.31397
-4.47635
-3.65482
-2.97332
-2.30658
-1.88237
-1.4524
-1.26473
-1.04953
-1.01451
-0.948482
-1.00902
-1.04842
-1.1602
-1.25927
-1.36691
-1.45294
-1.45053
-0.993533
-0.915163
-0.694346
0.716115
0.718759
0.716109
0.713405
0.710102
0.70643
0.702693
0.691336
0.687168
0.686619
0.697131
0.720433
0.748838
0.767822
0.764211
0.730505
0.663721
0.574299
0.480135
0.335063
0.304811
0.150544
0.15261
0.153175
0.157038
0.159371
0.164916
0.168915
0.176217
0.181822
0.190633
0.197653
0.207697
0.215849
0.226843
0.239517
0.258521
0.27782
0.306385
0.331313
0.366279
0.3964
0.433355
0.467778
0.4987
0.536227
0.552282
0.589365
0.585113
0.614713
0.589188
0.604314
0.559875
0.55757
0.498872
0.483924
0.42283
0.375335
0.29749
0.379137
0.225187
-0.0193792
0.245313
0.24493
0.246401
0.247896
0.249786
0.252071
0.254726
0.259824
0.263835
0.268792
0.273713
0.280538
0.293251
0.313464
0.336531
0.353252
0.354743
0.323315
0.271988
0.121295
-0.175557
0.102669
0.10362
0.103186
0.103206
0.10276
0.103017
0.102691
0.102973
0.102742
0.103049
0.102912
0.103245
0.103188
0.103542
0.10194
0.104091
0.104091
0.106886
0.108568
0.113203
0.117682
0.125401
0.133073
0.145185
0.155458
0.172121
0.184807
0.203072
0.21888
0.232262
0.251024
0.252039
0.268466
0.251643
0.27211
0.237219
0.214488
0.174269
0.0745871
0.0822341
0.00644194
0.0574304
0.0579695
0.057912
0.058052
0.0582867
0.0586142
0.059052
0.0586714
0.0601061
0.0623812
0.0661986
0.0714837
0.0779594
0.0864714
0.0991056
0.115816
0.132552
0.137455
0.122446
0.0294931
-0.0377886
-0.0487733
-0.04874
-0.0487715
-0.0484897
-0.048403
-0.0480832
-0.0479385
-0.0475262
-0.0473133
-0.0468119
-0.0465298
-0.0459449
-0.0456137
-0.044948
-0.0440822
-0.0430825
-0.0422796
-0.0401511
-0.0392523
-0.0359524
-0.0348453
-0.0299059
-0.0280408
-0.021114
-0.0174498
-0.00839377
-0.00197849
0.00914232
0.0185268
0.0309248
0.0436486
0.0546823
0.06904
0.0732128
0.0907972
0.0800136
0.0932703
0.0583554
0.0447766
0.0317667
-0.0233733
-0.0733589
-0.0733693
-0.0732191
-0.0730488
-0.0728211
-0.072536
-0.0721919
-0.0716571
-0.0709861
-0.069861
-0.068109
-0.0651492
-0.0601187
-0.0523095
-0.0412106
-0.0263215
-0.00686489
0.014351
0.0261503
0.0290336
0.00755068
-0.152701
-0.152488
-0.152542
-0.152427
-0.152447
-0.152267
-0.152239
-0.152016
-0.15194
-0.151675
-0.151547
-0.151243
-0.151068
-0.150723
-0.150695
-0.149838
-0.149497
-0.148225
-0.147596
-0.145666
-0.144594
-0.141648
-0.139999
-0.135486
-0.13313
-0.126288
-0.122818
-0.112909
-0.107484
-0.0942856
-0.0854404
-0.0697305
-0.0567864
-0.0411904
-0.0246971
-0.0137031
0.0106409
0.00713985
0.0365546
0.00127191
0.0299575
-0.167874
-0.167745
-0.167667
-0.167514
-0.167298
-0.167022
-0.166681
-0.16641
-0.165601
-0.164307
-0.162262
-0.159111
-0.154302
-0.146876
-0.135332
-0.11795
-0.0930075
-0.0591563
-0.0169191
0.0310589
0.0372975
-0.238557
-0.238434
-0.238482
-0.238351
-0.238353
-0.238189
-0.238158
-0.237952
-0.237884
-0.237638
-0.237529
-0.237246
-0.237102
-0.236775
-0.236601
-0.235915
-0.235615
-0.234438
-0.233986
-0.232125
-0.231427
-0.228505
-0.227373
-0.222864
-0.220973
-0.214153
-0.211013
-0.200914
-0.195853
-0.18135
-0.173148
-0.153452
-0.139792
-0.115852
-0.0933697
-0.0701832
-0.0322265
-0.0242323
0.0400527
-0.0114473
0.0558123
-0.241613
-0.241523
-0.241417
-0.241246
-0.241007
-0.240703
-0.240328
-0.239942
-0.239084
-0.237687
-0.235478
-0.231973
-0.226419
-0.217707
-0.204173
-0.183358
-0.151978
-0.105979
-0.0424607
0.037921
0.056155
-0.305799
-0.305635
-0.305691
-0.305555
-0.30557
-0.305394
-0.305372
-0.305152
-0.30509
-0.30483
-0.304724
-0.304427
-0.304283
-0.303942
-0.303832
-0.303065
-0.302796
-0.301541
-0.301107
-0.299134
-0.298434
-0.29534
-0.294218
-0.289389
-0.287595
-0.280109
-0.277197
-0.265771
-0.260922
-0.243968
-0.23571
-0.211648
-0.197159
-0.165774
-0.139442
-0.105872
-0.0565499
-0.0415766
0.0493763
-0.0193152
0.0795431
-0.296829
-0.296711
-0.296599
-0.296408
-0.296142
-0.295802
-0.295382
-0.294974
-0.294013
-0.292447
-0.289968
-0.28605
-0.279873
-0.270147
-0.254874
-0.23105
-0.194307
-0.138829
-0.0579548
0.0495368
0.075763
-0.341524
-0.341337
-0.34141
-0.341257
-0.341288
-0.341097
-0.341092
-0.340859
-0.340816
-0.340542
-0.340457
-0.340146
-0.340024
-0.339671
-0.339588
-0.33879
-0.338599
-0.337278
-0.336974
-0.334886
-0.334401
-0.331106
-0.330317
-0.325149
-0.323839
-0.315786
-0.313574
-0.30116
-0.297318
-0.278546
-0.271562
-0.244169
-0.231057
-0.193871
-0.167153
-0.125131
-0.0696469
-0.0485374
0.0655313
-0.0241238
0.10426
-0.318352
-0.318227
-0.318115
-0.317928
-0.317666
-0.31733
-0.316919
-0.316523
-0.315607
-0.314095
-0.311701
-0.307904
-0.301888
-0.292361
-0.277273
-0.253448
-0.215708
-0.156756
-0.0653846
0.0672198
0.0982413
-0.309945
-0.309728
-0.309821
-0.309666
-0.309731
-0.309547
-0.309583
-0.309368
-0.309376
-0.30913
-0.309109
-0.308833
-0.308782
-0.308476
-0.308504
-0.307784
-0.307814
-0.306621
-0.306664
-0.304774
-0.304835
-0.301843
-0.301914
-0.297189
-0.297239
-0.28979
-0.289735
-0.278051
-0.277566
-0.259428
-0.257555
-0.230066
-0.224106
-0.184866
-0.16684
-0.119012
-0.0686332
-0.0410588
0.0886202
-0.0253852
0.13108
-0.265518
-0.265398
-0.265319
-0.265192
-0.265013
-0.26478
-0.264497
-0.264256
-0.263691
-0.262722
-0.261181
-0.258722
-0.25479
-0.24845
-0.238164
-0.221252
-0.193107
-0.144475
-0.0590706
0.0905994
0.121432
-0.140457
-0.14023
-0.140344
-0.140222
-0.140344
-0.140215
-0.140332
-0.140205
-0.14032
-0.140191
-0.140312
-0.140175
-0.140289
-0.140155
-0.140402
-0.140029
-0.140518
-0.139885
-0.140659
-0.139646
-0.140867
-0.139238
-0.141158
-0.138525
-0.141518
-0.137229
-0.141844
-0.134774
-0.141521
-0.129784
-0.139258
-0.11989
-0.13162
-0.0999153
-0.106571
-0.0616703
-0.0407134
-0.00648635
0.116637
-0.0189671
0.151407
-0.0595825
-0.0595073
-0.0595215
-0.05956
-0.059607
-0.0596607
-0.0597357
-0.0598954
-0.0602512
-0.0607262
-0.0614647
-0.0625911
-0.0642754
-0.0667024
-0.0700433
-0.0735661
-0.0744085
-0.0662445
-0.0225166
0.115467
0.13703
0.284846
0.28504
0.284912
0.284942
0.284736
0.284725
0.284483
0.284406
0.284109
0.283981
0.283612
0.283445
0.283038
0.282804
0.282195
0.281798
0.280536
0.279917
0.277917
0.276959
0.273789
0.272322
0.267302
0.265111
0.257167
0.254005
0.241519
0.237313
0.217699
0.212979
0.181427
0.178952
0.133105
0.139648
0.0754634
0.100132
0.0467824
0.0833127
0.143057
0.00315227
0.148251
0.431153
0.431121
0.430921
0.430556
0.43006
0.429437
0.428652
0.427704
0.425559
0.422243
0.417009
0.408773
0.395874
0.375803
0.345197
0.300059
0.232641
0.151795
0.0724727
0.133225
0.116743
1.13673
1.13682
1.1367
1.13656
1.13625
1.136
1.1356
1.13518
1.13463
1.13408
1.13336
1.1327
1.13188
1.13105
1.12996
1.12829
1.12597
1.12329
1.11961
1.11539
1.10953
1.10292
1.09359
1.08331
1.06839
1.05255
1.02875
1.00488
0.966087
0.931165
0.869175
0.821122
0.727557
0.667809
0.517061
0.469132
0.265073
0.283686
0.153821
0.0699397
0.0351055
1.40275
1.40254
1.40205
1.40118
1.39999
1.39848
1.3966
1.39444
1.38956
1.38187
1.36972
1.35053
1.32031
1.27281
1.19897
1.08357
0.907943
0.649317
0.326347
0.103051
0.00978676
2.62481
2.62474
2.62465
2.62428
2.62389
2.62333
2.62275
2.62192
2.6211
2.62003
2.61892
2.61766
2.61637
2.61483
2.61326
2.60999
2.60658
2.60131
2.59588
2.58756
2.57894
2.56579
2.55205
2.53136
2.5094
2.4769
2.44204
2.39147
2.33452
2.25677
2.16818
2.05355
1.89115
1.73597
1.40891
1.26021
0.821595
0.742384
0.11979
0.230773
-0.241532
3.10524
3.10481
3.10398
3.10251
3.1005
3.09795
3.09476
3.09113
3.08301
3.07011
3.04964
3.01717
2.96567
2.88372
2.75409
2.54553
2.22587
1.73314
0.868257
0.0297216
-0.491854
4.9507
4.95046
4.95043
4.94986
4.94942
4.9486
4.94792
4.94673
4.94574
4.94423
4.94286
4.9411
4.93949
4.93735
4.9355
4.9309
4.92677
4.91935
4.91279
4.90102
4.89059
4.87192
4.85529
4.82569
4.79903
4.75203
4.70943
4.63496
4.56403
4.44605
4.33279
4.14811
3.93006
3.63853
3.36243
2.87515
2.28385
1.61929
0.231696
0.889942
-1.46144
5.79122
5.79063
5.78956
5.78768
5.78509
5.78181
5.7777
5.77306
5.76269
5.74614
5.71988
5.67818
5.61189
5.50625
5.33846
5.06762
4.6409
3.86646
2.73335
-0.177324
-1.4717
8.23514
8.23482
8.23483
8.2342
8.23378
8.23289
8.23224
8.23096
8.22998
8.22838
8.22701
8.22515
8.22353
8.22128
8.21953
8.21459
8.21057
8.20263
8.19626
8.18364
8.17354
8.15342
8.13739
8.10525
8.07982
8.0282
7.98813
7.90461
7.83986
7.70315
7.60613
7.37885
7.19936
6.81576
6.65233
6.13923
4.73396
4.51411
0.994033
2.10658
0.0720276
9.60298
9.60241
9.60139
9.59959
9.59712
9.59397
9.59005
9.58555
9.57562
9.55972
9.53442
9.49405
9.42937
9.32501
9.15536
8.87093
8.39571
7.45035
6.00484
2.3764
-5.50527
12.454
12.4538
12.4538
12.4534
12.453
12.4524
12.4518
12.4509
12.4501
12.4489
12.4478
12.4463
12.4451
12.4433
12.4419
12.4382
12.4349
12.4289
12.4238
12.4142
12.406
12.3907
12.3778
12.3534
12.333
12.2937
12.2614
12.1978
12.1471
12.0421
11.9636
11.7883
11.6612
11.3461
11.1663
10.5707
10.0999
8.27366
11.0721
6.50927
-1.39113
14.4594
14.4591
14.4585
14.4574
14.456
14.4542
14.4519
14.4493
14.4434
14.4341
14.4194
14.3962
14.3595
14.3019
14.2109
14.0725
13.8556
13.5852
12.9222
9.64722
10.6343
17.5365
17.5364
17.5363
17.5361
17.536
17.5357
17.5354
17.535
17.5346
17.534
17.5336
17.5329
17.5323
17.5315
17.5308
17.5291
17.5276
17.5248
17.5224
17.518
17.5141
17.5071
17.5008
17.4897
17.4797
17.4615
17.4451
17.4168
17.3918
17.3384
17.2909
17.2329
17.1884
16.9701
16.8252
16.8845
17.4095
15.935
17.771
26.1183
47.1542
SCALARS Stress_Theta double 1
LOOKUP_TABLE default
121.936
121.736
121.585
121.182
120.748
120.142
119.482
118.455
117.42
116.777
115.575
113.446
110.598
115.3
75.4468
44.7771
43.9527
38.9673
34.9165
31.3812
28.627
25.9629
23.7685
21.6034
19.799
17.8743
16.2309
14.5318
13.0765
11.6765
10.5015
9.45125
8.6058
7.89207
7.36498
6.9007
6.58751
6.16891
5.82218
4.84827
3.87835
117.738
117.363
116.521
115.104
113.072
110.047
103.255
70.6675
43.3735
34.2896
28.0118
23.3084
19.4215
15.928
12.834
10.3057
8.44234
7.222
6.45979
5.70076
3.78681
113.663
113.422
113.259
112.843
112.406
111.643
110.872
109.893
108.865
107.12
105.102
104.111
98.4734
95.3372
68.4016
45.8891
41.9257
36.6486
33.5439
30.0788
27.379
24.8856
22.8408
20.7668
19.0417
17.1989
15.6235
13.9945
12.5919
11.2464
10.111
9.09779
8.27952
7.5885
7.07773
6.6271
6.3255
5.9162
5.57843
4.64909
3.69981
109.567
109.152
108.245
106.704
104.417
101.092
92.1205
66.4078
41.7557
32.4784
26.7475
22.355
18.6579
15.3175
12.3498
9.91637
8.11653
6.93302
6.19075
5.45615
3.61474
105.578
105.299
105.144
104.676
104.214
103.393
102.598
101.374
100.211
98.1991
96.553
93.2747
86.954
82.5598
64.3117
44.001
40.6721
35.0336
31.6039
28.7502
26.1116
23.8462
21.8825
19.938
18.2779
16.5307
15.0134
13.4594
12.1077
10.8165
9.72147
8.74388
7.95352
7.28489
6.78886
6.35481
6.05693
5.66825
5.33448
4.44774
3.53009
101.566
101.121
100.158
98.4747
95.8752
91.8177
81.9617
62.2728
39.8278
30.6584
25.5071
21.4072
17.8982
14.7092
11.8662
9.52682
7.79047
6.64437
5.92273
5.21281
3.44714
97.6717
97.3765
97.2181
96.7191
96.2313
95.3592
94.5058
93.1377
91.773
89.6855
87.5285
83.767
77.3321
72.2563
59.9848
42.0324
38.7735
33.3999
29.7884
27.3966
24.8847
22.8097
20.9345
19.1123
17.5191
15.8651
14.4058
12.9255
11.6244
10.3873
9.33183
8.39023
7.62732
6.98122
6.50029
6.08221
5.7893
5.42
5.09173
4.24642
3.36464
93.7599
93.2951
92.2866
90.4953
87.6588
82.9407
73.0072
57.6937
37.7468
28.9664
24.2879
20.4634
17.1413
14.1029
11.3833
9.13719
7.46423
6.35596
5.65554
4.97062
3.28361
89.9685
89.6639
89.5
88.9813
88.4738
87.559
86.6582
85.1957
83.716
81.5065
78.8975
75.2309
68.9583
63.983
55.3505
39.8875
36.6879
31.6674
28.1336
26.0428
23.6773
21.7803
19.9923
18.2915
16.7639
15.2024
13.8004
12.3932
11.142
9.95872
8.94226
8.03684
7.30103
6.67755
6.21198
5.80939
5.52246
5.17154
4.85009
4.04517
3.20308
86.1566
85.6815
84.6394
82.769
79.7605
74.6529
65.1924
52.9947
35.6122
27.3817
23.0824
19.5244
16.3877
13.4985
10.9012
8.74757
7.13781
6.06771
5.389
4.72941
3.12377
82.4756
82.1702
82.0006
81.4734
80.95
80.0132
79.0694
77.5758
76.0024
73.7548
70.8818
67.4816
61.6324
57.0782
50.7096
37.5771
34.551
29.868
26.5839
24.6995
22.4818
20.7583
19.0562
17.4759
16.0126
14.5429
13.1973
11.8625
10.6606
9.53091
8.55289
7.68381
6.97471
6.37399
5.92391
5.53648
5.25632
4.92296
4.60947
3.84399
3.04511
78.7701
78.2938
77.2344
75.321
72.2163
67
58.3153
48.4004
33.459
25.8667
21.8908
18.5921
15.6384
12.8965
10.4203
8.35835
6.81153
5.77978
5.12321
4.48927
2.96743
75.1916
74.8931
74.7191
74.194
73.6615
72.7243
71.7532
70.275
68.6386
66.4484
63.4909
60.4113
55.1405
51.0926
46.2085
35.1564
32.3904
28.0333
25.0942
23.3666
21.2979
19.7418
18.1267
16.6644
15.2647
13.8857
12.596
11.3328
10.1798
9.1034
8.16356
7.33075
6.6482
6.07024
5.63583
5.26327
4.99056
4.67409
4.36958
3.6427
2.89025
71.5942
71.1258
70.0676
68.1509
65.036
59.9426
52.1691
44.0014
31.2944
24.3911
20.7134
17.6666
14.8925
12.2965
9.94004
7.96915
6.48504
5.4918
4.85772
4.24979
2.81404
68.1224
67.8389
67.6622
67.1499
66.6156
65.7007
64.721
63.297
61.6403
59.5804
56.6823
53.9355
49.2983
45.7646
41.9194
32.6628
30.2228
26.1907
23.6368
22.0429
20.1287
18.7309
17.2048
15.8573
14.5208
13.2312
11.997
10.8044
9.70013
8.67644
7.77451
6.9779
6.3217
5.76655
5.34785
4.98998
4.72522
4.42515
4.13046
3.44143
2.73833
64.6326
64.1815
63.1438
61.2643
58.2253
53.424
46.5961
39.8259
29.1245
22.9381
19.5522
16.7484
14.1507
11.6985
9.46083
7.58025
6.15855
5.20388
4.59258
4.01103
2.66343
61.2651
61.0043
60.8267
60.3377
59.8097
58.9382
57.9697
56.6331
55.0027
53.121
50.3861
47.9707
43.9651
40.9205
37.8499
30.1307
28.0516
24.3543
22.1967
20.7268
18.9756
17.7257
16.2905
15.0544
13.781
12.5792
11.4002
10.2773
9.22144
8.24994
7.38578
6.6252
5.99522
5.46287
5.05994
4.71663
4.46021
4.17614
3.89202
3.24014
2.58902
57.8814
57.4569
56.4585
54.6553
51.77
47.3744
41.4734
35.8662
26.9527
21.4978
18.4076
15.8378
13.4128
11.1028
8.98263
7.19168
5.83208
4.916
4.32772
3.77289
2.5153
54.6143
54.3831
54.2066
53.7508
53.2374
52.4276
51.49
50.2674
48.7074
47.0323
44.5299
42.4387
39.0328
36.4441
33.9855
27.5831
25.8804
22.532
20.7659
19.4178
17.8389
16.726
15.3838
14.2554
13.045
11.9295
10.8055
9.75131
8.74375
7.82389
6.99741
6.27264
5.66878
5.15921
4.77207
4.44323
4.19543
3.92709
3.65416
3.03882
2.44206
51.3334
50.944
50.0027
48.3116
45.6446
41.7247
36.7074
32.1002
24.7827
20.0653
17.279
14.9346
12.6789
10.5092
8.50545
6.80348
5.50567
4.62815
4.06306
3.5353
2.36939
48.1614
47.9659
47.7926
47.3783
46.8878
46.1547
45.2666
44.1782
42.726
41.2728
39.0447
37.2686
34.4186
32.2531
30.3017
25.0348
23.7128
20.7276
19.3407
18.1163
16.7179
15.7322
14.4843
13.4603
12.3131
11.2821
10.2129
9.22642
8.26709
7.39825
6.60941
5.92019
5.34241
4.85556
4.48422
4.1698
3.93083
3.67803
3.4168
2.83747
2.29719
44.9784
44.6316
43.7632
42.215
39.8161
36.4101
32.225
28.5008
22.6179
18.6381
16.1653
14.0386
11.949
9.91767
8.02929
6.41567
5.17934
4.34032
3.79854
3.29818
2.22544
41.8948
41.7398
41.5716
41.2059
40.7458
40.1011
39.2791
38.3388
37.0237
35.7991
33.8673
32.3966
30.0568
28.2852
26.7713
22.4942
21.5518
18.9423
17.9196
16.8231
15.6114
14.7444
13.5921
12.6688
11.585
10.6368
9.62247
8.70256
7.79145
6.973
6.2218
5.56784
5.01613
4.55193
4.19636
3.89638
3.66634
3.42898
3.17988
2.63606
2.15416
38.8036
38.5052
37.7229
36.3426
34.2473
31.3717
27.9675
25.0406
20.461
17.2154
15.0651
13.1496
11.2229
9.32828
7.55416
6.02826
4.8531
4.05247
3.5341
3.06146
2.08323
35.8006
35.6892
35.5281
35.2161
34.7929
34.245
33.5026
32.7191
31.5624
30.5679
28.9407
27.7661
25.8937
24.4912
23.3672
19.9649
19.3996
17.1758
16.5023
15.5392
14.5178
13.7627
12.7067
11.8809
10.8608
9.9934
9.03413
8.17966
7.31683
6.5481
5.83462
5.21559
4.68994
4.24832
3.9085
3.62298
3.40189
3.17997
2.94334
2.4346
2.01274
32.7934
32.5479
31.8618
30.6678
28.8989
26.5563
23.8855
21.693
18.3137
15.7969
13.9771
12.2675
10.5006
8.74098
7.08004
5.64128
4.52696
3.76461
3.26968
2.82508
1.9425
29.8623
29.7965
29.644
29.3893
29.0082
28.5622
27.9097
27.2873
26.3024
25.5364
24.2131
23.3265
21.8837
20.8302
20.0635
17.4468
17.2575
15.4273
15.0888
14.2658
13.4358
12.7872
11.8281
11.0962
10.1405
9.35188
8.44788
7.65767
6.84323
6.12354
5.44786
4.86342
4.36388
3.94472
3.62061
3.34961
3.13745
2.93101
2.70709
2.23308
1.87269
26.9307
26.7405
26.1576
25.1618
23.7315
21.9149
19.9365
18.4331
16.1765
14.3828
12.8999
11.3921
9.78228
8.15578
6.60695
5.25474
4.20096
3.47671
3.00523
2.58896
1.80303
24.0618
24.0418
23.8994
23.7034
23.3681
23.0262
22.4703
22.01
21.2039
20.6632
19.6371
19.0316
17.9865
17.2668
16.8359
14.9371
15.1255
13.6956
13.6796
13.004
12.364
11.8179
10.956
10.3147
9.42399
8.71199
7.86365
7.13645
6.37061
5.69925
5.06151
4.51127
4.0379
3.64112
3.33264
3.07627
2.87288
2.68213
2.47106
2.03143
1.73382
21.1998
21.0655
20.5892
19.7969
18.7079
17.4047
16.0842
15.2388
14.0502
12.9741
11.8327
10.5237
9.06816
7.57299
6.13516
4.86888
3.87528
3.18892
2.74084
2.35319
1.66469
18.3838
18.408
18.2766
18.139
17.8516
17.6128
17.1571
16.856
16.2307
15.9101
15.1716
14.8412
14.1677
13.7708
13.6619
12.4342
13.0021
11.9818
12.2749
11.7559
11.3016
10.8556
10.0909
9.53657
8.71176
8.07398
7.28188
6.61626
5.89932
5.27546
4.67587
4.15937
3.71226
3.33769
3.04478
2.80316
2.60842
2.43341
2.23531
1.82989
1.5958
15.5756
15.4958
15.126
14.5369
13.7851
12.9796
12.2895
12.0836
11.9294
11.569
10.7734
9.66128
8.35756
6.99196
5.66412
4.48325
3.54953
2.90087
2.47612
2.11739
1.52704
12.8042
12.8693
12.7499
12.6681
12.4293
12.2898
11.9346
11.7875
11.3401
11.2341
10.7715
10.7118
10.3888
10.31
10.5167
9.92961
10.8851
10.283
10.8749
10.5212
10.2472
9.8992
9.23196
8.76095
8.00323
7.43716
6.702
6.09661
5.42891
4.85178
4.29058
3.8074
3.38666
3.0342
2.75673
2.53006
2.34363
2.18481
1.99962
1.62811
1.45859
10.0431
10.014
9.74733
9.35498
8.92881
8.6026
8.52078
8.94635
9.81214
10.1686
9.7221
8.80565
7.65109
6.41316
5.19423
4.09819
3.22399
2.61276
2.21122
1.8817
1.39
7.30719
7.40686
7.30089
7.2696
7.07983
7.0316
6.77607
6.77263
6.49924
6.5979
6.40211
6.60595
6.61725
6.85879
7.37478
7.41948
8.76871
8.59997
9.47972
9.30117
9.20032
8.94908
8.37962
7.98787
7.29868
6.80156
6.12424
5.57752
4.95956
4.42828
3.90579
3.45543
3.0612
2.73071
2.46854
2.25704
2.07859
1.93629
1.76395
1.42623
1.32178
4.58524
4.60022
4.43002
4.22295
4.10541
4.23808
4.74479
5.80073
7.69168
8.77391
8.67945
7.95732
6.94893
5.83661
4.72547
3.71369
2.89864
2.32452
1.94606
1.64603
1.25333
1.88335
2.00077
1.91241
1.9212
1.7821
1.81146
1.65422
1.77905
1.67294
1.96472
2.02076
2.49091
2.80942
3.39456
4.2114
4.89542
6.65352
6.93013
8.09481
8.09584
8.16261
8.00533
7.53417
7.21743
6.59808
6.16722
5.54856
5.05903
4.49131
4.00498
3.52156
3.10348
2.73593
2.42727
2.18021
1.98417
1.81325
1.68794
1.52825
1.22423
1.18523
-0.806681
-0.76011
-0.84454
-0.884031
-0.718291
-0.155256
0.916905
2.59363
5.56178
7.39276
7.65004
7.11786
6.25133
5.26229
4.25788
3.3298
2.57347
2.03613
1.68056
1.4103
1.11678
-1.04923
-0.965777
-1.02243
-1.02283
-1.11242
-1.101
-1.19468
-1.11686
-1.15802
-0.958039
-0.864759
-0.514712
-0.216052
0.232051
0.843599
1.55209
2.82051
3.2853
4.19738
4.39773
4.61176
4.64524
4.46764
4.35501
4.03438
3.81455
3.46028
3.17691
2.83299
2.53301
2.22908
1.96107
1.72329
1.51944
1.35545
1.22147
1.1067
1.02387
0.921409
0.737236
0.77517
0.37892
0.385973
0.300954
0.178291
0.0516193
-0.0354913
-0.0395841
0.0953147
0.539479
1.11819
1.56547
1.7715
1.76039
1.59805
1.34906
1.07441
0.826584
0.635639
0.49948
0.405862
0.416387
-0.528133
-0.478787
-0.50541
-0.514871
-0.560991
-0.579911
-0.636372
-0.651171
-0.701786
-0.698462
-0.720552
-0.688705
-0.659927
-0.596733
-0.480548
-0.346988
-0.00138721
0.187047
0.58575
0.806331
1.05686
1.23091
1.31032
1.38943
1.35601
1.34433
1.25101
1.17437
1.05573
0.946791
0.827742
0.717756
0.616995
0.526624
0.452998
0.388875
0.336531
0.30195
0.264477
0.196878
0.332892
-1.31282
-1.27979
-1.30505
-1.33398
-1.34405
-1.31077
-1.21318
-1.02782
-0.554666
0.0447652
0.554489
0.856992
0.956635
0.906407
0.763448
0.581528
0.407629
0.270539
0.173564
0.123055
0.248421
-2.0349
-1.97875
-1.99324
-1.982
-1.9991
-1.98511
-1.99775
-1.97257
-1.97008
-1.92656
-1.8961
-1.8299
-1.76194
-1.67328
-1.54915
-1.37195
-1.0595
-0.836518
-0.459984
-0.21856
0.0650464
0.268913
0.406422
0.53124
0.55744
0.599675
0.561842
0.539499
0.471314
0.41146
0.33541
0.265872
0.198253
0.138406
0.0878964
0.0454053
0.0104256
-0.0062248
-0.0183706
-0.0601907
0.163749
-2.66335
-2.6158
-2.6031
-2.57448
-2.51618
-2.41551
-2.26385
-2.05
-1.571
-0.971635
-0.421607
-0.038961
0.161927
0.219225
0.180069
0.0897157
-0.0108894
-0.094511
-0.152669
-0.159684
0.0782235
-3.26565
-3.20745
-3.21383
-3.19032
-3.18914
-3.15565
-3.14209
-3.09385
-3.06147
-2.99559
-2.93768
-2.85341
-2.76622
-2.66557
-2.53902
-2.34421
-2.0535
-1.81586
-1.45716
-1.20275
-0.897072
-0.668
-0.481747
-0.314947
-0.23348
-0.139516
-0.123497
-0.0926902
-0.111147
-0.122575
-0.155965
-0.185484
-0.220073
-0.24962
-0.277106
-0.2979
-0.31588
-0.314226
-0.301091
-0.318043
-0.00772995
-3.79615
-3.74241
-3.70733
-3.64561
-3.54964
-3.41404
-3.23673
-3.01289
-2.54071
-1.95015
-1.37286
-0.921465
-0.626252
-0.4648
-0.40178
-0.401417
-0.429168
-0.45956
-0.47917
-0.44232
-0.0944812
-4.32589
-4.26997
-4.27099
-4.24126
-4.22892
-4.18534
-4.1566
-4.0968
-4.04815
-3.97164
-3.90009
-3.80783
-3.71263
-3.60737
-3.48286
-3.28194
-3.00998
-2.7653
-2.42347
-2.15826
-1.83859
-1.58634
-1.35854
-1.15241
-1.01884
-0.875037
-0.806129
-0.723162
-0.692264
-0.655761
-0.646715
-0.636499
-0.638153
-0.637548
-0.642048
-0.641161
-0.642389
-0.622195
-0.583581
-0.577055
-0.181742
-4.80172
-4.74703
-4.69983
-4.62064
-4.50578
-4.35405
-4.16674
-3.9426
-3.48343
-2.90455
-2.307
-1.79451
-1.40986
-1.14657
-0.98246
-0.891964
-0.847172
-0.824489
-0.805765
-0.724706
-0.270048
-5.2923
-5.24059
-5.23814
-5.2059
-5.18711
-5.13912
-5.10217
-5.03751
-4.98075
-4.90023
-4.82276
-4.72815
-4.63076
-4.52494
-4.4046
-4.20302
-3.94737
-3.69914
-3.37217
-3.09682
-2.76759
-2.49276
-2.22854
-1.98449
-1.8011
-1.60864
-1.48732
-1.35285
-1.27268
-1.18854
-1.13716
-1.08736
-1.05615
-1.02548
-1.007
-0.98447
-0.96907
-0.930325
-0.865927
-0.837405
-0.359023
-5.74327
-5.69048
-5.63742
-5.55004
-5.42704
-5.2695
-5.08031
-4.86027
-4.41541
-3.84734
-3.23211
-2.66275
-2.19141
-1.82739
-1.56262
-1.38224
-1.26506
-1.18936
-1.13247
-1.00685
-0.449142
-6.21857
-6.17188
-6.16717
-6.13451
-6.11209
-6.06284
-6.02172
-5.95579
-5.89543
-5.81426
-5.73489
-5.64058
-5.54372
-5.43908
-5.32331
-5.1231
-4.88074
-4.62994
-4.3147
-4.02865
-3.69145
-3.39343
-3.09599
-2.81421
-2.58243
-2.34176
-2.16806
-1.98237
-1.85275
-1.7211
-1.62737
-1.53804
-1.474
-1.4133
-1.37185
-1.32775
-1.29578
-1.23862
-1.14803
-1.09921
-0.540265
-6.66554
-6.61596
-6.56049
-6.46994
-6.34435
-6.18596
-5.99836
-5.7835
-5.35093
-4.78999
-4.1561
-3.53095
-2.97355
-2.50863
-2.14292
-1.87257
-1.68299
-1.55426
-1.4593
-1.28878
-0.632636
-7.14297
-7.10129
-7.09506
-7.06297
-7.03851
-6.98949
-6.94632
-6.88074
-6.81896
-6.73852
-6.65896
-6.56583
-6.47031
-6.36715
-6.25529
-6.05637
-5.82376
-5.56961
-5.26209
-4.96375
-4.61787
-4.29499
-3.96562
-3.6452
-3.36549
-3.07625
-2.84973
-2.61264
-2.43314
-2.25387
-2.11766
-1.98873
-1.89186
-1.80112
-1.73665
-1.67109
-1.62259
-1.54719
-1.42979
-1.36284
-0.726189
-7.60117
-7.55512
-7.49885
-7.40733
-7.28137
-7.12371
-6.93815
-6.72737
-6.30261
-5.7428
-5.08625
-4.40348
-3.75856
-3.19132
-2.72374
-2.363
-2.10089
-1.91905
-1.78615
-1.5704
-0.821528
-8.09388
-8.05682
-8.04945
-8.01823
-7.99244
-7.94411
-7.89976
-7.83491
-7.77244
-7.69286
-7.61341
-7.52121
-7.42666
-7.32433
-7.21506
-7.01585
-6.78906
-6.52935
-6.22496
-5.91149
-5.55459
-5.204
-4.84233
-4.48117
-4.15303
-3.814
-3.53373
-3.24461
-3.01454
-2.78729
-2.60833
-2.43963
-2.30987
-2.18904
-2.10148
-2.01458
-1.9495
-1.85622
-1.71138
-1.6284
-0.918297
-8.57505
-8.53226
-8.47561
-8.38357
-8.25734
-8.09987
-7.91496
-7.70575
-7.28261
-6.71614
-6.03027
-5.28524
-4.54923
-3.87688
-3.30576
-2.85385
-2.51892
-2.28382
-2.11305
-1.85176
-1.01722
-9.0939
-9.06084
-9.05248
-9.02199
-8.99503
-8.94717
-8.90167
-8.83714
-8.77376
-8.69433
-8.61433
-8.52202
-8.4273
-8.32446
-8.21593
-8.01374
-7.78835
-7.51968
-7.21313
-6.88062
-6.50884
-6.12657
-5.73059
-5.32553
-4.94744
-4.5566
-4.22114
-3.87888
-3.59734
-3.32153
-3.09946
-2.89069
-2.72797
-2.57694
-2.46622
-2.35813
-2.27641
-2.16568
-1.99276
-1.89593
-1.11807
-9.60788
-9.56772
-9.51034
-9.41706
-9.28932
-9.13011
-8.94317
-8.73199
-8.30288
-7.72022
-6.99593
-6.18126
-5.34836
-4.56675
-3.88967
-3.34543
-2.9372
-2.64861
-2.44007
-2.13295
-1.22147
-10.1626
-10.1328
-10.1234
-10.0932
-10.0649
-10.0168
-9.96968
-9.90451
-9.83938
-9.75881
-9.67702
-9.58301
-9.48643
-9.38125
-9.27122
-9.06249
-8.83363
-8.55155
-8.23686
-7.8803
-7.48836
-7.06934
-6.63541
-6.18223
-5.75151
-5.30603
-4.91338
-4.51639
-4.18221
-3.857
-3.59134
-3.34213
-3.1463
-2.96494
-2.83092
-2.70184
-2.60343
-2.47568
-2.27387
-2.16578
-1.32713
-10.7184
-10.68
-10.621
-10.5249
-10.3934
-10.2295
-10.0368
-9.81928
-9.37515
-8.76498
-7.99064
-7.09619
-6.15839
-5.262
-4.47584
-3.8378
-3.35568
-3.01331
-2.7671
-2.41398
-1.43637
-11.3185
-11.2911
-11.2807
-11.2501
-11.2199
-11.1707
-11.1211
-11.0539
-10.9857
-10.9023
-10.817
-10.7193
-10.6187
-10.5089
-10.3947
-10.1751
-9.93735
-9.63635
-9.30677
-8.91988
-8.50122
-8.03908
-7.562
-7.0553
-6.56815
-6.06432
-5.6119
-5.15806
-4.76982
-4.39414
-4.08428
-3.79412
-3.56499
-3.35313
-3.19563
-3.04578
-2.9306
-2.78635
-2.55506
-2.43789
-1.5483
-11.9252
-11.8877
-11.8257
-11.7247
-11.5865
-11.414
-11.211
-10.9818
-10.5122
-9.86125
-9.02259
-8.03529
-6.98222
-5.96407
-5.06495
-4.33125
-3.77448
-3.37796
-3.09427
-2.69505
-1.66473
-12.5806
-12.555
-12.5431
-12.5115
-12.4787
-12.4271
-12.3737
-12.3028
-12.2299
-12.1415
-12.0505
-11.9466
-11.8394
-11.7222
-11.601
-11.3651
-11.1124
-10.7858
-10.4336
-10.0087
-9.55529
-9.0423
-8.51524
-7.94845
-7.39982
-6.83316
-6.31775
-5.80451
-5.36055
-4.93308
-4.57832
-4.24662
-3.98395
-3.74142
-3.56025
-3.38987
-3.2579
-3.09762
-2.83648
-2.71217
-1.7846
-13.2484
-13.2106
-13.1441
-13.0354
-12.8866
-12.7009
-12.4822
-12.2352
-11.7279
-11.0206
-10.1004
-9.00403
-7.82277
-6.67434
-5.65764
-4.82607
-4.19371
-3.74261
-3.4217
-2.97649
-1.91011
-13.9703
-13.9454
-13.9319
-13.8983
-13.862
-13.8063
-13.7478
-13.6711
-13.5913
-13.4954
-13.396
-13.283
-13.1661
-13.0383
-12.9065
-12.648
-12.3733
-12.0131
-11.6293
-11.1573
-10.6594
-10.0863
-9.50061
-8.86596
-8.24943
-7.61462
-7.0323
-6.45665
-5.95503
-5.47425
-5.07374
-4.69985
-4.4033
-4.12992
-3.9248
-3.73417
-3.58557
-3.40948
-3.11832
-2.98879
-2.03966
-14.7104
-14.6711
-14.5978
-14.4782
-14.3144
-14.1098
-13.8687
-13.5966
-13.0372
-12.2551
-11.2327
-10.0075
-8.68253
-7.39384
-6.25425
-5.32227
-4.61327
-4.10716
-3.7495
-3.2587
-2.17697
-15.5117
-15.4869
-15.4714
-15.4345
-15.3936
-15.3322
-15.2665
-15.1816
-15.0924
-14.9859
-14.875
-14.7492
-14.619
-14.4766
-14.3301
-14.0415
-13.7366
-13.3331
-12.9073
-12.377
-11.823
-11.1789
-10.5238
-9.81226
-9.11986
-8.41082
-7.75688
-7.11541
-6.55384
-6.01806
-5.57077
-5.15398
-4.82313
-4.51873
-4.2894
-4.07871
-3.9139
-3.72191
-3.40145
-3.26742
-2.31903
-16.3374
-16.2951
-16.2128
-16.0782
-15.8937
-15.6635
-15.3922
-15.0862
-14.4575
-13.5788
-12.4293
-11.0516
-9.56433
-8.12381
-6.85531
-5.82005
-5.03325
-4.47169
-4.07804
-3.54244
-2.47123
-17.2345
-17.2078
-17.1897
-17.1483
-17.1013
-17.0319
-16.9568
-16.8606
-16.7589
-16.6381
-16.512
-16.3691
-16.2211
-16.0593
-15.8931
-15.5653
-15.2204
-14.762
-14.2816
-13.6799
-13.0557
-12.3279
-11.5901
-10.7915
-10.0134
-9.22357
-8.49225
-7.78143
-7.15717
-6.56469
-6.06936
-5.60899
-5.24333
-4.90776
-4.65402
-4.42331
-4.24328
-4.03459
-3.68671
-3.54762
-2.62928
-18.1618
-18.115
-18.0204
-17.8657
-17.654
-17.3897
-17.0786
-16.7283
-16.0093
-15.0073
-13.7007
-12.1419
-10.4708
-8.86524
-7.46118
-6.31954
-5.4537
-4.8364
-4.40801
-3.82893
-2.8006
-19.1683
-19.143
-19.1213
-19.0741
-19.0188
-18.9392
-18.8512
-18.7407
-18.6221
-18.4832
-18.3365
-18.1719
-17.9999
-17.8139
-17.6217
-17.2434
-16.8468
-16.3191
-15.769
-15.0803
-14.3681
-13.5424
-12.7048
-11.8089
-10.9321
-10.0553
-9.23912
-8.45577
-7.76524
-7.11461
-6.56956
-6.06512
-5.66398
-5.29706
-5.01893
-4.76786
-4.57461
-4.34712
-3.97534
-3.82914
-2.97876
-20.2175
-20.1651
-20.0546
-19.874
-19.6269
-19.319
-18.9565
-18.5477
-17.7143
-16.5567
-15.0567
-13.2832
-11.4031
-9.61803
-8.07147
-6.82038
-5.87444
-5.20144
-4.7403
-4.11983
-3.1751
-21.3796
-21.3347
-21.3125
-21.2524
-21.1918
-21.0927
-20.9943
-20.8589
-20.7243
-20.5561
-20.3882
-20.1913
-19.9937
-19.7701
-19.5471
-19.1023
-18.6408
-18.0276
-17.3849
-16.5962
-15.7673
-14.8349
-13.8699
-12.8712
-11.8757
-10.909
-9.99693
-9.13971
-8.37777
-7.66837
-7.07129
-6.52253
-6.08519
-5.68663
-5.3847
-5.11206
-4.90932
-4.65888
-4.26978
-4.11102
-3.3794
-22.5829
-22.5095
-22.3777
-22.1617
-21.8674
-21.5019
-21.0731
-20.5894
-19.6084
-18.25
-16.5079
-14.4769
-12.359
-10.3797
-8.68474
-7.32198
-6.29549
-5.56752
-5.07674
-4.41781
-3.60813
-11.9037
-11.8737
-11.8621
-11.813
-11.7758
-11.7029
-11.64
-11.5433
-11.4558
-11.338
-11.2283
-11.0921
-10.9631
-10.8133
-10.6616
-10.3656
-10.0657
-9.66193
-9.25362
-8.74938
-8.23844
-7.66768
-7.09527
-6.5184
-5.95263
-5.42918
-4.9317
-4.49289
-4.0914
-3.74324
-3.43853
-3.17859
-2.96397
-2.78617
-2.64922
-2.51989
-2.4199
-2.35969
-2.1054
-1.8366
-1.24545
0.716115
0.718065
0.711602
0.702538
0.690562
0.676106
0.659717
0.635457
0.602009
0.561384
0.520867
0.487359
0.464089
0.448704
0.434744
0.414535
0.381581
0.339233
0.294564
0.214197
0.356101
0.150544
0.152675
0.153014
0.156843
0.158796
0.164162
0.167655
0.17458
0.17954
0.187749
0.193965
0.203154
0.21033
0.220185
0.231072
0.247939
0.264042
0.287568
0.30732
0.332861
0.35452
0.375524
0.396448
0.404231
0.4221
0.411032
0.424132
0.395849
0.402854
0.363451
0.363826
0.318629
0.312564
0.266323
0.258186
0.217237
0.18748
0.152139
0.243656
0.182831
0.0419607
0.245313
0.244606
0.245408
0.245859
0.246295
0.246725
0.247137
0.249237
0.248116
0.245265
0.238671
0.228409
0.216463
0.204416
0.191716
0.176807
0.158787
0.127876
0.0957436
-0.00303385
-0.22826
0.102669
0.103515
0.103157
0.102892
0.102362
0.102178
0.10163
0.101357
0.100767
0.100415
0.0997859
0.0993648
0.0986958
0.0982178
0.0961825
0.0962945
0.0947356
0.0947705
0.093851
0.0946964
0.0950554
0.0976384
0.0993376
0.104371
0.106667
0.113317
0.11573
0.120398
0.123274
0.120829
0.124749
0.111752
0.114793
0.0908599
0.101589
0.0692148
0.0510608
0.0333348
-0.034368
-0.0480226
-0.159017
0.0574304
0.0579537
0.0576733
0.0574156
0.057096
0.0567138
0.0562853
0.0550488
0.0541955
0.0529124
0.0512454
0.0484331
0.0434085
0.0359687
0.0272042
0.0176213
0.00678998
-0.0100107
-0.0312755
-0.104357
-0.207008
-0.0487733
-0.0487426
-0.0488353
-0.0486145
-0.0486427
-0.0484322
-0.0484526
-0.0482091
-0.0482121
-0.0479396
-0.0479241
-0.0476283
-0.0476112
-0.0472951
-0.0468778
-0.0465285
-0.0465198
-0.045557
-0.0458092
-0.0444106
-0.0450107
-0.0431093
-0.0438855
-0.041598
-0.0421067
-0.0397141
-0.0396413
-0.0375484
-0.0370477
-0.0362179
-0.0349834
-0.0376004
-0.0364875
-0.045498
-0.0412953
-0.0599198
-0.0554774
-0.0956683
-0.112825
-0.130125
-0.193269
-0.0733589
-0.0734159
-0.073406
-0.0734623
-0.0735514
-0.0736723
-0.0738227
-0.0738943
-0.0744551
-0.0752766
-0.0765605
-0.078344
-0.0806466
-0.0838176
-0.0884333
-0.0948437
-0.102296
-0.111264
-0.126465
-0.14396
-0.170485
-0.152701
-0.152509
-0.152567
-0.15252
-0.152585
-0.152516
-0.152573
-0.152499
-0.152547
-0.152469
-0.152506
-0.152426
-0.152456
-0.152372
-0.152555
-0.152285
-0.15247
-0.152103
-0.152327
-0.151789
-0.152081
-0.15127
-0.151743
-0.150497
-0.151353
-0.149483
-0.150809
-0.148314
-0.149967
-0.147312
-0.148628
-0.146944
-0.147582
-0.148901
-0.14863
-0.15567
-0.149512
-0.16652
-0.151912
-0.184172
-0.154057
-0.167874
-0.167771
-0.167803
-0.167838
-0.167884
-0.167943
-0.168013
-0.168203
-0.168447
-0.168816
-0.169385
-0.170308
-0.171787
-0.173975
-0.176896
-0.180604
-0.184869
-0.188437
-0.188665
-0.175673
-0.156164
-0.238557
-0.238447
-0.238513
-0.23844
-0.238497
-0.238428
-0.238489
-0.238417
-0.238477
-0.238403
-0.23846
-0.238385
-0.238443
-0.238364
-0.238428
-0.238268
-0.238484
-0.238157
-0.238512
-0.237994
-0.23856
-0.237753
-0.238604
-0.237396
-0.238613
-0.236875
-0.238559
-0.236145
-0.238418
-0.235252
-0.237916
-0.234285
-0.23617
-0.233498
-0.231864
-0.232985
-0.219792
-0.231003
-0.188523
-0.22815
-0.149634
-0.241613
-0.241554
-0.241566
-0.241592
-0.24163
-0.241679
-0.241737
-0.241852
-0.242098
-0.242452
-0.243004
-0.243841
-0.245084
-0.246914
-0.249504
-0.252824
-0.256322
-0.257683
-0.250779
-0.218745
-0.173366
-0.305799
-0.305652
-0.305723
-0.305656
-0.305729
-0.305664
-0.305742
-0.305677
-0.305758
-0.305694
-0.305774
-0.305715
-0.305798
-0.305739
-0.305885
-0.30573
-0.306041
-0.305761
-0.306245
-0.30581
-0.306562
-0.305884
-0.307048
-0.306001
-0.307786
-0.306182
-0.308837
-0.306454
-0.310185
-0.306853
-0.311585
-0.307354
-0.311957
-0.307659
-0.307897
-0.306864
-0.290686
-0.302149
-0.241226
-0.293888
-0.179214
-0.296829
-0.296747
-0.296773
-0.296814
-0.296872
-0.296947
-0.297036
-0.297214
-0.297553
-0.298052
-0.298834
-0.300054
-0.30194
-0.304793
-0.308959
-0.314678
-0.321552
-0.327107
-0.322507
-0.284407
-0.228507
-0.341524
-0.341357
-0.341449
-0.341377
-0.341478
-0.34142
-0.341535
-0.341485
-0.341612
-0.341572
-0.341709
-0.341681
-0.34183
-0.341812
-0.342037
-0.341967
-0.342467
-0.34231
-0.343099
-0.342849
-0.34409
-0.343697
-0.345631
-0.345024
-0.347999
-0.347075
-0.351576
-0.350206
-0.356798
-0.354875
-0.363901
-0.361512
-0.372363
-0.370419
-0.378148
-0.380366
-0.36976
-0.388343
-0.318685
-0.39479
-0.252065
-0.318352
-0.318269
-0.31832
-0.318407
-0.318529
-0.318685
-0.318875
-0.319174
-0.319796
-0.32073
-0.322204
-0.324516
-0.328122
-0.333692
-0.342129
-0.354528
-0.371432
-0.391408
-0.40408
-0.377205
-0.331502
-0.309945
-0.309751
-0.309865
-0.309805
-0.30995
-0.30992
-0.310095
-0.310092
-0.310297
-0.310321
-0.310556
-0.310608
-0.310871
-0.310953
-0.311334
-0.311462
-0.312289
-0.312448
-0.313754
-0.314005
-0.316065
-0.316457
-0.319691
-0.320305
-0.32535
-0.326302
-0.334113
-0.335574
-0.347423
-0.349652
-0.366979
-0.370504
-0.394029
-0.40005
-0.425914
-0.438691
-0.449211
-0.483622
-0.422053
-0.536951
-0.378316
-0.265518
-0.265444
-0.265547
-0.265724
-0.26597
-0.266285
-0.266671
-0.267204
-0.268351
-0.270108
-0.272886
-0.277268
-0.28416
-0.294927
-0.311611
-0.336988
-0.374338
-0.424774
-0.479225
-0.493182
-0.493706
-0.140457
-0.140255
-0.140391
-0.140368
-0.140573
-0.140607
-0.140868
-0.140964
-0.141286
-0.14144
-0.141828
-0.142038
-0.142481
-0.142754
-0.143368
-0.14389
-0.145213
-0.146008
-0.148104
-0.149356
-0.152675
-0.154641
-0.15989
-0.162964
-0.171243
-0.176015
-0.189028
-0.196342
-0.21647
-0.22754
-0.258316
-0.274775
-0.320186
-0.344041
-0.403917
-0.439447
-0.498262
-0.560651
-0.541748
-0.713896
-0.572372
-0.0595825
-0.059552
-0.059742
-0.0600723
-0.0605292
-0.0611112
-0.0618303
-0.0627393
-0.0647473
-0.0678612
-0.0727929
-0.080592
-0.092914
-0.112345
-0.142949
-0.190416
-0.262509
-0.368721
-0.504596
-0.613543
-0.725969
0.284846
0.285018
0.284872
0.284817
0.284543
0.284393
0.284027
0.283762
0.283289
0.28292
0.282326
0.281864
0.281177
0.280597
0.279682
0.278515
0.276549
0.274705
0.271584
0.268674
0.263719
0.259135
0.251265
0.244072
0.231558
0.220324
0.200456
0.183092
0.151452
0.124988
0.0737693
0.034871
-0.0443574
-0.0984254
-0.218869
-0.295108
-0.446131
-0.553656
-0.646915
-0.897514
-0.847794
0.431153
0.431091
0.430767
0.430202
0.429422
0.42843
0.427198
0.425726
0.42243
0.417266
0.409078
0.396098
0.375527
0.342913
0.291434
0.210638
0.081036
-0.113522
-0.396491
-0.691383
-1.0374
1.13673
1.13681
1.13668
1.1365
1.13617
1.13585
1.13538
1.13488
1.13425
1.13359
1.13277
1.13197
1.13101
1.13003
1.1288
1.12676
1.12412
1.12085
1.11665
1.11149
1.1048
1.09664
1.08596
1.07312
1.05598
1.03581
1.00828
0.976863
0.931698
0.883213
0.809701
0.736069
0.61954
0.505784
0.307576
0.155664
-0.146455
-0.332349
-0.672679
-0.999418
-1.24955
1.40275
1.40254
1.40204
1.40116
1.39995
1.39841
1.3965
1.39429
1.38932
1.38148
1.36904
1.3493
1.318
1.26824
1.18935
1.06252
0.859994
0.535389
0.0233772
-0.639588
-1.43782
2.62481
2.62474
2.62466
2.62434
2.62398
2.62347
2.62295
2.6222
2.62145
2.62049
2.61949
2.61835
2.61717
2.61578
2.61436
2.6114
2.60829
2.60354
2.59859
2.59105
2.58318
2.57123
2.55865
2.53975
2.51955
2.48963
2.45728
2.41002
2.35658
2.28214
2.19684
2.08119
1.92189
1.75225
1.42933
1.19469
0.685086
0.373674
-0.467664
-0.84617
-1.78311
3.10524
3.10485
3.10416
3.10294
3.10127
3.09914
3.09649
3.09347
3.08671
3.07595
3.05888
3.03174
2.98855
2.91946
2.80925
2.62918
2.34461
1.87519
0.991417
-0.269478
-2.01899
4.9507
4.95049
4.95048
4.95004
4.9497
4.94906
4.94855
4.94762
4.94687
4.9457
4.94464
4.94329
4.94205
4.9404
4.93899
4.93543
4.93227
4.92653
4.92151
4.9124
4.90441
4.88993
4.87716
4.85416
4.83362
4.797
4.76401
4.70563
4.65008
4.55689
4.4671
4.31805
4.13972
3.89704
3.66002
3.24868
2.72995
1.85508
0.355613
0.27317
-2.81016
5.79122
5.7907
5.78989
5.78846
5.78649
5.784
5.78088
5.77736
5.7695
5.75695
5.73702
5.70538
5.65506
5.5748
5.4472
5.24022
4.91331
4.30685
3.40973
0.780375
-2.84502
8.23514
8.23485
8.23489
8.23443
8.23414
8.2335
8.23306
8.23214
8.23147
8.23032
8.22937
8.22804
8.22692
8.22531
8.22413
8.2206
8.21785
8.21217
8.20782
8.19879
8.19191
8.17753
8.16663
8.14371
8.12647
8.08972
8.06278
8.0035
7.96018
7.86365
7.80065
7.64072
7.52168
7.25333
7.16686
6.75329
5.60739
5.71525
2.87826
2.54827
-1.20209
9.60298
9.60248
9.60171
9.60036
9.5985
9.59614
9.59319
9.58982
9.58239
9.57047
9.55152
9.52134
9.47308
9.39546
9.27004
9.06121
8.71705
8.02429
6.93903
3.94172
-3.22979
12.454
12.4539
12.4539
12.4535
12.4533
12.4528
12.4524
12.4517
12.4511
12.4502
12.4494
12.4483
12.4474
12.4461
12.4451
12.4423
12.4399
12.4354
12.4317
12.4246
12.4187
12.4073
12.398
12.3799
12.3652
12.3362
12.313
12.2664
12.2308
12.1546
12.1012
11.9758
11.8926
11.679
11.5818
11.2275
10.973
9.7778
12.3469
9.78416
4.4643
14.4594
14.4591
14.4586
14.4577
14.4565
14.455
14.4531
14.4509
14.446
14.4383
14.426
14.4066
14.376
14.3281
14.2526
14.1391
13.9629
13.7684
13.3594
11.4726
15.4293
17.5365
17.5364
17.5363
17.5361
17.536
17.5357
17.5354
17.535
17.5346
17.534
17.5336
17.5329
17.5323
17.5315
17.5308
17.5291
17.5276
17.5248
17.5224
17.518
17.5141
17.5071
17.5008
17.4897
17.4797
17.4615
17.4452
17.4168
17.3918
17.3384
17.2908
17.2329
17.1883
16.9701
16.8251
16.8846
17.4094
15.9349
17.7761
26.1117
47.1642
SCALARS Stress_Z double 1
LOOKUP_TABLE default
82.0614
82.0321
82.075
82.014
82.0145
82.0749
82.1713
81.8896
81.6519
82.5672
82.6191
81.0738
75.8213
90.9941
32.5211
-5.83872
3.21991
0.40703
-0.0371316
-0.165667
0.0318092
0.033641
-0.0367263
-0.00757726
-0.00250106
-0.000554564
-0.00337451
0.00132833
-0.00911624
0.00506092
-0.0155546
0.00624253
-0.0165362
0.00456495
0.00134911
-0.0114259
0.0336606
-0.0214571
0.0192309
0.0174426
-0.035602
82.0109
81.988
81.9897
81.9802
81.9116
81.2787
76.0067
30.9481
3.06156
0.338855
0.00902195
-0.00580427
0.00821165
0.00718813
-0.000885904
-0.00729979
-0.00763583
0.0110405
0.0482008
0.0248182
-0.0315233
82.0649
81.9661
81.9982
81.9752
82.0485
81.9341
81.9359
82.0612
82.2811
81.6754
80.8782
83.1083
79.622
81.0415
32.4597
-1.86692
2.11444
-0.295509
0.381016
0.0573177
-0.0265912
0.0252412
0.00644609
0.0204005
0.0133341
0.0185395
0.0139096
0.0225565
0.00768098
0.0251143
0.00299922
0.0255811
0.00254835
0.0237782
0.0183943
0.00930516
0.0504909
-0.00268706
0.0285556
0.038407
-0.0193313
81.9404
81.8795
81.8844
81.8945
81.9646
82.0116
78.3753
34.7943
2.91683
0.0428137
-0.0361893
-0.00288002
0.0145755
0.0187628
0.0167421
0.0137645
0.0128245
0.025388
0.0522624
0.0320734
-0.00586531
81.8832
81.7422
81.8137
81.7412
81.8249
81.7213
81.8165
81.7355
81.9265
81.4894
81.7842
81.2314
78.275
73.5588
36.2316
0.539499
2.41259
0.119544
0.0437857
0.177172
-0.0485877
0.0660454
0.0104041
0.0470308
0.0211002
0.0426187
0.0264509
0.0448533
0.0257464
0.0451224
0.0240744
0.044217
0.0231446
0.0428753
0.0334648
0.0319974
0.0557105
0.0242325
0.0365649
0.0544038
0.00808026
81.6567
81.5833
81.5756
81.5538
81.4748
81.0947
76.7107
37.8145
2.58336
-0.084275
-0.00809631
0.0173399
0.0277367
0.0337468
0.0355904
0.0349956
0.0336751
0.0412885
0.0587174
0.0407954
0.023163
81.5094
81.3553
81.4358
81.3409
81.4191
81.3099
81.4056
81.2173
81.2396
80.9617
80.8026
79.3976
75.0545
66.3636
38.5455
4.07397
2.549
0.528844
-0.0486862
0.258466
-0.0012292
0.106654
0.0280681
0.0696019
0.0341125
0.0650437
0.0416798
0.0673429
0.0448988
0.0660648
0.0453374
0.0635062
0.0440905
0.0619115
0.0499268
0.0537144
0.0631217
0.0499304
0.0459494
0.0696023
0.0388044
81.1935
81.1079
81.0776
81.0027
80.7578
79.6246
73.0124
39.1284
2.86226
0.00947584
0.0465864
0.0381691
0.0412809
0.0498747
0.0551409
0.056354
0.0547886
0.0583953
0.0671524
0.0508113
0.0554607
80.9577
80.7944
80.8714
80.7584
80.8227
80.6781
80.7358
80.4456
80.3453
79.8539
79.042
76.949
70.9421
60.7897
39.3597
7.54482
3.19488
0.920804
0.0834329
0.359912
0.0674748
0.156578
0.047508
0.0932555
0.0477606
0.0875448
0.0581684
0.0905827
0.0649104
0.0880338
0.0668948
0.0835203
0.065381
0.0810503
0.0675536
0.0747117
0.0724099
0.0746268
0.0566029
0.084057
0.0727791
80.543
80.4433
80.3688
80.1859
79.6691
77.6552
68.8988
39.364
3.71737
0.244086
0.113158
0.059073
0.0546738
0.0667136
0.0753061
0.0778586
0.0760494
0.0763791
0.0771531
0.0619095
0.090876
80.2183
80.0509
80.1149
79.9823
80.0142
79.8189
79.7889
79.4024
79.0937
78.2908
76.7712
73.9833
66.8487
56.4901
39.3082
10.5653
4.28664
1.3782
0.353336
0.49852
0.14656
0.215156
0.0686733
0.118597
0.0614583
0.110375
0.0753773
0.114525
0.0855062
0.110854
0.088577
0.104136
0.0867339
0.100281
0.0858901
0.0950534
0.0830895
0.0983355
0.0682493
0.0977051
0.109771
79.7109
79.5933
79.4528
79.1145
78.2252
75.2766
64.975
39.0117
4.93808
0.571895
0.194794
0.0829085
0.0688035
0.0846266
0.0964342
0.0998302
0.0976312
0.0952099
0.0885988
0.0741124
0.129385
79.2904
79.1223
79.1658
79.0083
78.9898
78.7295
78.5796
78.0722
77.4889
76.3532
74.1561
70.7608
63.0861
53.0514
38.7847
13.0897
5.62402
1.93288
0.717608
0.673653
0.239858
0.280412
0.0939237
0.14565
0.0758496
0.133613
0.0935665
0.139101
0.106964
0.134382
0.110663
0.125254
0.108317
0.119588
0.104887
0.114848
0.0949326
0.1212
0.0807932
0.110562
0.149723
78.6922
78.5527
78.3235
77.7882
76.4621
72.6157
61.3997
38.3554
6.33034
0.971036
0.2957
0.110999
0.0838154
0.103443
0.118385
0.122172
0.119363
0.114552
0.101051
0.0871354
0.170776
78.1797
78.0148
78.0303
77.8421
77.7559
77.4201
77.1248
76.4723
75.5816
74.122
71.3452
67.4829
59.6927
50.2081
38.0372
15.1377
7.05561
2.58616
1.15194
0.879605
0.352148
0.351996
0.124316
0.174698
0.0914569
0.157637
0.112909
0.16452
0.129417
0.158747
0.133276
0.147009
0.130158
0.139174
0.124428
0.134361
0.107782
0.14345
0.0941961
0.12275
0.192538
77.4939
77.3283
76.9905
76.2249
74.435
69.8002
58.176
37.5529
7.75661
1.42923
0.417958
0.144133
0.100177
0.123381
0.141314
0.145032
0.141315
0.134327
0.11434
0.100914
0.214934
76.8919
76.7333
76.7141
76.4902
76.3219
75.9023
75.4436
74.632
73.4313
71.6745
68.4476
64.2691
56.6347
47.776
37.186
16.7751
8.46973
3.3158
1.64236
1.11151
0.484954
0.429477
0.160124
0.205651
0.108553
0.182399
0.133446
0.190644
0.152879
0.183787
0.156442
0.16927
0.152232
0.158978
0.144352
0.153621
0.12137
0.165129
0.1083
0.13425
0.238047
76.1247
75.9298
75.4673
74.4497
72.2011
66.9263
55.2594
36.6865
9.12993
1.93603
0.561161
0.182544
0.11821
0.144562
0.165283
0.168477
0.163507
0.154428
0.128264
0.115343
0.261719
75.4378
75.2886
75.2289
74.9655
74.7047
74.1954
73.5642
72.5901
71.0992
69.0847
65.5406
61.1812
53.8593
45.6378
36.2945
18.0678
9.80055
4.09429
2.17641
1.3653
0.637609
0.512675
0.201376
0.238524
0.127468
0.20796
0.155291
0.217444
0.1774
0.20944
0.180219
0.191992
0.174558
0.179008
0.164559
0.172714
0.135506
0.18633
0.123004
0.145092
0.286108
74.5976
74.3709
73.7727
72.4936
69.8165
64.0606
52.6005
35.7981
10.4009
2.48005
0.723317
0.226285
0.138226
0.167104
0.190335
0.192558
0.18596
0.174763
0.142646
0.130326
0.310985
73.8325
73.6951
73.5906
73.2854
72.9256
72.3241
71.5199
70.3889
68.6424
66.4166
62.6748
58.2459
51.3184
43.7165
35.3939
19.0749
11.0129
4.89449
2.74132
1.63714
0.807937
0.601261
0.248011
0.273305
0.14852
0.234367
0.178558
0.244898
0.20302
0.235653
0.204654
0.21513
0.197155
0.199266
0.184963
0.191717
0.150019
0.207143
0.138216
0.15531
0.336575
72.9289
72.6692
71.9296
70.3912
67.333
61.2468
50.1564
34.9083
11.545
3.04866
0.901537
0.275346
0.16053
0.191125
0.216503
0.217318
0.208692
0.195256
0.157322
0.145772
0.362585
72.0941
71.9706
71.8185
71.4709
71.0096
70.3168
69.3465
68.0712
66.1108
63.7224
59.8825
55.4706
48.9731
41.9607
34.4991
19.846
12.0916
5.69261
3.32374
1.92305
0.992917
0.694708
0.299956
0.30996
0.172019
0.261657
0.203363
0.272982
0.229771
0.262376
0.229783
0.238644
0.220042
0.219752
0.205491
0.210697
0.164754
0.227648
0.153849
0.164937
0.3893
71.1382
70.8454
69.964
68.1787
64.7961
58.5129
47.8936
34.0268
12.5533
3.62859
1.09248
0.329686
0.185425
0.216744
0.243816
0.242788
0.231723
0.215838
0.172144
0.1616
0.416372
70.2437
70.1357
69.9348
69.5456
68.9841
68.2042
67.0806
65.6781
63.5478
61.0439
57.1839
52.8538
46.794
40.3358
33.6167
20.4218
13.0329
6.46899
3.91013
2.21861
1.18911
0.792317
0.35714
0.348437
0.198274
0.289854
0.229829
0.301671
0.257683
0.289561
0.255636
0.262494
0.243235
0.240464
0.226075
0.229718
0.179566
0.247922
0.169824
0.174004
0.444137
69.2474
68.9225
67.9037
65.8917
62.2456
55.877
45.7867
33.1583
13.4256
4.20638
1.2926
0.389256
0.213218
0.244086
0.272306
0.268997
0.255066
0.236443
0.186972
0.177731
0.472197
68.3041
68.2127
67.9637
67.5351
66.8781
66.0181
64.7579
63.2484
60.9902
58.4139
54.5924
50.3904
44.7596
38.818
32.7496
20.8354
13.8393
7.20799
4.48718
2.51905
1.3929
0.893252
0.419515
0.388658
0.227597
0.318971
0.258085
0.330937
0.286787
0.317162
0.282242
0.286644
0.266744
0.2614
0.24665
0.248839
0.194318
0.268037
0.186066
0.182547
0.500937
67.2798
66.925
65.7779
63.5653
59.7158
53.3516
43.8175
32.3048
14.1655
4.76885
1.4983
0.454027
0.244231
0.273289
0.302006
0.295974
0.278733
0.257005
0.201672
0.194092
0.529912
66.2991
66.2246
65.9298
65.4653
64.7204
63.7897
62.4122
60.8173
58.4695
55.8591
52.1174
48.0756
42.8543
37.3913
31.8991
21.1124
14.5155
7.89645
5.04192
2.81897
1.60058
0.996389
0.486957
0.430391
0.260189
0.348902
0.288148
0.36066
0.317013
0.345056
0.309537
0.310991
0.290499
0.282502
0.26708
0.268058
0.208763
0.288047
0.202475
0.190505
0.559606
65.2615
64.88
63.6174
61.234
57.238
50.9479
41.9747
31.4684
14.7779
5.30338
1.7062
0.524134
0.278918
0.304597
0.333037
0.32381
0.302787
0.277511
0.216169
0.210661
0.589383
64.256
64.1978
63.8612
63.3652
62.5428
61.5521
60.0784
58.4193
56.0162
53.4028
49.77
45.9068
41.0707
36.046
31.0651
21.2771
15.0636
8.52699
5.561
3.11385
1.80867
1.10109
0.559697
0.473748
0.296663
0.379821
0.320442
0.390949
0.348648
0.373316
0.337744
0.335615
0.314677
0.303868
0.287429
0.287552
0.223093
0.307959
0.218983
0.19819
0.619682
63.2134
62.8089
61.4472
58.9263
54.8368
48.6728
40.2496
30.6468
15.2636
5.79702
1.91273
0.599384
0.317325
0.337871
0.365206
0.35233
0.327046
0.297713
0.230153
0.227219
0.6504
62.1978
62.154
61.7814
61.2588
60.3716
59.3329
57.7853
56.0826
53.6533
51.0636
47.557
43.8819
39.402
34.7769
30.2473
21.3455
15.4896
9.08987
6.03553
3.39835
2.01483
1.20623
0.638087
0.518649
0.337326
0.411813
0.355019
0.421858
0.381658
0.401969
0.366833
0.360543
0.339215
0.325571
0.307601
0.307404
0.236871
0.328115
0.235681
0.205342
0.68163
61.1633
60.7397
59.2981
56.6749
52.5399
46.5396
38.6429
29.8386
15.6232
6.23942
2.11573
0.680425
0.360155
0.373563
0.398824
0.381778
0.351689
0.3177
0.243667
0.243858
0.712915
60.149
60.1149
59.7151
59.17
58.2355
57.1589
55.5645
53.8341
51.41
48.8595
45.4959
42.0023
37.85
33.5865
29.4359
21.3335
15.7868
9.57699
6.45342
3.66667
2.21581
1.31066
0.721746
0.564863
0.382096
0.444695
0.391775
0.453133
0.415943
0.430763
0.39671
0.385577
0.363995
0.347464
0.327383
0.327549
0.250032
0.348283
0.252298
0.212099
0.744837
59.1349
58.6958
57.1977
54.511
50.3773
44.5682
37.1592
29.0321
15.8507
6.62195
2.3136
0.767341
0.407406
0.411579
0.433814
0.412091
0.37662
0.337304
0.256499
0.260458
0.776751
58.1447
58.0995
57.6894
57.12
56.1636
55.0546
53.4467
51.6996
49.3124
46.811
43.5954
40.2832
36.4014
32.495
28.6196
21.2473
15.9631
9.97336
6.81496
3.91259
2.41093
1.41448
0.809783
0.613303
0.430358
0.479025
0.430474
0.484991
0.451489
0.459784
0.427419
0.410793
0.389024
0.369652
0.34671
0.348129
0.262431
0.368636
0.268844
0.218479
0.8093
57.1672
56.7059
55.1756
52.4657
48.3753
42.7672
35.7766
28.1887
15.952
6.95044
2.5081
0.859318
0.458101
0.451439
0.470037
0.443233
0.401777
0.35639
0.268488
0.276951
0.841775
56.1973
56.1231
55.7237
55.1228
54.1822
53.0303
51.4677
49.6831
47.4084
44.9105
41.9026
38.7118
35.1387
31.4554
27.7908
21.1299
15.9062
10.3554
7.03086
4.14646
2.58932
1.51151
0.910015
0.658351
0.488554
0.512015
0.473272
0.517248
0.486925
0.490108
0.456387
0.43719
0.412578
0.392277
0.371191
0.363418
0.29195
0.378261
0.301532
0.224732
0.873608
53.1877
52.7073
51.1883
48.5498
44.678
39.5413
33.3431
26.6879
15.8066
7.32333
2.82571
1.04361
0.568851
0.535592
0.540462
0.500664
0.449475
0.406209
0.334287
0.33364
0.946221
50.2048
50.1085
49.7254
49.1188
48.2218
47.0932
45.6477
43.9669
41.9505
39.7168
37.1724
34.4606
31.5453
28.562
25.5945
20.2332
15.7562
10.9039
7.64802
4.76224
3.06352
1.84555
1.17171
0.832427
0.645009
0.632359
0.595935
0.624242
0.593883
0.58623
0.546017
0.519326
0.487095
0.46093
0.438802
0.417551
0.363814
0.416484
0.369135
0.256923
1.04806
47.3712
46.9076
45.4653
43.0204
39.554
35.1311
29.9773
24.5238
15.4848
7.82824
3.27861
1.3066
0.728789
0.659938
0.648747
0.592129
0.525186
0.471781
0.393305
0.404533
1.14989
44.5653
44.475
44.1167
43.5528
42.7277
41.6961
40.399
38.9018
37.1483
35.2184
33.0739
30.7994
28.3971
25.9419
23.495
19.1138
15.2835
11.0749
8.03461
5.22609
3.48705
2.16571
1.43371
1.01821
0.807873
0.762019
0.721887
0.73532
0.70293
0.683709
0.638048
0.60184
0.563119
0.530356
0.504039
0.474965
0.422124
0.463215
0.439974
0.274265
1.25193
41.9689
41.5453
40.2341
38.0506
35.0283
31.2712
26.9877
22.4984
14.9391
8.11659
3.66282
1.56279
0.893078
0.787143
0.758307
0.684538
0.601398
0.53669
0.450871
0.475671
1.35369
39.3884
39.3103
38.9871
38.4841
37.7491
36.8392
35.704
34.4064
32.9034
31.264
29.4623
27.5636
25.5733
23.542
21.5181
17.8846
14.6302
10.9783
8.21426
5.54946
3.83331
2.45801
1.68556
1.2098
0.974947
0.899177
0.851095
0.849988
0.813301
0.782493
0.730912
0.684953
0.639641
0.600283
0.56881
0.533259
0.479394
0.51015
0.511354
0.29158
1.45518
37.0454
36.6703
35.5146
33.6138
31.0248
27.8592
24.2953
20.5776
14.2295
8.20957
3.96614
1.80633
1.06164
0.917945
0.869172
0.777605
0.678038
0.601282
0.507639
0.547805
1.55657
34.7045
34.6377
34.3545
33.9168
33.2784
32.4928
31.5185
30.4112
29.1385
27.7572
26.2499
24.6671
23.0144
21.3286
19.6461
16.6149
13.852
10.6951
8.21932
5.74725
4.09765
2.71495
1.92249
1.40222
1.1457
1.04198
0.98389
0.967468
0.924889
0.882128
0.824295
0.76837
0.716526
0.670473
0.633412
0.592137
0.536075
0.557146
0.584289
0.308545
1.6574
32.6047
32.2803
31.2835
29.6576
27.4661
24.8141
21.8491
18.7591
13.4175
8.14768
4.19053
2.0333
1.23319
1.05223
0.981158
0.871058
0.755007
0.665808
0.564221
0.621601
1.75735
30.4999
30.444
30.2006
29.8268
29.2817
28.614
27.7886
26.8543
25.7854
24.6289
23.3719
22.0543
20.6809
19.2796
17.8774
15.3426
12.9988
10.2816
8.08849
5.83604
4.28424
2.93294
2.14069
1.59185
1.31841
1.18893
1.11981
1.08707
1.03733
0.982181
0.917811
0.851842
0.793569
0.740737
0.697923
0.651442
0.592783
0.603845
0.658975
0.325659
1.85657
28.6257
28.3498
27.5033
26.1301
24.2913
22.0793
19.6148
17.0434
12.5481
7.96741
4.34198
2.24074
1.40594
1.18936
1.09384
0.964512
0.832071
0.730336
0.621054
0.697499
1.95462
26.742
26.6956
26.4895
26.1746
25.7151
25.154
24.4617
23.6802
22.7882
21.825
20.7801
19.6857
18.5452
17.3806
16.2117
14.0918
12.1077
9.7801
7.85623
5.83442
4.40143
3.11199
2.33822
1.77615
1.49148
1.33878
1.25827
1.20821
1.15032
1.08234
1.0112
0.935227
0.87064
0.811022
0.762476
0.711112
0.650024
0.650135
0.735746
0.343307
2.0511
25.0723
24.8408
24.1305
22.982
21.4501
19.6131
17.5687
15.4304
11.6537
7.69998
4.42925
2.42717
1.57809
1.32846
1.20672
1.05759
0.908993
0.794885
0.678521
0.775762
2.14678
23.3899
23.3521
23.1795
22.917
22.5335
22.0666
21.4906
20.8418
20.1017
19.3038
18.4384
17.5324
16.5873
15.6214
14.6488
12.8795
11.206
9.22308
7.55141
5.7605
4.45939
3.25408
2.51457
1.95307
1.66324
1.49004
1.39832
1.33011
1.26329
1.18213
1.1041
1.01825
0.9475
0.881197
0.827139
0.770956
0.70801
0.696013
0.8153
0.361307
2.24029
21.9034
21.7112
21.1211
20.1688
18.9012
17.3831
15.6929
13.9197
10.7582
7.37183
4.46287
2.59282
1.74821
1.46869
1.31936
1.15005
0.985646
0.859556
0.737066
0.856512
2.33198
20.4024
20.3719
20.2288
20.0122
19.695
19.3098
18.8343
18.2996
17.6895
17.0324
16.3191
15.5726
14.7924
13.9946
13.1882
11.7178
10.3136
8.63607
7.19766
5.6316
4.4686
3.3631
2.67014
2.1214
1.83207
1.64131
1.53885
1.45189
1.37565
1.28105
1.19612
1.10066
1.02393
0.951108
0.89187
0.830875
0.767222
0.741228
0.897038
0.380718
2.42107
19.0792
18.9213
18.4357
17.6528
16.6115
15.3647
13.9747
12.5114
9.87981
7.00489
4.45356
2.73875
1.91488
1.60889
1.43111
1.2415
1.06182
0.924359
0.796997
0.939539
2.50803
17.7403
17.7162
17.5986
17.4218
17.1618
16.8471
16.4578
16.0208
15.5216
14.9845
14.4005
13.7895
13.1494
12.4945
11.8301
10.6159
9.4464
8.03956
6.81526
5.46373
4.44022
3.44413
2.80678
2.28069
1.99688
1.79138
1.67886
1.57279
1.48685
1.37875
1.28701
1.1823
1.09983
1.0207
0.956781
0.890811
0.828021
0.785832
0.980568
0.402384
2.59098
16.5639
16.4357
16.0402
15.4027
14.5548
13.5389
12.4044
11.2056
9.03278
6.61758
4.41188
2.86682
2.07685
1.74783
1.54127
1.33158
1.13731
0.989319
0.858558
1.02429
2.67234
15.3702
15.3517
15.256
15.1134
14.9025
14.6482
14.3326
13.9794
13.5747
13.14
12.6662
12.1707
11.6502
11.1174
10.5748
9.58163
8.61721
7.45017
6.42123
5.27108
4.38488
3.50241
2.92686
2.43059
2.15661
1.93877
1.81711
1.69181
1.59618
1.47467
1.37642
1.26287
1.17502
1.08983
1.02196
0.950558
0.890436
0.830057
1.06585
0.426521
2.74856
14.327
14.2243
13.9061
13.3931
12.7105
11.8917
10.9753
10.0035
8.22908
6.22587
4.34822
2.97971
2.2333
1.88441
1.64926
1.42004
1.21206
1.05457
0.921973
1.10982
2.82192
13.2651
13.2515
13.1745
13.0612
12.8923
12.6898
12.4372
12.1555
11.8316
11.4843
11.1045
10.7078
10.2897
9.86171
9.42398
8.62188
7.83681
6.882
6.02999
5.06648
4.31224
3.54347
3.03282
2.5711
2.3102
2.08204
1.95225
1.80791
1.7029
1.5683
1.46396
1.34211
1.24935
1.15831
1.0874
1.01001
0.954646
0.873995
1.15086
0.455041
2.88916
12.3449
12.2642
12.0121
11.6055
11.0641
10.4136
9.68396
8.90724
7.47912
5.8434
4.27198
3.08
2.38327
2.0173
1.75433
1.50652
1.28594
1.12016
0.987175
1.19455
2.95317
11.4045
11.3951
11.3341
11.2459
11.1128
10.9546
10.7558
10.5352
10.2801
10.0076
9.7082
9.39611
9.06565
8.72775
8.38035
7.74363
7.11522
6.34753
5.65454
4.86158
4.23164
3.57282
3.12764
2.70247
2.45698
2.21984
2.08314
1.92012
1.8064
1.65919
1.54942
1.41984
1.32281
1.22604
1.1532
1.06916
1.02048
0.918236
1.23364
0.489614
3.00879
10.601
10.5391
10.3434
10.0276
9.60641
9.0996
8.52965
7.9205
6.79266
5.48226
4.19173
3.17029
2.52584
2.14517
1.85575
1.59071
1.35887
1.18608
1.05376
1.27608
3.06177
9.77495
9.7695
9.72197
9.65543
9.55265
9.43231
9.2791
9.11066
8.91406
8.70533
8.47431
8.2345
7.97897
7.71829
7.44847
6.95433
6.462
5.85796
5.30633
4.66656
4.15141
3.59517
3.21401
2.82447
2.59617
2.35042
2.20853
2.02721
1.90604
1.74675
1.63254
1.49572
1.39535
1.29282
1.21939
1.1279
1.0871
0.963777
1.31218
0.531369
3.10434
9.08581
9.04009
8.89237
8.65338
8.33415
7.94916
7.51507
7.04907
6.17959
5.15365
4.11554
3.25328
2.66039
2.26694
1.95304
1.67248
1.43089
1.25234
1.12084
1.35106
3.14266
8.37177
8.36939
8.33327
8.28499
8.20785
8.11947
8.00469
7.88022
7.73293
7.57802
7.40478
7.22605
7.03408
6.8389
6.63509
6.26262
5.88694
5.424
4.99583
4.49049
4.07891
3.61448
3.29428
2.93646
2.72698
2.47176
2.32727
2.12784
2.00124
1.83035
1.7131
1.56943
1.4669
1.35847
1.28565
1.18644
1.15323
1.01189
1.3815
0.583595
3.16861
7.79896
7.76658
7.65901
7.4843
7.25014
6.96697
6.64678
6.3012
5.65011
4.86775
4.05045
3.33128
2.78627
2.38165
2.04577
1.75169
1.502
1.31853
1.18658
1.41468
3.1897
7.19466
7.19765
7.17038
7.1383
7.08164
7.02054
6.93684
6.84942
6.74217
6.63232
6.50621
6.37873
6.23886
6.09892
5.94969
5.67905
5.40088
5.05629
4.73354
4.34136
4.0216
3.63358
3.37146
3.03699
2.84952
2.58147
2.43895
2.22056
2.09192
1.90941
1.79114
1.64074
1.5375
1.42299
1.35138
1.24537
1.21635
1.06486
1.43597
0.649453
3.19498
6.74272
6.72433
6.65027
6.52779
6.36268
6.16203
5.93394
5.68713
5.21522
4.63481
4.00353
3.40719
2.90381
2.48913
2.13395
1.82835
1.57207
1.38371
1.24774
1.46031
3.19556
6.26901
6.26507
6.24844
6.22582
6.18991
6.14639
6.09123
6.02936
5.95745
5.8798
5.79387
5.70419
5.60882
5.50886
5.40695
5.21542
5.0158
4.76543
4.52951
4.2253
3.9872
3.65254
3.45017
3.12211
2.96593
2.6756
2.5445
2.30329
2.17846
1.98314
1.86665
1.70934
1.60677
1.48652
1.41511
1.30568
1.27204
1.12606
1.46873
0.731901
3.17706
5.95617
5.94069
5.89228
5.80901
5.69587
5.55708
5.39842
5.22899
4.88937
4.46601
3.98354
3.48731
3.01691
2.59151
2.21851
1.90259
1.64065
1.44587
1.29904
1.47899
3.15155
5.54327
5.59579
5.56829
5.58362
5.53154
5.53107
5.46707
5.45225
5.37957
5.35106
5.27225
5.22879
5.14403
5.09461
5.01131
4.89515
4.73873
4.56211
4.40133
4.14082
3.99782
3.66093
3.54942
3.18023
3.08733
2.74693
2.64819
2.37342
2.26154
2.05106
1.93896
1.7754
1.6734
1.54983
1.47356
1.36957
1.31337
1.2002
1.46832
0.83647
3.10368
5.34464
5.39009
5.35649
5.302
5.22825
5.13685
5.02957
4.90449
4.66943
4.37901
4.02106
3.60093
3.14392
2.69621
2.30082
1.9735
1.70584
1.50076
1.33189
1.45856
3.04723
4.8112
4.85999
4.8301
4.85555
4.8137
4.83145
4.78626
4.79627
4.74872
4.74992
4.70064
4.69388
4.64455
4.62433
4.57595
4.52435
4.4377
4.34251
4.24881
4.08407
3.98724
3.74633
3.64122
3.34793
3.22625
2.92855
2.79092
2.52946
2.38837
2.17401
2.04277
1.87127
1.75805
1.61968
1.52452
1.43657
1.37979
1.21636
1.34575
1.28002
2.71509
4.74791
4.7454
4.72774
4.70015
4.6627
4.61631
4.56211
4.49489
4.3724
4.20515
3.99397
3.74619
3.47582
3.19983
2.93232
2.6819
2.45373
2.25752
2.09719
1.94332
2.27146
4.03612
4.039
4.03932
4.04368
4.04544
4.05129
4.05457
4.06187
4.06654
4.07492
4.08068
4.08973
4.09617
4.10546
4.1152
4.12986
4.1422
4.15939
4.17091
4.18137
4.18609
4.17633
4.16543
4.11961
4.08469
3.99452
3.93222
3.8048
3.71996
3.57276
3.47647
3.32651
3.23003
3.09265
3.00945
2.89496
2.80716
2.74155
2.81788
2.79803
2.7329
4.71938
4.71804
4.71709
4.71476
4.71136
4.70691
4.7014
4.69655
4.68045
4.65457
4.61303
4.5507
4.46342
4.34776
4.20298
4.03472
3.85569
3.67325
3.51628
3.33689
3.06743
5.09748
5.09807
5.09739
5.09665
5.09548
5.09445
5.0929
5.09144
5.08949
5.08761
5.08528
5.08302
5.08034
5.07773
5.07339
5.06899
5.06235
5.05563
5.04705
5.03797
5.02703
5.01527
5.00071
4.98509
4.96448
4.94127
4.91184
4.87392
4.83349
4.77389
4.7223
4.64009
4.57891
4.48098
4.42659
4.323
4.24681
4.18861
4.09158
4.00965
3.78695
5.66389
5.66418
5.66328
5.66197
5.66016
5.65786
5.6551
5.65111
5.64421
5.63341
5.61695
5.59151
5.5527
5.49625
5.41886
5.31797
5.19447
5.05117
4.90757
4.72891
4.45885
6.18036
6.18038
6.1802
6.18025
6.17998
6.17988
6.17948
6.17928
6.17875
6.17844
6.1778
6.17737
6.17659
6.17604
6.17552
6.17402
6.17196
6.17
6.16652
6.16331
6.15765
6.15231
6.14364
6.13468
6.12194
6.10729
6.08892
6.06598
6.0398
6.00522
5.96977
5.91939
5.87291
5.80475
5.75266
5.66871
5.6149
5.50106
5.42162
5.33399
5.19095
6.8311
6.83091
6.83054
6.82987
6.82892
6.8277
6.82622
6.82457
6.82056
6.81432
6.80456
6.78959
6.76693
6.73284
6.68242
6.61055
6.51401
6.3913
6.24292
6.08081
5.91347
7.43051
7.43065
7.43051
7.43044
7.43019
7.43004
7.4297
7.42945
7.42902
7.42867
7.42816
7.42771
7.4271
7.42656
7.4257
7.42461
7.42289
7.42112
7.41847
7.41563
7.41151
7.40703
7.4006
7.39361
7.38356
7.37273
7.35739
7.34057
7.31788
7.29183
7.25978
7.22025
7.17655
7.11907
7.06267
6.98391
6.92046
6.82068
6.76051
6.65066
6.62451
8.131
8.13099
8.13067
8.13014
8.1294
8.12845
8.12729
8.12582
8.12275
8.11792
8.11031
8.09835
8.07965
8.05088
8.00747
7.94333
7.85185
7.72842
7.57458
7.41616
7.30473
8.78127
8.78135
8.78121
8.78116
8.78094
8.78078
8.78045
8.78021
8.77978
8.77944
8.77892
8.77848
8.77787
8.77734
8.77661
8.77546
8.77377
8.77203
8.76935
8.76659
8.76237
8.75803
8.75142
8.74455
8.73433
8.72346
8.70779
8.69075
8.66705
8.64066
8.60581
8.56563
8.51684
8.45684
8.3933
8.30845
8.23878
8.12831
8.08276
7.95836
7.99205
9.53668
9.53662
9.5363
9.53575
9.53498
9.534
9.53279
9.53133
9.5281
9.52304
9.51506
9.50252
9.48291
9.45243
9.40559
9.33498
9.23162
9.0881
8.9072
8.72706
8.62889
10.2375
10.2376
10.2375
10.2374
10.2372
10.237
10.2366
10.2363
10.2358
10.2354
10.2348
10.2342
10.2335
10.2329
10.232
10.2307
10.2287
10.2266
10.2234
10.2201
10.2151
10.2099
10.2021
10.1938
10.1816
10.1686
10.1497
10.1294
10.1006
10.069
10.026
9.97771
9.91624
9.84404
9.76306
9.65921
9.5701
9.43229
9.38105
9.2211
9.28417
11.05
11.0499
11.0495
11.0489
11.0479
11.0468
11.0453
11.0436
11.0397
11.0336
11.0241
11.009
10.9853
10.9482
10.8909
10.8035
10.6736
10.4893
10.2517
10.009
9.86958
11.8154
11.8155
11.8153
11.8152
11.8149
11.8146
11.8142
11.8138
11.8131
11.8126
11.8118
11.8112
11.8102
11.8094
11.8083
11.8065
11.804
11.8013
11.7973
11.793
11.7867
11.7799
11.7699
11.7592
11.7436
11.7267
11.7024
11.6759
11.6385
11.5974
11.5408
11.4776
11.3953
11.3
11.1886
11.05
10.9215
10.7331
10.6483
10.4196
10.4817
12.679
12.6789
12.6784
12.6776
12.6764
12.675
12.6732
12.671
12.6661
12.6585
12.6465
12.6276
12.5977
12.5508
12.4777
12.365
12.1948
11.9474
11.6165
11.2561
11.0013
13.5318
13.5319
13.5317
13.5315
13.5311
13.5308
13.5302
13.5296
13.5288
13.5281
13.5272
13.5263
13.5251
13.524
13.5226
13.5203
13.5171
13.5135
13.5084
13.5027
13.4946
13.4857
13.4729
13.4588
13.4387
13.4165
13.3849
13.35
13.3009
13.2465
13.1712
13.0869
12.9744
12.8463
12.6881
12.4982
12.3026
12.0366
11.8785
11.5351
11.5531
14.4225
14.4224
14.4218
14.4208
14.4194
14.4176
14.4153
14.4126
14.4067
14.3974
14.3826
14.3592
14.3223
14.264
14.1723
14.029
13.8081
13.477
13.0125
12.4635
11.9851
15.3898
15.39
15.3897
15.3895
15.389
15.3886
15.3878
15.3872
15.3862
15.3853
15.3841
15.383
15.3815
15.3802
15.3784
15.3755
15.3716
15.3671
15.3608
15.3537
15.3437
15.3324
15.3167
15.2988
15.2739
15.2456
15.2062
15.1616
15.0997
15.0296
14.9327
14.8231
14.6739
14.5044
14.2835
14.0271
13.7301
13.3582
13.0672
12.5525
12.4491
16.2517
16.2516
16.2509
16.2497
16.2481
16.246
16.2434
16.2404
16.2335
16.2228
16.2058
16.1787
16.1358
16.0676
15.9591
15.7869
15.5148
15.0893
14.4544
13.6308
12.7663
17.3563
17.3564
17.3561
17.3559
17.3553
17.3548
17.354
17.3532
17.3522
17.3511
17.3498
17.3485
17.3469
17.3453
17.3433
17.34
17.3356
17.3303
17.3234
17.315
17.3039
17.2907
17.2731
17.252
17.224
17.1906
17.1458
17.0928
17.021
16.9367
16.8201
16.687
16.5004
16.2924
15.9957
15.6667
15.2295
14.7322
14.2186
13.467
13.1012
18.0878
18.0876
18.0869
18.0857
18.084
18.0818
18.0792
18.076
18.0689
18.0578
18.04
18.0118
17.9668
17.8947
17.7789
17.5915
17.2817
16.7762
15.9556
14.7672
13.2767
19.328
19.328
19.3278
19.3275
19.327
19.3265
19.3257
19.3249
19.3239
19.3228
19.3215
19.3202
19.3187
19.3171
19.3152
19.3118
19.3077
19.3023
19.2956
19.2871
19.2765
19.2629
19.246
19.2243
19.1971
19.1625
19.1185
19.0631
18.9905
18.9017
18.7813
18.6377
18.4383
18.1926
17.8375
17.4458
16.852
16.2187
15.3437
14.3259
13.3933
19.7838
19.7836
19.783
19.7818
19.7803
19.7784
19.776
19.7732
19.7669
19.7569
19.741
19.7156
19.675
19.6094
19.5027
19.3249
19.0248
18.501
17.5304
15.9
13.4045
21.1016
21.1016
21.1015
21.1012
21.1008
21.1004
21.0999
21.0992
21.0985
21.0975
21.0966
21.0955
21.0944
21.0931
21.0917
21.0889
21.086
21.0814
21.0767
21.0695
21.062
21.0505
21.0384
21.02
21.0003
20.9708
20.9387
20.8909
20.8361
20.7578
20.6662
20.5349
20.353
20.141
19.754
19.3756
18.6434
17.9352
16.5202
15.2427
13.174
21.1298
21.1295
21.129
21.1281
21.127
21.1255
21.1237
21.1216
21.1169
21.1094
21.0975
21.0785
21.0478
20.9979
20.9162
20.7756
20.5378
20.0853
19.0824
17.0527
13.0081
22.3789
22.3787
22.3788
22.3785
22.3784
22.3781
22.3779
22.3774
22.3772
22.3766
22.3762
22.3755
22.3751
22.3743
22.3737
22.372
22.3709
22.368
22.3662
22.3617
22.3587
22.3515
22.3467
22.3351
22.3271
22.3083
22.295
22.2643
22.2391
22.1887
22.1451
22.0583
21.9454
21.7905
21.6374
21.342
20.9254
19.7776
17.8871
16.9591
12.1115
21.9077
21.9073
21.907
21.9065
21.9057
21.9047
21.9035
21.9021
21.8991
21.8943
21.8866
21.8744
21.8549
21.8235
21.7734
21.6885
21.5544
21.2399
20.7865
18.3809
11.5412
22.8621
22.8619
22.8621
22.8619
22.862
22.8618
22.8619
22.8616
22.8617
22.8614
22.8613
22.8611
22.8611
22.8607
22.8609
22.86
22.8603
22.8589
22.8593
22.8571
22.8578
22.8542
22.8554
22.8498
22.8519
22.843
22.8471
22.8328
22.8398
22.8168
22.8366
22.7971
22.8151
22.7503
22.8936
22.7032
21.7982
22.6897
20.3691
19.0661
12.607
21.9902
21.9899
21.9897
21.9892
21.9885
21.9877
21.9866
21.9854
21.9829
21.9788
21.9723
21.9619
21.9455
21.9195
21.8785
21.8107
21.7088
21.4383
21.0486
18.9969
12.2982
22.4329
22.4328
22.4329
22.4327
22.4327
22.4325
22.4325
22.4322
22.4321
22.4317
22.4315
22.4311
22.4309
22.4305
22.4303
22.4293
22.4289
22.4272
22.4266
22.4239
22.4229
22.4187
22.4173
22.4106
22.4086
22.3981
22.3955
22.379
22.3773
22.3513
22.3552
22.315
22.331
22.2816
22.3778
22.3946
22.5689
22.2022
25.7267
25.3499
23.0161
21.4384
21.4382
21.4378
21.4372
21.4363
21.4353
21.4339
21.4324
21.429
21.4235
21.4149
21.4014
21.38
21.3471
21.2957
21.2227
21.1139
21.0644
21.0322
20.6908
31.2424
21.4335
21.4334
21.4333
21.433
21.4329
21.4325
21.4321
21.4316
21.4312
21.4305
21.4299
21.4291
21.4284
21.4274
21.4266
21.4245
21.4226
21.4192
21.4162
21.4109
21.4061
21.3976
21.3899
21.3763
21.3641
21.3418
21.3218
21.2873
21.2566
21.1913
21.1333
21.0624
21.0081
20.7412
20.5642
20.6365
21.2782
19.4762
21.7151
31.929
57.6229
SCALARS Stress_Shear double 1
LOOKUP_TABLE default
0.035039
0.00630218
0.0047
-0.00483536
0.0161586
0.00563265
0.0571148
-0.0500338
0.091821
0.0755222
0.647966
-0.707352
2.42345
-0.481376
-5.95045
1.36056
0.787669
-0.866
0.636672
0.0589015
0.0646176
-0.0743205
0.0917955
-0.0216215
0.0386489
-0.0133185
0.018355
-0.003755
0.00674129
-0.00184902
0.00448029
-0.00225781
0.00636467
-0.00417613
0.0159242
-0.0115558
0.0481333
-0.0331624
0.0104443
0.0386888
-0.0773097
0.0239536
-0.140035
-0.272501
-0.393197
-0.475935
-0.442122
0.574681
-13.1461
1.18062
-0.129322
-0.0866172
-0.0558225
-0.0646504
-0.0653655
-0.048297
-0.0254715
-0.00647525
0.0125274
0.0467305
0.000481363
-0.10606
0.0137636
-0.143916
-0.284505
-0.438867
-0.561737
-0.741954
-0.846434
-1.04122
-1.04461
-1.50677
-1.517
-2.09013
-0.835476
-10.2953
-20.8101
-6.44227
1.13938
-1.22665
-0.5323
-0.781776
-0.212841
-0.405736
-0.159672
-0.283009
-0.150886
-0.208122
-0.140029
-0.145249
-0.098461
-0.0886083
-0.050599
-0.0471419
-0.0142472
-0.0228132
0.0119887
-0.0170334
0.0398002
-0.03823
-0.0240388
0.00770324
-0.151378
0.0116715
-0.436379
-0.878768
-1.3235
-1.80203
-2.34871
-4.12536
-24.5175
-0.380583
-0.671867
-0.39588
-0.254418
-0.238311
-0.212258
-0.147336
-0.0750563
-0.0218172
0.0113997
0.0328478
-0.0481846
-0.19529
0.00862511
-0.299467
-0.59241
-0.910154
-1.19911
-1.55396
-1.8284
-2.27629
-2.56099
-3.29276
-3.57773
-5.56941
-7.73666
-17.6892
-27.2665
-11.0677
-1.53082
-2.79445
-1.19454
-1.4409
-0.608656
-0.793648
-0.385668
-0.540966
-0.33632
-0.404263
-0.289627
-0.284075
-0.198542
-0.174386
-0.101359
-0.0926686
-0.030806
-0.0430595
0.0102951
-0.0230735
0.026879
-0.038746
-0.0701057
-0.014003
-0.236741
0.00773569
-0.756437
-1.53927
-2.38543
-3.41564
-5.13591
-10.9143
-28.5087
-3.18286
-1.62197
-0.847811
-0.515054
-0.434375
-0.364994
-0.248431
-0.126997
-0.0395766
0.00915499
0.0208867
-0.0916514
-0.276812
0.00587273
-0.462034
-0.920694
-1.41079
-1.88185
-2.4338
-2.93719
-3.65507
-4.28505
-5.44691
-6.47021
-9.45575
-14.0516
-22.2357
-29.7256
-15.2475
-4.79236
-4.26479
-2.14752
-2.08961
-1.08426
-1.16151
-0.654511
-0.788204
-0.536188
-0.59199
-0.442464
-0.417202
-0.299506
-0.256354
-0.153795
-0.13574
-0.0493848
-0.0619547
0.00759344
-0.0290468
0.0157276
-0.0405183
-0.111246
-0.0362585
-0.314707
0.00538573
-1.09112
-2.23763
-3.52955
-5.18897
-8.07807
-16.426
-30.2222
-6.47415
-2.66558
-1.33085
-0.794952
-0.63738
-0.518123
-0.349245
-0.179924
-0.0589616
0.0060105
0.0105449
-0.130463
-0.351247
0.00441032
-0.630839
-1.26161
-1.93283
-2.59654
-3.36562
-4.11744
-5.1297
-6.12553
-7.78612
-9.5401
-13.2885
-18.7802
-25.0679
-30.8297
-18.5064
-8.1198
-5.79057
-3.17987
-2.76233
-1.57636
-1.52856
-0.938205
-1.0321
-0.740397
-0.77442
-0.594727
-0.545836
-0.399624
-0.335179
-0.206806
-0.176792
-0.0693253
-0.0797094
0.00406883
-0.034918
0.00602741
-0.0432857
-0.147918
-0.0588649
-0.385745
0.00373152
-1.43565
-2.96294
-4.72927
-7.07328
-11.079
-20.4675
-31.0299
-9.65325
-3.71968
-1.82302
-1.0831
-0.842281
-0.669489
-0.448589
-0.232967
-0.0794012
0.0021328
0.00157077
-0.16508
-0.419123
0.00309435
-0.802622
-1.60896
-2.4655
-3.32934
-4.32251
-5.33304
-6.64346
-8.01876
-10.121
-12.5175
-16.614
-22.1493
-26.8816
-31.3453
-20.9443
-11.149
-7.35775
-4.231
-3.4509
-2.07304
-1.89746
-1.22846
-1.27458
-0.945198
-0.952664
-0.744663
-0.670448
-0.497882
-0.411194
-0.259603
-0.216109
-0.0900529
-0.0965166
-0.000104995
-0.0406419
-0.0022842
-0.0469864
-0.180727
-0.0813123
-0.450797
0.00224913
-1.7829
-3.69673
-5.94215
-8.954
-13.8884
-23.3187
-31.3975
-12.4638
-4.77304
-2.32091
-1.37594
-1.04712
-0.81817
-0.545839
-0.285568
-0.100484
-0.00234962
-0.00624243
-0.195896
-0.480914
0.00188798
-0.973904
-1.95554
-2.99733
-4.0618
-5.27701
-6.54278
-8.13942
-9.86941
-12.3245
-15.1907
-19.3091
-24.4931
-28.0524
-31.5441
-22.7299
-13.7469
-8.90099
-5.28443
-4.14227
-2.5729
-2.26778
-1.52289
-1.51621
-1.1496
-1.12731
-0.891812
-0.791395
-0.593925
-0.484667
-0.311812
-0.253899
-0.111327
-0.11245
-0.00484821
-0.0462109
-0.00964534
-0.0512589
-0.20977
-0.10381
-0.509626
0.000826558
-2.12558
-4.42053
-7.1309
-10.7475
-16.3474
-25.2826
-31.5047
-14.832
-5.81741
-2.82139
-1.67154
-1.251
-0.963774
-0.640668
-0.337367
-0.121912
-0.00733367
-0.0130671
-0.223259
-0.537047
0.000640313
-1.14086
-2.29358
-3.51523
-4.77458
-6.20077
-7.7082
-9.56038
-11.5985
-14.301
-17.4555
-21.393
-26.0825
-28.7815
-31.5401
-24.0042
-15.893
-10.3572
-6.3227
-4.82569
-3.07256
-2.6386
-1.81934
-1.75716
-1.35271
-1.29862
-1.03575
-0.908822
-0.687428
-0.555741
-0.363079
-0.290317
-0.132815
-0.127643
-0.0100451
-0.0515957
-0.0160425
-0.0561065
-0.235543
-0.125929
-0.563086
-0.000612386
-2.45564
-5.11471
-8.25724
-12.386
-18.3858
-26.5889
-31.431
-16.7612
-6.83596
-3.32007
-1.96838
-1.45335
-1.10605
-0.732848
-0.388098
-0.143454
-0.0127346
-0.0190341
-0.247439
-0.58785
-0.00065112
-1.29962
-2.61501
-4.00613
-5.44853
-7.06732
-8.79335
-10.8588
-13.1454
-15.9926
-19.2817
-22.936
-27.1092
-29.1797
-31.3812
-24.8747
-17.613
-11.6806
-7.32517
-5.49223
-3.56812
-3.00851
-2.1165
-1.9972
-1.55414
-1.46665
-1.17633
-1.02277
-0.778225
-0.624474
-0.413193
-0.325442
-0.154334
-0.142152
-0.0156236
-0.0567833
-0.0216336
-0.0613848
-0.258246
-0.147588
-0.611363
-0.00206434
-2.76526
-5.76121
-9.28785
-13.8206
-19.9939
-27.3993
-31.2118
-18.2862
-7.8086
-3.81267
-2.26538
-1.65386
-1.24491
-0.822263
-0.43759
-0.164945
-0.0184833
-0.0242465
-0.268662
-0.633618
-0.00197532
-1.44652
-2.91224
-4.45788
-6.06636
-7.85351
-9.76794
-11.9989
-14.4697
-17.3734
-20.6817
-24.0155
-27.7048
-29.314
-31.0899
-25.4202
-18.9491
-12.8436
-8.27114
-6.13426
-4.05576
-3.37609
-2.41338
-2.23605
-1.75363
-1.63138
-1.31344
-1.13326
-0.866225
-0.690906
-0.462012
-0.359336
-0.175741
-0.156029
-0.0215208
-0.0617641
-0.0265082
-0.0670067
-0.278087
-0.168668
-0.65473
-0.00350421
-3.04721
-6.34396
-10.1956
-15.0208
-21.193
-27.8235
-30.8638
-19.45
-8.71602
-4.29543
-2.5617
-1.85232
-1.38028
-0.908847
-0.485732
-0.186264
-0.0245228
-0.02878
-0.287116
-0.674596
-0.00329746
-1.57822
-3.17843
-4.85984
-6.61323
-8.54022
-10.6083
-12.9559
-15.5488
-18.4395
-21.687
-24.7003
-27.9582
-29.2257
-30.6762
-25.6968
-19.9452
-13.8317
-9.14264
-6.74494
-4.53206
-3.73994
-2.70921
-2.47341
-1.95099
-1.79281
-1.44707
-1.24031
-0.951376
-0.755053
-0.509446
-0.392035
-0.196935
-0.169308
-0.0276844
-0.0665334
-0.0307295
-0.0729047
-0.29523
-0.189069
-0.693408
-0.00488922
-3.29518
-6.84959
-10.9605
-15.9711
-22.0167
-27.9358
-30.3941
-20.2942
-9.54223
-4.76516
-2.85666
-2.04855
-1.51214
-0.992565
-0.532453
-0.207329
-0.0308057
-0.0326858
-0.302945
-0.710988
-0.0045731
-1.69192
-3.40784
-5.2033
-7.07717
-9.11295
-11.2977
-13.7151
-16.3735
-19.1996
-22.3344
-25.0459
-27.9291
-28.9415
-30.1435
-25.7433
-20.6407
-14.6401
-9.92574
-7.31835
-4.99412
-4.09872
-3.00333
-2.70895
-2.14606
-1.95085
-1.57717
-1.34389
-1.03366
-0.816916
-0.555441
-0.423556
-0.217847
-0.182014
-0.0340713
-0.0710902
-0.0343375
-0.0790291
-0.309802
-0.208716
-0.727581
-0.0061714
-3.50405
-7.26776
-11.5688
-16.6674
-22.501
-27.7855
-29.8041
-20.855
-10.2754
-5.21925
-3.14964
-2.24241
-1.64047
-1.0734
-0.577718
-0.228087
-0.0372929
-0.0359925
-0.316257
-0.742954
-0.00575587
-1.78541
-3.596
-5.48166
-7.44943
-9.56177
-11.8256
-14.27
-16.9444
-19.6694
-22.6594
-25.0953
-27.6568
-28.4774
-29.491
-25.5861
-21.0688
-15.2699
-10.6108
-7.84973
-5.43955
-4.45131
-3.29521
-2.94235
-2.33867
-2.10545
-1.70373
-1.44399
-1.11306
-0.876481
-0.599976
-0.453898
-0.238438
-0.19416
-0.040646
-0.0754379
-0.03735
-0.0853474
-0.321894
-0.22755
-0.75739
-0.00730269
-3.67009
-7.59132
-12.0131
-17.1135
-22.6788
-27.4047
-29.0917
-21.1621
-10.908
-5.65564
-3.44015
-2.43374
-1.76525
-1.15137
-0.62152
-0.24851
-0.0439525
-0.0387072
-0.327126
-0.770614
-0.00679889
-1.85718
-3.73988
-5.69062
-7.72446
-9.88114
-12.1873
-14.6202
-17.2684
-19.8663
-22.6927
-24.8803
-27.1664
-27.842
-28.7146
-25.2416
-21.2561
-15.726
-11.1923
-8.33566
-5.86654
-4.79676
-3.58438
-3.17328
-2.52872
-2.25648
-1.82674
-1.54056
-1.1896
-0.933721
-0.643058
-0.483048
-0.258695
-0.20575
-0.0473797
-0.0795836
-0.0397641
-0.0918426
-0.331562
-0.24553
-0.782936
-0.0082337
-3.791
-7.81635
-12.291
-17.318
-22.5779
-26.813
-28.2513
-21.2391
-11.436
-6.07283
-3.72778
-2.62245
-1.88648
-1.22649
-0.66388
-0.2686
-0.0507588
-0.0408167
-0.335591
-0.794055
-0.00765087
-1.90643
-3.8379
-5.82812
-7.89986
-10.0694
-12.3827
-14.7697
-17.3557
-19.8078
-22.4595
-24.4228
-26.472
-27.0373
-27.8068
-24.7185
-21.2233
-16.0152
-11.6681
-8.77412
-6.2738
-5.13432
-3.87044
-3.40137
-2.71607
-2.40381
-1.94619
-1.63355
-1.26331
-0.988587
-0.684716
-0.510974
-0.278612
-0.216787
-0.0542404
-0.0835376
-0.0415215
-0.0985391
-0.338901
-0.262552
-0.804433
-0.00890359
-3.86599
-7.94202
-12.4047
-17.2921
-22.2208
-26.0207
-27.2745
-21.104
-11.8587
-6.46991
-4.01222
-2.80844
-2.00417
-1.2988
-0.704845
-0.288376
-0.0576901
-0.0422872
-0.34166
-0.81332
-0.0082286
-1.93315
-3.89005
-5.8945
-7.97632
-10.1288
-12.4158
-14.7264
-17.2185
-19.5103
-21.9794
-23.7377
-25.5798
-26.0601
-26.7575
-24.0198
-20.9852
-16.1459
-12.0388
-9.16476
-6.66101
-5.46331
-4.15347
-3.6261
-2.90085
-2.54719
-2.0622
-1.72284
-1.33429
-1.04101
-0.72504
-0.537617
-0.29829
-0.22721
-0.0612437
-0.0873156
-0.042716
-0.105341
-0.343616
-0.278921
-0.821315
-0.00917317
-3.89577
-7.97042
-12.3597
-17.0483
-21.6236
-25.0291
-26.1476
-20.7684
-12.1788
-6.84718
-4.29371
-2.99192
-2.11849
-1.36845
-0.744529
-0.307902
-0.0647362
-0.0430645
-0.345307
-0.828426
-0.00837093
-1.93807
-3.89782
-5.89224
-7.95748
-10.0646
-12.294
-14.5001
-16.8696
-18.9872
-21.2659
-22.8319
-24.4875
-24.899
-25.5507
-23.1423
-20.5517
-16.1265
-12.3097
-9.50853
-7.02958
-5.78342
-4.43413
-3.84717
-3.08341
-2.6865
-2.17501
-1.8084
-1.40273
-1.09095
-0.764174
-0.562949
-0.317728
-0.237069
-0.0683366
-0.0909398
-0.043077
-0.112448
-0.3461
-0.294191
-0.834482
-0.00873672
-3.88252
-7.90645
-12.1647
-16.5994
-20.7976
-23.8341
-24.8534
-20.2399
-12.402
-7.20677
-4.57335
-3.17345
-2.22974
-1.43565
-0.783099
-0.327273
-0.0718902
-0.0430724
-0.346478
-0.839349
-0.00759096
-1.92263
-3.86392
-5.82597
-7.8493
-9.88504
-12.0275
-14.1026
-16.3226
-18.2503
-20.3294
-21.7059
-23.1903
-23.536
-24.1656
-22.0798
-19.9269
-15.9656
-12.489
-9.8057
-7.38383
-6.09266
-4.7147
-4.06314
-3.26483
-2.82104
-2.28511
-1.8899
-1.4689
-1.13821
-0.802316
-0.586837
-0.337089
-0.246271
-0.0755437
-0.0944329
-0.0426528
-0.11979
-0.345988
-0.30869
-0.84328
-0.00682947
-3.82959
-7.75744
-11.8317
-15.96
-19.7526
-22.4325
-23.3656
-19.5203
-12.5412
-7.55588
-4.85478
-3.35468
-2.33864
-1.50079
-0.820812
-0.346626
-0.0791524
-0.0422109
-0.34508
-0.846025
-0.00485957
-1.8886
-3.79355
-5.70203
-7.6615
-9.60116
-11.6296
-13.5483
-15.5899
-17.3112
-19.1701
-20.3583
-21.665
-21.958
-22.5509
-20.8299
-19.1059
-15.6697
-12.5986
-10.0524
-7.73889
-6.38591
-5.00286
-4.2712
-3.44835
-2.94969
-2.39378
-1.96691
-1.53341
-1.18256
-0.839815
-0.609147
-0.356539
-0.254776
-0.082865
-0.0978259
-0.0412971
-0.127458
-0.343243
-0.322388
-0.847782
0.000349099
-3.74427
-7.53564
-11.3759
-15.1415
-18.4813
-20.7829
-21.6008
-18.5978
-12.6273
-7.91754
-5.14961
-3.54037
-2.44702
-1.56466
-0.858095
-0.366174
-0.0865354
-0.0403552
-0.340986
-0.848353
0.00484041
-1.84053
-3.69401
-5.53548
-7.40779
-9.23778
-11.116
-12.8677
-14.6787
-16.1939
-17.7651
-18.796
-19.866
-20.1501
-20.6035
-19.3954
-18.0568
-15.2608
-12.6602
-10.2573
-8.10881
-6.66236
-5.30653
-4.4696
-3.63796
-3.07197
-2.50213
-2.03995
-1.59598
-1.22456
-0.876406
-0.629925
-0.377223
-0.26153
-0.0952204
-0.0975718
-0.0553406
-0.124534
-0.34453
-0.344376
-0.830312
-0.00232977
-3.60184
-7.1909
-10.71
-14.0063
-16.7869
-18.6441
-19.3276
-17.3195
-12.6437
-8.33115
-5.49676
-3.75524
-2.56677
-1.63201
-0.897401
-0.389454
-0.104909
-0.0695606
-0.348241
-0.810144
-0.00693205
-1.75195
-3.50683
-5.23466
-6.9738
-8.6408
-10.3198
-11.8527
-13.3861
-14.6628
-15.913
-16.7776
-17.5828
-17.9117
-18.2314
-17.5686
-16.6823
-14.6128
-12.6133
-10.4296
-8.51461
-6.99347
-5.66418
-4.71939
-3.86285
-3.22405
-2.62815
-2.12783
-1.66696
-1.27447
-0.917439
-0.655052
-0.399916
-0.270409
-0.109225
-0.0969601
-0.0692324
-0.122136
-0.345508
-0.363821
-0.806015
-0.00583674
-3.37365
-6.68804
-9.84967
-12.705
-15.0298
-16.5686
-17.2121
-16.0048
-12.4613
-8.63016
-5.80486
-3.95719
-2.68016
-1.69519
-0.933602
-0.408675
-0.112839
-0.0684658
-0.340269
-0.799495
-0.00663883
-1.62297
-3.24582
-4.83004
-6.41623
-7.91344
-9.40857
-10.7486
-12.0752
-13.1646
-14.2222
-14.9608
-15.6508
-15.9708
-16.2865
-15.9251
-15.3902
-13.8517
-12.3243
-10.4264
-8.73475
-7.23343
-5.93521
-4.92964
-4.04624
-3.35284
-2.72954
-2.19829
-1.7217
-1.31304
-0.948365
-0.674904
-0.416367
-0.278197
-0.116101
-0.0989523
-0.0680332
-0.126507
-0.336481
-0.368068
-0.795012
-0.00505551
-3.0969
-6.10953
-8.93236
-11.4277
-13.4286
-14.7729
-15.4151
-14.7602
-12.1023
-8.77663
-6.03601
-4.11997
-2.7688
-1.74132
-0.959226
-0.422344
-0.118706
-0.0670552
-0.330357
-0.787908
-0.00732951
-1.47915
-2.9561
-4.39006
-5.82092
-7.15865
-8.48779
-9.66726
-10.8285
-11.7792
-12.6993
-13.3557
-13.9719
-14.295
-14.6174
-14.466
-14.1805
-13.0467
-11.8972
-10.2814
-8.81493
-7.37763
-6.13115
-5.09189
-4.19083
-3.45472
-2.80673
-2.25087
-1.76004
-1.3405
-0.969288
-0.689279
-0.427653
-0.283991
-0.120981
-0.0997379
-0.0662779
-0.128266
-0.325134
-0.364616
-0.78205
-0.00476566
-2.80589
-5.51875
-8.03411
-10.2342
-11.9944
-13.208
-13.8604
-13.5969
-11.6315
-8.79636
-6.19479
-4.24464
-2.83388
-1.77175
-0.975446
-0.43123
-0.122639
-0.0648252
-0.317861
-0.773479
-0.00697499
-1.33428
-2.66532
-3.95387
-5.23651
-6.4303
-7.61235
-8.65827
-9.68463
-10.5289
-11.3452
-11.943
-12.5072
-12.8351
-13.1641
-13.1639
-13.0574
-12.2355
-11.3846
-10.029
-8.77815
-7.43028
-6.25433
-5.20157
-4.29583
-3.52637
-2.85975
-2.2842
-1.7827
-1.35624
-0.981001
-0.697774
-0.434329
-0.287558
-0.123958
-0.09941
-0.0635403
-0.127622
-0.311101
-0.35399
-0.765504
-0.00421934
-2.52264
-4.95346
-7.19578
-9.15066
-10.7233
-11.84
-12.5006
-12.5193
-11.0939
-8.70945
-6.28136
-4.32846
-2.87419
-1.78649
-0.982637
-0.435684
-0.124716
-0.061483
-0.302441
-0.754371
-0.00641013
-1.1966
-2.38959
-3.54311
-4.68964
-5.75538
-6.80864
-7.7417
-8.65601
-9.41465
-10.1486
-10.7006
-11.2247
-11.5549
-11.8872
-11.9961
-12.0191
-11.4376
-10.822
-9.69683
-8.64368
-7.39915
-6.30563
-5.25699
-4.35865
-3.56568
-2.8873
-2.29749
-1.78951
-1.36006
-0.983733
-0.700237
-0.436659
-0.288762
-0.125108
-0.0980284
-0.0596319
-0.124628
-0.293995
-0.336901
-0.743285
-0.00370807
-2.25859
-4.43193
-6.4338
-8.18148
-9.60115
-10.6391
-11.3012
-11.5228
-10.5178
-8.53367
-6.29726
-4.36905
-2.88838
-1.78529
-0.980925
-0.43588
-0.124991
-0.0568836
-0.283934
-0.728685
-0.00571622
-1.07006
-2.13658
-3.16772
-4.19183
-5.14449
-6.08518
-6.92156
-7.74093
-8.42785
-9.09348
-9.60671
-10.0967
-10.4254
-10.757
-10.9432
-11.0594
-10.6628
-10.2318
-9.30545
-8.42822
-7.29225
-6.28726
-5.25746
-4.37722
-3.57093
-2.88804
-2.29004
-1.78023
-1.35186
-0.977582
-0.696625
-0.434781
-0.287538
-0.124486
-0.0956381
-0.0544623
-0.11928
-0.273705
-0.313935
-0.713377
-0.00321158
-2.0185
-3.96065
-5.75112
-7.32069
-8.61045
-9.57934
-10.235
-10.6
-9.92075
-8.28371
-6.2449
-4.36459
-2.87518
-1.76787
-0.970372
-0.431919
-0.123514
-0.050994
-0.262267
-0.694298
-0.00502847
-0.955908
-1.90855
-2.83014
-3.74519
-4.59804
-5.4401
-6.19238
-6.92978
-7.55457
-8.16127
-8.63952
-9.09842
-9.42178
-9.74844
-9.98763
-10.1695
-9.91417
-9.62699
-8.86895
-8.14493
-7.11662
-6.20192
-5.20278
-4.34999
-3.54064
-2.86084
-2.26125
-1.75462
-1.33157
-0.962623
-0.686947
-0.428779
-0.283867
-0.122133
-0.0922825
-0.04802
-0.111522
-0.250283
-0.285665
-0.673675
-0.00280086
-1.80302
-3.53909
-5.14318
-6.55713
-7.7329
-8.63773
-9.27912
-9.74156
-9.31245
-7.97093
-6.12691
-4.31369
-2.83349
-1.734
-0.951036
-0.423874
-0.120346
-0.0438754
-0.237395
-0.648675
-0.0043849
-0.853744
-1.70461
-2.5285
-3.34665
-4.11104
-4.86608
-5.54409
-6.20944
-6.77882
-7.3331
-7.77834
-8.20764
-8.52175
-8.83982
-9.1126
-9.33879
-9.19016
-9.01396
-8.39611
-7.80325
-6.87789
-6.05206
-5.09304
-4.27568
-3.47361
-2.80464
-2.21063
-1.71246
-1.2992
-0.938907
-0.671262
-0.418724
-0.277747
-0.118124
-0.0879827
-0.0404274
-0.101226
-0.223511
-0.253034
-0.62119
-0.00245936
-1.61033
-3.16268
-4.60124
-5.87691
-6.9498
-7.79289
-8.41287
-8.93646
-8.69673
-7.60307
-5.94556
-4.21527
-2.76239
-1.68351
-0.922995
-0.411812
-0.115556
-0.0356605
-0.209171
-0.588738
-0.00383313
-0.762328
-1.52219
-2.25874
-2.99043
-3.67576
-4.35328
-4.96463
-5.56552
-6.08425
-6.59062
-7.00372
-7.40393
-7.7053
-8.0114
-8.30224
-8.55599
-8.48605
-8.39421
-7.89139
-7.40935
-6.58003
-5.83971
-4.92831
-4.15331
-3.3688
-2.7186
-2.13779
-1.65361
-1.25479
-0.906527
-0.64965
-0.404688
-0.269201
-0.112549
-0.0827496
-0.0318372
-0.0882689
-0.193142
-0.217099
-0.552444
-0.00217786
-1.43736
-2.82484
-4.11467
-5.26524
-6.24294
-7.02492
-7.61696
-8.17256
-8.07296
-7.18449
-5.70238
-4.06839
-2.66113
-1.61633
-0.886357
-0.395808
-0.10924
-0.0265408
-0.177233
-0.510613
-0.00336933
-0.679923
-1.3578
-2.01551
-2.66928
-3.28302
-3.89048
-4.4409
-4.98295
-5.45427
-5.91577
-6.29688
-6.66785
-6.95325
-7.24436
-7.54051
-7.80828
-7.7943
-7.76515
-7.35539
-6.96607
-6.22499
-5.56606
-4.70841
-3.98208
-3.22537
-2.60211
-2.04243
-1.57808
-1.19843
-0.865625
-0.622221
-0.386757
-0.258265
-0.105503
-0.0765981
-0.0224481
-0.0725205
-0.158721
-0.179232
-0.463176
-0.00196902
-1.28041
-2.51806
-3.67214
-4.7072
-5.5947
-6.31498
-6.87304
-7.43672
-7.43703
-6.71657
-5.39799
-3.87223
-2.52915
-1.53247
-0.841266
-0.375962
-0.101539
-0.0167432
-0.140854
-0.409299
-0.0029804
-0.604564
-1.20748
-1.79291
-2.37533
-2.92302
-3.46595
-3.95946
-4.44661
-4.87246
-5.29092
-5.63954
-5.98062
-6.24702
-6.5203
-6.81103
-7.08174
-7.10503
-7.12094
-6.78538
-6.47318
-5.81284
-5.2311
-4.43281
-3.76111
-3.04266
-2.45466
-1.92445
-1.4859
-1.13026
-0.816357
-0.589105
-0.365052
-0.244963
-0.097168
-0.0694933
-0.0124816
-0.0539129
-0.119093
-0.141483
-0.347544
-0.0018206
-1.13541
-2.23427
-3.26173
-4.1876
-4.98749
-5.64435
-6.16266
-6.7143
-6.7816
-6.19765
-5.03186
-3.62595
-2.36611
-1.43206
-0.787917
-0.352412
-0.0926417
-0.00646774
-0.0986595
-0.27835
-0.00268244
-0.534174
-1.06709
-1.58476
-2.10034
-2.58565
-3.0677
-3.50667
-3.94129
-4.32244
-4.69856
-5.01358
-5.32363
-5.56801
-5.82072
-6.09674
-6.36109
-6.40619
-6.45283
-6.17571
-5.92769
-5.34166
-4.83374
-4.10049
-3.48955
-2.82012
-2.276
-1.78387
-1.37727
-1.05049
-0.758954
-0.55044
-0.339749
-0.229309
-0.0877742
-0.0613906
-0.00204983
-0.0325397
-0.0724194
-0.106494
-0.198138
-0.00169981
-0.998103
-1.96505
-2.87123
-3.691
-4.40358
-4.99413
-5.46687
-5.98911
-6.09645
-5.62335
-4.60225
-3.32871
-2.17188
-1.31536
-0.726577
-0.325373
-0.0828021
0.00421154
-0.0482804
-0.109307
-0.00240537
-0.466545
-0.932218
-1.38453
-1.83567
-2.26032
-2.68321
-3.06841
-3.45124
-3.78727
-4.12062
-4.40028
-4.67755
-4.89682
-5.12613
-5.37916
-5.62916
-5.68329
-5.74916
-5.5178
-5.32387
-4.80761
-4.37167
-3.70991
-3.16657
-2.55736
-2.06619
-1.62087
-1.25256
-0.959336
-0.693754
-0.506359
-0.311121
-0.211276
-0.0775641
-0.0522868
0.0089011
-0.00869532
-0.0156023
-0.078012
-0.00513228
-0.00171932
-0.863923
-1.7015
-2.48778
-3.20125
-3.82437
-4.34438
-4.76542
-5.24286
-5.36844
-4.98656
-4.10618
-2.97958
-1.94661
-1.18283
-0.657641
-0.295183
-0.0723385
0.0155361
0.0141353
0.109056
-0.00239647
-0.399377
-0.798213
-1.18525
-1.57217
-1.93573
-2.29924
-2.62959
-2.95982
-3.24889
-3.53794
-3.77959
-4.02177
-4.21246
-4.41548
-4.63772
-4.86648
-4.91909
-4.99526
-4.8002
-4.65327
-4.20493
-3.84126
-3.25906
-2.79123
-2.2542
-1.82555
-1.43578
-1.11242
-0.857031
-0.621294
-0.456928
-0.279624
-0.190765
-0.0668938
-0.0421694
0.0209791
0.01674
0.0564072
-0.0611889
0.244488
-0.00139891
-0.728188
-1.43413
-2.09758
-2.70096
-3.22984
-3.67356
-4.03621
-4.45466
-4.58129
-4.27751
-3.53945
-2.57769
-1.69088
-1.03533
-0.5818
-0.262413
-0.0615832
0.0284102
0.0947557
0.391651
-0.00151688
-0.329981
-0.659962
-0.97941
-1.2996
-1.59957
-1.90098
-2.17378
-2.44842
-2.68751
-2.92894
-3.12944
-3.33306
-3.49177
-3.66479
-3.84923
-4.0501
-4.09334
-4.17285
-4.00847
-3.90454
-3.52602
-3.23759
-2.74542
-2.36273
-1.91047
-1.55513
-1.22886
-0.958144
-0.743586
-0.542616
-0.402032
-0.246034
-0.167578
-0.0560524
-0.0312074
0.0357569
0.0420476
0.151377
-0.0630486
0.568011
-0.00306153
-0.584811
-1.15157
-1.68453
-2.16998
-2.59665
-2.95619
-3.25253
-3.59903
-3.71454
-3.48336
-2.89654
-2.1225
-1.40633
-0.87466
-0.500453
-0.228062
-0.0507735
0.0449862
0.203186
0.75851
-0.00535434
-0.256446
-0.51197
-0.758078
-1.007
-1.23737
-1.4726
-1.68181
-1.89699
-2.0801
-2.27039
-2.42377
-2.58642
-2.70735
-2.84813
-2.98514
-3.15551
-3.18066
-3.26152
-3.12451
-3.06405
-2.76153
-2.55494
-2.16594
-1.88168
-1.52552
-1.25833
-0.999596
-0.793075
-0.618284
-0.460059
-0.341104
-0.211786
-0.14134
-0.0450341
-0.0200212
0.0564026
0.064271
0.281684
-0.0938374
0.989472
0.00441643
-0.430485
-0.843074
-1.23285
-1.58837
-1.90114
-2.16554
-2.39146
-2.65287
-2.74737
-2.58924
-2.17138
-1.6158
-1.0982
-0.7057
-0.416904
-0.194001
-0.0398048
0.0696609
0.354093
1.23675
0.0124366
-0.172181
-0.348386
-0.511358
-0.677541
-0.833207
-0.991712
-1.13311
-1.27824
-1.40191
-1.53004
-1.63356
-1.74175
-1.82688
-1.92693
-2.02014
-2.13663
-2.16082
-2.21876
-2.13512
-2.10395
-1.90376
-1.78598
-1.51515
-1.35644
-1.09423
-0.948206
-0.743431
-0.6275
-0.477836
-0.379753
-0.272323
-0.179756
-0.111421
-0.0333802
-0.0099196
0.0893648
0.0779326
0.465629
-0.167221
1.54034
-0.039985
-0.248969
-0.485423
-0.711716
-0.918448
-1.10039
-1.25393
-1.3846
-1.54008
-1.61191
-1.55371
-1.35676
-1.07398
-0.787989
-0.544301
-0.340082
-0.164114
-0.0277654
0.110719
0.569785
1.86325
-0.0491357
-0.0717267
-0.12805
-0.190501
-0.252249
-0.313939
-0.37148
-0.429629
-0.482151
-0.535357
-0.5819
-0.629086
-0.668913
-0.707523
-0.743583
-0.802599
-0.846915
-0.890504
-0.918497
-0.927555
-0.935401
-0.893675
-0.881917
-0.791594
-0.765551
-0.650575
-0.614116
-0.500549
-0.4537
-0.354059
-0.298469
-0.214769
-0.15116
-0.0906078
-0.0328777
0.00888296
0.0960143
0.0876017
0.358697
0.110219
1.28433
0.00753909
-0.0418592
-0.0853854
-0.127482
-0.168373
-0.207782
-0.245352
-0.280474
-0.340834
-0.40339
-0.46055
-0.498879
-0.504122
-0.468905
-0.397014
-0.299729
-0.189082
-0.077786
0.0323184
0.160664
0.293335
-0.00552688
-0.0116887
-0.0216089
-0.0315561
-0.0416923
-0.0520745
-0.0621378
-0.0725334
-0.0824608
-0.0927946
-0.102561
-0.112801
-0.122437
-0.132559
-0.142088
-0.158808
-0.174491
-0.195635
-0.213474
-0.237432
-0.25726
-0.281473
-0.302108
-0.321399
-0.339
-0.346742
-0.354657
-0.345887
-0.338364
-0.312192
-0.287838
-0.246732
-0.208404
-0.157523
-0.109258
-0.0519396
0.00537873
0.0576974
0.130366
0.0958958
0.0231122
-0.00195455
-0.0135735
-0.0265086
-0.0394904
-0.052319
-0.0649191
-0.0772261
-0.0893921
-0.11006
-0.134383
-0.162109
-0.192104
-0.2211
-0.242499
-0.247185
-0.227232
-0.179817
-0.109745
-0.0251508
0.0524611
-0.0134977
0.00126613
-0.00393494
-0.00832332
-0.0126856
-0.0170221
-0.0212414
-0.0255467
-0.0296901
-0.033953
-0.038017
-0.042228
-0.0462038
-0.0503597
-0.0542554
-0.0584111
-0.0653512
-0.0727869
-0.0808429
-0.0896824
-0.0989613
-0.108893
-0.11937
-0.129714
-0.140997
-0.150989
-0.161659
-0.170265
-0.177256
-0.182251
-0.181467
-0.179151
-0.167186
-0.154787
-0.131629
-0.108593
-0.0775651
-0.0518116
-0.0206713
0.00428514
-0.00234661
-0.0269067
0.000629654
-0.00531069
-0.0107829
-0.0161764
-0.0215361
-0.0268624
-0.0321436
-0.03728
-0.0465883
-0.0578189
-0.0710534
-0.086011
-0.101876
-0.116915
-0.12786
-0.129782
-0.117426
-0.0885753
-0.0510231
-0.0201563
-0.0138571
-0.000485651
-0.00182742
-0.00350187
-0.00517376
-0.00686587
-0.00857744
-0.0102624
-0.0119757
-0.0136456
-0.0153544
-0.017006
-0.0187031
-0.0203384
-0.02202
-0.0236647
-0.0266139
-0.0294577
-0.0331531
-0.0366098
-0.0410432
-0.0452402
-0.0503413
-0.0553234
-0.0608324
-0.0663449
-0.0717934
-0.0771208
-0.0816686
-0.085785
-0.0879746
-0.0894862
-0.0873403
-0.0847585
-0.0771073
-0.0692779
-0.0593608
-0.0511576
-0.0427184
-0.0392824
-0.029786
-0.0150158
-0.00013641
-0.00192983
-0.00381541
-0.00570665
-0.0075885
-0.00945847
-0.0113126
-0.0131654
-0.0164413
-0.020445
-0.0252495
-0.0308311
-0.0369448
-0.0429814
-0.0478183
-0.0497314
-0.0468567
-0.0387122
-0.0308542
-0.0288423
-0.010922
8.79007e-05
-0.00030023
-0.000632075
-0.000963212
-0.00129277
-0.0016126
-0.00194146
-0.00225733
-0.00258302
-0.00289622
-0.00321894
-0.00352653
-0.00384614
-0.00414907
-0.00447003
-0.00501001
-0.00558956
-0.00622622
-0.00692114
-0.00766957
-0.00845818
-0.00931625
-0.0101489
-0.0110609
-0.0118755
-0.0126821
-0.0133554
-0.0137603
-0.0140275
-0.0136536
-0.0131301
-0.0117083
-0.0103261
-0.00807545
-0.00666847
-0.00597068
-0.0068607
-0.0102044
-0.0165823
-0.0140242
-0.00863482
3.713e-05
0.000545046
0.00107919
0.00161858
0.00216088
0.00270373
0.00324881
0.00380134
0.00480242
0.00608555
0.00773682
0.00987244
0.0126502
0.0162825
0.0210022
0.0268799
0.0331706
0.0372259
0.0327699
0.0125977
-0.00581628
-2.30062e-05
0.000840495
0.00168644
0.00253393
0.0033798
0.00422525
0.00507032
0.00591402
0.00676045
0.00760122
0.00844754
0.00928773
0.0101326
0.0109706
0.0118168
0.0133377
0.014867
0.016771
0.0186877
0.0210685
0.0234584
0.0264237
0.0293857
0.0330514
0.0366973
0.0411522
0.04558
0.0508346
0.0560298
0.0618794
0.0675416
0.0731676
0.0783695
0.0817396
0.0840139
0.0810688
0.0760803
0.0610967
0.0431059
0.0188893
-0.00442988
-1.83822e-05
0.0029007
0.00580547
0.00870646
0.0116054
0.014499
0.0173881
0.0202667
0.0254766
0.0319925
0.0401112
0.0501619
0.0624735
0.0772749
0.0944706
0.113181
0.130748
0.14089
0.131478
0.0848926
-0.0032243
2.38983e-05
0.00209092
0.00417274
0.00625485
0.0083379
0.0104213
0.0125021
0.014583
0.0166629
0.0187392
0.0208159
0.0228892
0.024961
0.027028
0.0291027
0.0328375
0.0365744
0.0412507
0.0459234
0.0517479
0.0575676
0.0647732
0.0719714
0.0807925
0.0895897
0.100193
0.110733
0.123074
0.135272
0.148799
0.161984
0.175012
0.187318
0.195891
0.202917
0.199141
0.192564
0.163753
0.130453
0.0662712
-0.000799458
-1.02162e-05
0.00549808
0.0109967
0.0164901
0.0219788
0.0274583
0.0329291
0.0383843
0.0482513
0.0605919
0.0759673
0.0949984
0.118304
0.146336
0.179
0.214865
0.249539
0.272623
0.262914
0.184602
-0.000592357
2.13601e-05
0.00346978
0.00693128
0.0103931
0.0138561
0.0173178
0.0207776
0.0242355
0.0276932
0.0311448
0.0345976
0.0380442
0.04149
0.0449275
0.0483765
0.0545904
0.0608113
0.0685918
0.0763751
0.0860756
0.0957761
0.107798
0.119813
0.134567
0.149295
0.167106
0.184847
0.205736
0.226465
0.249695
0.272542
0.29564
0.317917
0.33485
0.349911
0.347783
0.341996
0.297483
0.246189
0.129281
0.00404009
-1.38905e-05
0.00830911
0.0166197
0.0249231
0.0332198
0.0415049
0.0497784
0.058032
0.0729655
0.0916589
0.114981
0.143916
0.179484
0.222531
0.273227
0.329963
0.387015
0.429756
0.425853
0.313726
0.00341771
2.11757e-05
0.00490357
0.00979894
0.0146943
0.0195912
0.0244859
0.0293787
0.0342692
0.0391593
0.0440427
0.0489271
0.0538047
0.0586812
0.0635483
0.0684265
0.0772306
0.0860414
0.0970737
0.10811
0.121888
0.13567
0.152788
0.16991
0.191007
0.2121
0.237739
0.263354
0.293762
0.324101
0.358584
0.392836
0.428445
0.463435
0.492222
0.51924
0.522683
0.521996
0.462513
0.39364
0.211108
0.0119653
-8.33933e-06
0.0109676
0.0219359
0.0328968
0.043851
0.0547933
0.0657239
0.0766358
0.096388
0.121147
0.152102
0.190634
0.238254
0.296387
0.365827
0.44549
0.529338
0.599735
0.612733
0.473464
0.0108749
4.30376e-06
0.00609797
0.012193
0.0182881
0.0243839
0.030477
0.0365689
0.0426582
0.0487476
0.0548306
0.0609153
0.0669936
0.0730719
0.079141
0.0852165
0.0962074
0.107201
0.120988
0.134783
0.15204
0.169312
0.190832
0.212382
0.239057
0.265786
0.298507
0.331332
0.37075
0.410317
0.456207
0.50226
0.551885
0.601655
0.646319
0.690193
0.706046
0.718608
0.650913
0.571736
0.313483
0.0256735
5.16006e-06
0.0126261
0.0252511
0.0378714
0.0504878
0.0630959
0.0756965
0.0882881
0.111096
0.139743
0.175666
0.2206
0.276562
0.345725
0.430033
0.530021
0.641565
0.747912
0.79685
0.655378
0.024746
-2.97665e-05
0.00648418
0.0129762
0.0194686
0.0259598
0.0324486
0.0389371
0.0454242
0.0519123
0.0583965
0.0648834
0.071367
0.0778525
0.0843325
0.0908071
0.102562
0.114311
0.129082
0.143862
0.162417
0.180997
0.204266
0.227598
0.2567
0.285939
0.322155
0.358654
0.403297
0.448492
0.502338
0.557423
0.619369
0.683208
0.746486
0.812133
0.851095
0.890223
0.832786
0.764635
0.431434
0.0499665
2.79478e-05
0.0118479
0.0236917
0.0355368
0.0473842
0.0592317
0.0710812
0.0829417
0.104447
0.131546
0.165693
0.208736
0.263006
0.331409
0.417488
0.52486
0.655111
0.800623
0.912341
0.827174
0.052657
-7.68452e-05
0.00520044
0.0104239
0.0156482
0.0208685
0.0260879
0.0313082
0.0365293
0.0417527
0.0469769
0.0522051
0.0574352
0.0626701
0.0679064
0.07312
0.0826492
0.0921585
0.104169
0.116187
0.131369
0.146588
0.165816
0.185145
0.209563
0.234234
0.265365
0.297034
0.336879
0.37788
0.428999
0.482332
0.548127
0.617227
0.697127
0.784362
0.858026
0.940445
0.931916
0.920987
0.546621
0.09215
5.40883e-05
0.00680958
0.0136111
0.0204225
0.0272438
0.0340768
0.0409243
0.0478087
0.0603219
0.0762192
0.0964963
0.122547
0.156366
0.200936
0.260855
0.343122
0.460293
0.622991
0.819322
0.893304
0.105323
-0.000111566
0.00132829
0.00269158
0.00405581
0.00541382
0.00677312
0.00813461
0.00949954
0.0108674
0.0122421
0.0136209
0.015008
0.0164018
0.0178056
0.0191708
0.0217752
0.0243485
0.0276915
0.0310348
0.0354175
0.0398324
0.0456975
0.0516601
0.0597281
0.0680707
0.0796236
0.0917111
0.108967
0.127576
0.154706
0.184544
0.228584
0.280595
0.348769
0.437667
0.549271
0.68177
0.776022
0.901366
0.593741
0.183595
6.3287e-05
-0.0038986
-0.00780707
-0.0117003
-0.0155795
-0.019439
-0.023277
-0.0270636
-0.0338832
-0.0422541
-0.0523859
-0.0643172
-0.077692
-0.0911604
-0.101304
-0.0999728
-0.0695174
0.0255402
0.280286
0.627942
0.255501
-9.12124e-05
-0.00552174
-0.0110131
-0.0165045
-0.0220011
-0.0274953
-0.0329861
-0.0384735
-0.0439587
-0.0494337
-0.0549073
-0.0603704
-0.0658281
-0.0712717
-0.0767514
-0.086571
-0.0964163
-0.108699
-0.120985
-0.136252
-0.151498
-0.170319
-0.189077
-0.211986
-0.234656
-0.261851
-0.288614
-0.319665
-0.349184
-0.38123
-0.410977
-0.437043
-0.456495
-0.453367
-0.451008
-0.344721
-0.199961
0.0199098
0.339712
0.455572
0.373997
3.26235e-05
-0.0197576
-0.0395213
-0.0592728
-0.079016
-0.0987422
-0.118454
-0.138129
-0.173776
-0.2185
-0.2745
-0.344367
-0.431036
-0.53736
-0.665477
-0.813399
-0.969983
-1.10218
-1.06582
-0.603106
0.366376
-1.12855e-05
-0.0143751
-0.0287424
-0.0431125
-0.0574832
-0.0718525
-0.0862178
-0.100584
-0.11495
-0.129308
-0.143671
-0.158027
-0.172385
-0.186731
-0.20109
-0.227105
-0.253123
-0.285837
-0.318562
-0.359667
-0.400793
-0.452363
-0.503998
-0.568557
-0.633183
-0.71355
-0.79432
-0.89365
-0.993136
-1.11271
-1.2346
-1.37412
-1.50974
-1.64944
-1.77814
-1.89759
-1.89191
-1.84746
-1.65292
-0.667924
0.821506
-1.96144e-05
-0.0372417
-0.0744847
-0.111727
-0.148977
-0.186226
-0.223482
-0.260748
-0.32836
-0.413541
-0.520879
-0.656189
-0.826891
-1.04232
-1.31474
-1.65832
-2.09201
-2.60124
-3.16938
-3.20949
0.468525
0.000153181
-0.0226928
-0.0454286
-0.0681705
-0.0909028
-0.113637
-0.136366
-0.159105
-0.181845
-0.204586
-0.227337
-0.250094
-0.272857
-0.295623
-0.318343
-0.359712
-0.401026
-0.453161
-0.505271
-0.571062
-0.636852
-0.719981
-0.80319
-0.908479
-1.01392
-1.14769
-1.28209
-1.45336
-1.62516
-1.84576
-2.07005
-2.36167
-2.6572
-3.03655
-3.4573
-3.95881
-4.63827
-4.85987
-5.59643
-3.61903
-0.702115
-0.000134273
-0.0506223
-0.101221
-0.151834
-0.202468
-0.253111
-0.303781
-0.354517
-0.44655
-0.562651
-0.709213
-0.894505
-1.12935
-1.42804
-1.81075
-2.3043
-2.95817
-3.83472
-5.16329
-7.00775
-9.26081
-3.1741e-12
-0.0275759
-0.0551465
-0.0827244
-0.110304
-0.137886
-0.165465
-0.193054
-0.220647
-0.248238
-0.275841
-0.30345
-0.331066
-0.358683
-0.386313
-0.436459
-0.486629
-0.54986
-0.613145
-0.69294
-0.772851
-0.873677
-0.974748
-1.10241
-1.23057
-1.39271
-1.55587
-1.76276
-1.97173
-2.23763
-2.50793
-2.85289
-3.20739
-3.66243
-4.14075
-4.76068
-5.44745
-6.5094
-7.77849
-12.5074
-18.2383
SCALARS Radial_Distance double 1
LOOKUP_TABLE default
0
0.4286
0.8571
1.2857
1.7143
2.1429
2.5714
3
3.4286
3.8571
4.2857
4.7143
5.1429
5.5714
6
6.7775
7.5549
8.5339
9.5128
10.7455
11.9781
13.5302
15.0823
17.0367
18.991
21.4518
23.9126
27.0111
30.1097
34.0112
37.9127
42.8254
47.738
53.9238
60.1096
67.8984
75.6873
85.4946
95.302
107.651
120
0
0.8571
1.7143
2.5714
3.4286
4.2857
5.1429
6
7.5549
9.5128
11.9781
15.0823
18.991
23.9126
30.1097
37.9127
47.738
60.1096
75.6873
95.302
120
0
0.4286
0.8571
1.2857
1.7143
2.1429
2.5714
3
3.4286
3.8571
4.2857
4.7143
5.1429
5.5714
6
6.7775
7.5549
8.5339
9.5128
10.7455
11.9781
13.5302
15.0823
17.0367
18.991
21.4518
23.9126
27.0111
30.1097
34.0112
37.9127
42.8254
47.738
53.9238
60.1096
67.8984
75.6873
85.4946
95.302
107.651
120
0
0.8571
1.7143
2.5714
3.4286
4.2857
5.1429
6
7.5549
9.5128
11.9781
15.0823
18.991
23.9126
30.1097
37.9127
47.738
60.1096
75.6873
95.302
120
0
0.4286
0.8571
1.2857
1.7143
2.1429
2.5714
3
3.4286
3.8571
4.2857
4.7143
5.1429
5.5714
6
6.7775
7.5549
8.5339
9.5128
10.7455
11.9781
13.5302
15.0823
17.0367
18.991
21.4518
23.9126
27.0111
30.1097
34.0112
37.9127
42.8254
47.738
53.9238
60.1096
67.8984
75.6873
85.4946
95.302
107.651
120
0
0.8571
1.7143
2.5714
3.4286
4.2857
5.1429
6
7.5549
9.5128
11.9781
15.0823
18.991
23.9126
30.1097
37.9127
47.738
60.1096
75.6873
95.302
120
0
0.4286
0.8571
1.2857
1.7143
2.1429
2.5714
3
3.4286
3.8571
4.2857
4.7143
5.1429
5.5714
6
6.7775
7.5549
8.5339
9.5128
10.7455
11.9781
13.5302
15.0823
17.0367
18.991
21.4518
23.9126
27.0111
30.1097
34.0112
37.9127
42.8254
47.738
53.9238
60.1096
67.8984
75.6873
85.4946
95.302
107.651
120
0
0.8571
1.7143
2.5714
3.4286
4.2857
5.1429
6
7.5549
9.5128
11.9781
15.0823
18.991
23.9126
30.1097
37.9127
47.738
60.1096
75.6873
95.302
120
0
0.4286
0.8571
1.2857
1.7143
2.1429
2.5714
3
3.4286
3.8571
4.2857
4.7143
5.1429
5.5714
6
6.7775
7.5549
8.5339
9.5128
10.7455
11.9781
13.5302
15.0823
17.0367
18.991
21.4518
23.9126
27.0111
30.1097
34.0112
37.9127
42.8254
47.738
53.9238
60.1096
67.8984
75.6873
85.4946
95.302
107.651
120
0
0.8571
1.7143
2.5714
3.4286
4.2857
5.1429
6
7.5549
9.5128
11.9781
15.0823
18.991
23.9126
30.1097
37.9127
47.738
60.1096
75.6873
95.302
120
0
0.4286
0.8571
1.2857
1.7143
2.1429
2.5714
3
3.4286
3.8571
4.2857
4.7143
5.1429
5.5714
6
6.7775
7.5549
8.5339
9.5128
10.7455
11.9781
13.5302
15.0823
17.0367
18.991
21.4518
23.9126
27.0111
30.1097
34.0112
37.9127
42.8254
47.738
53.9238
60.1096
67.8984
75.6873
85.4946
95.302
107.651
120
0
0.8571
1.7143
2.5714
3.4286
4.2857
5.1429
6
7.5549
9.5128
11.9781
15.0823
18.991
23.9126
30.1097
37.9127
47.738
60.1096
75.6873
95.302
120
0
0.4286
0.8571
1.2857
1.7143
2.1429
2.5714
3
3.4286
3.8571
4.2857
4.7143
5.1429
5.5714
6
6.7775
7.5549
8.5339
9.5128
10.7455
11.9781
13.5302
15.0823
17.0367
18.991
21.4518
23.9126
27.0111
30.1097
34.0112
37.9127
42.8254
47.738
53.9238
60.1096
67.8984
75.6873
85.4946
95.302
107.651
120
0
0.8571
1.7143
2.5714
3.4286
4.2857
5.1429
6
7.5549
9.5128
11.9781
15.0823
18.991
23.9126
30.1097
37.9127
47.738
60.1096
75.6873
95.302
120
0
0.4286
0.8571
1.2857
1.7143
2.1429
2.5714
3
3.4286
3.8571
4.2857
4.7143
5.1429
5.5714
6
6.7775
7.5549
8.5339
9.5128
10.7455
11.9781
13.5302
15.0823
17.0367
18.991
21.4518
23.9126
27.0111
30.1097
34.0112
37.9127
42.8254
47.738
53.9238
60.1096
67.8984
75.6873
85.4946
95.302
107.651
120
0
0.8571
1.7143
2.5714
3.4286
4.2857
5.1429
6
7.5549
9.5128
11.9781
15.0823
18.991
23.9126
30.1097
37.9127
47.738
60.1096
75.6873
95.302
120
0
0.4286
0.8571
1.2857
1.7143
2.1429
2.5714
3
3.4286
3.8571
4.2857
4.7143
5.1429
5.5714
6
6.7775
7.5549
8.5339
9.5128
10.7455
11.9781
13.5302
15.0823
17.0367
18.991
21.4518
23.9126
27.0111
30.1097
34.0112
37.9127
42.8254
47.738
53.9238
60.1096
67.8984
75.6873
85.4946
95.302
107.651
120
0
0.8571
1.7143
2.5714
3.4286
4.2857
5.1429
6
7.5549
9.5128
11.9781
15.0823
18.991
23.9126
30.1097
37.9127
47.738
60.1096
75.6873
95.302
120
0
0.4286
0.8571
1.2857
1.7143
2.1429
2.5714
3
3.4286
3.8571
4.2857
4.7143
5.1429
5.5714
6
6.7775
7.5549
8.5339
9.5128
10.7455
11.9781
13.5302
15.0823
17.0367
18.991
21.4518
23.9126
27.0111
30.1097
34.0112
37.9127
42.8254
47.738
53.9238
60.1096
67.8984
75.6873
85.4946
95.302
107.651
120
0
0.8571
1.7143
2.5714
3.4286
4.2857
5.1429
6
7.5549
9.5128
11.9781
15.0823
18.991
23.9126
30.1097
37.9127
47.738
60.1096
75.6873
95.302
120
0
0.4286
0.8571
1.2857
1.7143
2.1429
2.5714
3
3.4286
3.8571
4.2857
4.7143
5.1429
5.5714
6
6.7775
7.5549
8.5339
9.5128
10.7455
11.9781
13.5302
15.0823
17.0367
18.991
21.4518
23.9126
27.0111
30.1097
34.0112
37.9127
42.8254
47.738
53.9238
60.1096
67.8984
75.6873
85.4946
95.302
107.651
120
0
0.8571
1.7143
2.5714
3.4286
4.2857
5.1429
6
7.5549
9.5128
11.9781
15.0823
18.991
23.9126
30.1097
37.9127
47.738
60.1096
75.6873
95.302
120
0
0.4286
0.8571
1.2857
1.7143
2.1429
2.5714
3
3.4286
3.8571
4.2857
4.7143
5.1429
5.5714
6
6.7775
7.5549
8.5339
9.5128
10.7455
11.9781
13.5302
15.0823
17.0367
18.991
21.4518
23.9126
27.0111
30.1097
34.0112
37.9127
42.8254
47.738
53.9238
60.1096
67.8984
75.6873
85.4946
95.302
107.651
120
0
0.8571
1.7143
2.5714
3.4286
4.2857
5.1429
6
7.5549
9.5128
11.9781
15.0823
18.991
23.9126
30.1097
37.9127
47.738
60.1096
75.6873
95.302
120
0
0.4286
0.8571
1.2857
1.7143
2.1429
2.5714
3
3.4286
3.8571
4.2857
4.7143
5.1429
5.5714
6
6.7775
7.5549
8.5339
9.5128
10.7455
11.9781
13.5302
15.0823
17.0367
18.991
21.4518
23.9126
27.0111
30.1097
34.0112
37.9127
42.8254
47.738
53.9238
60.1096
67.8984
75.6873
85.4946
95.302
107.651
120
0
0.8571
1.7143
2.5714
3.4286
4.2857
5.1429
6
7.5549
9.5128
11.9781
15.0823
18.991
23.9126
30.1097
37.9127
47.738
60.1096
75.6873
95.302
120
0
0.4286
0.8571
1.2857
1.7143
2.1429
2.5714
3
3.4286
3.8571
4.2857
4.7143
5.1429
5.5714
6
6.7775
7.5549
8.5339
9.5128
10.7455
11.9781
13.5302
15.0823
17.0367
18.991
21.4518
23.9126
27.0111
30.1097
34.0112
37.9127
42.8254
47.738
53.9238
60.1096
67.8984
75.6873
85.4946
95.302
107.651
120
0
0.8571
1.7143
2.5714
3.4286
4.2857
5.1429
6
7.5549
9.5128
11.9781
15.0823
18.991
23.9126
30.1097
37.9127
47.738
60.1096
75.6873
95.302
120
0
0.4286
0.8571
1.2857
1.7143
2.1429
2.5714
3
3.4286
3.8571
4.2857
4.7143
5.1429
5.5714
6
6.7775
7.5549
8.5339
9.5128
10.7455
11.9781
13.5302
15.0823
17.0367
18.991
21.4518
23.9126
27.0111
30.1097
34.0112
37.9127
42.8254
47.738
53.9238
60.1096
67.8984
75.6873
85.4946
95.302
107.651
120
0
0.8571
1.7143
2.5714
3.4286
4.2857
5.1429
6
7.5549
9.5128
11.9781
15.0823
18.991
23.9126
30.1097
37.9127
47.738
60.1096
75.6873
95.302
120
0
0.4286
0.8571
1.2857
1.7143
2.1429
2.5714
3
3.4286
3.8571
4.2857
4.7143
5.1429
5.5714
6
6.7775
7.5549
8.5339
9.5128
10.7455
11.9781
13.5302
15.0823
17.0367
18.991
21.4518
23.9126
27.0111
30.1097
34.0112
37.9127
42.8254
47.738
53.9238
60.1096
67.8984
75.6873
85.4946
95.302
107.651
120
0
0.8571
1.7143
2.5714
3.4286
4.2857
5.1429
6
7.5549
9.5128
11.9781
15.0823
18.991
23.9126
30.1097
37.9127
47.738
60.1096
75.6873
95.302
120
0
0.4286
0.8571
1.2857
1.7143
2.1429
2.5714
3
3.4286
3.8571
4.2857
4.7143
5.1429
5.5714
6
6.7775
7.5549
8.5339
9.5128
10.7455
11.9781
13.5302
15.0823
17.0367
18.991
21.4518
23.9126
27.0111
30.1097
34.0112
37.9127
42.8254
47.738
53.9238
60.1096
67.8984
75.6873
85.4946
95.302
107.651
120
0
0.8571
1.7143
2.5714
3.4286
4.2857
5.1429
6
7.5549
9.5128
11.9781
15.0823
18.991
23.9126
30.1097
37.9127
47.738
60.1096
75.6873
95.302
120
0
0.4286
0.8571
1.2857
1.7143
2.1429
2.5714
3
3.4286
3.8571
4.2857
4.7143
5.1429
5.5714
6
6.7775
7.5549
8.5339
9.5128
10.7455
11.9781
13.5302
15.0823
17.0367
18.991
21.4518
23.9126
27.0111
30.1097
34.0112
37.9127
42.8254
47.738
53.9238
60.1096
67.8984
75.6873
85.4946
95.302
107.651
120
0
0.8571
1.7143
2.5714
3.4286
4.2857
5.1429
6
7.5549
9.5128
11.9781
15.0823
18.991
23.9126
30.1097
37.9127
47.738
60.1096
75.6873
95.302
120
0
0.4286
0.8571
1.2857
1.7143
2.1429
2.5714
3
3.4286
3.8571
4.2857
4.7143
5.1429
5.5714
6
6.7775
7.5549
8.5339
9.5128
10.7455
11.9781
13.5302
15.0823
17.0367
18.991
21.4518
23.9126
27.0111
30.1097
34.0112
37.9127
42.8254
47.738
53.9238
60.1096
67.8984
75.6873
85.4946
95.302
107.651
120
0
0.8571
1.7143
2.5714
3.4286
4.2857
5.1429
6
7.5549
9.5128
11.9781
15.0823
18.991
23.9126
30.1097
37.9127
47.738
60.1096
75.6873
95.302
120
0
0.4286
0.8571
1.2857
1.7143
2.1429
2.5714
3
3.4286
3.8571
4.2857
4.7143
5.1429
5.5714
6
6.7775
7.5549
8.5339
9.5128
10.7455
11.9781
13.5302
15.0823
17.0367
18.991
21.4518
23.9126
27.0111
30.1097
34.0112
37.9127
42.8254
47.738
53.9238
60.1096
67.8984
75.6873
85.4946
95.302
107.651
120
0
0.8571
1.7143
2.5714
3.4286
4.2857
5.1429
6
7.5549
9.5128
11.9781
15.0823
18.991
23.9126
30.1097
37.9127
47.738
60.1096
75.6873
95.302
120
0
0.4286
0.8571
1.2857
1.7143
2.1429
2.5714
3
3.4286
3.8571
4.2857
4.7143
5.1429
5.5714
6
6.7775
7.5549
8.5339
9.5128
10.7455
11.9781
13.5302
15.0823
17.0367
18.991
21.4518
23.9126
27.0111
30.1097
34.0112
37.9127
42.8254
47.738
53.9238
60.1096
67.8984
75.6873
85.4946
95.302
107.651
120
0
0.8571
1.7143
2.5714
3.4286
4.2857
5.1429
6
7.5549
9.5128
11.9781
15.0823
18.991
23.9126
30.1097
37.9127
47.738
60.1096
75.6873
95.302
120
0
0.4286
0.8571
1.2857
1.7143
2.1429
2.5714
3
3.4286
3.8571
4.2857
4.7143
5.1429
5.5714
6
6.7775
7.5549
8.5339
9.5128
10.7455
11.9781
13.5302
15.0823
17.0367
18.991
21.4518
23.9126
27.0111
30.1097
34.0112
37.9127
42.8254
47.738
53.9238
60.1096
67.8984
75.6873
85.4946
95.302
107.651
120
0
0.8571
1.7143
2.5714
3.4286
4.2857
5.1429
6
7.5549
9.5128
11.9781
15.0823
18.991
23.9126
30.1097
37.9127
47.738
60.1096
75.6873
95.302
120
0
0.4286
0.8571
1.2857
1.7143
2.1429
2.5714
3
3.4286
3.8571
4.2857
4.7143
5.1429
5.5714
6
6.7775
7.5549
8.5339
9.5128
10.7455
11.9781
13.5302
15.0823
17.0367
18.991
21.4518
23.9126
27.0111
30.1097
34.0112
37.9127
42.8254
47.738
53.9238
60.1096
67.8984
75.6873
85.4946
95.302
107.651
120
0
0.8571
1.7143
2.5714
3.4286
4.2857
5.1429
6
7.5549
9.5128
11.9781
15.0823
18.991
23.9126
30.1097
37.9127
47.738
60.1096
75.6873
95.302
120
0
0.4286
0.8571
1.2857
1.7143
2.1429
2.5714
3
3.4286
3.8571
4.2857
4.7143
5.1429
5.5714
6
6.7775
7.5549
8.5339
9.5128
10.7455
11.9781
13.5302
15.0823
17.0367
18.991
21.4518
23.9126
27.0111
30.1097
34.0112
37.9127
42.8254
47.738
53.9238
60.1096
67.8984
75.6873
85.4946
95.302
107.651
120
0
0.8571
1.7143
2.5714
3.4286
4.2857
5.1429
6
7.5549
9.5128
11.9781
15.0823
18.991
23.9126
30.1097
37.9127
47.738
60.1096
75.6873
95.302
120
0
0.4286
0.8571
1.2857
1.7143
2.1429
2.5714
3
3.4286
3.8571
4.2857
4.7143
5.1429
5.5714
6
6.7775
7.5549
8.5339
9.5128
10.7455
11.9781
13.5302
15.0823
17.0367
18.991
21.4518
23.9126
27.0111
30.1097
34.0112
37.9127
42.8254
47.738
53.9238
60.1096
67.8984
75.6873
85.4946
95.302
107.651
120
0
0.8571
1.7143
2.5714
3.4286
4.2857
5.1429
6
7.5549
9.5128
11.9781
15.0823
18.991
23.9126
30.1097
37.9127
47.738
60.1096
75.6873
95.302
120
0
0.4286
0.8571
1.2857
1.7143
2.1429
2.5714
3
3.4286
3.8571
4.2857
4.7143
5.1429
5.5714
6
6.7775
7.5549
8.5339
9.5128
10.7455
11.9781
13.5302
15.0823
17.0367
18.991
21.4518
23.9126
27.0111
30.1097
34.0112
37.9127
42.8254
47.738
53.9238
60.1096
67.8984
75.6873
85.4946
95.302
107.651
120
0
0.8571
1.7143
2.5714
3.4286
4.2857
5.1429
6
7.5549
9.5128
11.9781
15.0823
18.991
23.9126
30.1097
37.9127
47.738
60.1096
75.6873
95.302
120
0
0.4286
0.8571
1.2857
1.7143
2.1429
2.5714
3
3.4286
3.8571
4.2857
4.7143
5.1429
5.5714
6
6.7775
7.5549
8.5339
9.5128
10.7455
11.9781
13.5302
15.0823
17.0367
18.991
21.4518
23.9126
27.0111
30.1097
34.0112
37.9127
42.8254
47.738
53.9238
60.1096
67.8984
75.6873
85.4946
95.302
107.651
120
0
0.8571
1.7143
2.5714
3.4286
4.2857
5.1429
6
7.5549
9.5128
11.9781
15.0823
18.991
23.9126
30.1097
37.9127
47.738
60.1096
75.6873
95.302
120
0
0.4286
0.8571
1.2857
1.7143
2.1429
2.5714
3
3.4286
3.8571
4.2857
4.7143
5.1429
5.5714
6
6.7775
7.5549
8.5339
9.5128
10.7455
11.9781
13.5302
15.0823
17.0367
18.991
21.4518
23.9126
27.0111
30.1097
34.0112
37.9127
42.8254
47.738
53.9238
60.1096
67.8984
75.6873
85.4946
95.302
107.651
120
0
0.8571
1.7143
2.5714
3.4286
4.2857
5.1429
6
7.5549
9.5128
11.9781
15.0823
18.991
23.9126
30.1097
37.9127
47.738
60.1096
75.6873
95.302
120
0
0.4286
0.8571
1.2857
1.7143
2.1429
2.5714
3
3.4286
3.8571
4.2857
4.7143
5.1429
5.5714
6
6.7775
7.5549
8.5339
9.5128
10.7455
11.9781
13.5302
15.0823
17.0367
18.991
21.4518
23.9126
27.0111
30.1097
34.0112
37.9127
42.8254
47.738
53.9238
60.1096
67.8984
75.6873
85.4946
95.302
107.651
120
0
0.8571
1.7143
2.5714
3.4286
4.2857
5.1429
6
7.5549
9.5128
11.9781
15.0823
18.991
23.9126
30.1097
37.9127
47.738
60.1096
75.6873
95.302
120
0
0.4286
0.8571
1.2857
1.7143
2.1429
2.5714
3
3.4286
3.8571
4.2857
4.7143
5.1429
5.5714
6
6.7775
7.5549
8.5339
9.5128
10.7455
11.9781
13.5302
15.0823
17.0367
18.991
21.4518
23.9126
27.0111
30.1097
34.0112
37.9127
42.8254
47.738
53.9238
60.1096
67.8984
75.6873
85.4946
95.302
107.651
120
0
0.8571
1.7143
2.5714
3.4286
4.2857
5.1429
6
7.5549
9.5128
11.9781
15.0823
18.991
23.9126
30.1097
37.9127
47.738
60.1096
75.6873
95.302
120
0
0.4286
0.8571
1.2857
1.7143
2.1429
2.5714
3
3.4286
3.8571
4.2857
4.7143
5.1429
5.5714
6
6.7775
7.5549
8.5339
9.5128
10.7455
11.9781
13.5302
15.0823
17.0367
18.991
21.4518
23.9126
27.0111
30.1097
34.0112
37.9127
42.8254
47.738
53.9238
60.1096
67.8984
75.6873
85.4946
95.302
107.651
120
0
0.8571
1.7143
2.5714
3.4286
4.2857
5.1429
6
7.5549
9.5128
11.9781
15.0823
18.991
23.9126
30.1097
37.9127
47.738
60.1096
75.6873
95.302
120
0
0.4286
0.8571
1.2857
1.7143
2.1429
2.5714
3
3.4286
3.8571
4.2857
4.7143
5.1429
5.5714
6
6.7775
7.5549
8.5339
9.5128
10.7455
11.9781
13.5302
15.0823
17.0367
18.991
21.4518
23.9126
27.0111
30.1097
34.0112
37.9127
42.8254
47.738
53.9238
60.1096
67.8984
75.6873
85.4946
95.302
107.651
120
0
0.8571
1.7143
2.5714
3.4286
4.2857
5.1429
6
7.5549
9.5128
11.9781
15.0823
18.991
23.9126
30.1097
37.9127
47.738
60.1096
75.6873
95.302
120
0
0.4286
0.8571
1.2857
1.7143
2.1429
2.5714
3
3.4286
3.8571
4.2857
4.7143
5.1429
5.5714
6
6.7775
7.5549
8.5339
9.5128
10.7455
11.9781
13.5302
15.0823
17.0367
18.991
21.4518
23.9126
27.0111
30.1097
34.0112
37.9127
42.8254
47.738
53.9238
60.1096
67.8984
75.6873
85.4946
95.302
107.651
120
0
0.8571
1.7143
2.5714
3.4286
4.2857
5.1429
6
7.5549
9.5128
11.9781
15.0823
18.991
23.9126
30.1097
37.9127
47.738
60.1096
75.6873
95.302
120
0
0.4286
0.8571
1.2857
1.7143
2.1429
2.5714
3
3.4286
3.8571
4.2857
4.7143
5.1429
5.5714
6
6.7775
7.5549
8.5339
9.5128
10.7455
11.9781
13.5302
15.0823
17.0367
18.991
21.4518
23.9126
27.0111
30.1097
34.0112
37.9127
42.8254
47.738
53.9238
60.1096
67.8984
75.6873
85.4946
95.302
107.651
120
0
0.8571
1.7143
2.5714
3.4286
4.2857
5.1429
6
7.5549
9.5128
11.9781
15.0823
18.991
23.9126
30.1097
37.9127
47.738
60.1096
75.6873
95.302
120
0
0.4286
0.8571
1.2857
1.7143
2.1429
2.5714
3
3.4286
3.8571
4.2857
4.7143
5.1429
5.5714
6
6.7775
7.5549
8.5339
9.5128
10.7455
11.9781
13.5302
15.0823
17.0367
18.991
21.4518
23.9126
27.0111
30.1097
34.0112
37.9127
42.8254
47.738
53.9238
60.1096
67.8984
75.6873
85.4946
95.302
107.651
120
0
0.8571
1.7143
2.5714
3.4286
4.2857
5.1429
6
7.5549
9.5128
11.9781
15.0823
18.991
23.9126
30.1097
37.9127
47.738
60.1096
75.6873
95.302
120
0
0.4286
0.8571
1.2857
1.7143
2.1429
2.5714
3
3.4286
3.8571
4.2857
4.7143
5.1429
5.5714
6
6.7775
7.5549
8.5339
9.5128
10.7455
11.9781
13.5302
15.0823
17.0367
18.991
21.4518
23.9126
27.0111
30.1097
34.0112
37.9127
42.8254
47.738
53.9238
60.1096
67.8984
75.6873
85.4946
95.302
107.651
120
0
0.8571
1.7143
2.5714
3.4286
4.2857
5.1429
6
7.5549
9.5128
11.9781
15.0823
18.991
23.9126
30.1097
37.9127
47.738
60.1096
75.6873
95.302
120
0
0.4286
0.8571
1.2857
1.7143
2.1429
2.5714
3
3.4286
3.8571
4.2857
4.7143
5.1429
5.5714
6
6.7775
7.5549
8.5339
9.5128
10.7455
11.9781
13.5302
15.0823
17.0367
18.991
21.4518
23.9126
27.0111
30.1097
34.0112
37.9127
42.8254
47.738
53.9238
60.1096
67.8984
75.6873
85.4946
95.302
107.651
120
0
0.8571
1.7143
2.5714
3.4286
4.2857
5.1429
6
7.5549
9.5128
11.9781
15.0823
18.991
23.9126
30.1097
37.9127
47.738
60.1096
75.6873
95.302
120
0
0.4286
0.8571
1.2857
1.7143
2.1429
2.5714
3
3.4286
3.8571
4.2857
4.7143
5.1429
5.5714
6
6.7775
7.5549
8.5339
9.5128
10.7455
11.9781
13.5302
15.0823
17.0367
18.991
21.4518
23.9126
27.0111
30.1097
34.0112
37.9127
42.8254
47.738
53.9238
60.1096
67.8984
75.6873
85.4946
95.302
107.651
120
0
0.8571
1.7143
2.5714
3.4286
4.2857
5.1429
6
7.5549
9.5128
11.9781
15.0823
18.991
23.9126
30.1097
37.9127
47.738
60.1096
75.6873
95.302
120
0
0.4286
0.8571
1.2857
1.7143
2.1429
2.5714
3
3.4286
3.8571
4.2857
4.7143
5.1429
5.5714
6
6.7775
7.5549
8.5339
9.5128
10.7455
11.9781
13.5302
15.0823
17.0367
18.991
21.4518
23.9126
27.0111
30.1097
34.0112
37.9127
42.8254
47.738
53.9238
60.1096
67.8984
75.6873
85.4946
95.302
107.651
120
0
0.8571
1.7143
2.5714
3.4286
4.2857
5.1429
6
7.5549
9.5128
11.9781
15.0823
18.991
23.9126
30.1097
37.9127
47.738
60.1096
75.6873
95.302
120
0
0.4286
0.8571
1.2857
1.7143
2.1429
2.5714
3
3.4286
3.8571
4.2857
4.7143
5.1429
5.5714
6
6.7775
7.5549
8.5339
9.5128
10.7455
11.9781
13.5302
15.0823
17.0367
18.991
21.4518
23.9126
27.0111
30.1097
34.0112
37.9127
42.8254
47.738
53.9238
60.1096
67.8984
75.6873
85.4946
95.302
107.651
120
0
0.8571
1.7143
2.5714
3.4286
4.2857
5.1429
6
7.5549
9.5128
11.9781
15.0823
18.991
23.9126
30.1097
37.9127
47.738
60.1096
75.6873
95.302
120
0
0.4286
0.8571
1.2857
1.7143
2.1429
2.5714
3
3.4286
3.8571
4.2857
4.7143
5.1429
5.5714
6
6.7775
7.5549
8.5339
9.5128
10.7455
11.9781
13.5302
15.0823
17.0367
18.991
21.4518
23.9126
27.0111
30.1097
34.0112
37.9127
42.8254
47.738
53.9238
60.1096
67.8984
75.6873
85.4946
95.302
107.651
120
0
0.8571
1.7143
2.5714
3.4286
4.2857
5.1429
6
7.5549
9.5128
11.9781
15.0823
18.991
23.9126
30.1097
37.9127
47.738
60.1096
75.6873
95.302
120
0
0.4286
0.8571
1.2857
1.7143
2.1429
2.5714
3
3.4286
3.8571
4.2857
4.7143
5.1429
5.5714
6
6.7775
7.5549
8.5339
9.5128
10.7455
11.9781
13.5302
15.0823
17.0367
18.991
21.4518
23.9126
27.0111
30.1097
34.0112
37.9127
42.8254
47.738
53.9238
60.1096
67.8984
75.6873
85.4946
95.302
107.651
120
0
0.8571
1.7143
2.5714
3.4286
4.2857
5.1429
6
7.5549
9.5128
11.9781
15.0823
18.991
23.9126
30.1097
37.9127
47.738
60.1096
75.6873
95.302
120
0
0.4286
0.8571
1.2857
1.7143
2.1429
2.5714
3
3.4286
3.8571
4.2857
4.7143
5.1429
5.5714
6
6.7775
7.5549
8.5339
9.5128
10.7455
11.9781
13.5302
15.0823
17.0367
18.991
21.4518
23.9126
27.0111
30.1097
34.0112
37.9127
42.8254
47.738
53.9238
60.1096
67.8984
75.6873
85.4946
95.302
107.651
120
0
0.8571
1.7143
2.5714
3.4286
4.2857
5.1429
6
7.5549
9.5128
11.9781
15.0823
18.991
23.9126
30.1097
37.9127
47.738
60.1096
75.6873
95.302
120
0
0.4286
0.8571
1.2857
1.7143
2.1429
2.5714
3
3.4286
3.8571
4.2857
4.7143
5.1429
5.5714
6
6.7775
7.5549
8.5339
9.5128
10.7455
11.9781
13.5302
15.0823
17.0367
18.991
21.4518
23.9126
27.0111
30.1097
34.0112
37.9127
42.8254
47.738
53.9238
60.1096
67.8984
75.6873
85.4946
95.302
107.651
120
0
0.8571
1.7143
2.5714
3.4286
4.2857
5.1429
6
7.5549
9.5128
11.9781
15.0823
18.991
23.9126
30.1097
37.9127
47.738
60.1096
75.6873
95.302
120
0
0.4286
0.8571
1.2857
1.7143
2.1429
2.5714
3
3.4286
3.8571
4.2857
4.7143
5.1429
5.5714
6
6.7775
7.5549
8.5339
9.5128
10.7455
11.9781
13.5302
15.0823
17.0367
18.991
21.4518
23.9126
27.0111
30.1097
34.0112
37.9127
42.8254
47.738
53.9238
60.1096
67.8984
75.6873
85.4946
95.302
107.651
120
0
0.8571
1.7143
2.5714
3.4286
4.2857
5.1429
6
7.5549
9.5128
11.9781
15.0823
18.991
23.9126
30.1097
37.9127
47.738
60.1096
75.6873
95.302
120
0
0.4286
0.8571
1.2857
1.7143
2.1429
2.5714
3
3.4286
3.8571
4.2857
4.7143
5.1429
5.5714
6
6.7775
7.5549
8.5339
9.5128
10.7455
11.9781
13.5302
15.0823
17.0367
18.991
21.4518
23.9126
27.0111
30.1097
34.0112
37.9127
42.8254
47.738
53.9238
60.1096
67.8984
75.6873
85.4946
95.302
107.651
120
0
0.8571
1.7143
2.5714
3.4286
4.2857
5.1429
6
7.5549
9.5128
11.9781
15.0823
18.991
23.9126
30.1097
37.9127
47.738
60.1096
75.6873
95.302
120
0
0.4286
0.8571
1.2857
1.7143
2.1429
2.5714
3
3.4286
3.8571
4.2857
4.7143
5.1429
5.5714
6
6.7775
7.5549
8.5339
9.5128
10.7455
11.9781
13.5302
15.0823
17.0367
18.991
21.4518
23.9126
27.0111
30.1097
34.0112
37.9127
42.8254
47.738
53.9238
60.1096
67.8984
75.6873
85.4946
95.302
107.651
120
0
0.8571
1.7143
2.5714
3.4286
4.2857
5.1429
6
7.5549
9.5128
11.9781
15.0823
18.991
23.9126
30.1097
37.9127
47.738
60.1096
75.6873
95.302
120
0
0.4286
0.8571
1.2857
1.7143
2.1429
2.5714
3
3.4286
3.8571
4.2857
4.7143
5.1429
5.5714
6
6.7775
7.5549
8.5339
9.5128
10.7455
11.9781
13.5302
15.0823
17.0367
18.991
21.4518
23.9126
27.0111
30.1097
34.0112
37.9127
42.8254
47.738
53.9238
60.1096
67.8984
75.6873
85.4946
95.302
107.651
120
0
0.8571
1.7143
2.5714
3.4286
4.2857
5.1429
6
7.5549
9.5128
11.9781
15.0823
18.991
23.9126
30.1097
37.9127
47.738
60.1096
75.6873
95.302
120
0
0.4286
0.8571
1.2857
1.7143
2.1429
2.5714
3
3.4286
3.8571
4.2857
4.7143
5.1429
5.5714
6
6.7775
7.5549
8.5339
9.5128
10.7455
11.9781
13.5302
15.0823
17.0367
18.991
21.4518
23.9126
27.0111
30.1097
34.0112
37.9127
42.8254
47.738
53.9238
60.1096
67.8984
75.6873
85.4946
95.302
107.651
120
0
0.8571
1.7143
2.5714
3.4286
4.2857
5.1429
6
7.5549
9.5128
11.9781
15.0823
18.991
23.9126
30.1097
37.9127
47.738
60.1096
75.6873
95.302
120
0
0.4286
0.8571
1.2857
1.7143
2.1429
2.5714
3
3.4286
3.8571
4.2857
4.7143
5.1429
5.5714
6
6.7775
7.5549
8.5339
9.5128
10.7455
11.9781
13.5302
15.0823
17.0367
18.991
21.4518
23.9126
27.0111
30.1097
34.0112
37.9127
42.8254
47.738
53.9238
60.1096
67.8984
75.6873
85.4946
95.302
107.651
120
0
0.8571
1.7143
2.5714
3.4286
4.2857
5.1429
6
7.5549
9.5128
11.9781
15.0823
18.991
23.9126
30.1097
37.9127
47.738
60.1096
75.6873
95.302
120
0
0.4286
0.8571
1.2857
1.7143
2.1429
2.5714
3
3.4286
3.8571
4.2857
4.7143
5.1429
5.5714
6
6.7775
7.5549
8.5339
9.5128
10.7455
11.9781
13.5302
15.0823
17.0367
18.991
21.4518
23.9126
27.0111
30.1097
34.0112
37.9127
42.8254
47.738
53.9238
60.1096
67.8984
75.6873
85.4946
95.302
107.651
120
0
0.8571
1.7143
2.5714
3.4286
4.2857
5.1429
6
7.5549
9.5128
11.9781
15.0823
18.991
23.9126
30.1097
37.9127
47.738
60.1096
75.6873
95.302
120
0
0.4286
0.8571
1.2857
1.7143
2.1429
2.5714
3
3.4286
3.8571
4.2857
4.7143
5.1429
5.5714
6
6.7775
7.5549
8.5339
9.5128
10.7455
11.9781
13.5302
15.0823
17.0367
18.991
21.4518
23.9126
27.0111
30.1097
34.0112
37.9127
42.8254
47.738
53.9238
60.1096
67.8984
75.6873
85.4946
95.302
107.651
120
0
0.8571
1.7143
2.5714
3.4286
4.2857
5.1429
6
7.5549
9.5128
11.9781
15.0823
18.991
23.9126
30.1097
37.9127
47.738
60.1096
75.6873
95.302
120
0
0.4286
0.8571
1.2857
1.7143
2.1429
2.5714
3
3.4286
3.8571
4.2857
4.7143
5.1429
5.5714
6
6.7775
7.5549
8.5339
9.5128
10.7455
11.9781
13.5302
15.0823
17.0367
18.991
21.4518
23.9126
27.0111
30.1097
34.0112
37.9127
42.8254
47.738
53.9238
60.1096
67.8984
75.6873
85.4946
95.302
107.651
120
0
0.8571
1.7143
2.5714
3.4286
4.2857
5.1429
6
7.5549
9.5128
11.9781
15.0823
18.991
23.9126
30.1097
37.9127
47.738
60.1096
75.6873
95.302
120
0
0.4286
0.8571
1.2857
1.7143
2.1429
2.5714
3
3.4286
3.8571
4.2857
4.7143
5.1429
5.5714
6
6.7775
7.5549
8.5339
9.5128
10.7455
11.9781
13.5302
15.0823
17.0367
18.991
21.4518
23.9126
27.0111
30.1097
34.0112
37.9127
42.8254
47.738
53.9238
60.1096
67.8984
75.6873
85.4946
95.302
107.651
120
SCALARS Depth double 1
LOOKUP_TABLE default
0
0
0
0
0
0
0
0
0
0
0
0
0
0
0
0
0
0
0
0
0
0
0
0
0
0
0
0
0
0
0
0
0
0
0
0
0
0
0
0
0
-0.1139
-0.1139
-0.1139
-0.1139
-0.1139
-0.1139
-0.1139
-0.1139
-0.1139
-0.1139
-0.1139
-0.1139
-0.1139
-0.1139
-0.1139
-0.1139
-0.1139
-0.1139
-0.1139
-0.1139
-0.1139
-0.2278
-0.2278
-0.2278
-0.2278
-0.2278
-0.2278
-0.2278
-0.2278
-0.2278
-0.2278
-0.2278
-0.2278
-0.2278
-0.2278
-0.2278
-0.2278
-0.2278
-0.2278
-0.2278
-0.2278
-0.2278
-0.2278
-0.2278
-0.2278
-0.2278
-0.2278
-0.2278
-0.2278
-0.2278
-0.2278
-0.2278
-0.2278
-0.2278
-0.2278
-0.2278
-0.2278
-0.2278
-0.2278
-0.2278
-0.2278
-0.2278
-0.3417
-0.3417
-0.3417
-0.3417
-0.3417
-0.3417
-0.3417
-0.3417
-0.3417
-0.3417
-0.3417
-0.3417
-0.3417
-0.3417
-0.3417
-0.3417
-0.3417
-0.3417
-0.3417
-0.3417
-0.3417
-0.4556
-0.4556
-0.4556
-0.4556
-0.4556
-0.4556
-0.4556
-0.4556
-0.4556
-0.4556
-0.4556
-0.4556
-0.4556
-0.4556
-0.4556
-0.4556
-0.4556
-0.4556
-0.4556
-0.4556
-0.4556
-0.4556
-0.4556
-0.4556
-0.4556
-0.4556
-0.4556
-0.4556
-0.4556
-0.4556
-0.4556
-0.4556
-0.4556
-0.4556
-0.4556
-0.4556
-0.4556
-0.4556
-0.4556
-0.4556
-0.4556
-0.5695
-0.5695
-0.5695
-0.5695
-0.5695
-0.5695
-0.5695
-0.5695
-0.5695
-0.5695
-0.5695
-0.5695
-0.5695
-0.5695
-0.5695
-0.5695
-0.5695
-0.5695
-0.5695
-0.5695
-0.5695
-0.6834
-0.6834
-0.6834
-0.6834
-0.6834
-0.6834
-0.6834
-0.6834
-0.6834
-0.6834
-0.6834
-0.6834
-0.6834
-0.6834
-0.6834
-0.6834
-0.6834
-0.6834
-0.6834
-0.6834
-0.6834
-0.6834
-0.6834
-0.6834
-0.6834
-0.6834
-0.6834
-0.6834
-0.6834
-0.6834
-0.6834
-0.6834
-0.6834
-0.6834
-0.6834
-0.6834
-0.6834
-0.6834
-0.6834
-0.6834
-0.6834
-0.7973
-0.7973
-0.7973
-0.7973
-0.7973
-0.7973
-0.7973
-0.7973
-0.7973
-0.7973
-0.7973
-0.7973
-0.7973
-0.7973
-0.7973
-0.7973
-0.7973
-0.7973
-0.7973
-0.7973
-0.7973
-0.9112
-0.9112
-0.9112
-0.9112
-0.9112
-0.9112
-0.9112
-0.9112
-0.9112
-0.9112
-0.9112
-0.9112
-0.9112
-0.9112
-0.9112
-0.9112
-0.9112
-0.9112
-0.9112
-0.9112
-0.9112
-0.9112
-0.9112
-0.9112
-0.9112
-0.9112
-0.9112
-0.9112
-0.9112
-0.9112
-0.9112
-0.9112
-0.9112
-0.9112
-0.9112
-0.9112
-0.9112
-0.9112
-0.9112
-0.9112
-0.9112
-1.0251
-1.0251
-1.0251
-1.0251
-1.0251
-1.0251
-1.0251
-1.0251
-1.0251
-1.0251
-1.0251
-1.0251
-1.0251
-1.0251
-1.0251
-1.0251
-1.0251
-1.0251
-1.0251
-1.0251
-1.0251
-1.1389
-1.1389
-1.1389
-1.1389
-1.1389
-1.1389
-1.1389
-1.1389
-1.1389
-1.1389
-1.1389
-1.1389
-1.1389
-1.1389
-1.1389
-1.1389
-1.1389
-1.1389
-1.1389
-1.1389
-1.1389
-1.1389
-1.1389
-1.1389
-1.1389
-1.1389
-1.1389
-1.1389
-1.1389
-1.1389
-1.1389
-1.1389
-1.1389
-1.1389
-1.1389
-1.1389
-1.1389
-1.1389
-1.1389
-1.1389
-1.1389
-1.2528
-1.2528
-1.2528
-1.2528
-1.2528
-1.2528
-1.2528
-1.2528
-1.2528
-1.2528
-1.2528
-1.2528
-1.2528
-1.2528
-1.2528
-1.2528
-1.2528
-1.2528
-1.2528
-1.2528
-1.2528
-1.3667
-1.3667
-1.3667
-1.3667
-1.3667
-1.3667
-1.3667
-1.3667
-1.3667
-1.3667
-1.3667
-1.3667
-1.3667
-1.3667
-1.3667
-1.3667
-1.3667
-1.3667
-1.3667
-1.3667
-1.3667
-1.3667
-1.3667
-1.3667
-1.3667
-1.3667
-1.3667
-1.3667
-1.3667
-1.3667
-1.3667
-1.3667
-1.3667
-1.3667
-1.3667
-1.3667
-1.3667
-1.3667
-1.3667
-1.3667
-1.3667
-1.4806
-1.4806
-1.4806
-1.4806
-1.4806
-1.4806
-1.4806
-1.4806
-1.4806
-1.4806
-1.4806
-1.4806
-1.4806
-1.4806
-1.4806
-1.4806
-1.4806
-1.4806
-1.4806
-1.4806
-1.4806
-1.5945
-1.5945
-1.5945
-1.5945
-1.5945
-1.5945
-1.5945
-1.5945
-1.5945
-1.5945
-1.5945
-1.5945
-1.5945
-1.5945
-1.5945
-1.5945
-1.5945
-1.5945
-1.5945
-1.5945
-1.5945
-1.5945
-1.5945
-1.5945
-1.5945
-1.5945
-1.5945
-1.5945
-1.5945
-1.5945
-1.5945
-1.5945
-1.5945
-1.5945
-1.5945
-1.5945
-1.5945
-1.5945
-1.5945
-1.5945
-1.5945
-1.7084
-1.7084
-1.7084
-1.7084
-1.7084
-1.7084
-1.7084
-1.7084
-1.7084
-1.7084
-1.7084
-1.7084
-1.7084
-1.7084
-1.7084
-1.7084
-1.7084
-1.7084
-1.7084
-1.7084
-1.7084
-1.8223
-1.8223
-1.8223
-1.8223
-1.8223
-1.8223
-1.8223
-1.8223
-1.8223
-1.8223
-1.8223
-1.8223
-1.8223
-1.8223
-1.8223
-1.8223
-1.8223
-1.8223
-1.8223
-1.8223
-1.8223
-1.8223
-1.8223
-1.8223
-1.8223
-1.8223
-1.8223
-1.8223
-1.8223
-1.8223
-1.8223
-1.8223
-1.8223
-1.8223
-1.8223
-1.8223
-1.8223
-1.8223
-1.8223
-1.8223
-1.8223
-1.9362
-1.9362
-1.9362
-1.9362
-1.9362
-1.9362
-1.9362
-1.9362
-1.9362
-1.9362
-1.9362
-1.9362
-1.9362
-1.9362
-1.9362
-1.9362
-1.9362
-1.9362
-1.9362
-1.9362
-1.9362
-2.0501
-2.0501
-2.0501
-2.0501
-2.0501
-2.0501
-2.0501
-2.0501
-2.0501
-2.0501
-2.0501
-2.0501
-2.0501
-2.0501
-2.0501
-2.0501
-2.0501
-2.0501
-2.0501
-2.0501
-2.0501
-2.0501
-2.0501
-2.0501
-2.0501
-2.0501
-2.0501
-2.0501
-2.0501
-2.0501
-2.0501
-2.0501
-2.0501
-2.0501
-2.0501
-2.0501
-2.0501
-2.0501
-2.0501
-2.0501
-2.0501
-2.164
-2.164
-2.164
-2.164
-2.164
-2.164
-2.164
-2.164
-2.164
-2.164
-2.164
-2.164
-2.164
-2.164
-2.164
-2.164
-2.164
-2.164
-2.164
-2.164
-2.164
-2.2779
-2.2779
-2.2779
-2.2779
-2.2779
-2.2779
-2.2779
-2.2779
-2.2779
-2.2779
-2.2779
-2.2779
-2.2779
-2.2779
-2.2779
-2.2779
-2.2779
-2.2779
-2.2779
-2.2779
-2.2779
-2.2779
-2.2779
-2.2779
-2.2779
-2.2779
-2.2779
-2.2779
-2.2779
-2.2779
-2.2779
-2.2779
-2.2779
-2.2779
-2.2779
-2.2779
-2.2779
-2.2779
-2.2779
-2.2779
-2.2779
-2.3918
-2.3918
-2.3918
-2.3918
-2.3918
-2.3918
-2.3918
-2.3918
-2.3918
-2.3918
-2.3918
-2.3918
-2.3918
-2.3918
-2.3918
-2.3918
-2.3918
-2.3918
-2.3918
-2.3918
-2.3918
-2.5057
-2.5057
-2.5057
-2.5057
-2.5057
-2.5057
-2.5057
-2.5057
-2.5057
-2.5057
-2.5057
-2.5057
-2.5057
-2.5057
-2.5057
-2.5057
-2.5057
-2.5057
-2.5057
-2.5057
-2.5057
-2.5057
-2.5057
-2.5057
-2.5057
-2.5057
-2.5057
-2.5057
-2.5057
-2.5057
-2.5057
-2.5057
-2.5057
-2.5057
-2.5057
-2.5057
-2.5057
-2.5057
-2.5057
-2.5057
-2.5057
-2.6196
-2.6196
-2.6196
-2.6196
-2.6196
-2.6196
-2.6196
-2.6196
-2.6196
-2.6196
-2.6196
-2.6196
-2.6196
-2.6196
-2.6196
-2.6196
-2.6196
-2.6196
-2.6196
-2.6196
-2.6196
-2.7335
-2.7335
-2.7335
-2.7335
-2.7335
-2.7335
-2.7335
-2.7335
-2.7335
-2.7335
-2.7335
-2.7335
-2.7335
-2.7335
-2.7335
-2.7335
-2.7335
-2.7335
-2.7335
-2.7335
-2.7335
-2.7335
-2.7335
-2.7335
-2.7335
-2.7335
-2.7335
-2.7335
-2.7335
-2.7335
-2.7335
-2.7335
-2.7335
-2.7335
-2.7335
-2.7335
-2.7335
-2.7335
-2.7335
-2.7335
-2.7335
-2.8474
-2.8474
-2.8474
-2.8474
-2.8474
-2.8474
-2.8474
-2.8474
-2.8474
-2.8474
-2.8474
-2.8474
-2.8474
-2.8474
-2.8474
-2.8474
-2.8474
-2.8474
-2.8474
-2.8474
-2.8474
-2.9613
-2.9613
-2.9613
-2.9613
-2.9613
-2.9613
-2.9613
-2.9613
-2.9613
-2.9613
-2.9613
-2.9613
-2.9613
-2.9613
-2.9613
-2.9613
-2.9613
-2.9613
-2.9613
-2.9613
-2.9613
-2.9613
-2.9613
-2.9613
-2.9613
-2.9613
-2.9613
-2.9613
-2.9613
-2.9613
-2.9613
-2.9613
-2.9613
-2.9613
-2.9613
-2.9613
-2.9613
-2.9613
-2.9613
-2.9613
-2.9613
-3.0752
-3.0752
-3.0752
-3.0752
-3.0752
-3.0752
-3.0752
-3.0752
-3.0752
-3.0752
-3.0752
-3.0752
-3.0752
-3.0752
-3.0752
-3.0752
-3.0752
-3.0752
-3.0752
-3.0752
-3.0752
-3.1891
-3.1891
-3.1891
-3.1891
-3.1891
-3.1891
-3.1891
-3.1891
-3.1891
-3.1891
-3.1891
-3.1891
-3.1891
-3.1891
-3.1891
-3.1891
-3.1891
-3.1891
-3.1891
-3.1891
-3.1891
-3.1891
-3.1891
-3.1891
-3.1891
-3.1891
-3.1891
-3.1891
-3.1891
-3.1891
-3.1891
-3.1891
-3.1891
-3.1891
-3.1891
-3.1891
-3.1891
-3.1891
-3.1891
-3.1891
-3.1891
-3.3029
-3.3029
-3.3029
-3.3029
-3.3029
-3.3029
-3.3029
-3.3029
-3.3029
-3.3029
-3.3029
-3.3029
-3.3029
-3.3029
-3.3029
-3.3029
-3.3029
-3.3029
-3.3029
-3.3029
-3.3029
-3.4168
-3.4168
-3.4168
-3.4168
-3.4168
-3.4168
-3.4168
-3.4168
-3.4168
-3.4168
-3.4168
-3.4168
-3.4168
-3.4168
-3.4168
-3.4168
-3.4168
-3.4168
-3.4168
-3.4168
-3.4168
-3.4168
-3.4168
-3.4168
-3.4168
-3.4168
-3.4168
-3.4168
-3.4168
-3.4168
-3.4168
-3.4168
-3.4168
-3.4168
-3.4168
-3.4168
-3.4168
-3.4168
-3.4168
-3.4168
-3.4168
-3.5307
-3.5307
-3.5307
-3.5307
-3.5307
-3.5307
-3.5307
-3.5307
-3.5307
-3.5307
-3.5307
-3.5307
-3.5307
-3.5307
-3.5307
-3.5307
-3.5307
-3.5307
-3.5307
-3.5307
-3.5307
-3.6446
-3.6446
-3.6446
-3.6446
-3.6446
-3.6446
-3.6446
-3.6446
-3.6446
-3.6446
-3.6446
-3.6446
-3.6446
-3.6446
-3.6446
-3.6446
-3.6446
-3.6446
-3.6446
-3.6446
-3.6446
-3.6446
-3.6446
-3.6446
-3.6446
-3.6446
-3.6446
-3.6446
-3.6446
-3.6446
-3.6446
-3.6446
-3.6446
-3.6446
-3.6446
-3.6446
-3.6446
-3.6446
-3.6446
-3.6446
-3.6446
-3.7585
-3.7585
-3.7585
-3.7585
-3.7585
-3.7585
-3.7585
-3.7585
-3.7585
-3.7585
-3.7585
-3.7585
-3.7585
-3.7585
-3.7585
-3.7585
-3.7585
-3.7585
-3.7585
-3.7585
-3.7585
-3.8724
-3.8724
-3.8724
-3.8724
-3.8724
-3.8724
-3.8724
-3.8724
-3.8724
-3.8724
-3.8724
-3.8724
-3.8724
-3.8724
-3.8724
-3.8724
-3.8724
-3.8724
-3.8724
-3.8724
-3.8724
-3.8724
-3.8724
-3.8724
-3.8724
-3.8724
-3.8724
-3.8724
-3.8724
-3.8724
-3.8724
-3.8724
-3.8724
-3.8724
-3.8724
-3.8724
-3.8724
-3.8724
-3.8724
-3.8724
-3.8724
-3.9863
-3.9863
-3.9863
-3.9863
-3.9863
-3.9863
-3.9863
-3.9863
-3.9863
-3.9863
-3.9863
-3.9863
-3.9863
-3.9863
-3.9863
-3.9863
-3.9863
-3.9863
-3.9863
-3.9863
-3.9863
-4.1002
-4.1002
-4.1002
-4.1002
-4.1002
-4.1002
-4.1002
-4.1002
-4.1002
-4.1002
-4.1002
-4.1002
-4.1002
-4.1002
-4.1002
-4.1002
-4.1002
-4.1002
-4.1002
-4.1002
-4.1002
-4.1002
-4.1002
-4.1002
-4.1002
-4.1002
-4.1002
-4.1002
-4.1002
-4.1002
-4.1002
-4.1002
-4.1002
-4.1002
-4.1002
-4.1002
-4.1002
-4.1002
-4.1002
-4.1002
-4.1002
-4.2141
-4.2141
-4.2141
-4.2141
-4.2141
-4.2141
-4.2141
-4.2141
-4.2141
-4.2141
-4.2141
-4.2141
-4.2141
-4.2141
-4.2141
-4.2141
-4.2141
-4.2141
-4.2141
-4.2141
-4.2141
-4.328
-4.328
-4.328
-4.328
-4.328
-4.328
-4.328
-4.328
-4.328
-4.328
-4.328
-4.328
-4.328
-4.328
-4.328
-4.328
-4.328
-4.328
-4.328
-4.328
-4.328
-4.328
-4.328
-4.328
-4.328
-4.328
-4.328
-4.328
-4.328
-4.328
-4.328
-4.328
-4.328
-4.328
-4.328
-4.328
-4.328
-4.328
-4.328
-4.328
-4.328
-4.6887
-4.6887
-4.6887
-4.6887
-4.6887
-4.6887
-4.6887
-4.6887
-4.6887
-4.6887
-4.6887
-4.6887
-4.6887
-4.6887
-4.6887
-4.6887
-4.6887
-4.6887
-4.6887
-4.6887
-4.6887
-5.0493
-5.0493
-5.0493
-5.0493
-5.0493
-5.0493
-5.0493
-5.0493
-5.0493
-5.0493
-5.0493
-5.0493
-5.0493
-5.0493
-5.0493
-5.0493
-5.0493
-5.0493
-5.0493
-5.0493
-5.0493
-5.0493
-5.0493
-5.0493
-5.0493
-5.0493
-5.0493
-5.0493
-5.0493
-5.0493
-5.0493
-5.0493
-5.0493
-5.0493
-5.0493
-5.0493
-5.0493
-5.0493
-5.0493
-5.0493
-5.0493
-5.41
-5.41
-5.41
-5.41
-5.41
-5.41
-5.41
-5.41
-5.41
-5.41
-5.41
-5.41
-5.41
-5.41
-5.41
-5.41
-5.41
-5.41
-5.41
-5.41
-5.41
-5.7707
-5.7707
-5.7707
-5.7707
-5.7707
-5.7707
-5.7707
-5.7707
-5.7707
-5.7707
-5.7707
-5.7707
-5.7707
-5.7707
-5.7707
-5.7707
-5.7707
-5.7707
-5.7707
-5.7707
-5.7707
-5.7707
-5.7707
-5.7707
-5.7707
-5.7707
-5.7707
-5.7707
-5.7707
-5.7707
-5.7707
-5.7707
-5.7707
-5.7707
-5.7707
-5.7707
-5.7707
-5.7707
-5.7707
-5.7707
-5.7707
-6.1313
-6.1313
-6.1313
-6.1313
-6.1313
-6.1313
-6.1313
-6.1313
-6.1313
-6.1313
-6.1313
-6.1313
-6.1313
-6.1313
-6.1313
-6.1313
-6.1313
-6.1313
-6.1313
-6.1313
-6.1313
-6.492
-6.492
-6.492
-6.492
-6.492
-6.492
-6.492
-6.492
-6.492
-6.492
-6.492
-6.492
-6.492
-6.492
-6.492
-6.492
-6.492
-6.492
-6.492
-6.492
-6.492
-6.492
-6.492
-6.492
-6.492
-6.492
-6.492
-6.492
-6.492
-6.492
-6.492
-6.492
-6.492
-6.492
-6.492
-6.492
-6.492
-6.492
-6.492
-6.492
-6.492
-6.8527
-6.8527
-6.8527
-6.8527
-6.8527
-6.8527
-6.8527
-6.8527
-6.8527
-6.8527
-6.8527
-6.8527
-6.8527
-6.8527
-6.8527
-6.8527
-6.8527
-6.8527
-6.8527
-6.8527
-6.8527
-7.2133
-7.2133
-7.2133
-7.2133
-7.2133
-7.2133
-7.2133
-7.2133
-7.2133
-7.2133
-7.2133
-7.2133
-7.2133
-7.2133
-7.2133
-7.2133
-7.2133
-7.2133
-7.2133
-7.2133
-7.2133
-7.2133
-7.2133
-7.2133
-7.2133
-7.2133
-7.2133
-7.2133
-7.2133
-7.2133
-7.2133
-7.2133
-7.2133
-7.2133
-7.2133
-7.2133
-7.2133
-7.2133
-7.2133
-7.2133
-7.2133
-7.574
-7.574
-7.574
-7.574
-7.574
-7.574
-7.574
-7.574
-7.574
-7.574
-7.574
-7.574
-7.574
-7.574
-7.574
-7.574
-7.574
-7.574
-7.574
-7.574
-7.574
-7.9347
-7.9347
-7.9347
-7.9347
-7.9347
-7.9347
-7.9347
-7.9347
-7.9347
-7.9347
-7.9347
-7.9347
-7.9347
-7.9347
-7.9347
-7.9347
-7.9347
-7.9347
-7.9347
-7.9347
-7.9347
-7.9347
-7.9347
-7.9347
-7.9347
-7.9347
-7.9347
-7.9347
-7.9347
-7.9347
-7.9347
-7.9347
-7.9347
-7.9347
-7.9347
-7.9347
-7.9347
-7.9347
-7.9347
-7.9347
-7.9347
-8.2953
-8.2953
-8.2953
-8.2953
-8.2953
-8.2953
-8.2953
-8.2953
-8.2953
-8.2953
-8.2953
-8.2953
-8.2953
-8.2953
-8.2953
-8.2953
-8.2953
-8.2953
-8.2953
-8.2953
-8.2953
-8.656
-8.656
-8.656
-8.656
-8.656
-8.656
-8.656
-8.656
-8.656
-8.656
-8.656
-8.656
-8.656
-8.656
-8.656
-8.656
-8.656
-8.656
-8.656
-8.656
-8.656
-8.656
-8.656
-8.656
-8.656
-8.656
-8.656
-8.656
-8.656
-8.656
-8.656
-8.656
-8.656
-8.656
-8.656
-8.656
-8.656
-8.656
-8.656
-8.656
-8.656
-9.0167
-9.0167
-9.0167
-9.0167
-9.0167
-9.0167
-9.0167
-9.0167
-9.0167
-9.0167
-9.0167
-9.0167
-9.0167
-9.0167
-9.0167
-9.0167
-9.0167
-9.0167
-9.0167
-9.0167
-9.0167
-9.3773
-9.3773
-9.3773
-9.3773
-9.3773
-9.3773
-9.3773
-9.3773
-9.3773
-9.3773
-9.3773
-9.3773
-9.3773
-9.3773
-9.3773
-9.3773
-9.3773
-9.3773
-9.3773
-9.3773
-9.3773
-9.3773
-9.3773
-9.3773
-9.3773
-9.3773
-9.3773
-9.3773
-9.3773
-9.3773
-9.3773
-9.3773
-9.3773
-9.3773
-9.3773
-9.3773
-9.3773
-9.3773
-9.3773
-9.3773
-9.3773
-9.738
-9.738
-9.738
-9.738
-9.738
-9.738
-9.738
-9.738
-9.738
-9.738
-9.738
-9.738
-9.738
-9.738
-9.738
-9.738
-9.738
-9.738
-9.738
-9.738
-9.738
-10.0987
-10.0987
-10.0987
-10.0987
-10.0987
-10.0987
-10.0987
-10.0987
-10.0987
-10.0987
-10.0987
-10.0987
-10.0987
-10.0987
-10.0987
-10.0987
-10.0987
-10.0987
-10.0987
-10.0987
-10.0987
-10.0987
-10.0987
-10.0987
-10.0987
-10.0987
-10.0987
-10.0987
-10.0987
-10.0987
-10.0987
-10.0987
-10.0987
-10.0987
-10.0987
-10.0987
-10.0987
-10.0987
-10.0987
-10.0987
-10.0987
-10.4593
-10.4593
-10.4593
-10.4593
-10.4593
-10.4593
-10.4593
-10.4593
-10.4593
-10.4593
-10.4593
-10.4593
-10.4593
-10.4593
-10.4593
-10.4593
-10.4593
-10.4593
-10.4593
-10.4593
-10.4593
-10.82
-10.82
-10.82
-10.82
-10.82
-10.82
-10.82
-10.82
-10.82
-10.82
-10.82
-10.82
-10.82
-10.82
-10.82
-10.82
-10.82
-10.82
-10.82
-10.82
-10.82
-10.82
-10.82
-10.82
-10.82
-10.82
-10.82
-10.82
-10.82
-10.82
-10.82
-10.82
-10.82
-10.82
-10.82
-10.82
-10.82
-10.82
-10.82
-10.82
-10.82
-11.1807
-11.1807
-11.1807
-11.1807
-11.1807
-11.1807
-11.1807
-11.1807
-11.1807
-11.1807
-11.1807
-11.1807
-11.1807
-11.1807
-11.1807
-11.1807
-11.1807
-11.1807
-11.1807
-11.1807
-11.1807
-11.5413
-11.5413
-11.5413
-11.5413
-11.5413
-11.5413
-11.5413
-11.5413
-11.5413
-11.5413
-11.5413
-11.5413
-11.5413
-11.5413
-11.5413
-11.5413
-11.5413
-11.5413
-11.5413
-11.5413
-11.5413
-11.5413
-11.5413
-11.5413
-11.5413
-11.5413
-11.5413
-11.5413
-11.5413
-11.5413
-11.5413
-11.5413
-11.5413
-11.5413
-11.5413
-11.5413
-11.5413
-11.5413
-11.5413
-11.5413
-11.5413
-11.902
-11.902
-11.902
-11.902
-11.902
-11.902
-11.902
-11.902
-11.902
-11.902
-11.902
-11.902
-11.902
-11.902
-11.902
-11.902
-11.902
-11.902
-11.902
-11.902
-11.902
-12.2627
-12.2627
-12.2627
-12.2627
-12.2627
-12.2627
-12.2627
-12.2627
-12.2627
-12.2627
-12.2627
-12.2627
-12.2627
-12.2627
-12.2627
-12.2627
-12.2627
-12.2627
-12.2627
-12.2627
-12.2627
-12.2627
-12.2627
-12.2627
-12.2627
-12.2627
-12.2627
-12.2627
-12.2627
-12.2627
-12.2627
-12.2627
-12.2627
-12.2627
-12.2627
-12.2627
-12.2627
-12.2627
-12.2627
-12.2627
-12.2627
-12.6233
-12.6233
-12.6233
-12.6233
-12.6233
-12.6233
-12.6233
-12.6233
-12.6233
-12.6233
-12.6233
-12.6233
-12.6233
-12.6233
-12.6233
-12.6233
-12.6233
-12.6233
-12.6233
-12.6233
-12.6233
-12.984
-12.984
-12.984
-12.984
-12.984
-12.984
-12.984
-12.984
-12.984
-12.984
-12.984
-12.984
-12.984
-12.984
-12.984
-12.984
-12.984
-12.984
-12.984
-12.984
-12.984
-12.984
-12.984
-12.984
-12.984
-12.984
-12.984
-12.984
-12.984
-12.984
-12.984
-12.984
-12.984
-12.984
-12.984
-12.984
-12.984
-12.984
-12.984
-12.984
-12.984
-13.3447
-13.3447
-13.3447
-13.3447
-13.3447
-13.3447
-13.3447
-13.3447
-13.3447
-13.3447
-13.3447
-13.3447
-13.3447
-13.3447
-13.3447
-13.3447
-13.3447
-13.3447
-13.3447
-13.3447
-13.3447
-13.7053
-13.7053
-13.7053
-13.7053
-13.7053
-13.7053
-13.7053
-13.7053
-13.7053
-13.7053
-13.7053
-13.7053
-13.7053
-13.7053
-13.7053
-13.7053
-13.7053
-13.7053
-13.7053
-13.7053
-13.7053
-13.7053
-13.7053
-13.7053
-13.7053
-13.7053
-13.7053
-13.7053
-13.7053
-13.7053
-13.7053
-13.7053
-13.7053
-13.7053
-13.7053
-13.7053
-13.7053
-13.7053
-13.7053
-13.7053
-13.7053
-14.066
-14.066
-14.066
-14.066
-14.066
-14.066
-14.066
-14.066
-14.066
-14.066
-14.066
-14.066
-14.066
-14.066
-14.066
-14.066
-14.066
-14.066
-14.066
-14.066
-14.066
-14.4267
-14.4267
-14.4267
-14.4267
-14.4267
-14.4267
-14.4267
-14.4267
-14.4267
-14.4267
-14.4267
-14.4267
-14.4267
-14.4267
-14.4267
-14.4267
-14.4267
-14.4267
-14.4267
-14.4267
-14.4267
-14.4267
-14.4267
-14.4267
-14.4267
-14.4267
-14.4267
-14.4267
-14.4267
-14.4267
-14.4267
-14.4267
-14.4267
-14.4267
-14.4267
-14.4267
-14.4267
-14.4267
-14.4267
-14.4267
-14.4267
-14.7873
-14.7873
-14.7873
-14.7873
-14.7873
-14.7873
-14.7873
-14.7873
-14.7873
-14.7873
-14.7873
-14.7873
-14.7873
-14.7873
-14.7873
-14.7873
-14.7873
-14.7873
-14.7873
-14.7873
-14.7873
-15.148
-15.148
-15.148
-15.148
-15.148
-15.148
-15.148
-15.148
-15.148
-15.148
-15.148
-15.148
-15.148
-15.148
-15.148
-15.148
-15.148
-15.148
-15.148
-15.148
-15.148
-15.148
-15.148
-15.148
-15.148
-15.148
-15.148
-15.148
-15.148
-15.148
-15.148
-15.148
-15.148
-15.148
-15.148
-15.148
-15.148
-15.148
-15.148
-15.148
-15.148
-15.5087
-15.5087
-15.5087
-15.5087
-15.5087
-15.5087
-15.5087
-15.5087
-15.5087
-15.5087
-15.5087
-15.5087
-15.5087
-15.5087
-15.5087
-15.5087
-15.5087
-15.5087
-15.5087
-15.5087
-15.5087
-15.8693
-15.8693
-15.8693
-15.8693
-15.8693
-15.8693
-15.8693
-15.8693
-15.8693
-15.8693
-15.8693
-15.8693
-15.8693
-15.8693
-15.8693
-15.8693
-15.8693
-15.8693
-15.8693
-15.8693
-15.8693
-15.8693
-15.8693
-15.8693
-15.8693
-15.8693
-15.8693
-15.8693
-15.8693
-15.8693
-15.8693
-15.8693
-15.8693
-15.8693
-15.8693
-15.8693
-15.8693
-15.8693
-15.8693
-15.8693
-15.8693
-16.23
-16.23
-16.23
-16.23
-16.23
-16.23
-16.23
-16.23
-16.23
-16.23
-16.23
-16.23
-16.23
-16.23
-16.23
-16.23
-16.23
-16.23
-16.23
-16.23
-16.23
-16.5907
-16.5907
-16.5907
-16.5907
-16.5907
-16.5907
-16.5907
-16.5907
-16.5907
-16.5907
-16.5907
-16.5907
-16.5907
-16.5907
-16.5907
-16.5907
-16.5907
-16.5907
-16.5907
-16.5907
-16.5907
-16.5907
-16.5907
-16.5907
-16.5907
-16.5907
-16.5907
-16.5907
-16.5907
-16.5907
-16.5907
-16.5907
-16.5907
-16.5907
-16.5907
-16.5907
-16.5907
-16.5907
-16.5907
-16.5907
-16.5907
-16.9513
-16.9513
-16.9513
-16.9513
-16.9513
-16.9513
-16.9513
-16.9513
-16.9513
-16.9513
-16.9513
-16.9513
-16.9513
-16.9513
-16.9513
-16.9513
-16.9513
-16.9513
-16.9513
-16.9513
-16.9513
-17.312
-17.312
-17.312
-17.312
-17.312
-17.312
-17.312
-17.312
-17.312
-17.312
-17.312
-17.312
-17.312
-17.312
-17.312
-17.312
-17.312
-17.312
-17.312
-17.312
-17.312
-17.312
-17.312
-17.312
-17.312
-17.312
-17.312
-17.312
-17.312
-17.312
-17.312
-17.312
-17.312
-17.312
-17.312
-17.312
-17.312
-17.312
-17.312
-17.312
-17.312
-26.7807
-26.7807
-26.7807
-26.7807
-26.7807
-26.7807
-26.7807
-26.7807
-26.7807
-26.7807
-26.7807
-26.7807
-26.7807
-26.7807
-26.7807
-26.7807
-26.7807
-26.7807
-26.7807
-26.7807
-26.7807
-36.2495
-36.2495
-36.2495
-36.2495
-36.2495
-36.2495
-36.2495
-36.2495
-36.2495
-36.2495
-36.2495
-36.2495
-36.2495
-36.2495
-36.2495
-36.2495
-36.2495
-36.2495
-36.2495
-36.2495
-36.2495
-36.2495
-36.2495
-36.2495
-36.2495
-36.2495
-36.2495
-36.2495
-36.2495
-36.2495
-36.2495
-36.2495
-36.2495
-36.2495
-36.2495
-36.2495
-36.2495
-36.2495
-36.2495
-36.2495
-36.2495
-45.7182
-45.7182
-45.7182
-45.7182
-45.7182
-45.7182
-45.7182
-45.7182
-45.7182
-45.7182
-45.7182
-45.7182
-45.7182
-45.7182
-45.7182
-45.7182
-45.7182
-45.7182
-45.7182
-45.7182
-45.7182
-55.187
-55.187
-55.187
-55.187
-55.187
-55.187
-55.187
-55.187
-55.187
-55.187
-55.187
-55.187
-55.187
-55.187
-55.187
-55.187
-55.187
-55.187
-55.187
-55.187
-55.187
-55.187
-55.187
-55.187
-55.187
-55.187
-55.187
-55.187
-55.187
-55.187
-55.187
-55.187
-55.187
-55.187
-55.187
-55.187
-55.187
-55.187
-55.187
-55.187
-55.187
-64.6557
-64.6557
-64.6557
-64.6557
-64.6557
-64.6557
-64.6557
-64.6557
-64.6557
-64.6557
-64.6557
-64.6557
-64.6557
-64.6557
-64.6557
-64.6557
-64.6557
-64.6557
-64.6557
-64.6557
-64.6557
-74.1245
-74.1245
-74.1245
-74.1245
-74.1245
-74.1245
-74.1245
-74.1245
-74.1245
-74.1245
-74.1245
-74.1245
-74.1245
-74.1245
-74.1245
-74.1245
-74.1245
-74.1245
-74.1245
-74.1245
-74.1245
-74.1245
-74.1245
-74.1245
-74.1245
-74.1245
-74.1245
-74.1245
-74.1245
-74.1245
-74.1245
-74.1245
-74.1245
-74.1245
-74.1245
-74.1245
-74.1245
-74.1245
-74.1245
-74.1245
-74.1245
-83.5932
-83.5932
-83.5932
-83.5932
-83.5932
-83.5932
-83.5932
-83.5932
-83.5932
-83.5932
-83.5932
-83.5932
-83.5932
-83.5932
-83.5932
-83.5932
-83.5932
-83.5932
-83.5932
-83.5932
-83.5932
-93.062
-93.062
-93.062
-93.062
-93.062
-93.062
-93.062
-93.062
-93.062
-93.062
-93.062
-93.062
-93.062
-93.062
-93.062
-93.062
-93.062
-93.062
-93.062
-93.062
-93.062
-93.062
-93.062
-93.062
-93.062
-93.062
-93.062
-93.062
-93.062
-93.062
-93.062
-93.062
-93.062
-93.062
-93.062
-93.062
-93.062
-93.062
-93.062
-93.062
-93.062
-102.531
-102.531
-102.531
-102.531
-102.531
-102.531
-102.531
-102.531
-102.531
-102.531
-102.531
-102.531
-102.531
-102.531
-102.531
-102.531
-102.531
-102.531
-102.531
-102.531
-102.531
-111.999
-111.999
-111.999
-111.999
-111.999
-111.999
-111.999
-111.999
-111.999
-111.999
-111.999
-111.999
-111.999
-111.999
-111.999
-111.999
-111.999
-111.999
-111.999
-111.999
-111.999
-111.999
-111.999
-111.999
-111.999
-111.999
-111.999
-111.999
-111.999
-111.999
-111.999
-111.999
-111.999
-111.999
-111.999
-111.999
-111.999
-111.999
-111.999
-111.999
-111.999
-121.468
-121.468
-121.468
-121.468
-121.468
-121.468
-121.468
-121.468
-121.468
-121.468
-121.468
-121.468
-121.468
-121.468
-121.468
-121.468
-121.468
-121.468
-121.468
-121.468
-121.468
-130.937
-130.937
-130.937
-130.937
-130.937
-130.937
-130.937
-130.937
-130.937
-130.937
-130.937
-130.937
-130.937
-130.937
-130.937
-130.937
-130.937
-130.937
-130.937
-130.937
-130.937
-130.937
-130.937
-130.937
-130.937
-130.937
-130.937
-130.937
-130.937
-130.937
-130.937
-130.937
-130.937
-130.937
-130.937
-130.937
-130.937
-130.937
-130.937
-130.937
-130.937
-140.406
-140.406
-140.406
-140.406
-140.406
-140.406
-140.406
-140.406
-140.406
-140.406
-140.406
-140.406
-140.406
-140.406
-140.406
-140.406
-140.406
-140.406
-140.406
-140.406
-140.406
-149.875
-149.875
-149.875
-149.875
-149.875
-149.875
-149.875
-149.875
-149.875
-149.875
-149.875
-149.875
-149.875
-149.875
-149.875
-149.875
-149.875
-149.875
-149.875
-149.875
-149.875
-149.875
-149.875
-149.875
-149.875
-149.875
-149.875
-149.875
-149.875
-149.875
-149.875
-149.875
-149.875
-149.875
-149.875
-149.875
-149.875
-149.875
-149.875
-149.875
-149.875
-159.343
-159.343
-159.343
-159.343
-159.343
-159.343
-159.343
-159.343
-159.343
-159.343
-159.343
-159.343
-159.343
-159.343
-159.343
-159.343
-159.343
-159.343
-159.343
-159.343
-159.343
-168.812
-168.812
-168.812
-168.812
-168.812
-168.812
-168.812
-168.812
-168.812
-168.812
-168.812
-168.812
-168.812
-168.812
-168.812
-168.812
-168.812
-168.812
-168.812
-168.812
-168.812
-168.812
-168.812
-168.812
-168.812
-168.812
-168.812
-168.812
-168.812
-168.812
-168.812
-168.812
-168.812
-168.812
-168.812
-168.812
-168.812
-168.812
-168.812
-168.812
-168.812
-178.281
-178.281
-178.281
-178.281
-178.281
-178.281
-178.281
-178.281
-178.281
-178.281
-178.281
-178.281
-178.281
-178.281
-178.281
-178.281
-178.281
-178.281
-178.281
-178.281
-178.281
-187.75
-187.75
-187.75
-187.75
-187.75
-187.75
-187.75
-187.75
-187.75
-187.75
-187.75
-187.75
-187.75
-187.75
-187.75
-187.75
-187.75
-187.75
-187.75
-187.75
-187.75
-187.75
-187.75
-187.75
-187.75
-187.75
-187.75
-187.75
-187.75
-187.75
-187.75
-187.75
-187.75
-187.75
-187.75
-187.75
-187.75
-187.75
-187.75
-187.75
-187.75
-197.218
-197.218
-197.218
-197.218
-197.218
-197.218
-197.218
-197.218
-197.218
-197.218
-197.218
-197.218
-197.218
-197.218
-197.218
-197.218
-197.218
-197.218
-197.218
-197.218
-197.218
-206.687
-206.687
-206.687
-206.687
-206.687
-206.687
-206.687
-206.687
-206.687
-206.687
-206.687
-206.687
-206.687
-206.687
-206.687
-206.687
-206.687
-206.687
-206.687
-206.687
-206.687
-206.687
-206.687
-206.687
-206.687
-206.687
-206.687
-206.687
-206.687
-206.687
-206.687
-206.687
-206.687
-206.687
-206.687
-206.687
-206.687
-206.687
-206.687
-206.687
-206.687
-216.156
-216.156
-216.156
-216.156
-216.156
-216.156
-216.156
-216.156
-216.156
-216.156
-216.156
-216.156
-216.156
-216.156
-216.156
-216.156
-216.156
-216.156
-216.156
-216.156
-216.156
-225.625
-225.625
-225.625
-225.625
-225.625
-225.625
-225.625
-225.625
-225.625
-225.625
-225.625
-225.625
-225.625
-225.625
-225.625
-225.625
-225.625
-225.625
-225.625
-225.625
-225.625
-225.625
-225.625
-225.625
-225.625
-225.625
-225.625
-225.625
-225.625
-225.625
-225.625
-225.625
-225.625
-225.625
-225.625
-225.625
-225.625
-225.625
-225.625
-225.625
-225.625
-235.093
-235.093
-235.093
-235.093
-235.093
-235.093
-235.093
-235.093
-235.093
-235.093
-235.093
-235.093
-235.093
-235.093
-235.093
-235.093
-235.093
-235.093
-235.093
-235.093
-235.093
-244.562
-244.562
-244.562
-244.562
-244.562
-244.562
-244.562
-244.562
-244.562
-244.562
-244.562
-244.562
-244.562
-244.562
-244.562
-244.562
-244.562
-244.562
-244.562
-244.562
-244.562
-244.562
-244.562
-244.562
-244.562
-244.562
-244.562
-244.562
-244.562
-244.562
-244.562
-244.562
-244.562
-244.562
-244.562
-244.562
-244.562
-244.562
-244.562
-244.562
-244.562
-254.031
-254.031
-254.031
-254.031
-254.031
-254.031
-254.031
-254.031
-254.031
-254.031
-254.031
-254.031
-254.031
-254.031
-254.031
-254.031
-254.031
-254.031
-254.031
-254.031
-254.031
-263.5
-263.5
-263.5
-263.5
-263.5
-263.5
-263.5
-263.5
-263.5
-263.5
-263.5
-263.5
-263.5
-263.5
-263.5
-263.5
-263.5
-263.5
-263.5
-263.5
-263.5
-263.5
-263.5
-263.5
-263.5
-263.5
-263.5
-263.5
-263.5
-263.5
-263.5
-263.5
-263.5
-263.5
-263.5
-263.5
-263.5
-263.5
-263.5
-263.5
-263.5
-272.968
-272.968
-272.968
-272.968
-272.968
-272.968
-272.968
-272.968
-272.968
-272.968
-272.968
-272.968
-272.968
-272.968
-272.968
-272.968
-272.968
-272.968
-272.968
-272.968
-272.968
-282.437
-282.437
-282.437
-282.437
-282.437
-282.437
-282.437
-282.437
-282.437
-282.437
-282.437
-282.437
-282.437
-282.437
-282.437
-282.437
-282.437
-282.437
-282.437
-282.437
-282.437
-282.437
-282.437
-282.437
-282.437
-282.437
-282.437
-282.437
-282.437
-282.437
-282.437
-282.437
-282.437
-282.437
-282.437
-282.437
-282.437
-282.437
-282.437
-282.437
-282.437
-291.906
-291.906
-291.906
-291.906
-291.906
-291.906
-291.906
-291.906
-291.906
-291.906
-291.906
-291.906
-291.906
-291.906
-291.906
-291.906
-291.906
-291.906
-291.906
-291.906
-291.906
-301.375
-301.375
-301.375
-301.375
-301.375
-301.375
-301.375
-301.375
-301.375
-301.375
-301.375
-301.375
-301.375
-301.375
-301.375
-301.375
-301.375
-301.375
-301.375
-301.375
-301.375
-301.375
-301.375
-301.375
-301.375
-301.375
-301.375
-301.375
-301.375
-301.375
-301.375
-301.375
-301.375
-301.375
-301.375
-301.375
-301.375
-301.375
-301.375
-301.375
-301.375
-310.843
-310.843
-310.843
-310.843
-310.843
-310.843
-310.843
-310.843
-310.843
-310.843
-310.843
-310.843
-310.843
-310.843
-310.843
-310.843
-310.843
-310.843
-310.843
-310.843
-310.843
-320.312
-320.312
-320.312
-320.312
-320.312
-320.312
-320.312
-320.312
-320.312
-320.312
-320.312
-320.312
-320.312
-320.312
-320.312
-320.312
-320.312
-320.312
-320.312
-320.312
-320.312
-320.312
-320.312
-320.312
-320.312
-320.312
-320.312
-320.312
-320.312
-320.312
-320.312
-320.312
-320.312
-320.312
-320.312
-320.312
-320.312
-320.312
-320.312
-320.312
-320.312
