# vtk DataFile Version 2.0
./vtk
ASCII

DATASET UNSTRUCTURED_GRID
POINTS 95 double
0 0 0.0
0.5065 0 0.0
1.013 0 0.0
1.5195 0 0.0
2.026 0 0.0
2.5325 0 0.0
3.039 0 0.0
0 -0.775 0.0
1.013 -0.775 0.0
2.026 -0.775 0.0
3.039 -0.775 0.0
0 -1.55 0.0
0.5065 -1.55 0.0
1.013 -1.55 0.0
1.5195 -1.55 0.0
2.026 -1.55 0.0
2.5325 -1.55 0.0
3.039 -1.55 0.0
0 -2.325 0.0
1.013 -2.325 0.0
2.026 -2.325 0.0
3.039 -2.325 0.0
0 -3.1 0.0
0.5065 -3.1 0.0
1.013 -3.1 0.0
1.5195 -3.1 0.0
2.026 -3.1 0.0
2.5325 -3.1 0.0
3.039 -3.1 0.0
0 -3.875 0.0
1.013 -3.875 0.0
2.026 -3.875 0.0
3.039 -3.875 0.0
0 -4.65 0.0
0.5065 -4.65 0.0
1.013 -4.65 0.0
1.5195 -4.65 0.0
2.026 -4.65 0.0
2.5325 -4.65 0.0
3.039 -4.65 0.0
0 -5.425 0.0
1.013 -5.425 0.0
2.026 -5.425 0.0
3.039 -5.425 0.0
0 -6.2 0.0
0.5065 -6.2 0.0
1.013 -6.2 0.0
1.5195 -6.2 0.0
2.026 -6.2 0.0
2.5325 -6.2 0.0
3.039 -6.2 0.0
0 -6.975 0.0
1.013 -6.975 0.0
2.026 -6.975 0.0
3.039 -6.975 0.0
0 -7.75 0.0
0.5065 -7.75 0.0
1.013 -7.75 0.0
1.5195 -7.75 0.0
2.026 -7.75 0.0
2.5325 -7.75 0.0
3.039 -7.75 0.0
0 -8.525 0.0
1.013 -8.525 0.0
2.026 -8.525 0.0
3.039 -8.525 0.0
0 -9.3 0.0
0.5065 -9.3 0.0
1.013 -9.3 0.0
1.5195 -9.3 0.0
2.026 -9.3 0.0
2.5325 -9.3 0.0
3.039 -9.3 0.0
0 -10.075 0.0
1.013 -10.075 0.0
2.026 -10.075 0.0
3.039 -10.075 0.0
0 -10.85 0.0
0.5065 -10.85 0.0
1.013 -10.85 0.0
1.5195 -10.85 0.0
2.026 -10.85 0.0
2.5325 -10.85 0.0
3.039 -10.85 0.0
0 -11.625 0.0
1.013 -11.625 0.0
2.026 -11.625 0.0
3.039 -11.625 0.0
0 -12.4 0.0
0.5065 -12.4 0.0
1.013 -12.4 0.0
1.5195 -12.4 0.0
2.026 -12.4 0.0
2.5325 -12.4 0.0
3.039 -12.4 0.0

CELLS 24 216
8 11 13  2  0 12  8  1  7
8 13 15  4  2 14  9  3  8
8 15 17  6  4 16 10  5  9
8 22 24 13 11 23 19 12 18
8 24 26 15 13 25 20 14 19
8 26 28 17 15 27 21 16 20
8 33 35 24 22 34 30 23 29
8 35 37 26 24 36 31 25 30
8 37 39 28 26 38 32 27 31
8 44 46 35 33 45 41 34 40
8 46 48 37 35 47 42 36 41
8 48 50 39 37 49 43 38 42
8 55 57 46 44 56 52 45 51
8 57 59 48 46 58 53 47 52
8 59 61 50 48 60 54 49 53
8 66 68 57 55 67 63 56 62
8 68 70 59 57 69 64 58 63
8 70 72 61 59 71 65 60 64
8 77 79 68 66 78 74 67 73
8 79 81 70 68 80 75 69 74
8 81 83 72 70 82 76 71 75
8 88 90 79 77 89 85 78 84
8 90 92 81 79 91 86 80 85
8 92 94 83 81 93 87 82 86

CELL_TYPES 24
23
23
23
23
23
23
23
23
23
23
23
23
23
23
23
23
23
23
23
23
23
23
23
23

POINT_DATA 95
SCALARS Displacement_R double 1
LOOKUP_TABLE default
0
-6.71659e-06
-1.34305e-05
-2.02457e-05
-2.70408e-05
-3.37758e-05
-4.0396e-05
0
-1.2976e-05
-2.59528e-05
-3.88748e-05
0
-5.9598e-06
-1.19263e-05
-1.79106e-05
-2.3897e-05
-2.98286e-05
-3.5681e-05
0
-1.08214e-05
-2.15877e-05
-3.21677e-05
0
-4.77353e-06
-9.5324e-06
-1.42733e-05
-1.89706e-05
-2.36242e-05
-2.82286e-05
0
-8.11368e-06
-1.61483e-05
-2.40448e-05
0
-3.32362e-06
-6.63948e-06
-9.94148e-06
-1.32248e-05
-1.64845e-05
-1.97176e-05
0
-5.12951e-06
-1.02383e-05
-1.53012e-05
0
-1.79522e-06
-3.59232e-06
-5.39357e-06
-7.19781e-06
-9.00813e-06
-1.08197e-05
0
-1.96006e-06
-4.06675e-06
-6.26623e-06
0
-1.04576e-07
-2.58714e-07
-5.16427e-07
-8.43693e-07
-1.24372e-06
-1.60546e-06
0
1.50606e-06
2.58565e-06
3.02754e-06
0
1.6672e-06
3.25399e-06
4.75087e-06
5.95062e-06
6.96795e-06
7.61117e-06
0
4.51224e-06
8.57605e-06
1.15598e-05
0
2.43324e-06
4.89635e-06
7.47094e-06
1.01442e-05
1.25791e-05
1.47759e-05
0
3.46864e-06
7.25257e-06
1.1586e-05
0
0
0
0
0
0
0
SCALARS Displacement_Z double 1
LOOKUP_TABLE default
0.000505172
0.00050504
0.000504664
0.000503994
0.000503044
0.000501843
0.000500892
0.000494382
0.000493619
0.000491502
0.000488556
0.000479519
0.000479367
0.000478815
0.000477919
0.000476678
0.000475136
0.000473142
0.000462024
0.00046131
0.000459076
0.000455113
0.000442018
0.000441823
0.000441228
0.000440233
0.000438808
0.000436913
0.000434522
0.000419313
0.000418468
0.000415866
0.000411342
0.000393884
0.000393659
0.000392991
0.000391865
0.000390264
0.000388175
0.000385572
0.000365719
0.000364801
0.000362005
0.000357209
0.000334814
0.00033459
0.000333897
0.000332743
0.000331092
0.000328939
0.000326264
0.000301141
0.000300254
0.000297531
0.000292698
0.00026448
0.000264277
0.00026377
0.000262803
0.000261354
0.000259306
0.000256536
0.000224732
0.000224299
0.000222468
0.00021803
0.000181953
0.000181978
0.000181776
0.000181508
0.000180804
0.000179565
0.00017745
0.00013649
0.000136607
0.000136687
0.000134966
8.96162e-05
8.95832e-05
8.9765e-05
8.99507e-05
9.02879e-05
9.02584e-05
9.02979e-05
4.30316e-05
4.31164e-05
4.3142e-05
4.39539e-05
-0
-0
-0
-0
-0
-0
-0
SCALARS Stress_R double 1
LOOKUP_TABLE default
3.12318
3.14217
3.10944
3.09384
3.03561
3.03253
3.00359
2.93427
2.9516
2.98043
2.99112
3.04903
3.03445
3.03353
3.02446
3.01983
3.00272
3.01957
2.99665
2.99814
2.99999
3.00144
2.99609
2.99524
2.99754
2.99731
2.99887
2.99847
2.99962
3.00164
3.00041
2.99993
3.00016
3.00055
2.99922
3.00018
2.99934
3.0003
2.9999
3.00009
3.00044
2.99996
2.99987
3.00014
2.99211
2.99664
2.99621
2.99788
3.00019
2.99831
3.00346
2.99142
2.99771
3.00262
3.00268
2.98967
2.99336
2.99417
2.99791
3.00067
2.99877
2.99814
2.98645
2.99233
2.99994
3.01084
3.02019
3.03589
3.01743
3.01855
3.00012
3.00469
3.00722
2.97553
2.98377
2.98016
2.95821
3.18503
3.18221
3.16486
3.15082
3.15159
3.1303
3.05667
3.07725
3.06098
2.98381
2.96625
3.45596
3.45532
3.47042
3.44194
3.42572
3.555
3.69757
SCALARS Stress_Theta double 1
LOOKUP_TABLE default
3.12318
3.14221
3.1078
3.09204
3.03473
3.03491
3.00873
2.93427
2.95142
2.97955
2.9944
3.04903
3.03436
3.03316
3.02401
3.01971
3.00478
3.0233
2.99665
2.99828
3.00104
3.00514
2.99609
2.99544
2.9978
2.99836
3.00066
3.00106
3.003
3.00164
3.00068
3.0013
3.00277
3.00055
2.99932
3.0004
2.9999
3.00117
3.00125
3.00187
3.00044
3.00004
3.00025
3.00097
2.99211
2.99662
2.99614
2.99774
2.99997
2.99806
3.00322
2.99142
2.99687
3.00031
3.00169
2.98967
2.9927
2.99228
2.99472
2.99593
2.99528
2.99614
2.98645
2.99104
2.99271
2.99889
3.02019
3.03482
3.01652
3.01236
2.99059
2.98983
2.98575
2.97553
2.98184
2.97287
2.93886
3.18503
3.18262
3.16629
3.15443
3.15437
3.12501
3.04661
3.07725
3.06259
2.99162
2.96928
3.45596
3.45533
3.47048
3.44198
3.42605
3.55524
3.69794
SCALARS Stress_Z double 1
LOOKUP_TABLE default
3.0923
3.11489
3.08576
3.07648
3.02645
3.03241
3.01919
2.98867
3.00769
3.04071
3.06838
3.18485
3.16857
3.16652
3.15617
3.15133
3.13901
3.16409
3.18419
3.1867
3.19233
3.20383
3.24405
3.24418
3.24763
3.25
3.25491
3.25797
3.26295
3.31567
3.31582
3.31955
3.32528
3.38027
3.37927
3.38099
3.38131
3.3838
3.38522
3.38734
3.44662
3.44647
3.44748
3.44963
3.50354
3.50883
3.50812
3.50986
3.51228
3.50978
3.51583
3.57475
3.57831
3.57782
3.57849
3.64727
3.6482
3.64432
3.64239
3.63892
3.63619
3.63718
3.71966
3.71863
3.70555
3.69639
3.83739
3.85114
3.82531
3.81072
3.77237
3.75795
3.73578
3.8304
3.83407
3.80794
3.73493
4.10444
4.10306
4.08488
4.07561
4.07888
4.03198
3.9235
3.90985
3.89451
3.81879
3.79587
4.22686
4.22609
4.24479
4.21028
4.19145
4.35129
4.52586
SCALARS Stress_Shear double 1
LOOKUP_TABLE default
-0.000228515
-0.00338543
-0.00674376
-0.00894969
-0.0126712
-0.010061
-0.00574146
-0.00083703
-0.00334132
-0.00493453
-0.000456574
0.000674572
0.000441195
0.000431111
0.00112295
0.00232171
0.00278883
0.00240777
0.000599907
0.000534353
0.00142246
-0.000286243
7.62468e-05
0.000764542
0.0016021
0.00199033
0.00227147
0.00158728
0.000823193
-3.21373e-06
0.00133109
0.00164385
0.000192246
-3.88914e-05
0.000599902
0.00121095
0.00133529
0.0013857
0.000836821
0.000142108
-3.31634e-05
0.0010916
0.00116408
-0.000103722
0.000141275
0.000803547
0.00148497
0.00164829
0.0015233
0.000839433
0.000135005
-0.000751589
0.00315558
0.00336292
-0.000365474
-0.000665939
0.00297021
0.00600303
0.00647149
0.00676121
0.00334365
-0.000906281
0.000653885
0.00895482
0.0108759
-8.01384e-05
0.00184361
0.00619038
0.012428
0.0148439
0.0166192
0.0112895
0.00458574
0.000852103
0.00861996
0.0143488
0.0140956
-0.00189334
-0.000171985
0.00049499
0.00259368
0.00323035
0.00792264
0.0165576
-0.000881078
-0.020835
-0.0407812
-0.0577427
-1.76554e-05
-0.020687
-0.0415968
-0.0639371
-0.0863717
-0.117899
-0.149586
SCALARS Radial_Distance double 1
LOOKUP_TABLE default
0
0.5065
1.013
1.5195
2.026
2.5325
3.039
0
1.013
2.026
3.039
0
0.5065
1.013
1.5195
2.026
2.5325
3.039
0
1.013
2.026
3.039
0
0.5065
1.013
1.5195
2.026
2.5325
3.039
0
1.013
2.026
3.039
0
0.5065
1.013
1.5195
2.026
2.5325
3.039
0
1.013
2.026
3.039
0
0.5065
1.013
1.5195
2.026
2.5325
3.039
0
1.013
2.026
3.039
0
0.5065
1.013
1.5195
2.026
2.5325
3.039
0
1.013
2.026
3.039
0
0.5065
1.013
1.5195
2.026
2.5325
3.039
0
1.013
2.026
3.039
0
0.5065
1.013
1.5195
2.026
2.5325
3.039
0
1.013
2.026
3.039
0
0.5065
1.013
1.5195
2.026
2.5325
3.039
SCALARS Depth double 1
LOOKUP_TABLE default
0
0
0
0
0
0
0
-0.775
-0.775
-0.775
-0.775
-1.55
-1.55
-1.55
-1.55
-1.55
-1.55
-1.55
-2.325
-2.325
-2.325
-2.325
-3.1
-3.1
-3.1
-3.1
-3.1
-3.1
-3.1
-3.875
-3.875
-3.875
-3.875
-4.65
-4.65
-4.65
-4.65
-4.65
-4.65
-4.65
-5.425
-5.425
-5.425
-5.425
-6.2
-6.2
-6.2
-6.2
-6.2
-6.2
-6.2
-6.975
-6.975
-6.975
-6.975
-7.75
-7.75
-7.75
-7.75
-7.75
-7.75
-7.75
-8.525
-8.525
-8.525
-8.525
-9.3
-9.3
-9.3
-9.3
-9.3
-9.3
-9.3
-10.075
-10.075
-10.075
-10.075
-10.85
-10.85
-10.85
-10.85
-10.85
-10.85
-10.85
-11.625
-11.625
-11.625
-11.625
-12.4
-12.4
-12.4
-12.4
-12.4
-12.4
-12.4
