# vtk DataFile Version 2.0
./vtk
ASCII

DATASET UNSTRUCTURED_GRID
POINTS 95 double
0 0 0.0
0.5065 0 0.0
1.013 0 0.0
1.5195 0 0.0
2.026 0 0.0
2.5325 0 0.0
3.039 0 0.0
0 -0.775 0.0
1.013 -0.775 0.0
2.026 -0.775 0.0
3.039 -0.775 0.0
0 -1.55 0.0
0.5065 -1.55 0.0
1.013 -1.55 0.0
1.5195 -1.55 0.0
2.026 -1.55 0.0
2.5325 -1.55 0.0
3.039 -1.55 0.0
0 -2.325 0.0
1.013 -2.325 0.0
2.026 -2.325 0.0
3.039 -2.325 0.0
0 -3.1 0.0
0.5065 -3.1 0.0
1.013 -3.1 0.0
1.5195 -3.1 0.0
2.026 -3.1 0.0
2.5325 -3.1 0.0
3.039 -3.1 0.0
0 -3.875 0.0
1.013 -3.875 0.0
2.026 -3.875 0.0
3.039 -3.875 0.0
0 -4.65 0.0
0.5065 -4.65 0.0
1.013 -4.65 0.0
1.5195 -4.65 0.0
2.026 -4.65 0.0
2.5325 -4.65 0.0
3.039 -4.65 0.0
0 -5.425 0.0
1.013 -5.425 0.0
2.026 -5.425 0.0
3.039 -5.425 0.0
0 -6.2 0.0
0.5065 -6.2 0.0
1.013 -6.2 0.0
1.5195 -6.2 0.0
2.026 -6.2 0.0
2.5325 -6.2 0.0
3.039 -6.2 0.0
0 -6.975 0.0
1.013 -6.975 0.0
2.026 -6.975 0.0
3.039 -6.975 0.0
0 -7.75 0.0
0.5065 -7.75 0.0
1.013 -7.75 0.0
1.5195 -7.75 0.0
2.026 -7.75 0.0
2.5325 -7.75 0.0
3.039 -7.75 0.0
0 -8.525 0.0
1.013 -8.525 0.0
2.026 -8.525 0.0
3.039 -8.525 0.0
0 -9.3 0.0
0.5065 -9.3 0.0
1.013 -9.3 0.0
1.5195 -9.3 0.0
2.026 -9.3 0.0
2.5325 -9.3 0.0
3.039 -9.3 0.0
0 -10.075 0.0
1.013 -10.075 0.0
2.026 -10.075 0.0
3.039 -10.075 0.0
0 -10.85 0.0
0.5065 -10.85 0.0
1.013 -10.85 0.0
1.5195 -10.85 0.0
2.026 -10.85 0.0
2.5325 -10.85 0.0
3.039 -10.85 0.0
0 -11.625 0.0
1.013 -11.625 0.0
2.026 -11.625 0.0
3.039 -11.625 0.0
0 -12.4 0.0
0.5065 -12.4 0.0
1.013 -12.4 0.0
1.5195 -12.4 0.0
2.026 -12.4 0.0
2.5325 -12.4 0.0
3.039 -12.4 0.0

CELLS 24 216
8 11 13  2  0 12  8  1  7
8 13 15  4  2 14  9  3  8
8 15 17  6  4 16 10  5  9
8 22 24 13 11 23 19 12 18
8 24 26 15 13 25 20 14 19
8 26 28 17 15 27 21 16 20
8 33 35 24 22 34 30 23 29
8 35 37 26 24 36 31 25 30
8 37 39 28 26 38 32 27 31
8 44 46 35 33 45 41 34 40
8 46 48 37 35 47 42 36 41
8 48 50 39 37 49 43 38 42
8 55 57 46 44 56 52 45 51
8 57 59 48 46 58 53 47 52
8 59 61 50 48 60 54 49 53
8 66 68 57 55 67 63 56 62
8 68 70 59 57 69 64 58 63
8 70 72 61 59 71 65 60 64
8 77 79 68 66 78 74 67 73
8 79 81 70 68 80 75 69 74
8 81 83 72 70 82 76 71 75
8 88 90 79 77 89 85 78 84
8 90 92 81 79 91 86 80 85
8 92 94 83 81 93 87 82 86

CELL_TYPES 24
23
23
23
23
23
23
23
23
23
23
23
23
23
23
23
23
23
23
23
23
23
23
23
23

POINT_DATA 95
SCALARS Displacement_R double 1
LOOKUP_TABLE default
0
-0.000377106
-0.000756797
-0.0011332
-0.00150361
-0.00187824
-0.00224957
0
-0.000767333
-0.00153211
-0.00231256
0
-0.00038981
-0.000780186
-0.00117003
-0.00156301
-0.00195589
-0.00236477
0
-0.000791649
-0.00158719
-0.00239487
0
-0.000400836
-0.000802195
-0.00120523
-0.00160937
-0.00201553
-0.00241998
0
-0.000812053
-0.00163466
-0.00245003
0
-0.000406848
-0.000828201
-0.00124868
-0.00166466
-0.00207472
-0.00248216
0
-0.000851689
-0.00169564
-0.00251035
0
-0.000439744
-0.000876886
-0.00130653
-0.00172294
-0.00212962
-0.00252814
0
-0.000898573
-0.00173805
-0.00252936
0
-0.000459944
-0.000900289
-0.00131944
-0.00172797
-0.00212194
-0.00250718
0
-0.000866224
-0.00166953
-0.00244525
0
-0.000374078
-0.000771583
-0.00116971
-0.00155541
-0.00196645
-0.00232969
0
-0.0006185
-0.00137648
-0.00215662
0
-0.000184355
-0.00039073
-0.000675147
-0.00108059
-0.00145361
-0.00187783
0
-0.000186129
-0.000488043
-0.00146682
0
0
0
0
0
0
0
SCALARS Displacement_Z double 1
LOOKUP_TABLE default
0.000724708
0.000726934
0.000732452
0.000741331
0.000756581
0.000776719
0.000811968
0.000714098
0.000721923
0.00074487
0.000796366
0.000698957
0.000700771
0.000706173
0.000715914
0.000730564
0.000750376
0.000773531
0.000679984
0.000687363
0.000712254
0.000751424
0.000662865
0.000663068
0.000667798
0.000678043
0.000692271
0.000710445
0.000728585
0.00064226
0.000649403
0.000671738
0.000705967
0.0006303
0.000630647
0.000633224
0.000639322
0.000648485
0.00066071
0.000678368
0.000613261
0.000617099
0.000622448
0.000641005
0.000608632
0.000607939
0.000605779
0.000599682
0.000593433
0.00059006
0.000592596
0.000614981
0.000600878
0.000561437
0.000531155
0.000638301
0.000627799
0.000603194
0.000567003
0.000525558
0.000485681
0.000455578
0.000669165
0.000611335
0.000487537
0.000360355
0.00067613
0.000665588
0.000622111
0.000543381
0.000451046
0.000346544
0.000245799
0.000653169
0.000594202
0.000399684
0.000113516
0.000525157
0.000522254
0.000500888
0.000442414
0.000327766
0.000180447
-1.32115e-05
0.000309383
0.00029303
0.000256737
-0.000101846
-0
-0
-0
-0
-0
-0
-0
SCALARS Stress_R double 1
LOOKUP_TABLE default
2.94643
2.94883
2.92873
2.9738
2.87045
3.02368
3.05752
3.09644
3.08347
3.03575
2.87094
2.86286
2.85768
2.84189
2.92222
2.90864
2.9621
3.04219
2.99525
2.98748
2.98984
3.02096
3.04558
3.05364
3.03813
3.05183
3.05074
3.02182
2.99205
3.23109
3.22188
3.06213
2.9877
3.58115
3.27704
3.17695
3.07806
3.02628
3.0104
2.99117
3.38302
3.13263
3.01972
2.98273
3.04464
3.01337
3.01096
2.99441
2.95901
2.99065
2.97338
2.92193
2.91499
2.94805
3.00055
2.60703
2.58588
2.64331
2.78673
2.897
2.95447
3.04861
2.48358
2.58286
2.84694
2.9531
2.11444
2.12155
2.20791
2.65627
2.78757
2.91537
2.95396
1.62661
1.80731
2.64371
3.40949
1.19647
1.28918
1.32769
1.73613
1.62364
2.75501
4.18366
0.901506
0.930442
1.98129
1.59261
0.656414
0.632579
0.583607
0.644434
0.505815
-0.296046
-0.205925
SCALARS Stress_Theta double 1
LOOKUP_TABLE default
2.94643
2.94188
2.91933
2.99761
2.89385
3.038
3.08507
3.09644
3.07895
3.03889
2.81562
2.86286
2.85632
2.84486
2.91515
2.91397
2.91333
2.93059
2.99525
2.98647
2.98217
2.96206
3.04524
3.05252
3.03326
3.04251
3.03278
3.01076
2.99055
3.23155
3.1843
3.05677
3.00159
3.5803
3.23798
3.11841
3.06827
3.04363
3.04104
3.02834
3.38273
3.10617
3.07341
3.0634
3.04467
3.01959
3.0225
3.05393
3.0573
3.10492
3.10597
2.9221
2.98005
3.08534
3.17201
2.60707
2.62569
2.73875
2.90516
3.04562
3.12543
3.23671
2.4838
2.62013
2.91463
3.19696
2.11351
2.07653
2.12507
2.6482
2.70346
2.94493
3.21339
1.62723
1.73535
2.35181
3.22616
1.19673
1.24911
1.23556
1.32997
1.27251
2.21039
3.24885
0.90148
0.914924
1.13367
0.985374
0.656646
0.632345
0.58242
0.645063
0.522235
-0.0587177
-0.0912238
SCALARS Stress_Z double 1
LOOKUP_TABLE default
2.87216
2.8661
2.83626
2.92482
2.86718
2.9574
3.10374
3.14261
3.13214
3.08528
3.03799
3.04372
3.03799
3.01721
3.06309
3.04032
3.10924
3.28525
3.16019
3.17958
3.1755
3.25459
3.2681
3.26204
3.23947
3.2466
3.24816
3.24825
3.23656
3.35511
3.34138
3.3084
3.31977
3.67876
3.34196
3.26094
3.27043
3.34019
3.43002
3.47436
3.34459
3.14924
3.41896
3.77695
2.74178
2.77236
2.91985
3.16455
3.43659
3.79454
4.07253
2.30348
2.68081
3.53589
4.49404
1.62027
1.82829
2.28326
2.88871
3.58701
4.23826
4.97023
1.8585
2.1293
3.48972
5.44918
1.6787
1.69051
1.78121
2.58997
3.3759
4.51463
6.18609
2.83434
2.69244
3.59016
6.5119
4.25646
4.1474
3.75187
2.94259
1.62962
4.43839
7.47205
5.92873
5.58631
4.60721
1.45125
8.26723
7.95641
7.22453
8.10078
7.30366
0.670795
-0.172279
SCALARS Stress_Shear double 1
LOOKUP_TABLE default
0.0085337
0.00705966
0.00457192
0.0232992
-0.0320904
-0.0054501
-0.0281583
0.00688833
-0.0152137
-0.0370515
-0.0361211
0.000178464
-0.0108198
-0.0164174
-0.0109195
-0.0148471
-0.00967303
-0.014877
-0.00507924
0.00932525
0.0307813
0.0429919
-0.0293779
0.0117994
0.0295644
0.0230055
0.0381876
0.0135268
0.0167235
0.00385813
-0.0169582
-0.0476062
-0.00661624
-0.0121356
-0.0787314
-0.130939
-0.147973
-0.148473
-0.0940963
-0.018289
0.0188713
-0.18786
-0.199527
-0.000566469
0.000594974
-0.173182
-0.2935
-0.317672
-0.306238
-0.180944
-0.0376456
0.008338
-0.288808
-0.314299
-0.00551689
-0.0385341
-0.146253
-0.326067
-0.346227
-0.343028
-0.240444
-0.0372418
-0.0569391
-0.116931
-0.185231
0.0150742
0.0680075
0.1604
0.135498
0.0813258
-0.214812
-0.162005
-0.180931
-0.0453779
0.630563
0.327587
-0.227274
0.0613345
0.622609
1.1703
1.4235
1.47787
0.134811
-2.27024
0.00726746
1.24597
2.35124
2.40773
-0.00398609
0.61045
1.23743
2.06541
3.56408
2.41346
0.480683
SCALARS Radial_Distance double 1
LOOKUP_TABLE default
0
0.5065
1.013
1.5195
2.026
2.5325
3.039
0
1.013
2.026
3.039
0
0.5065
1.013
1.5195
2.026
2.5325
3.039
0
1.013
2.026
3.039
0
0.5065
1.013
1.5195
2.026
2.5325
3.039
0
1.013
2.026
3.039
0
0.5065
1.013
1.5195
2.026
2.5325
3.039
0
1.013
2.026
3.039
0
0.5065
1.013
1.5195
2.026
2.5325
3.039
0
1.013
2.026
3.039
0
0.5065
1.013
1.5195
2.026
2.5325
3.039
0
1.013
2.026
3.039
0
0.5065
1.013
1.5195
2.026
2.5325
3.039
0
1.013
2.026
3.039
0
0.5065
1.013
1.5195
2.026
2.5325
3.039
0
1.013
2.026
3.039
0
0.5065
1.013
1.5195
2.026
2.5325
3.039
SCALARS Depth double 1
LOOKUP_TABLE default
0
0
0
0
0
0
0
-0.775
-0.775
-0.775
-0.775
-1.55
-1.55
-1.55
-1.55
-1.55
-1.55
-1.55
-2.325
-2.325
-2.325
-2.325
-3.1
-3.1
-3.1
-3.1
-3.1
-3.1
-3.1
-3.875
-3.875
-3.875
-3.875
-4.65
-4.65
-4.65
-4.65
-4.65
-4.65
-4.65
-5.425
-5.425
-5.425
-5.425
-6.2
-6.2
-6.2
-6.2
-6.2
-6.2
-6.2
-6.975
-6.975
-6.975
-6.975
-7.75
-7.75
-7.75
-7.75
-7.75
-7.75
-7.75
-8.525
-8.525
-8.525
-8.525
-9.3
-9.3
-9.3
-9.3
-9.3
-9.3
-9.3
-10.075
-10.075
-10.075
-10.075
-10.85
-10.85
-10.85
-10.85
-10.85
-10.85
-10.85
-11.625
-11.625
-11.625
-11.625
-12.4
-12.4
-12.4
-12.4
-12.4
-12.4
-12.4
