  PRINCIPAL STRESSES:


  ELEMENT  R-COORD  Z-COORD      SIGMA 1        SIGMA 2        SIGMA 3        ANGLE 

      1     0.50    64.00     -0.209280E+02  -0.209280E+02  -0.255790E+02  -0.266756E-03
      2     1.50    64.00     -0.209281E+02  -0.209280E+02  -0.255790E+02  -0.135592E-02
      3     2.50    64.00     -0.209281E+02  -0.209281E+02  -0.255790E+02  -0.156179E-02
      4     3.50    64.00     -0.209281E+02  -0.209281E+02  -0.255790E+02  -0.184213E-02
      5     4.25    64.00     -0.209281E+02  -0.209281E+02  -0.255790E+02  -0.553956E-03
      6     4.75    64.00     -0.209280E+02  -0.209280E+02  -0.255790E+02  -0.442646E-03
      7     5.50    64.00     -0.209280E+02  -0.209280E+02  -0.255789E+02  -0.113165E-03
      8     6.50    64.00     -0.209279E+02  -0.209279E+02  -0.255788E+02  -0.114096E-02
      9     7.50    64.00     -0.209278E+02  -0.209278E+02  -0.255787E+02  -0.951060E-03
     10     8.50    64.00     -0.209277E+02  -0.209277E+02  -0.255787E+02  -0.321088E-03
     11    10.00    64.00     -0.209276E+02  -0.209276E+02  -0.255786E+02  -0.316212E-05
     12    13.00    64.00     -0.209275E+02  -0.209275E+02  -0.255785E+02  -0.609235E-03
     13    19.00    64.00     -0.209274E+02  -0.209274E+02  -0.255784E+02  -0.189002E-03
     14    31.00    64.00     -0.209275E+02  -0.209275E+02  -0.255785E+02   0.151415E-02
     15    55.00    64.00     -0.209282E+02  -0.209281E+02  -0.255790E+02   0.173542E-02
     16   103.00    64.00     -0.209283E+02  -0.209283E+02  -0.255789E+02   0.630032E-03
     17     0.50   192.00     -0.136629E+02  -0.136629E+02  -0.167123E+02   0.218500E-02
     18     1.50   192.00     -0.136629E+02  -0.136629E+02  -0.167123E+02  -0.482624E-03
     19     2.50   192.00     -0.136629E+02  -0.136629E+02  -0.167123E+02   0.316615E-02
     20     3.50   192.00     -0.136629E+02  -0.136629E+02  -0.167124E+02   0.263434E-02
     21     4.25   192.00     -0.136629E+02  -0.136629E+02  -0.167124E+02   0.714932E-02
     22     4.75   192.00     -0.136629E+02  -0.136629E+02  -0.167123E+02   0.179814E-01
     23     5.50   192.00     -0.136627E+02  -0.136628E+02  -0.167123E+02   0.186820E-01
     24     6.50   192.00     -0.136626E+02  -0.136627E+02  -0.167122E+02   0.154719E-01
     25     7.50   192.00     -0.136624E+02  -0.136625E+02  -0.167121E+02   0.182017E-01
     26     8.50   192.00     -0.136622E+02  -0.136624E+02  -0.167120E+02   0.191236E-01
     27    10.00   192.00     -0.136622E+02  -0.136623E+02  -0.167119E+02   0.198767E-01
     28    13.00   192.00     -0.136622E+02  -0.136622E+02  -0.167117E+02   0.206513E-01
     29    19.00   192.00     -0.136623E+02  -0.136620E+02  -0.167111E+02   0.305664E-01
     30    31.00   192.00     -0.136627E+02  -0.136618E+02  -0.167095E+02   0.484113E-01
     31    55.00   192.00     -0.136624E+02  -0.136602E+02  -0.167037E+02   0.655104E-01
     32   103.00   192.00     -0.136594E+02  -0.136556E+02  -0.166899E+02   0.460181E-01
     33     0.50   288.00     -0.820574E+01  -0.820574E+01  -0.101463E+02   0.126516E-01
     34     1.50   288.00     -0.820582E+01  -0.820577E+01  -0.101463E+02   0.342354E-01
     35     2.50   288.00     -0.820596E+01  -0.820585E+01  -0.101462E+02   0.629786E-01
     36     3.50   288.00     -0.820608E+01  -0.820587E+01  -0.101459E+02   0.928945E-01
     37     4.25   288.00     -0.820624E+01  -0.820596E+01  -0.101458E+02   0.118088E+00
     38     4.75   288.00     -0.820645E+01  -0.820609E+01  -0.101458E+02   0.145716E+00
     39     5.50   288.00     -0.820686E+01  -0.820636E+01  -0.101457E+02   0.174291E+00
     40     6.50   288.00     -0.820715E+01  -0.820656E+01  -0.101456E+02   0.203960E+00
     41     7.50   288.00     -0.820739E+01  -0.820668E+01  -0.101453E+02   0.234807E+00
     42     8.50   288.00     -0.820766E+01  -0.820678E+01  -0.101449E+02   0.261671E+00
     43    10.00   288.00     -0.820812E+01  -0.820695E+01  -0.101443E+02   0.303102E+00
     44    13.00   288.00     -0.820887E+01  -0.820701E+01  -0.101424E+02   0.396120E+00
     45    19.00   288.00     -0.821007E+01  -0.820652E+01  -0.101368E+02   0.583789E+00
     46    31.00   288.00     -0.821248E+01  -0.820415E+01  -0.101201E+02   0.878124E+00
     47    55.00   288.00     -0.821235E+01  -0.819330E+01  -0.100709E+02   0.114956E+01
     48   103.00   288.00     -0.821324E+01  -0.818681E+01  -0.100026E+02   0.647159E+00
     49     0.50   336.00     -0.546285E+01  -0.546283E+01  -0.704251E+01   0.749939E-01
     50     1.50   336.00     -0.546266E+01  -0.546263E+01  -0.704218E+01   0.227725E+00
     51     2.50   336.00     -0.546237E+01  -0.546226E+01  -0.704148E+01   0.378776E+00
     52     3.50   336.00     -0.546216E+01  -0.546189E+01  -0.704056E+01   0.528905E+00
     53     4.25   336.00     -0.546221E+01  -0.546169E+01  -0.703973E+01   0.635224E+00
     54     4.75   336.00     -0.546244E+01  -0.546168E+01  -0.703917E+01   0.711233E+00
     55     5.50   336.00     -0.546298E+01  -0.546178E+01  -0.703826E+01   0.839676E+00
     56     6.50   336.00     -0.546365E+01  -0.546186E+01  -0.703677E+01   0.993012E+00
     57     7.50   336.00     -0.546418E+01  -0.546187E+01  -0.703505E+01   0.114580E+01
     58     8.50   336.00     -0.546485E+01  -0.546195E+01  -0.703324E+01   0.129825E+01
     59    10.00   336.00     -0.546564E+01  -0.546179E+01  -0.702988E+01   0.152507E+01
     60    13.00   336.00     -0.546685E+01  -0.546072E+01  -0.702104E+01   0.198388E+01
     61    19.00   336.00     -0.547045E+01  -0.545798E+01  -0.699744E+01   0.281912E+01
     62    31.00   336.00     -0.547698E+01  -0.544836E+01  -0.693049E+01   0.407031E+01
     63    55.00   336.00     -0.548813E+01  -0.542969E+01  -0.677938E+01   0.489867E+01
     64   103.00   336.00     -0.550630E+01  -0.544380E+01  -0.664243E+01   0.215916E+01
     65     0.50   360.00     -0.408392E+01  -0.408387E+01  -0.570316E+01   0.188140E+00
     66     1.50   360.00     -0.408408E+01  -0.408386E+01  -0.570242E+01   0.559050E+00
     67     2.50   360.00     -0.408424E+01  -0.408368E+01  -0.570084E+01   0.931657E+00
     68     3.50   360.00     -0.408462E+01  -0.408348E+01  -0.569849E+01   0.129319E+01
     69     4.25   360.00     -0.408447E+01  -0.408292E+01  -0.569592E+01   0.155929E+01
     70     4.75   360.00     -0.408425E+01  -0.408252E+01  -0.569420E+01   0.173734E+01
     71     5.50   360.00     -0.408425E+01  -0.408212E+01  -0.569160E+01   0.200547E+01
     72     6.50   360.00     -0.408486E+01  -0.408180E+01  -0.568766E+01   0.236248E+01
     73     7.50   360.00     -0.408609E+01  -0.408161E+01  -0.568283E+01   0.271939E+01
     74     8.50   360.00     -0.408735E+01  -0.408144E+01  -0.567746E+01   0.308679E+01
     75    10.00   360.00     -0.408889E+01  -0.408082E+01  -0.566807E+01   0.362811E+01
     76    13.00   360.00     -0.409201E+01  -0.407899E+01  -0.564534E+01   0.467526E+01
     77    19.00   360.00     -0.410055E+01  -0.407446E+01  -0.558633E+01   0.653674E+01
     78    31.00   360.00     -0.411181E+01  -0.405496E+01  -0.542574E+01   0.919550E+01
     79    55.00   360.00     -0.413692E+01  -0.403856E+01  -0.514671E+01   0.101275E+02
     80   103.00   360.00     -0.415964E+01  -0.407389E+01  -0.496004E+01   0.366145E+01
     81     0.50   372.00     -0.338862E+01  -0.338854E+01  -0.519461E+01   0.292284E+00
     82     1.50   372.00     -0.338870E+01  -0.338842E+01  -0.519330E+01   0.868744E+00
     83     2.50   372.00     -0.338877E+01  -0.338807E+01  -0.519052E+01   0.144641E+01
     84     3.50   372.00     -0.338829E+01  -0.338710E+01  -0.518604E+01   0.200995E+01
     85     4.25   372.00     -0.338805E+01  -0.338637E+01  -0.518199E+01   0.242593E+01
     86     4.75   372.00     -0.338836E+01  -0.338594E+01  -0.517872E+01   0.269707E+01
     87     5.50   372.00     -0.339013E+01  -0.338624E+01  -0.517398E+01   0.312075E+01
     88     6.50   372.00     -0.339176E+01  -0.338606E+01  -0.516606E+01   0.368295E+01
     89     7.50   372.00     -0.339307E+01  -0.338575E+01  -0.515723E+01   0.424793E+01
     90     8.50   372.00     -0.339448E+01  -0.338533E+01  -0.514718E+01   0.480546E+01
     91    10.00   372.00     -0.339717E+01  -0.338496E+01  -0.513057E+01   0.562558E+01
     92    13.00   372.00     -0.340366E+01  -0.338403E+01  -0.509084E+01   0.720408E+01
     93    19.00   372.00     -0.341823E+01  -0.337986E+01  -0.498812E+01   0.100153E+02
     94    31.00   372.00     -0.343484E+01  -0.335467E+01  -0.472228E+01   0.139753E+02
     95    55.00   372.00     -0.347175E+01  -0.334733E+01  -0.433243E+01   0.145021E+02
     96   103.00   372.00     -0.348453E+01  -0.339083E+01  -0.412039E+01   0.462579E+01
     97     0.50   379.00     -0.298900E+01  -0.298889E+01  -0.501396E+01   0.372118E+00
     98     1.50   379.00     -0.298915E+01  -0.298877E+01  -0.501194E+01   0.111617E+01
     99     2.50   379.00     -0.298948E+01  -0.298849E+01  -0.500787E+01   0.185135E+01
    100     3.50   379.00     -0.299056E+01  -0.298843E+01  -0.500185E+01   0.258219E+01
    101     4.25   379.00     -0.299110E+01  -0.298806E+01  -0.499583E+01   0.313394E+01
    102     4.75   379.00     -0.299125E+01  -0.298770E+01  -0.499138E+01   0.349581E+01
    103     5.50   379.00     -0.299218E+01  -0.298743E+01  -0.498381E+01   0.404484E+01
    104     6.50   379.00     -0.299330E+01  -0.298683E+01  -0.497201E+01   0.477118E+01
    105     7.50   379.00     -0.299449E+01  -0.298602E+01  -0.495832E+01   0.548865E+01
    106     8.50   379.00     -0.299612E+01  -0.298536E+01  -0.494314E+01   0.619145E+01
    107    10.00   379.00     -0.299996E+01  -0.298511E+01  -0.491824E+01   0.723809E+01
    108    13.00   379.00     -0.300807E+01  -0.298361E+01  -0.485780E+01   0.925120E+01
    109    19.00   379.00     -0.302445E+01  -0.297663E+01  -0.470347E+01   0.128220E+02
    110    31.00   379.00     -0.303967E+01  -0.294399E+01  -0.433255E+01   0.178352E+02
    111    55.00   379.00     -0.308846E+01  -0.294795E+01  -0.385504E+01   0.178373E+02
    112   103.00   379.00     -0.308895E+01  -0.299356E+01  -0.363244E+01   0.521063E+01
    113     0.50   384.00     -0.270524E+01  -0.270508E+01  -0.496701E+01   0.449251E+00
    114     1.50   384.00     -0.270511E+01  -0.270465E+01  -0.496385E+01   0.133687E+01
    115     2.50   384.00     -0.270566E+01  -0.270451E+01  -0.495833E+01   0.222766E+01
    116     3.50   384.00     -0.270623E+01  -0.270403E+01  -0.494970E+01   0.311034E+01
    117     4.25   384.00     -0.270678E+01  -0.270344E+01  -0.494101E+01   0.376387E+01
    118     4.75   384.00     -0.270707E+01  -0.270298E+01  -0.493445E+01   0.420215E+01
    119     5.50   384.00     -0.270829E+01  -0.270293E+01  -0.492446E+01   0.485458E+01
    120     6.50   384.00     -0.271008E+01  -0.270256E+01  -0.490842E+01   0.571375E+01
    121     7.50   384.00     -0.271107E+01  -0.270151E+01  -0.488963E+01   0.656974E+01
    122     8.50   384.00     -0.271311E+01  -0.270097E+01  -0.486901E+01   0.741216E+01
    123    10.00   384.00     -0.271744E+01  -0.270066E+01  -0.483446E+01   0.865588E+01
    124    13.00   384.00     -0.272757E+01  -0.269936E+01  -0.475149E+01   0.110599E+02
    125    19.00   384.00     -0.274457E+01  -0.268940E+01  -0.454010E+01   0.152817E+02
    126    31.00   384.00     -0.275684E+01  -0.265087E+01  -0.406538E+01   0.211710E+02
    127    55.00   384.00     -0.281792E+01  -0.266634E+01  -0.351283E+01   0.206411E+02
    128   103.00   384.00     -0.280445E+01  -0.270981E+01  -0.328443E+01   0.562361E+01
    129     0.50   387.00     -0.253328E+01  -0.253313E+01  -0.498379E+01   0.496005E+00
    130     1.50   387.00     -0.253358E+01  -0.253323E+01  -0.498083E+01   0.149121E+01
    131     2.50   387.00     -0.253437E+01  -0.253300E+01  -0.497367E+01   0.248036E+01
    132     3.50   387.00     -0.253516E+01  -0.253265E+01  -0.496297E+01   0.346933E+01
    133     4.25   387.00     -0.253560E+01  -0.253205E+01  -0.495252E+01   0.419317E+01
    134     4.75   387.00     -0.253619E+01  -0.253179E+01  -0.494467E+01   0.468050E+01
    135     5.50   387.00     -0.253755E+01  -0.253179E+01  -0.493204E+01   0.539817E+01
    136     6.50   387.00     -0.253946E+01  -0.253152E+01  -0.491244E+01   0.637370E+01
    137     7.50   387.00     -0.254189E+01  -0.253097E+01  -0.488900E+01   0.731104E+01
    138     8.50   387.00     -0.254423E+01  -0.253065E+01  -0.486373E+01   0.824014E+01
    139    10.00   387.00     -0.254938E+01  -0.253112E+01  -0.482222E+01   0.962477E+01
    140    13.00   387.00     -0.256067E+01  -0.252988E+01  -0.471981E+01   0.123051E+02
    141    19.00   387.00     -0.257867E+01  -0.251874E+01  -0.446304E+01   0.169483E+02
    142    31.00   387.00     -0.258689E+01  -0.247581E+01  -0.391007E+01   0.234259E+02
    143    55.00   387.00     -0.265679E+01  -0.249902E+01  -0.330631E+01   0.225083E+02
    144   103.00   387.00     -0.263269E+01  -0.253946E+01  -0.307579E+01   0.585939E+01
    145     0.50   388.50     -0.245078E+01  -0.245052E+01  -0.501262E+01   0.526333E+00
    146     1.50   388.50     -0.245064E+01  -0.245036E+01  -0.500900E+01   0.155970E+01
    147     2.50   388.50     -0.245060E+01  -0.244952E+01  -0.500047E+01   0.261927E+01
    148     3.50   388.50     -0.245287E+01  -0.245014E+01  -0.498929E+01   0.365796E+01
    149     4.25   388.50     -0.245267E+01  -0.244898E+01  -0.497719E+01   0.442080E+01
    150     4.75   388.50     -0.245289E+01  -0.244829E+01  -0.496765E+01   0.493226E+01
    151     5.50   388.50     -0.245395E+01  -0.244784E+01  -0.495285E+01   0.569066E+01
    152     6.50   388.50     -0.245624E+01  -0.244762E+01  -0.493058E+01   0.672756E+01
    153     7.50   388.50     -0.245949E+01  -0.244819E+01  -0.490623E+01   0.770543E+01
    154     8.50   388.50     -0.246148E+01  -0.244738E+01  -0.487749E+01   0.867364E+01
    155    10.00   388.50     -0.246687E+01  -0.244741E+01  -0.482961E+01   0.101362E+02
    156    13.00   388.50     -0.247866E+01  -0.244664E+01  -0.471642E+01   0.129832E+02
    157    19.00   388.50     -0.249694E+01  -0.243435E+01  -0.443110E+01   0.178301E+02
    158    31.00   388.50     -0.250155E+01  -0.238851E+01  -0.383379E+01   0.246278E+02
    159    55.00   388.50     -0.257720E+01  -0.241632E+01  -0.320284E+01   0.234751E+02
    160   103.00   388.50     -0.254659E+01  -0.245433E+01  -0.297161E+01   0.596508E+01
    161     0.50   389.50     -0.239610E+01  -0.239586E+01  -0.504020E+01   0.542511E+00
    162     1.50   389.50     -0.239705E+01  -0.239624E+01  -0.503601E+01   0.161297E+01
    163     2.50   389.50     -0.239749E+01  -0.239627E+01  -0.502752E+01   0.270904E+01
    164     3.50   389.50     -0.239819E+01  -0.239594E+01  -0.501475E+01   0.377974E+01
    165     4.25   389.50     -0.239813E+01  -0.239488E+01  -0.500204E+01   0.458017E+01
    166     4.75   389.50     -0.240005E+01  -0.239517E+01  -0.499282E+01   0.510812E+01
    167     5.50   389.50     -0.240185E+01  -0.239493E+01  -0.497659E+01   0.590683E+01
    168     6.50   389.50     -0.240332E+01  -0.239440E+01  -0.495233E+01   0.697110E+01
    169     7.50   389.50     -0.240481E+01  -0.239371E+01  -0.492475E+01   0.797870E+01
    170     8.50   389.50     -0.240854E+01  -0.239391E+01  -0.489447E+01   0.899654E+01
    171    10.00   389.50     -0.241386E+01  -0.239395E+01  -0.484290E+01   0.105053E+02
    172    13.00   389.50     -0.242519E+01  -0.239247E+01  -0.472034E+01   0.134571E+02
    173    19.00   389.50     -0.244159E+01  -0.237732E+01  -0.441113E+01   0.184532E+02
    174    31.00   389.50     -0.244365E+01  -0.232936E+01  -0.378190E+01   0.254457E+02
    175    55.00   389.50     -0.252327E+01  -0.236044E+01  -0.313246E+01   0.241487E+02
    176   103.00   389.50     -0.248770E+01  -0.239619E+01  -0.290048E+01   0.603008E+01
    177     0.50   390.50     -0.234358E+01  -0.234330E+01  -0.507528E+01   0.569661E+00
    178     1.50   390.50     -0.234362E+01  -0.234301E+01  -0.507018E+01   0.167449E+01
    179     2.50   390.50     -0.234382E+01  -0.234287E+01  -0.506152E+01   0.279991E+01
    180     3.50   390.50     -0.234460E+01  -0.234251E+01  -0.504783E+01   0.393188E+01
    181     4.25   390.50     -0.234553E+01  -0.234196E+01  -0.503406E+01   0.476351E+01
    182     4.75   390.50     -0.234632E+01  -0.234182E+01  -0.502434E+01   0.532941E+01
    183     5.50   390.50     -0.234847E+01  -0.234152E+01  -0.500645E+01   0.614908E+01
    184     6.50   390.50     -0.235046E+01  -0.234128E+01  -0.498023E+01   0.722360E+01
    185     7.50   390.50     -0.235213E+01  -0.234052E+01  -0.494999E+01   0.828053E+01
    186     8.50   390.50     -0.235457E+01  -0.233966E+01  -0.491588E+01   0.934906E+01
    187    10.00   390.50     -0.236005E+01  -0.233933E+01  -0.485917E+01   0.108812E+02
    188    13.00   390.50     -0.237253E+01  -0.233874E+01  -0.472788E+01   0.139356E+02
    189    19.00   390.50     -0.238615E+01  -0.232065E+01  -0.439412E+01   0.191122E+02
    190    31.00   390.50     -0.238707E+01  -0.227149E+01  -0.373140E+01   0.262728E+02
    191    55.00   390.50     -0.246918E+01  -0.230471E+01  -0.306208E+01   0.248575E+02
    192   103.00   390.50     -0.242765E+01  -0.233700E+01  -0.282812E+01   0.610845E+01
    193     0.50   391.50     -0.229219E+01  -0.229192E+01  -0.511799E+01   0.592053E+00
    194     1.50   391.50     -0.229265E+01  -0.229203E+01  -0.511319E+01   0.173605E+01
    195     2.50   391.50     -0.229245E+01  -0.229128E+01  -0.510326E+01   0.289520E+01
    196     3.50   391.50     -0.229268E+01  -0.229042E+01  -0.508855E+01   0.406537E+01
    197     4.25   391.50     -0.229366E+01  -0.228988E+01  -0.507374E+01   0.493327E+01
    198     4.75   391.50     -0.229442E+01  -0.228942E+01  -0.506197E+01   0.552019E+01
    199     5.50   391.50     -0.229516E+01  -0.228852E+01  -0.504258E+01   0.636937E+01
    200     6.50   391.50     -0.229772E+01  -0.228811E+01  -0.501392E+01   0.748301E+01
    201     7.50   391.50     -0.229990E+01  -0.228714E+01  -0.498016E+01   0.857232E+01
    202     8.50   391.50     -0.230229E+01  -0.228682E+01  -0.494401E+01   0.967858E+01
    203    10.00   391.50     -0.230799E+01  -0.228600E+01  -0.488140E+01   0.112742E+02
    204    13.00   391.50     -0.232045E+01  -0.228551E+01  -0.473949E+01   0.144244E+02
    205    19.00   391.50     -0.233073E+01  -0.226393E+01  -0.437919E+01   0.197861E+02
    206    31.00   391.50     -0.233149E+01  -0.221460E+01  -0.368181E+01   0.271139E+02
    207    55.00   391.50     -0.241644E+01  -0.225070E+01  -0.299373E+01   0.255978E+02
    208   103.00   391.50     -0.236821E+01  -0.227855E+01  -0.275673E+01   0.620288E+01
    209     0.50   392.50     -0.223996E+01  -0.223958E+01  -0.516912E+01   0.608364E+00
    210     1.50   392.50     -0.224086E+01  -0.224007E+01  -0.516386E+01   0.180721E+01
    211     2.50   392.50     -0.224105E+01  -0.223926E+01  -0.515224E+01   0.301503E+01
    212     3.50   392.50     -0.224183E+01  -0.223901E+01  -0.513630E+01   0.423012E+01
    213     4.25   392.50     -0.224228E+01  -0.223819E+01  -0.511995E+01   0.514730E+01
    214     4.75   392.50     -0.224239E+01  -0.223730E+01  -0.510674E+01   0.573284E+01
    215     5.50   392.50     -0.224381E+01  -0.223698E+01  -0.508611E+01   0.660401E+01
    216     6.50   392.50     -0.224618E+01  -0.223642E+01  -0.505467E+01   0.777129E+01
    217     7.50   392.50     -0.224889E+01  -0.223541E+01  -0.501797E+01   0.889615E+01
    218     8.50   392.50     -0.225086E+01  -0.223454E+01  -0.497816E+01   0.100417E+02
    219    10.00   392.50     -0.225734E+01  -0.223442E+01  -0.491116E+01   0.116965E+02
    220    13.00   392.50     -0.226788E+01  -0.223210E+01  -0.475494E+01   0.149410E+02
    221    19.00   392.50     -0.227408E+01  -0.220582E+01  -0.436448E+01   0.204744E+02
    222    31.00   392.50     -0.227462E+01  -0.215642E+01  -0.363024E+01   0.279777E+02
    223    55.00   392.50     -0.236284E+01  -0.219610E+01  -0.292447E+01   0.263711E+02
    224   103.00   392.50     -0.230885E+01  -0.222031E+01  -0.268567E+01   0.631147E+01
    225     0.50   393.50     -0.219056E+01  -0.218999E+01  -0.523144E+01   0.637344E+00
    226     1.50   393.50     -0.219137E+01  -0.219047E+01  -0.522513E+01   0.186996E+01
    227     2.50   393.50     -0.219188E+01  -0.218975E+01  -0.521243E+01   0.313110E+01
    228     3.50   393.50     -0.219264E+01  -0.218872E+01  -0.519280E+01   0.437821E+01
    229     4.25   393.50     -0.219177E+01  -0.218720E+01  -0.517424E+01   0.533100E+01
    230     4.75   393.50     -0.219168E+01  -0.218636E+01  -0.516038E+01   0.593225E+01
    231     5.50   393.50     -0.219376E+01  -0.218619E+01  -0.513749E+01   0.685202E+01
    232     6.50   393.50     -0.219628E+01  -0.218608E+01  -0.510358E+01   0.805976E+01
    233     7.50   393.50     -0.219744E+01  -0.218399E+01  -0.506293E+01   0.923025E+01
    234     8.50   393.50     -0.220106E+01  -0.218355E+01  -0.501918E+01   0.104069E+02
    235    10.00   393.50     -0.220708E+01  -0.218297E+01  -0.494575E+01   0.121378E+02
    236    13.00   393.50     -0.221504E+01  -0.217856E+01  -0.477477E+01   0.154803E+02
    237    19.00   393.50     -0.221677E+01  -0.214707E+01  -0.435085E+01   0.211850E+02
    238    31.00   393.50     -0.221650E+01  -0.209717E+01  -0.357697E+01   0.288696E+02
    239    55.00   393.50     -0.230767E+01  -0.214020E+01  -0.285341E+01   0.271814E+02
    240   103.00   393.50     -0.225024E+01  -0.216292E+01  -0.261568E+01   0.640610E+01
    241     0.50   394.50     -0.214308E+01  -0.214288E+01  -0.530159E+01   0.657396E+00
    242     1.50   394.50     -0.214402E+01  -0.214323E+01  -0.529588E+01   0.192903E+01
    243     2.50   394.50     -0.214360E+01  -0.214166E+01  -0.528073E+01   0.325055E+01
    244     3.50   394.50     -0.214452E+01  -0.214047E+01  -0.525918E+01   0.454735E+01
    245     4.25   394.50     -0.214373E+01  -0.213851E+01  -0.523827E+01   0.551923E+01
    246     4.75   394.50     -0.214409E+01  -0.213795E+01  -0.522322E+01   0.616175E+01
    247     5.50   394.50     -0.214514E+01  -0.213731E+01  -0.519847E+01   0.711396E+01
    248     6.50   394.50     -0.214702E+01  -0.213599E+01  -0.515993E+01   0.835218E+01
    249     7.50   394.50     -0.214908E+01  -0.213490E+01  -0.511681E+01   0.956549E+01
    250     8.50   394.50     -0.215193E+01  -0.213373E+01  -0.506845E+01   0.107900E+02
    251    10.00   394.50     -0.215863E+01  -0.213327E+01  -0.498834E+01   0.125950E+02
    252    13.00   394.50     -0.216435E+01  -0.212735E+01  -0.480238E+01   0.160423E+02
    253    19.00   394.50     -0.216146E+01  -0.209046E+01  -0.434179E+01   0.219204E+02
    254    31.00   394.50     -0.215884E+01  -0.203860E+01  -0.352407E+01   0.297859E+02
    255    55.00   394.50     -0.225280E+01  -0.208471E+01  -0.278247E+01   0.280045E+02
    256   103.00   394.50     -0.219117E+01  -0.210515E+01  -0.254527E+01   0.648328E+01
    257     0.50   395.50     -0.209837E+01  -0.209802E+01  -0.538274E+01   0.675227E+00
    258     1.50   395.50     -0.209891E+01  -0.209828E+01  -0.537624E+01   0.200229E+01
    259     2.50   395.50     -0.209735E+01  -0.209591E+01  -0.536005E+01   0.336580E+01
    260     3.50   395.50     -0.209785E+01  -0.209435E+01  -0.533663E+01   0.471720E+01
    261     4.25   395.50     -0.209827E+01  -0.209276E+01  -0.531389E+01   0.572168E+01
    262     4.75   395.50     -0.209747E+01  -0.209093E+01  -0.529588E+01   0.638088E+01
    263     5.50   395.50     -0.209906E+01  -0.209069E+01  -0.526911E+01   0.737030E+01
    264     6.50   395.50     -0.210035E+01  -0.208928E+01  -0.522749E+01   0.866352E+01
    265     7.50   395.50     -0.210136E+01  -0.208678E+01  -0.517852E+01   0.993055E+01
    266     8.50   395.50     -0.210450E+01  -0.208575E+01  -0.512665E+01   0.112182E+02
    267    10.00   395.50     -0.210880E+01  -0.208293E+01  -0.503712E+01   0.130737E+02
    268    13.00   395.50     -0.211399E+01  -0.207588E+01  -0.483338E+01   0.166124E+02
    269    19.00   395.50     -0.210575E+01  -0.203348E+01  -0.433422E+01   0.226843E+02
    270    31.00   395.50     -0.209954E+01  -0.197910E+01  -0.346992E+01   0.307390E+02
    271    55.00   395.50     -0.219837E+01  -0.202968E+01  -0.271155E+01   0.288320E+02
    272   103.00   395.50     -0.213132E+01  -0.204672E+01  -0.247411E+01   0.657042E+01
    273     0.50   396.50     -0.205476E+01  -0.205418E+01  -0.547626E+01   0.707490E+00
    274     1.50   396.50     -0.205540E+01  -0.205412E+01  -0.546726E+01   0.208629E+01
    275     2.50   396.50     -0.205496E+01  -0.205329E+01  -0.545114E+01   0.349803E+01
    276     3.50   396.50     -0.205409E+01  -0.205120E+01  -0.542649E+01   0.490343E+01
    277     4.25   396.50     -0.205400E+01  -0.204934E+01  -0.540179E+01   0.595848E+01
    278     4.75   396.50     -0.205272E+01  -0.204659E+01  -0.538139E+01   0.663363E+01
    279     5.50   396.50     -0.205439E+01  -0.204636E+01  -0.535233E+01   0.765838E+01
    280     6.50   396.50     -0.205502E+01  -0.204383E+01  -0.530517E+01   0.899160E+01
    281     7.50   396.50     -0.205647E+01  -0.204078E+01  -0.525052E+01   0.103074E+02
    282     8.50   396.50     -0.205834E+01  -0.203899E+01  -0.519319E+01   0.116418E+02
    283    10.00   396.50     -0.206289E+01  -0.203625E+01  -0.509583E+01   0.135575E+02
    284    13.00   396.50     -0.206662E+01  -0.202680E+01  -0.487181E+01   0.171970E+02
    285    19.00   396.50     -0.205250E+01  -0.197907E+01  -0.433173E+01   0.234735E+02
    286    31.00   396.50     -0.204419E+01  -0.192352E+01  -0.341961E+01   0.316961E+02
    287    55.00   396.50     -0.214700E+01  -0.197746E+01  -0.264324E+01   0.296280E+02
    288   103.00   396.50     -0.207378E+01  -0.199071E+01  -0.240595E+01   0.664865E+01
    289     0.50   397.50     -0.201428E+01  -0.201375E+01  -0.558297E+01   0.731868E+00
    290     1.50   397.50     -0.201559E+01  -0.201412E+01  -0.557350E+01   0.217114E+01
    291     2.50   397.50     -0.201467E+01  -0.201255E+01  -0.555393E+01   0.362114E+01
    292     3.50   397.50     -0.201345E+01  -0.201045E+01  -0.552728E+01   0.508398E+01
    293     4.25   397.50     -0.201167E+01  -0.200767E+01  -0.550043E+01   0.616894E+01
    294     4.75   397.50     -0.201158E+01  -0.200623E+01  -0.548038E+01   0.687375E+01
    295     5.50   397.50     -0.201251E+01  -0.200411E+01  -0.544585E+01   0.793245E+01
    296     6.50   397.50     -0.201355E+01  -0.200118E+01  -0.539353E+01   0.932375E+01
    297     7.50   397.50     -0.201420E+01  -0.199764E+01  -0.533394E+01   0.106935E+02
    298     8.50   397.50     -0.201422E+01  -0.199407E+01  -0.526899E+01   0.120707E+02
    299    10.00   397.50     -0.201739E+01  -0.198992E+01  -0.516166E+01   0.140561E+02
    300    13.00   397.50     -0.201842E+01  -0.197727E+01  -0.491486E+01   0.178135E+02
    301    19.00   397.50     -0.199750E+01  -0.192301E+01  -0.432904E+01   0.242932E+02
    302    31.00   397.50     -0.198736E+01  -0.186668E+01  -0.336691E+01   0.326758E+02
    303    55.00   397.50     -0.209274E+01  -0.192268E+01  -0.257142E+01   0.304704E+02
    304   103.00   397.50     -0.201292E+01  -0.193149E+01  -0.233393E+01   0.673746E+01
    305     0.50   398.50     -0.197720E+01  -0.197688E+01  -0.570507E+01   0.759378E+00
    306     1.50   398.50     -0.197669E+01  -0.197547E+01  -0.569333E+01   0.226610E+01
    307     2.50   398.50     -0.197677E+01  -0.197403E+01  -0.567207E+01   0.376317E+01
    308     3.50   398.50     -0.197596E+01  -0.197198E+01  -0.564183E+01   0.528016E+01
    309     4.25   398.50     -0.197284E+01  -0.196846E+01  -0.561194E+01   0.639743E+01
    310     4.75   398.50     -0.197364E+01  -0.196780E+01  -0.559038E+01   0.713195E+01
    311     5.50   398.50     -0.197310E+01  -0.196469E+01  -0.555173E+01   0.822844E+01
    312     6.50   398.50     -0.197296E+01  -0.196049E+01  -0.549289E+01   0.967647E+01
    313     7.50   398.50     -0.197387E+01  -0.195699E+01  -0.542791E+01   0.110986E+02
    314     8.50   398.50     -0.197390E+01  -0.195302E+01  -0.535611E+01   0.125214E+02
    315    10.00   398.50     -0.197365E+01  -0.194575E+01  -0.523726E+01   0.145794E+02
    316    13.00   398.50     -0.197240E+01  -0.192935E+01  -0.496334E+01   0.184381E+02
    317    19.00   398.50     -0.194399E+01  -0.186851E+01  -0.432996E+01   0.251368E+02
    318    31.00   398.50     -0.193036E+01  -0.180997E+01  -0.331329E+01   0.336747E+02
    319    55.00   398.50     -0.203734E+01  -0.186696E+01  -0.249798E+01   0.313422E+02
    320   103.00   398.50     -0.195132E+01  -0.187168E+01  -0.226125E+01   0.684726E+01
    321     0.50   399.50     -0.194302E+01  -0.194248E+01  -0.584137E+01   0.777224E+00
    322     1.50   399.50     -0.194296E+01  -0.194165E+01  -0.582964E+01   0.235053E+01
    323     2.50   399.50     -0.194196E+01  -0.193933E+01  -0.580578E+01   0.390627E+01
    324     3.50   399.50     -0.194082E+01  -0.193632E+01  -0.577170E+01   0.547839E+01
    325     4.25   399.50     -0.193808E+01  -0.193239E+01  -0.573802E+01   0.663762E+01
    326     4.75   399.50     -0.193710E+01  -0.193082E+01  -0.571388E+01   0.740623E+01
    327     5.50   399.50     -0.193651E+01  -0.192792E+01  -0.567146E+01   0.854599E+01
    328     6.50   399.50     -0.193586E+01  -0.192347E+01  -0.560735E+01   0.100515E+02
    329     7.50   399.50     -0.193538E+01  -0.191796E+01  -0.553314E+01   0.115174E+02
    330     8.50   399.50     -0.193433E+01  -0.191281E+01  -0.545287E+01   0.129877E+02
    331    10.00   399.50     -0.193473E+01  -0.190577E+01  -0.532292E+01   0.151161E+02
    332    13.00   399.50     -0.192890E+01  -0.188407E+01  -0.501960E+01   0.190908E+02
    333    19.00   399.50     -0.189045E+01  -0.181397E+01  -0.433222E+01   0.260047E+02
    334    31.00   399.50     -0.187533E+01  -0.175620E+01  -0.326280E+01   0.346940E+02
    335    55.00   399.50     -0.198452E+01  -0.181395E+01  -0.242723E+01   0.322044E+02
    336   103.00   399.50     -0.189058E+01  -0.181287E+01  -0.218991E+01   0.698964E+01
    337     0.50   400.50     -0.191535E+01  -0.191455E+01  -0.599671E+01   0.812662E+00
    338     1.50   400.50     -0.191331E+01  -0.191252E+01  -0.598306E+01   0.244532E+01
    339     2.50   400.50     -0.191205E+01  -0.190934E+01  -0.595624E+01   0.406336E+01
    340     3.50   400.50     -0.191057E+01  -0.190587E+01  -0.591790E+01   0.569262E+01
    341     4.25   400.50     -0.190661E+01  -0.190077E+01  -0.588016E+01   0.687570E+01
    342     4.75   400.50     -0.190595E+01  -0.189894E+01  -0.585249E+01   0.767625E+01
    343     5.50   400.50     -0.190535E+01  -0.189579E+01  -0.580600E+01   0.886401E+01
    344     6.50   400.50     -0.190321E+01  -0.189002E+01  -0.573467E+01   0.104253E+02
    345     7.50   400.50     -0.190079E+01  -0.188330E+01  -0.565310E+01   0.119464E+02
    346     8.50   400.50     -0.189865E+01  -0.187618E+01  -0.556282E+01   0.134788E+02
    347    10.00   400.50     -0.189830E+01  -0.186835E+01  -0.541883E+01   0.156665E+02
    348    13.00   400.50     -0.188576E+01  -0.183984E+01  -0.508235E+01   0.197821E+02
    349    19.00   400.50     -0.183685E+01  -0.175932E+01  -0.433433E+01   0.268951E+02
    350    31.00   400.50     -0.182194E+01  -0.170366E+01  -0.321176E+01   0.357166E+02
    351    55.00   400.50     -0.193135E+01  -0.176113E+01  -0.235649E+01   0.331013E+02
    352   103.00   400.50     -0.183030E+01  -0.175465E+01  -0.211936E+01   0.713951E+01
    353     0.50   401.50     -0.188983E+01  -0.188916E+01  -0.616905E+01   0.844103E+00
    354     1.50   401.50     -0.188960E+01  -0.188841E+01  -0.615561E+01   0.252624E+01
    355     2.50   401.50     -0.188759E+01  -0.188472E+01  -0.612578E+01   0.422266E+01
    356     3.50   401.50     -0.188616E+01  -0.188140E+01  -0.608320E+01   0.590360E+01
    357     4.25   401.50     -0.188201E+01  -0.187564E+01  -0.603985E+01   0.713853E+01
    358     4.75   401.50     -0.187997E+01  -0.187228E+01  -0.600854E+01   0.796761E+01
    359     5.50   401.50     -0.187827E+01  -0.186810E+01  -0.595683E+01   0.921064E+01
    360     6.50   401.50     -0.187482E+01  -0.186139E+01  -0.587714E+01   0.108091E+02
    361     7.50   401.50     -0.187084E+01  -0.185315E+01  -0.578636E+01   0.123990E+02
    362     8.50   401.50     -0.186722E+01  -0.184445E+01  -0.568685E+01   0.139857E+02
    363    10.00   401.50     -0.186341E+01  -0.183296E+01  -0.552507E+01   0.162412E+02
    364    13.00   401.50     -0.184493E+01  -0.179806E+01  -0.515213E+01   0.205004E+02
    365    19.00   401.50     -0.178382E+01  -0.170574E+01  -0.433835E+01   0.278163E+02
    366    31.00   401.50     -0.176831E+01  -0.165090E+01  -0.315844E+01   0.367577E+02
    367    55.00   401.50     -0.187596E+01  -0.170677E+01  -0.228382E+01   0.340544E+02
    368   103.00   401.50     -0.176890E+01  -0.169544E+01  -0.204771E+01   0.731111E+01
    369     0.50   402.50     -0.187381E+01  -0.187301E+01  -0.636577E+01   0.877852E+00
    370     1.50   402.50     -0.187295E+01  -0.187152E+01  -0.634938E+01   0.262738E+01
    371     2.50   402.50     -0.186914E+01  -0.186693E+01  -0.631557E+01   0.438686E+01
    372     3.50   402.50     -0.186559E+01  -0.186167E+01  -0.626748E+01   0.612631E+01
    373     4.25   402.50     -0.186113E+01  -0.185501E+01  -0.621951E+01   0.741471E+01
    374     4.75   402.50     -0.185932E+01  -0.185147E+01  -0.618459E+01   0.828135E+01
    375     5.50   402.50     -0.185710E+01  -0.184683E+01  -0.612664E+01   0.956271E+01
    376     6.50   402.50     -0.185242E+01  -0.183804E+01  -0.603712E+01   0.112262E+02
    377     7.50   402.50     -0.184620E+01  -0.182791E+01  -0.593567E+01   0.128819E+02
    378     8.50   402.50     -0.184027E+01  -0.181791E+01  -0.582463E+01   0.145121E+02
    379    10.00   402.50     -0.183259E+01  -0.180200E+01  -0.564265E+01   0.168331E+02
    380    13.00   402.50     -0.180726E+01  -0.175916E+01  -0.522977E+01   0.212393E+02
    381    19.00   402.50     -0.173022E+01  -0.165231E+01  -0.434308E+01   0.287709E+02
    382    31.00   402.50     -0.171340E+01  -0.159699E+01  -0.310144E+01   0.378241E+02
    383    55.00   402.50     -0.182001E+01  -0.165256E+01  -0.221129E+01   0.350422E+02
    384   103.00   402.50     -0.170848E+01  -0.163732E+01  -0.197747E+01   0.747489E+01
    385     0.50   403.50     -0.186636E+01  -0.186539E+01  -0.658611E+01   0.915177E+00
    386     1.50   403.50     -0.186466E+01  -0.186350E+01  -0.656732E+01   0.273474E+01
    387     2.50   403.50     -0.186071E+01  -0.185818E+01  -0.652926E+01   0.456292E+01
    388     3.50   403.50     -0.185670E+01  -0.185257E+01  -0.647523E+01   0.636334E+01
    389     4.25   403.50     -0.184920E+01  -0.184382E+01  -0.642124E+01   0.771334E+01
    390     4.75   403.50     -0.184740E+01  -0.183969E+01  -0.638225E+01   0.860696E+01
    391     5.50   403.50     -0.184273E+01  -0.183225E+01  -0.631635E+01   0.992935E+01
    392     6.50   403.50     -0.183512E+01  -0.182075E+01  -0.621587E+01   0.116607E+02
    393     7.50   403.50     -0.182736E+01  -0.180884E+01  -0.610193E+01   0.133766E+02
    394     8.50   403.50     -0.181878E+01  -0.179669E+01  -0.597835E+01   0.150606E+02
    395    10.00   403.50     -0.180743E+01  -0.177631E+01  -0.577317E+01   0.174544E+02
    396    13.00   403.50     -0.177198E+01  -0.172270E+01  -0.531411E+01   0.220050E+02
    397    19.00   403.50     -0.167566E+01  -0.159859E+01  -0.434739E+01   0.297553E+02
    398    31.00   403.50     -0.165857E+01  -0.154321E+01  -0.304190E+01   0.389124E+02
    399    55.00   403.50     -0.176341E+01  -0.159811E+01  -0.213820E+01   0.360478E+02
    400   103.00   403.50     -0.164768E+01  -0.157893E+01  -0.190694E+01   0.762273E+01
    401     0.50   404.50     -0.186948E+01  -0.186855E+01  -0.683446E+01   0.954588E+00
    402     1.50   404.50     -0.186749E+01  -0.186567E+01  -0.681244E+01   0.284288E+01
    403     2.50   404.50     -0.186236E+01  -0.185973E+01  -0.676949E+01   0.474422E+01
    404     3.50   404.50     -0.185596E+01  -0.185091E+01  -0.670666E+01   0.661606E+01
    405     4.25   404.50     -0.184692E+01  -0.184106E+01  -0.664581E+01   0.801928E+01
    406     4.75   404.50     -0.184397E+01  -0.183677E+01  -0.660308E+01   0.894914E+01
    407     5.50   404.50     -0.183715E+01  -0.182689E+01  -0.652743E+01   0.103102E+02
    408     6.50   404.50     -0.182690E+01  -0.181272E+01  -0.641359E+01   0.121068E+02
    409     7.50   404.50     -0.181535E+01  -0.179707E+01  -0.628582E+01   0.138850E+02
    410     8.50   404.50     -0.180309E+01  -0.178090E+01  -0.614718E+01   0.156225E+02
    411    10.00   404.50     -0.178645E+01  -0.175476E+01  -0.591614E+01   0.181179E+02
    412    13.00   404.50     -0.174008E+01  -0.168957E+01  -0.540496E+01   0.227991E+02
    413    19.00   404.50     -0.162157E+01  -0.154616E+01  -0.435183E+01   0.307644E+02
    414    31.00   404.50     -0.160385E+01  -0.149003E+01  -0.298036E+01   0.400243E+02
    415    55.00   404.50     -0.170454E+01  -0.154180E+01  -0.206248E+01   0.370864E+02
    416   103.00   404.50     -0.158585E+01  -0.151961E+01  -0.183533E+01   0.775861E+01
    417     0.50   405.50     -0.188373E+01  -0.188269E+01  -0.711102E+01   0.989771E+00
    418     1.50   405.50     -0.188123E+01  -0.187915E+01  -0.708665E+01   0.296335E+01
    419     2.50   405.50     -0.187574E+01  -0.187246E+01  -0.703795E+01   0.492535E+01
    420     3.50   405.50     -0.186629E+01  -0.186095E+01  -0.696582E+01   0.688065E+01
    421     4.25   405.50     -0.185620E+01  -0.184920E+01  -0.689635E+01   0.833143E+01
    422     4.75   405.50     -0.185044E+01  -0.184296E+01  -0.684672E+01   0.929369E+01
    423     5.50   405.50     -0.184143E+01  -0.183176E+01  -0.676257E+01   0.107131E+02
    424     6.50   405.50     -0.182819E+01  -0.181416E+01  -0.663320E+01   0.125746E+02
    425     7.50   405.50     -0.181251E+01  -0.179475E+01  -0.648886E+01   0.144105E+02
    426     8.50   405.50     -0.179654E+01  -0.177418E+01  -0.633258E+01   0.162038E+02
    427    10.00   405.50     -0.177267E+01  -0.173982E+01  -0.607272E+01   0.187984E+02
    428    13.00   405.50     -0.171097E+01  -0.166067E+01  -0.550408E+01   0.236381E+02
    429    19.00   405.50     -0.157027E+01  -0.149624E+01  -0.435661E+01   0.317876E+02
    430    31.00   405.50     -0.155031E+01  -0.143865E+01  -0.291816E+01   0.411534E+02
    431    55.00   405.50     -0.164584E+01  -0.148609E+01  -0.198717E+01   0.381207E+02
    432   103.00   405.50     -0.152465E+01  -0.146099E+01  -0.176460E+01   0.786812E+01
    433     0.50   406.50     -0.191424E+01  -0.191287E+01  -0.742066E+01   0.103048E+01
    434     1.50   406.50     -0.191004E+01  -0.190834E+01  -0.739295E+01   0.308128E+01
    435     2.50   406.50     -0.190230E+01  -0.189894E+01  -0.733761E+01   0.512550E+01
    436     3.50   406.50     -0.189141E+01  -0.188625E+01  -0.725694E+01   0.716132E+01
    437     4.25   406.50     -0.187758E+01  -0.187130E+01  -0.717726E+01   0.866951E+01
    438     4.75   406.50     -0.186971E+01  -0.186171E+01  -0.711817E+01   0.965570E+01
    439     5.50   406.50     -0.185955E+01  -0.184951E+01  -0.702356E+01   0.111360E+02
    440     6.50   406.50     -0.183967E+01  -0.182571E+01  -0.687457E+01   0.130587E+02
    441     7.50   406.50     -0.181915E+01  -0.180104E+01  -0.671092E+01   0.149586E+02
    442     8.50   406.50     -0.179883E+01  -0.177622E+01  -0.653463E+01   0.168200E+02
    443    10.00   406.50     -0.176691E+01  -0.173394E+01  -0.624371E+01   0.195103E+02
    444    13.00   406.50     -0.168807E+01  -0.163730E+01  -0.561041E+01   0.244887E+02
    445    19.00   406.50     -0.152174E+01  -0.144940E+01  -0.436172E+01   0.328324E+02
    446    31.00   406.50     -0.149822E+01  -0.138964E+01  -0.285594E+01   0.422950E+02
    447    55.00   406.50     -0.158685E+01  -0.143066E+01  -0.191200E+01   0.391467E+02
    448   103.00   406.50     -0.146230E+01  -0.140131E+01  -0.169258E+01   0.795424E+01
    449     0.50   407.50     -0.196395E+01  -0.196263E+01  -0.776692E+01   0.107657E+01
    450     1.50   407.50     -0.195956E+01  -0.195750E+01  -0.773585E+01   0.321077E+01
    451     2.50   407.50     -0.194866E+01  -0.194490E+01  -0.767190E+01   0.533704E+01
    452     3.50   407.50     -0.193357E+01  -0.192814E+01  -0.757818E+01   0.743531E+01
    453     4.25   407.50     -0.191595E+01  -0.190967E+01  -0.748682E+01   0.900071E+01
    454     4.75   407.50     -0.190646E+01  -0.189847E+01  -0.742078E+01   0.100328E+02
    455     5.50   407.50     -0.189141E+01  -0.188047E+01  -0.730964E+01   0.115584E+02
    456     6.50   407.50     -0.186741E+01  -0.185285E+01  -0.714257E+01   0.135596E+02
    457     7.50   407.50     -0.184074E+01  -0.182205E+01  -0.695642E+01   0.155266E+02
    458     8.50   407.50     -0.181309E+01  -0.178958E+01  -0.675513E+01   0.174543E+02
    459    10.00   407.50     -0.177148E+01  -0.173829E+01  -0.642932E+01   0.202383E+02
    460    13.00   407.50     -0.166942E+01  -0.161908E+01  -0.572266E+01   0.253672E+02
    461    19.00   407.50     -0.147162E+01  -0.140159E+01  -0.436122E+01   0.339053E+02
    462    31.00   407.50     -0.144555E+01  -0.134066E+01  -0.279020E+01   0.434537E+02
    463    55.00   407.50     -0.152908E+01  -0.137704E+01  -0.183889E+01   0.401211E+02
    464   103.00   407.50     -0.140140E+01  -0.134318E+01  -0.162246E+01   0.801109E+01
    465     0.50   408.50     -0.203857E+01  -0.203711E+01  -0.815472E+01   0.111128E+01
    466     1.50   408.50     -0.203187E+01  -0.202966E+01  -0.811777E+01   0.333843E+01
    467     2.50   408.50     -0.201859E+01  -0.201483E+01  -0.804494E+01   0.554819E+01
    468     3.50   408.50     -0.199805E+01  -0.199234E+01  -0.793603E+01   0.772794E+01
    469     4.25   408.50     -0.197537E+01  -0.196867E+01  -0.783038E+01   0.936197E+01
    470     4.75   408.50     -0.196402E+01  -0.195502E+01  -0.775427E+01   0.104232E+02
    471     5.50   408.50     -0.194434E+01  -0.193268E+01  -0.762694E+01   0.120014E+02
    472     6.50   408.50     -0.191181E+01  -0.189658E+01  -0.743380E+01   0.140702E+02
    473     7.50   408.50     -0.187750E+01  -0.185808E+01  -0.722278E+01   0.161114E+02
    474     8.50   408.50     -0.184179E+01  -0.181738E+01  -0.699520E+01   0.181069E+02
    475    10.00   408.50     -0.178478E+01  -0.175187E+01  -0.662659E+01   0.209871E+02
    476    13.00   408.50     -0.165755E+01  -0.160828E+01  -0.584110E+01   0.262616E+02
    477    19.00   408.50     -0.142250E+01  -0.135589E+01  -0.435746E+01   0.350007E+02
    478    31.00   408.50     -0.139324E+01  -0.129241E+01  -0.272109E+01   0.446239E+02
    479    55.00   408.50     -0.147191E+01  -0.132433E+01  -0.176646E+01   0.410278E+02
    480   103.00   408.50     -0.134099E+01  -0.128566E+01  -0.155316E+01   0.808474E+01
    481     0.50   409.50     -0.214147E+01  -0.213965E+01  -0.858483E+01   0.115680E+01
    482     1.50   409.50     -0.213273E+01  -0.213095E+01  -0.854156E+01   0.346754E+01
    483     2.50   409.50     -0.211512E+01  -0.211231E+01  -0.845754E+01   0.576078E+01
    484     3.50   409.50     -0.208945E+01  -0.208347E+01  -0.833053E+01   0.803084E+01
    485     4.25   409.50     -0.206193E+01  -0.205420E+01  -0.820919E+01   0.972584E+01
    486     4.75   409.50     -0.204517E+01  -0.203572E+01  -0.812088E+01   0.108327E+02
    487     5.50   409.50     -0.201899E+01  -0.200614E+01  -0.797305E+01   0.124568E+02
    488     6.50   409.50     -0.197806E+01  -0.196134E+01  -0.775284E+01   0.146097E+02
    489     7.50   409.50     -0.193324E+01  -0.191268E+01  -0.751166E+01   0.167122E+02
    490     8.50   409.50     -0.188708E+01  -0.186275E+01  -0.725434E+01   0.187771E+02
    491    10.00   409.50     -0.181223E+01  -0.177957E+01  -0.683612E+01   0.217457E+02
    492    13.00   409.50     -0.165570E+01  -0.160829E+01  -0.596490E+01   0.271598E+02
    493    19.00   409.50     -0.137556E+01  -0.131399E+01  -0.435077E+01   0.361107E+02
    494    31.00   409.50     -0.134535E+01  -0.124870E+01  -0.265252E+01  -0.442165E+02
    495    55.00   409.50     -0.141590E+01  -0.127301E+01  -0.169521E+01   0.418376E+02
    496   103.00   409.50     -0.128209E+01  -0.122978E+01  -0.148592E+01   0.816258E+01
    497     0.50   410.50     -0.228424E+01  -0.228230E+01  -0.906091E+01   0.120092E+01
    498     1.50   410.50     -0.227191E+01  -0.226979E+01  -0.901075E+01   0.359248E+01
    499     2.50   410.50     -0.224822E+01  -0.224541E+01  -0.891169E+01   0.596520E+01
    500     3.50   410.50     -0.221436E+01  -0.220974E+01  -0.876635E+01   0.833035E+01
    501     4.25   410.50     -0.217775E+01  -0.217171E+01  -0.862545E+01   0.100894E+02
    502     4.75   410.50     -0.215482E+01  -0.214620E+01  -0.852084E+01   0.112409E+02
    503     5.50   410.50     -0.212130E+01  -0.210739E+01  -0.835026E+01   0.129367E+02
    504     6.50   410.50     -0.206869E+01  -0.205053E+01  -0.809884E+01   0.151696E+02
    505     7.50   410.50     -0.201019E+01  -0.198841E+01  -0.782175E+01   0.173315E+02
    506     8.50   410.50     -0.195069E+01  -0.192708E+01  -0.753139E+01   0.194606E+02
    507    10.00   410.50     -0.185424E+01  -0.182288E+01  -0.705616E+01   0.225244E+02
    508    13.00   410.50     -0.166207E+01  -0.161716E+01  -0.608766E+01   0.280558E+02
    509    19.00   410.50     -0.132781E+01  -0.127293E+01  -0.433606E+01   0.372248E+02
    510    31.00   410.50     -0.129754E+01  -0.120527E+01  -0.257889E+01  -0.430487E+02
    511    55.00   410.50     -0.135924E+01  -0.122173E+01  -0.162394E+01   0.425654E+02
    512   103.00   410.50     -0.122357E+01  -0.117438E+01  -0.141930E+01   0.823125E+01
    513     0.50   411.50     -0.246977E+01  -0.246775E+01  -0.958607E+01   0.124739E+01
    514     1.50   411.50     -0.245427E+01  -0.245152E+01  -0.952455E+01   0.372765E+01
    515     2.50   411.50     -0.242314E+01  -0.241983E+01  -0.940701E+01   0.617551E+01
    516     3.50   411.50     -0.237957E+01  -0.237661E+01  -0.924056E+01   0.862361E+01
    517     4.25   411.50     -0.233420E+01  -0.232963E+01  -0.907822E+01   0.104431E+02
    518     4.75   411.50     -0.230487E+01  -0.229750E+01  -0.895790E+01   0.116499E+02
    519     5.50   411.50     -0.225756E+01  -0.224414E+01  -0.875737E+01   0.133952E+02
    520     6.50   411.50     -0.218846E+01  -0.217141E+01  -0.847285E+01   0.157167E+02
    521     7.50   411.50     -0.211157E+01  -0.208828E+01  -0.814953E+01   0.179627E+02
    522     8.50   411.50     -0.203946E+01  -0.201607E+01  -0.782515E+01   0.201360E+02
    523    10.00   411.50     -0.191257E+01  -0.188386E+01  -0.728151E+01   0.233041E+02
    524    13.00   411.50     -0.167892E+01  -0.163872E+01  -0.621116E+01   0.289555E+02
    525    19.00   411.50     -0.128165E+01  -0.123435E+01  -0.431135E+01   0.383147E+02
    526    31.00   411.50     -0.124775E+01  -0.116098E+01  -0.249914E+01  -0.418680E+02
    527    55.00   411.50     -0.130020E+01  -0.116840E+01  -0.154979E+01   0.432271E+02
    528   103.00   411.50     -0.116370E+01  -0.111775E+01  -0.135121E+01   0.831082E+01
    529     0.50   412.50     -0.271035E+01  -0.270673E+01  -0.101593E+02   0.130400E+01
    530     1.50   412.50     -0.269410E+01  -0.269022E+01  -0.100874E+02   0.387130E+01
    531     2.50   412.50     -0.265302E+01  -0.264734E+01  -0.994252E+01   0.638476E+01
    532     3.50   412.50     -0.259632E+01  -0.259302E+01  -0.975829E+01   0.891194E+01
    533     4.25   412.50     -0.253673E+01  -0.253334E+01  -0.956542E+01   0.108038E+02
    534     4.75   412.50     -0.249996E+01  -0.249539E+01  -0.942548E+01   0.120344E+02
    535     5.50   412.50     -0.243491E+01  -0.242548E+01  -0.919250E+01   0.138499E+02
    536     6.50   412.50     -0.234866E+01  -0.233648E+01  -0.887783E+01   0.162377E+02
    537     7.50   412.50     -0.224291E+01  -0.222016E+01  -0.849065E+01   0.185932E+02
    538     8.50   412.50     -0.215502E+01  -0.213366E+01  -0.813463E+01   0.207604E+02
    539    10.00   412.50     -0.198945E+01  -0.196486E+01  -0.750811E+01   0.240801E+02
    540    13.00   412.50     -0.170730E+01  -0.167335E+01  -0.632990E+01   0.298345E+02
    541    19.00   412.50     -0.123863E+01  -0.120116E+01  -0.427775E+01   0.393553E+02
    542    31.00   412.50     -0.119805E+01  -0.111752E+01  -0.241456E+01  -0.406841E+02
    543    55.00   412.50     -0.123820E+01  -0.111292E+01  -0.147304E+01   0.438165E+02
    544   103.00   412.50     -0.110334E+01  -0.106071E+01  -0.128265E+01   0.838310E+01
    545     0.50   413.50     -0.303008E+01  -0.302975E+01  -0.107757E+02   0.135860E+01
    546     1.50   413.50     -0.300448E+01  -0.299955E+01  -0.106936E+02   0.399922E+01
    547     2.50   413.50     -0.294897E+01  -0.294219E+01  -0.105062E+02   0.657828E+01
    548     3.50   413.50     -0.287345E+01  -0.287134E+01  -0.103126E+02   0.919965E+01
    549     4.25   413.50     -0.280202E+01  -0.280085E+01  -0.100790E+02   0.111420E+02
    550     4.75   413.50     -0.275407E+01  -0.275707E+01  -0.994570E+01   0.123856E+02
    551     5.50   413.50     -0.266596E+01  -0.265700E+01  -0.964171E+01   0.142959E+02
    552     6.50   413.50     -0.255030E+01  -0.254879E+01  -0.930843E+01   0.167067E+02
    553     7.50   413.50     -0.240366E+01  -0.238322E+01  -0.881668E+01   0.192120E+02
    554     8.50   413.50     -0.229868E+01  -0.228575E+01  -0.846183E+01   0.213136E+02
    555    10.00   413.50     -0.207622E+01  -0.205888E+01  -0.771912E+01   0.248308E+02
    556    13.00   413.50     -0.174312E+01  -0.171971E+01  -0.643709E+01   0.307105E+02
    557    19.00   413.50     -0.120284E+01  -0.117804E+01  -0.423656E+01   0.402733E+02
    558    31.00   413.50     -0.115276E+01  -0.107683E+01  -0.232450E+01  -0.394715E+02
    559    55.00   413.50     -0.117616E+01  -0.105780E+01  -0.139643E+01   0.442472E+02
    560   103.00   413.50     -0.104348E+01  -0.100422E+01  -0.121473E+01   0.840454E+01
    561     0.50   414.50      0.562950E+03   0.562965E+03  -0.115237E+02   0.248555E-01
    562     1.50   414.50      0.562852E+03   0.562923E+03  -0.114078E+02   0.744207E-01
    563     2.50   414.50      0.562661E+03   0.562847E+03  -0.111723E+02   0.119134E+00
    564     3.50   414.50      0.562396E+03   0.562745E+03  -0.107761E+02   0.160838E+00
    565     4.25   414.50      0.562162E+03   0.562651E+03  -0.104309E+02   0.187952E+00
    566     4.75   414.50      0.561983E+03   0.562582E+03  -0.101557E+02   0.204610E+00
    567     5.50   414.50      0.561711E+03   0.562463E+03  -0.979751E+01   0.224879E+00
    568     6.50   414.50      0.561326E+03   0.562308E+03  -0.915293E+01   0.246648E+00
    569     7.50   414.50      0.560957E+03   0.562132E+03  -0.862137E+01   0.261315E+00
    570     8.50   414.50      0.560600E+03   0.561987E+03  -0.787747E+01   0.267678E+00
    571    10.00   414.50      0.560143E+03   0.561752E+03  -0.698867E+01   0.270754E+00
    572    13.00   414.50      0.559552E+03   0.561406E+03  -0.520498E+01   0.245970E+00
    573    19.00   414.50      0.559267E+03   0.560965E+03  -0.298841E+01   0.164348E+00
    574    31.00   414.50      0.559817E+03   0.560702E+03  -0.139703E+01   0.570538E-01
    575    55.00   414.50      0.560313E+03   0.560541E+03  -0.118246E+01   0.103046E-01
    576   103.00   414.50      0.560488E+03   0.560531E+03  -0.112870E+01   0.224471E-02
    577     0.50   415.50      0.562714E+03   0.562727E+03  -0.125740E+02   0.315760E-01
    578     1.50   415.50      0.562620E+03   0.562694E+03  -0.124225E+02   0.931278E-01
    579     2.50   415.50      0.562437E+03   0.562635E+03  -0.121074E+02   0.149655E+00
    580     3.50   415.50      0.562178E+03   0.562548E+03  -0.116410E+02   0.200293E+00
    581     4.25   415.50      0.561950E+03   0.562469E+03  -0.112188E+02   0.233297E+00
    582     4.75   415.50      0.561783E+03   0.562410E+03  -0.109142E+02   0.252387E+00
    583     5.50   415.50      0.561518E+03   0.562314E+03  -0.104189E+02   0.275832E+00
    584     6.50   415.50      0.561159E+03   0.562182E+03  -0.969868E+01   0.299434E+00
    585     7.50   415.50      0.560807E+03   0.562041E+03  -0.897495E+01   0.312918E+00
    586     8.50   415.50      0.560470E+03   0.561909E+03  -0.819779E+01   0.318104E+00
    587    10.00   415.50      0.560045E+03   0.561711E+03  -0.712765E+01   0.313972E+00
    588    13.00   415.50      0.559502E+03   0.561400E+03  -0.518600E+01   0.274082E+00
    589    19.00   415.50      0.559314E+03   0.561003E+03  -0.285373E+01   0.171428E+00
    590    31.00   415.50      0.559889E+03   0.560747E+03  -0.129772E+01   0.563403E-01
    591    55.00   415.50      0.560393E+03   0.560603E+03  -0.110377E+01   0.974156E-02
    592   103.00   415.50      0.560559E+03   0.560598E+03  -0.105119E+01   0.227014E-02
    593     0.50   416.50      0.562588E+03   0.562603E+03  -0.138988E+02   0.382269E-01
    594     1.50   416.50      0.562487E+03   0.562573E+03  -0.136942E+02   0.112628E+00
    595     2.50   416.50      0.562292E+03   0.562519E+03  -0.132883E+02   0.181239E+00
    596     3.50   416.50      0.562020E+03   0.562440E+03  -0.127070E+02   0.241257E+00
    597     4.25   416.50      0.561782E+03   0.562369E+03  -0.121790E+02   0.279696E+00
    598     4.75   416.50      0.561608E+03   0.562316E+03  -0.117954E+02   0.301313E+00
    599     5.50   416.50      0.561336E+03   0.562230E+03  -0.111804E+02   0.327671E+00
    600     6.50   416.50      0.560971E+03   0.562109E+03  -0.103126E+02   0.352423E+00
    601     7.50   416.50      0.560618E+03   0.561984E+03  -0.942103E+01   0.365138E+00
    602     8.50   416.50      0.560292E+03   0.561861E+03  -0.853070E+01   0.367954E+00
    603    10.00   416.50      0.559890E+03   0.561685E+03  -0.727592E+01   0.356347E+00
    604    13.00   416.50      0.559412E+03   0.561400E+03  -0.513994E+01   0.301320E+00
    605    19.00   416.50      0.559345E+03   0.561038E+03  -0.269483E+01   0.177211E+00
    606    31.00   416.50      0.559968E+03   0.560793E+03  -0.119560E+01   0.550550E-01
    607    55.00   416.50      0.560474E+03   0.560666E+03  -0.102457E+01   0.920185E-02
    608   103.00   416.50      0.560630E+03   0.560665E+03  -0.973760E+00   0.228910E-02
    609     0.50   417.50      0.562539E+03   0.562557E+03  -0.155112E+02   0.457986E-01
    610     1.50   417.50      0.562423E+03   0.562528E+03  -0.152419E+02   0.134771E+00
    611     2.50   417.50      0.562202E+03   0.562473E+03  -0.147194E+02   0.216311E+00
    612     3.50   417.50      0.561897E+03   0.562396E+03  -0.139810E+02   0.286582E+00
    613     4.25   417.50      0.561632E+03   0.562326E+03  -0.133148E+02   0.330547E+00
    614     4.75   417.50      0.561442E+03   0.562274E+03  -0.128327E+02   0.354839E+00
    615     5.50   417.50      0.561146E+03   0.562190E+03  -0.120662E+02   0.383554E+00
    616     6.50   417.50      0.560758E+03   0.562073E+03  -0.109982E+02   0.408794E+00
    617     7.50   417.50      0.560392E+03   0.561953E+03  -0.992039E+01   0.419685E+00
    618     8.50   417.50      0.560067E+03   0.561834E+03  -0.887215E+01   0.418547E+00
    619    10.00   417.50      0.559686E+03   0.561669E+03  -0.741582E+01   0.398665E+00
    620    13.00   417.50      0.559290E+03   0.561402E+03  -0.506173E+01   0.326720E+00
    621    19.00   417.50      0.559368E+03   0.561070E+03  -0.251742E+01   0.181552E+00
    622    31.00   417.50      0.560054E+03   0.560840E+03  -0.109248E+01   0.533653E-01
    623    55.00   417.50      0.560555E+03   0.560729E+03  -0.947033E+00   0.869142E-02
    624   103.00   417.50      0.560701E+03   0.560731E+03  -0.898099E+00   0.229878E-02
    625     0.50   418.50      0.562546E+03   0.562569E+03  -0.174620E+02   0.547824E-01
    626     1.50   418.50      0.562408E+03   0.562537E+03  -0.171107E+02   0.160954E+00
    627     2.50   418.50      0.562145E+03   0.562478E+03  -0.164353E+02   0.257397E+00
    628     3.50   418.50      0.561787E+03   0.562396E+03  -0.154894E+02   0.339113E+00
    629     4.25   418.50      0.561481E+03   0.562323E+03  -0.146433E+02   0.388956E+00
    630     4.75   418.50      0.561263E+03   0.562268E+03  -0.140348E+02   0.415801E+00
    631     5.50   418.50      0.560931E+03   0.562181E+03  -0.130754E+02   0.446303E+00
    632     6.50   418.50      0.560506E+03   0.562060E+03  -0.117589E+02   0.470817E+00
    633     7.50   418.50      0.560120E+03   0.561939E+03  -0.104561E+02   0.478131E+00
    634     8.50   418.50      0.559792E+03   0.561820E+03  -0.921633E+01   0.471293E+00
    635    10.00   418.50      0.559436E+03   0.561659E+03  -0.753485E+01   0.441096E+00
    636    13.00   418.50      0.559142E+03   0.561404E+03  -0.494754E+01   0.349819E+00
    637    19.00   418.50      0.559387E+03   0.561098E+03  -0.232539E+01   0.184221E+00
    638    31.00   418.50      0.560147E+03   0.560888E+03  -0.987336E+00   0.513762E-01
    639    55.00   418.50      0.560637E+03   0.560792E+03  -0.868249E+00   0.819999E-02
    640   103.00   418.50      0.560772E+03   0.560797E+03  -0.821729E+00   0.230228E-02
    641     0.50   419.50      0.562591E+03   0.562620E+03  -0.198231E+02   0.657870E-01
    642     1.50   419.50      0.562421E+03   0.562584E+03  -0.193641E+02   0.192893E+00
    643     2.50   419.50      0.562101E+03   0.562517E+03  -0.184865E+02   0.307091E+00
    644     3.50   419.50      0.561670E+03   0.562425E+03  -0.172657E+02   0.401895E+00
    645     4.25   419.50      0.561305E+03   0.562344E+03  -0.161848E+02   0.457999E+00
    646     4.75   419.50      0.561049E+03   0.562283E+03  -0.154125E+02   0.487157E+00
    647     5.50   419.50      0.560670E+03   0.562188E+03  -0.142098E+02   0.518553E+00
    648     6.50   419.50      0.560196E+03   0.562059E+03  -0.125843E+02   0.540407E+00
    649     7.50   419.50      0.559786E+03   0.561930E+03  -0.110115E+02   0.541694E+00
    650     8.50   419.50      0.559457E+03   0.561807E+03  -0.954837E+01   0.526756E+00
    651    10.00   419.50      0.559140E+03   0.561647E+03  -0.761701E+01   0.483303E+00
    652    13.00   419.50      0.558974E+03   0.561401E+03  -0.479179E+01   0.370003E+00
    653    19.00   419.50      0.559412E+03   0.561122E+03  -0.212014E+01   0.184978E+00
    654    31.00   419.50      0.560246E+03   0.560937E+03  -0.881183E+00   0.491888E-01
    655    55.00   419.50      0.560720E+03   0.560855E+03  -0.788635E+00   0.774809E-02
    656   103.00   419.50      0.560843E+03   0.560864E+03  -0.744464E+00   0.229541E-02
    657     0.50   420.50      0.562658E+03   0.562694E+03  -0.226971E+02   0.794998E-01
    658     1.50   420.50      0.562445E+03   0.562651E+03  -0.220940E+02   0.232539E+00
    659     2.50   420.50      0.562047E+03   0.562574E+03  -0.209443E+02   0.368401E+00
    660     3.50   420.50      0.561517E+03   0.562466E+03  -0.193582E+02   0.478363E+00
    661     4.25   420.50      0.561077E+03   0.562373E+03  -0.179685E+02   0.541073E+00
    662     4.75   420.50      0.560774E+03   0.562304E+03  -0.169859E+02   0.572103E+00
    663     5.50   420.50      0.560334E+03   0.562198E+03  -0.154685E+02   0.602898E+00
    664     6.50   420.50      0.559805E+03   0.562054E+03  -0.134604E+02   0.619139E+00
    665     7.50   420.50      0.559374E+03   0.561916E+03  -0.115627E+02   0.610922E+00
    666     8.50   420.50      0.559055E+03   0.561786E+03  -0.984343E+01   0.584751E+00
    667    10.00   420.50      0.558797E+03   0.561625E+03  -0.764535E+01   0.524459E+00
    668    13.00   420.50      0.558798E+03   0.561391E+03  -0.459056E+01   0.386463E+00
    669    19.00   420.50      0.559448E+03   0.561142E+03  -0.190530E+01   0.183627E+00
    670    31.00   420.50      0.560353E+03   0.560986E+03  -0.776326E+00   0.468690E-01
    671    55.00   420.50      0.560803E+03   0.560918E+03  -0.709614E+00   0.734827E-02
    672   103.00   420.50      0.560914E+03   0.560930E+03  -0.667357E+00   0.228070E-02
    673     0.50   421.50      0.562720E+03   0.562767E+03  -0.262205E+02   0.968156E-01
    674     1.50   421.50      0.562452E+03   0.562716E+03  -0.254214E+02   0.282354E+00
    675     2.50   421.50      0.561953E+03   0.562625E+03  -0.239041E+02   0.444962E+00
    676     3.50   421.50      0.561297E+03   0.562499E+03  -0.218265E+02   0.572677E+00
    677     4.25   421.50      0.560761E+03   0.562390E+03  -0.200266E+02   0.642093E+00
    678     4.75   421.50      0.560399E+03   0.562311E+03  -0.187645E+02   0.674164E+00
    679     5.50   421.50      0.559888E+03   0.562191E+03  -0.168439E+02   0.701906E+00
    680     6.50   421.50      0.559303E+03   0.562031E+03  -0.143580E+02   0.708059E+00
    681     7.50   421.50      0.558864E+03   0.561880E+03  -0.120775E+02   0.685593E+00
    682     8.50   421.50      0.558576E+03   0.561744E+03  -0.100720E+02   0.644103E+00
    683    10.00   421.50      0.558414E+03   0.561584E+03  -0.759803E+01   0.562896E+00
    684    13.00   421.50      0.558626E+03   0.561367E+03  -0.434093E+01   0.398238E+00
    685    19.00   421.50      0.559503E+03   0.561157E+03  -0.168205E+01   0.180017E+00
    686    31.00   421.50      0.560467E+03   0.561035E+03  -0.671612E+00   0.445092E-01
    687    55.00   421.50      0.560887E+03   0.560982E+03  -0.630765E+00   0.702024E-02
    688   103.00   421.50      0.560986E+03   0.560997E+03  -0.590278E+00   0.226057E-02
    689     0.50   422.50      0.562737E+03   0.562797E+03  -0.305698E+02   0.118606E+00
    690     1.50   422.50      0.562401E+03   0.562739E+03  -0.295063E+02   0.345139E+00
    691     2.50   422.50      0.561776E+03   0.562634E+03  -0.274899E+02   0.541034E+00
    692     3.50   422.50      0.560961E+03   0.562491E+03  -0.247432E+02   0.689785E+00
    693     4.25   422.50      0.560305E+03   0.562366E+03  -0.223896E+02   0.765682E+00
    694     4.75   422.50      0.559872E+03   0.562276E+03  -0.207593E+02   0.797292E+00
    695     5.50   422.50      0.559285E+03   0.562142E+03  -0.183111E+02   0.817923E+00
    696     6.50   422.50      0.558655E+03   0.561965E+03  -0.152330E+02   0.807250E+00
    697     7.50   422.50      0.558236E+03   0.561804E+03  -0.125080E+02   0.764024E+00
    698     8.50   422.50      0.558016E+03   0.561665E+03  -0.101951E+02   0.702219E+00
    699    10.00   422.50      0.558001E+03   0.561513E+03  -0.745371E+01   0.596123E+00
    700    13.00   422.50      0.558476E+03   0.561327E+03  -0.404253E+01   0.404091E+00
    701    19.00   422.50      0.559585E+03   0.561169E+03  -0.145159E+01   0.174210E+00
    702    31.00   422.50      0.560589E+03   0.561086E+03  -0.566578E+00   0.422167E-01
    703    55.00   422.50      0.560971E+03   0.561045E+03  -0.552078E+00   0.676281E-02
    704   103.00   422.50      0.561057E+03   0.561064E+03  -0.513289E+00   0.223450E-02
    705     0.50   423.50      0.562624E+03   0.562699E+03  -0.359650E+02   0.145584E+00
    706     1.50   423.50      0.562214E+03   0.562640E+03  -0.345520E+02   0.423221E+00
    707     2.50   423.50      0.561446E+03   0.562534E+03  -0.318643E+02   0.660983E+00
    708     3.50   423.50      0.560440E+03   0.562385E+03  -0.282011E+02   0.835355E+00
    709     4.25   423.50      0.559640E+03   0.562253E+03  -0.250884E+02   0.917202E+00
    710     4.75   423.50      0.559125E+03   0.562156E+03  -0.229578E+02   0.945717E+00
    711     5.50   423.50      0.558462E+03   0.562013E+03  -0.198184E+02   0.952717E+00
    712     6.50   423.50      0.557820E+03   0.561827E+03  -0.160114E+02   0.915019E+00
    713     7.50   423.50      0.557477E+03   0.561663E+03  -0.127895E+02   0.842379E+00
    714     8.50   423.50      0.557384E+03   0.561529E+03  -0.101693E+02   0.754756E+00
    715    10.00   423.50      0.557582E+03   0.561399E+03  -0.719428E+01   0.620769E+00
    716    13.00   423.50      0.558371E+03   0.561264E+03  -0.370009E+01   0.402776E+00
    717    19.00   423.50      0.559701E+03   0.561178E+03  -0.121757E+01   0.166434E+00
    718    31.00   423.50      0.560719E+03   0.561139E+03  -0.462292E+00   0.401332E-01
    719    55.00   423.50      0.561055E+03   0.561109E+03  -0.472505E+00   0.659551E-02
    720   103.00   423.50      0.561128E+03   0.561130E+03  -0.436420E+00   0.220385E-02
    721     0.50   424.50      0.562190E+03   0.562280E+03  -0.426363E+02   0.177198E+00
    722     1.50   424.50      0.561735E+03   0.562249E+03  -0.407906E+02   0.516076E+00
    723     2.50   424.50      0.560849E+03   0.562186E+03  -0.372340E+02   0.807026E+00
    724     3.50   424.50      0.559645E+03   0.562081E+03  -0.323211E+02   0.101508E+01
    725     4.25   424.50      0.558678E+03   0.561971E+03  -0.281446E+02   0.110252E+01
    726     4.75   424.50      0.558069E+03   0.561883E+03  -0.253201E+02   0.112365E+01
    727     5.50   424.50      0.557348E+03   0.561751E+03  -0.212628E+02   0.110645E+01
    728     6.50   424.50      0.556759E+03   0.561570E+03  -0.165790E+02   0.102603E+01
    729     7.50   424.50      0.556589E+03   0.561419E+03  -0.128416E+02   0.913072E+00
    730     8.50   424.50      0.556712E+03   0.561310E+03  -0.995132E+01   0.794753E+00
    731    10.00   424.50      0.557200E+03   0.561226E+03  -0.681524E+01   0.632376E+00
    732    13.00   424.50      0.558340E+03   0.561176E+03  -0.331850E+01   0.393103E+00
    733    19.00   424.50      0.559859E+03   0.561187E+03  -0.978559E+00   0.157397E+00
    734    31.00   424.50      0.560860E+03   0.561194E+03  -0.357037E+00   0.385478E-01
    735    55.00   424.50      0.561141E+03   0.561174E+03  -0.392359E+00   0.656066E-02
    736   103.00   424.50      0.561200E+03   0.561197E+03  -0.358690E+00   0.217103E-02
    737     0.50   425.50      0.561009E+03   0.561102E+03  -0.507310E+02   0.208855E+00
    738     1.50   425.50      0.560626E+03   0.561172E+03  -0.484400E+02   0.613616E+00
    739     2.50   425.50      0.559778E+03   0.561280E+03  -0.438851E+02   0.971334E+00
    740     3.50   425.50      0.558460E+03   0.561368E+03  -0.373056E+02   0.122981E+01
    741     4.25   425.50      0.557326E+03   0.561387E+03  -0.315800E+02   0.132796E+01
    742     4.75   425.50      0.556606E+03   0.561352E+03  -0.277562E+02   0.133554E+01
    743     5.50   425.50      0.555862E+03   0.561282E+03  -0.224309E+02   0.127476E+01
    744     6.50   425.50      0.555461E+03   0.561141E+03  -0.167499E+02   0.112855E+01
    745     7.50   425.50      0.555618E+03   0.561030E+03  -0.125735E+02   0.963779E+00
    746     8.50   425.50      0.556068E+03   0.560976E+03  -0.951061E+01   0.812794E+00
    747    10.00   425.50      0.556921E+03   0.560982E+03  -0.631359E+01   0.626421E+00
    748    13.00   425.50      0.558413E+03   0.561067E+03  -0.289534E+01   0.376135E+00
    749    19.00   425.50      0.560066E+03   0.561201E+03  -0.734956E+00   0.149312E+00
    750    31.00   425.50      0.561010E+03   0.561252E+03  -0.254474E+00   0.380103E-01
    751    55.00   425.50      0.561226E+03   0.561239E+03  -0.313810E+00   0.672567E-02
    752   103.00   425.50      0.561271E+03   0.561264E+03  -0.281954E+00   0.214181E-02
    753     0.50   426.50      0.144314E+03   0.144893E+03  -0.660535E+02   0.145078E+01
    754     1.50   426.50      0.136834E+03   0.140012E+03  -0.651942E+02   0.464737E+01
    755     2.50   426.50      0.121464E+03   0.129915E+03  -0.637339E+02   0.888989E+01
    756     3.50   426.50      0.982943E+02   0.114449E+03  -0.607576E+02   0.149123E+02
    757     4.25   426.50      0.776301E+02   0.100337E+03  -0.558115E+02   0.208346E+02
    758     4.75   426.50      0.624732E+02   0.901066E+02  -0.510699E+02   0.250589E+02
    759     5.50   426.50      0.411408E+02   0.748798E+02  -0.434225E+02   0.312238E+02
    760     6.50   426.50      0.188786E+02   0.558541E+02  -0.371947E+02   0.402158E+02
    761     7.50   426.50      0.632149E+01   0.409191E+02  -0.341812E+02  -0.397171E+02
    762     8.50   426.50      0.760177E+00   0.297936E+02  -0.330308E+02  -0.300538E+02
    763    10.00   426.50     -0.159162E+01   0.182918E+02  -0.317409E+02  -0.198154E+02
    764    13.00   426.50     -0.111402E+01   0.607892E+01  -0.270698E+02  -0.105358E+02
    765    19.00   426.50      0.144202E+00  -0.919366E+00  -0.156137E+02  -0.702670E+01
    766    31.00   426.50      0.452645E-01  -0.131944E+01  -0.402004E+01  -0.104093E+02
    767    55.00   426.50     -0.996556E-01  -0.504982E+00  -0.395938E+00  -0.440298E+02
    768   103.00   426.50      0.169099E+00  -0.990086E-01  -0.214103E+00  -0.333972E+01
    769     0.50   427.50     -0.428020E+02  -0.440209E+02  -0.922326E+02   0.865992E+01
    770     1.50   427.50     -0.329403E+02  -0.424941E+02  -0.989683E+02   0.214202E+02
    771     2.50   427.50     -0.159597E+02  -0.394375E+02  -0.109578E+03   0.286750E+02
    772     3.50   427.50      0.691752E+01  -0.338795E+02  -0.119164E+03   0.343225E+02
    773     4.25   427.50      0.275579E+02  -0.253827E+02  -0.114405E+03   0.403843E+02
    774     4.75   427.50      0.344260E+02  -0.202760E+02  -0.102490E+03   0.444899E+02
    775     5.50   427.50      0.335413E+02  -0.148355E+02  -0.773925E+02  -0.409099E+02
    776     6.50   427.50      0.235051E+02  -0.129842E+02  -0.538106E+02  -0.392389E+02
    777     7.50   427.50      0.158015E+02  -0.116761E+02  -0.383173E+02  -0.389685E+02
    778     8.50   427.50      0.106032E+02  -0.104934E+02  -0.279273E+02  -0.384991E+02
    779    10.00   427.50      0.575901E+01  -0.894754E+01  -0.178676E+02  -0.371999E+02
    780    13.00   427.50      0.201709E+01  -0.648982E+01  -0.802546E+01  -0.346922E+02
    781    19.00   427.50      0.110960E+01  -0.367365E+01  -0.253821E+01  -0.379548E+02
    782    31.00   427.50      0.888692E+00  -0.158514E+01  -0.708688E+00   0.379154E+02
    783    55.00   427.50      0.422062E+00  -0.521964E+00  -0.191673E+00   0.168038E+02
    784   103.00   427.50      0.327182E+00  -0.494246E-01  -0.120705E+00  -0.316992E+01
    785     0.50   428.50     -0.112678E+03  -0.238811E+03  -0.238097E+03  -0.161984E+01
    786     1.50   428.50     -0.111612E+03  -0.232154E+03  -0.228202E+03  -0.533392E+01
    787     2.50   428.50     -0.108925E+03  -0.218473E+03  -0.208225E+03  -0.106748E+02
    788     3.50   428.50     -0.964633E+02  -0.194208E+03  -0.177558E+03  -0.225711E+02
    789     4.25   428.50     -0.540831E+02  -0.163343E+03  -0.157031E+03  -0.333178E+02
    790     4.75   428.50     -0.504153E+01  -0.131637E+03  -0.128517E+03  -0.241182E+02
    791     5.50   428.50      0.512240E+01  -0.104696E+03  -0.784562E+02  -0.202120E+02
    792     6.50   428.50      0.625086E+01  -0.816127E+02  -0.414098E+02  -0.243457E+02
    793     7.50   428.50      0.694947E+01  -0.645921E+02  -0.213716E+02  -0.330413E+02
    794     8.50   428.50      0.864806E+01  -0.511797E+02  -0.975672E+01   0.430979E+02
    795    10.00   428.50      0.129697E+02  -0.364317E+02  -0.306042E+01   0.219171E+02
    796    13.00   428.50      0.174577E+02  -0.191527E+02  -0.915509E+00   0.721881E+01
    797    19.00   428.50      0.132844E+02  -0.646483E+01  -0.610790E+00   0.407437E+01
    798    31.00   428.50      0.451605E+01  -0.186661E+01  -0.199992E+00   0.588989E+01
    799    55.00   428.50      0.999512E+00  -0.544828E+00  -0.571975E-01   0.568019E+01
    800   103.00   428.50      0.485409E+00  -0.108489E-02  -0.304930E-01  -0.425631E+01
