# vtk DataFile Version 2.0
./vtk
ASCII

DATASET UNSTRUCTURED_GRID
POINTS 1337 double
0 0 0.0
0.0777 0 0.0
0.1554 0 0.0
0.2331 0 0.0
0.3108 0 0.0
0.3885 0 0.0
0.4662 0 0.0
0.5439 0 0.0
0.6216 0 0.0
0.6993 0 0.0
0.777 0 0.0
0.8547 0 0.0
0.9324 0 0.0
1.0102 0 0.0
1.0879 0 0.0
1.1656 0 0.0
1.2433 0 0.0
1.321 0 0.0
1.3987 0 0.0
1.4764 0 0.0
1.5541 0 0.0
1.6318 0 0.0
1.7095 0 0.0
1.7872 0 0.0
1.8649 0 0.0
1.9426 0 0.0
2.0203 0 0.0
2.098 0 0.0
2.1757 0 0.0
2.2534 0 0.0
2.3311 0 0.0
2.4088 0 0.0
2.4865 0 0.0
2.5642 0 0.0
2.6419 0 0.0
2.7196 0 0.0
2.7973 0 0.0
2.8751 0 0.0
2.9528 0 0.0
0 -0.1342 0.0
0.1554 -0.1342 0.0
0.3108 -0.1342 0.0
0.4662 -0.1342 0.0
0.6216 -0.1342 0.0
0.777 -0.1342 0.0
0.9324 -0.1342 0.0
1.0879 -0.1342 0.0
1.2433 -0.1342 0.0
1.3987 -0.1342 0.0
1.5541 -0.1342 0.0
1.7095 -0.1342 0.0
1.8649 -0.1342 0.0
2.0203 -0.1342 0.0
2.1757 -0.1342 0.0
2.3311 -0.1342 0.0
2.4865 -0.1342 0.0
2.6419 -0.1342 0.0
2.7973 -0.1342 0.0
2.9528 -0.1342 0.0
0 -0.2684 0.0
0.0777 -0.2684 0.0
0.1554 -0.2684 0.0
0.2331 -0.2684 0.0
0.3108 -0.2684 0.0
0.3885 -0.2684 0.0
0.4662 -0.2684 0.0
0.5439 -0.2684 0.0
0.6216 -0.2684 0.0
0.6993 -0.2684 0.0
0.777 -0.2684 0.0
0.8547 -0.2684 0.0
0.9324 -0.2684 0.0
1.0102 -0.2684 0.0
1.0879 -0.2684 0.0
1.1656 -0.2684 0.0
1.2433 -0.2684 0.0
1.321 -0.2684 0.0
1.3987 -0.2684 0.0
1.4764 -0.2684 0.0
1.5541 -0.2684 0.0
1.6318 -0.2684 0.0
1.7095 -0.2684 0.0
1.7872 -0.2684 0.0
1.8649 -0.2684 0.0
1.9426 -0.2684 0.0
2.0203 -0.2684 0.0
2.098 -0.2684 0.0
2.1757 -0.2684 0.0
2.2534 -0.2684 0.0
2.3311 -0.2684 0.0
2.4088 -0.2684 0.0
2.4865 -0.2684 0.0
2.5642 -0.2684 0.0
2.6419 -0.2684 0.0
2.7196 -0.2684 0.0
2.7973 -0.2684 0.0
2.8751 -0.2684 0.0
2.9528 -0.2684 0.0
0 -0.4026 0.0
0.1554 -0.4026 0.0
0.3108 -0.4026 0.0
0.4662 -0.4026 0.0
0.6216 -0.4026 0.0
0.777 -0.4026 0.0
0.9324 -0.4026 0.0
1.0879 -0.4026 0.0
1.2433 -0.4026 0.0
1.3987 -0.4026 0.0
1.5541 -0.4026 0.0
1.7095 -0.4026 0.0
1.8649 -0.4026 0.0
2.0203 -0.4026 0.0
2.1757 -0.4026 0.0
2.3311 -0.4026 0.0
2.4865 -0.4026 0.0
2.6419 -0.4026 0.0
2.7973 -0.4026 0.0
2.9528 -0.4026 0.0
0 -0.5369 0.0
0.0777 -0.5369 0.0
0.1554 -0.5369 0.0
0.2331 -0.5369 0.0
0.3108 -0.5369 0.0
0.3885 -0.5369 0.0
0.4662 -0.5369 0.0
0.5439 -0.5369 0.0
0.6216 -0.5369 0.0
0.6993 -0.5369 0.0
0.777 -0.5369 0.0
0.8547 -0.5369 0.0
0.9324 -0.5369 0.0
1.0102 -0.5369 0.0
1.0879 -0.5369 0.0
1.1656 -0.5369 0.0
1.2433 -0.5369 0.0
1.321 -0.5369 0.0
1.3987 -0.5369 0.0
1.4764 -0.5369 0.0
1.5541 -0.5369 0.0
1.6318 -0.5369 0.0
1.7095 -0.5369 0.0
1.7872 -0.5369 0.0
1.8649 -0.5369 0.0
1.9426 -0.5369 0.0
2.0203 -0.5369 0.0
2.098 -0.5369 0.0
2.1757 -0.5369 0.0
2.2534 -0.5369 0.0
2.3311 -0.5369 0.0
2.4088 -0.5369 0.0
2.4865 -0.5369 0.0
2.5642 -0.5369 0.0
2.6419 -0.5369 0.0
2.7196 -0.5369 0.0
2.7973 -0.5369 0.0
2.8751 -0.5369 0.0
2.9528 -0.5369 0.0
0 -0.6711 0.0
0.1554 -0.6711 0.0
0.3108 -0.6711 0.0
0.4662 -0.6711 0.0
0.6216 -0.6711 0.0
0.777 -0.6711 0.0
0.9324 -0.6711 0.0
1.0879 -0.6711 0.0
1.2433 -0.6711 0.0
1.3987 -0.6711 0.0
1.5541 -0.6711 0.0
1.7095 -0.6711 0.0
1.8649 -0.6711 0.0
2.0203 -0.6711 0.0
2.1757 -0.6711 0.0
2.3311 -0.6711 0.0
2.4865 -0.6711 0.0
2.6419 -0.6711 0.0
2.7973 -0.6711 0.0
2.9528 -0.6711 0.0
0 -0.8053 0.0
0.0777 -0.8053 0.0
0.1554 -0.8053 0.0
0.2331 -0.8053 0.0
0.3108 -0.8053 0.0
0.3885 -0.8053 0.0
0.4662 -0.8053 0.0
0.5439 -0.8053 0.0
0.6216 -0.8053 0.0
0.6993 -0.8053 0.0
0.777 -0.8053 0.0
0.8547 -0.8053 0.0
0.9324 -0.8053 0.0
1.0102 -0.8053 0.0
1.0879 -0.8053 0.0
1.1656 -0.8053 0.0
1.2433 -0.8053 0.0
1.321 -0.8053 0.0
1.3987 -0.8053 0.0
1.4764 -0.8053 0.0
1.5541 -0.8053 0.0
1.6318 -0.8053 0.0
1.7095 -0.8053 0.0
1.7872 -0.8053 0.0
1.8649 -0.8053 0.0
1.9426 -0.8053 0.0
2.0203 -0.8053 0.0
2.098 -0.8053 0.0
2.1757 -0.8053 0.0
2.2534 -0.8053 0.0
2.3311 -0.8053 0.0
2.4088 -0.8053 0.0
2.4865 -0.8053 0.0
2.5642 -0.8053 0.0
2.6419 -0.8053 0.0
2.7196 -0.8053 0.0
2.7973 -0.8053 0.0
2.8751 -0.8053 0.0
2.9528 -0.8053 0.0
0 -0.9395 0.0
0.1554 -0.9395 0.0
0.3108 -0.9395 0.0
0.4662 -0.9395 0.0
0.6216 -0.9395 0.0
0.777 -0.9395 0.0
0.9324 -0.9395 0.0
1.0879 -0.9395 0.0
1.2433 -0.9395 0.0
1.3987 -0.9395 0.0
1.5541 -0.9395 0.0
1.7095 -0.9395 0.0
1.8649 -0.9395 0.0
2.0203 -0.9395 0.0
2.1757 -0.9395 0.0
2.3311 -0.9395 0.0
2.4865 -0.9395 0.0
2.6419 -0.9395 0.0
2.7973 -0.9395 0.0
2.9528 -0.9395 0.0
0 -1.0737 0.0
0.0777 -1.0737 0.0
0.1554 -1.0737 0.0
0.2331 -1.0737 0.0
0.3108 -1.0737 0.0
0.3885 -1.0737 0.0
0.4662 -1.0737 0.0
0.5439 -1.0737 0.0
0.6216 -1.0737 0.0
0.6993 -1.0737 0.0
0.777 -1.0737 0.0
0.8547 -1.0737 0.0
0.9324 -1.0737 0.0
1.0102 -1.0737 0.0
1.0879 -1.0737 0.0
1.1656 -1.0737 0.0
1.2433 -1.0737 0.0
1.321 -1.0737 0.0
1.3987 -1.0737 0.0
1.4764 -1.0737 0.0
1.5541 -1.0737 0.0
1.6318 -1.0737 0.0
1.7095 -1.0737 0.0
1.7872 -1.0737 0.0
1.8649 -1.0737 0.0
1.9426 -1.0737 0.0
2.0203 -1.0737 0.0
2.098 -1.0737 0.0
2.1757 -1.0737 0.0
2.2534 -1.0737 0.0
2.3311 -1.0737 0.0
2.4088 -1.0737 0.0
2.4865 -1.0737 0.0
2.5642 -1.0737 0.0
2.6419 -1.0737 0.0
2.7196 -1.0737 0.0
2.7973 -1.0737 0.0
2.8751 -1.0737 0.0
2.9528 -1.0737 0.0
0 -1.2079 0.0
0.1554 -1.2079 0.0
0.3108 -1.2079 0.0
0.4662 -1.2079 0.0
0.6216 -1.2079 0.0
0.777 -1.2079 0.0
0.9324 -1.2079 0.0
1.0879 -1.2079 0.0
1.2433 -1.2079 0.0
1.3987 -1.2079 0.0
1.5541 -1.2079 0.0
1.7095 -1.2079 0.0
1.8649 -1.2079 0.0
2.0203 -1.2079 0.0
2.1757 -1.2079 0.0
2.3311 -1.2079 0.0
2.4865 -1.2079 0.0
2.6419 -1.2079 0.0
2.7973 -1.2079 0.0
2.9528 -1.2079 0.0
0 -1.3422 0.0
0.0777 -1.3422 0.0
0.1554 -1.3422 0.0
0.2331 -1.3422 0.0
0.3108 -1.3422 0.0
0.3885 -1.3422 0.0
0.4662 -1.3422 0.0
0.5439 -1.3422 0.0
0.6216 -1.3422 0.0
0.6993 -1.3422 0.0
0.777 -1.3422 0.0
0.8547 -1.3422 0.0
0.9324 -1.3422 0.0
1.0102 -1.3422 0.0
1.0879 -1.3422 0.0
1.1656 -1.3422 0.0
1.2433 -1.3422 0.0
1.321 -1.3422 0.0
1.3987 -1.3422 0.0
1.4764 -1.3422 0.0
1.5541 -1.3422 0.0
1.6318 -1.3422 0.0
1.7095 -1.3422 0.0
1.7872 -1.3422 0.0
1.8649 -1.3422 0.0
1.9426 -1.3422 0.0
2.0203 -1.3422 0.0
2.098 -1.3422 0.0
2.1757 -1.3422 0.0
2.2534 -1.3422 0.0
2.3311 -1.3422 0.0
2.4088 -1.3422 0.0
2.4865 -1.3422 0.0
2.5642 -1.3422 0.0
2.6419 -1.3422 0.0
2.7196 -1.3422 0.0
2.7973 -1.3422 0.0
2.8751 -1.3422 0.0
2.9528 -1.3422 0.0
0 -1.4764 0.0
0.1554 -1.4764 0.0
0.3108 -1.4764 0.0
0.4662 -1.4764 0.0
0.6216 -1.4764 0.0
0.777 -1.4764 0.0
0.9324 -1.4764 0.0
1.0879 -1.4764 0.0
1.2433 -1.4764 0.0
1.3987 -1.4764 0.0
1.5541 -1.4764 0.0
1.7095 -1.4764 0.0
1.8649 -1.4764 0.0
2.0203 -1.4764 0.0
2.1757 -1.4764 0.0
2.3311 -1.4764 0.0
2.4865 -1.4764 0.0
2.6419 -1.4764 0.0
2.7973 -1.4764 0.0
2.9528 -1.4764 0.0
0 -1.6106 0.0
0.0777 -1.6106 0.0
0.1554 -1.6106 0.0
0.2331 -1.6106 0.0
0.3108 -1.6106 0.0
0.3885 -1.6106 0.0
0.4662 -1.6106 0.0
0.5439 -1.6106 0.0
0.6216 -1.6106 0.0
0.6993 -1.6106 0.0
0.777 -1.6106 0.0
0.8547 -1.6106 0.0
0.9324 -1.6106 0.0
1.0102 -1.6106 0.0
1.0879 -1.6106 0.0
1.1656 -1.6106 0.0
1.2433 -1.6106 0.0
1.321 -1.6106 0.0
1.3987 -1.6106 0.0
1.4764 -1.6106 0.0
1.5541 -1.6106 0.0
1.6318 -1.6106 0.0
1.7095 -1.6106 0.0
1.7872 -1.6106 0.0
1.8649 -1.6106 0.0
1.9426 -1.6106 0.0
2.0203 -1.6106 0.0
2.098 -1.6106 0.0
2.1757 -1.6106 0.0
2.2534 -1.6106 0.0
2.3311 -1.6106 0.0
2.4088 -1.6106 0.0
2.4865 -1.6106 0.0
2.5642 -1.6106 0.0
2.6419 -1.6106 0.0
2.7196 -1.6106 0.0
2.7973 -1.6106 0.0
2.8751 -1.6106 0.0
2.9528 -1.6106 0.0
0 -1.7448 0.0
0.1554 -1.7448 0.0
0.3108 -1.7448 0.0
0.4662 -1.7448 0.0
0.6216 -1.7448 0.0
0.777 -1.7448 0.0
0.9324 -1.7448 0.0
1.0879 -1.7448 0.0
1.2433 -1.7448 0.0
1.3987 -1.7448 0.0
1.5541 -1.7448 0.0
1.7095 -1.7448 0.0
1.8649 -1.7448 0.0
2.0203 -1.7448 0.0
2.1757 -1.7448 0.0
2.3311 -1.7448 0.0
2.4865 -1.7448 0.0
2.6419 -1.7448 0.0
2.7973 -1.7448 0.0
2.9528 -1.7448 0.0
0 -1.879 0.0
0.0777 -1.879 0.0
0.1554 -1.879 0.0
0.2331 -1.879 0.0
0.3108 -1.879 0.0
0.3885 -1.879 0.0
0.4662 -1.879 0.0
0.5439 -1.879 0.0
0.6216 -1.879 0.0
0.6993 -1.879 0.0
0.777 -1.879 0.0
0.8547 -1.879 0.0
0.9324 -1.879 0.0
1.0102 -1.879 0.0
1.0879 -1.879 0.0
1.1656 -1.879 0.0
1.2433 -1.879 0.0
1.321 -1.879 0.0
1.3987 -1.879 0.0
1.4764 -1.879 0.0
1.5541 -1.879 0.0
1.6318 -1.879 0.0
1.7095 -1.879 0.0
1.7872 -1.879 0.0
1.8649 -1.879 0.0
1.9426 -1.879 0.0
2.0203 -1.879 0.0
2.098 -1.879 0.0
2.1757 -1.879 0.0
2.2534 -1.879 0.0
2.3311 -1.879 0.0
2.4088 -1.879 0.0
2.4865 -1.879 0.0
2.5642 -1.879 0.0
2.6419 -1.879 0.0
2.7196 -1.879 0.0
2.7973 -1.879 0.0
2.8751 -1.879 0.0
2.9528 -1.879 0.0
0 -2.0132 0.0
0.1554 -2.0132 0.0
0.3108 -2.0132 0.0
0.4662 -2.0132 0.0
0.6216 -2.0132 0.0
0.777 -2.0132 0.0
0.9324 -2.0132 0.0
1.0879 -2.0132 0.0
1.2433 -2.0132 0.0
1.3987 -2.0132 0.0
1.5541 -2.0132 0.0
1.7095 -2.0132 0.0
1.8649 -2.0132 0.0
2.0203 -2.0132 0.0
2.1757 -2.0132 0.0
2.3311 -2.0132 0.0
2.4865 -2.0132 0.0
2.6419 -2.0132 0.0
2.7973 -2.0132 0.0
2.9528 -2.0132 0.0
0 -2.1475 0.0
0.0777 -2.1475 0.0
0.1554 -2.1475 0.0
0.2331 -2.1475 0.0
0.3108 -2.1475 0.0
0.3885 -2.1475 0.0
0.4662 -2.1475 0.0
0.5439 -2.1475 0.0
0.6216 -2.1475 0.0
0.6993 -2.1475 0.0
0.777 -2.1475 0.0
0.8547 -2.1475 0.0
0.9324 -2.1475 0.0
1.0102 -2.1475 0.0
1.0879 -2.1475 0.0
1.1656 -2.1475 0.0
1.2433 -2.1475 0.0
1.321 -2.1475 0.0
1.3987 -2.1475 0.0
1.4764 -2.1475 0.0
1.5541 -2.1475 0.0
1.6318 -2.1475 0.0
1.7095 -2.1475 0.0
1.7872 -2.1475 0.0
1.8649 -2.1475 0.0
1.9426 -2.1475 0.0
2.0203 -2.1475 0.0
2.098 -2.1475 0.0
2.1757 -2.1475 0.0
2.2534 -2.1475 0.0
2.3311 -2.1475 0.0
2.4088 -2.1475 0.0
2.4865 -2.1475 0.0
2.5642 -2.1475 0.0
2.6419 -2.1475 0.0
2.7196 -2.1475 0.0
2.7973 -2.1475 0.0
2.8751 -2.1475 0.0
2.9528 -2.1475 0.0
0 -2.2817 0.0
0.1554 -2.2817 0.0
0.3108 -2.2817 0.0
0.4662 -2.2817 0.0
0.6216 -2.2817 0.0
0.777 -2.2817 0.0
0.9324 -2.2817 0.0
1.0879 -2.2817 0.0
1.2433 -2.2817 0.0
1.3987 -2.2817 0.0
1.5541 -2.2817 0.0
1.7095 -2.2817 0.0
1.8649 -2.2817 0.0
2.0203 -2.2817 0.0
2.1757 -2.2817 0.0
2.3311 -2.2817 0.0
2.4865 -2.2817 0.0
2.6419 -2.2817 0.0
2.7973 -2.2817 0.0
2.9528 -2.2817 0.0
0 -2.4159 0.0
0.0777 -2.4159 0.0
0.1554 -2.4159 0.0
0.2331 -2.4159 0.0
0.3108 -2.4159 0.0
0.3885 -2.4159 0.0
0.4662 -2.4159 0.0
0.5439 -2.4159 0.0
0.6216 -2.4159 0.0
0.6993 -2.4159 0.0
0.777 -2.4159 0.0
0.8547 -2.4159 0.0
0.9324 -2.4159 0.0
1.0102 -2.4159 0.0
1.0879 -2.4159 0.0
1.1656 -2.4159 0.0
1.2433 -2.4159 0.0
1.321 -2.4159 0.0
1.3987 -2.4159 0.0
1.4764 -2.4159 0.0
1.5541 -2.4159 0.0
1.6318 -2.4159 0.0
1.7095 -2.4159 0.0
1.7872 -2.4159 0.0
1.8649 -2.4159 0.0
1.9426 -2.4159 0.0
2.0203 -2.4159 0.0
2.098 -2.4159 0.0
2.1757 -2.4159 0.0
2.2534 -2.4159 0.0
2.3311 -2.4159 0.0
2.4088 -2.4159 0.0
2.4865 -2.4159 0.0
2.5642 -2.4159 0.0
2.6419 -2.4159 0.0
2.7196 -2.4159 0.0
2.7973 -2.4159 0.0
2.8751 -2.4159 0.0
2.9528 -2.4159 0.0
0 -2.5501 0.0
0.1554 -2.5501 0.0
0.3108 -2.5501 0.0
0.4662 -2.5501 0.0
0.6216 -2.5501 0.0
0.777 -2.5501 0.0
0.9324 -2.5501 0.0
1.0879 -2.5501 0.0
1.2433 -2.5501 0.0
1.3987 -2.5501 0.0
1.5541 -2.5501 0.0
1.7095 -2.5501 0.0
1.8649 -2.5501 0.0
2.0203 -2.5501 0.0
2.1757 -2.5501 0.0
2.3311 -2.5501 0.0
2.4865 -2.5501 0.0
2.6419 -2.5501 0.0
2.7973 -2.5501 0.0
2.9528 -2.5501 0.0
0 -2.6843 0.0
0.0777 -2.6843 0.0
0.1554 -2.6843 0.0
0.2331 -2.6843 0.0
0.3108 -2.6843 0.0
0.3885 -2.6843 0.0
0.4662 -2.6843 0.0
0.5439 -2.6843 0.0
0.6216 -2.6843 0.0
0.6993 -2.6843 0.0
0.777 -2.6843 0.0
0.8547 -2.6843 0.0
0.9324 -2.6843 0.0
1.0102 -2.6843 0.0
1.0879 -2.6843 0.0
1.1656 -2.6843 0.0
1.2433 -2.6843 0.0
1.321 -2.6843 0.0
1.3987 -2.6843 0.0
1.4764 -2.6843 0.0
1.5541 -2.6843 0.0
1.6318 -2.6843 0.0
1.7095 -2.6843 0.0
1.7872 -2.6843 0.0
1.8649 -2.6843 0.0
1.9426 -2.6843 0.0
2.0203 -2.6843 0.0
2.098 -2.6843 0.0
2.1757 -2.6843 0.0
2.2534 -2.6843 0.0
2.3311 -2.6843 0.0
2.4088 -2.6843 0.0
2.4865 -2.6843 0.0
2.5642 -2.6843 0.0
2.6419 -2.6843 0.0
2.7196 -2.6843 0.0
2.7973 -2.6843 0.0
2.8751 -2.6843 0.0
2.9528 -2.6843 0.0
0 -2.8185 0.0
0.1554 -2.8185 0.0
0.3108 -2.8185 0.0
0.4662 -2.8185 0.0
0.6216 -2.8185 0.0
0.777 -2.8185 0.0
0.9324 -2.8185 0.0
1.0879 -2.8185 0.0
1.2433 -2.8185 0.0
1.3987 -2.8185 0.0
1.5541 -2.8185 0.0
1.7095 -2.8185 0.0
1.8649 -2.8185 0.0
2.0203 -2.8185 0.0
2.1757 -2.8185 0.0
2.3311 -2.8185 0.0
2.4865 -2.8185 0.0
2.6419 -2.8185 0.0
2.7973 -2.8185 0.0
2.9528 -2.8185 0.0
0 -2.9528 0.0
0.0777 -2.9528 0.0
0.1554 -2.9528 0.0
0.2331 -2.9528 0.0
0.3108 -2.9528 0.0
0.3885 -2.9528 0.0
0.4662 -2.9528 0.0
0.5439 -2.9528 0.0
0.6216 -2.9528 0.0
0.6993 -2.9528 0.0
0.777 -2.9528 0.0
0.8547 -2.9528 0.0
0.9324 -2.9528 0.0
1.0102 -2.9528 0.0
1.0879 -2.9528 0.0
1.1656 -2.9528 0.0
1.2433 -2.9528 0.0
1.321 -2.9528 0.0
1.3987 -2.9528 0.0
1.4764 -2.9528 0.0
1.5541 -2.9528 0.0
1.6318 -2.9528 0.0
1.7095 -2.9528 0.0
1.7872 -2.9528 0.0
1.8649 -2.9528 0.0
1.9426 -2.9528 0.0
2.0203 -2.9528 0.0
2.098 -2.9528 0.0
2.1757 -2.9528 0.0
2.2534 -2.9528 0.0
2.3311 -2.9528 0.0
2.4088 -2.9528 0.0
2.4865 -2.9528 0.0
2.5642 -2.9528 0.0
2.6419 -2.9528 0.0
2.7196 -2.9528 0.0
2.7973 -2.9528 0.0
2.8751 -2.9528 0.0
2.9528 -2.9528 0.0
0 -3.087 0.0
0.1554 -3.087 0.0
0.3108 -3.087 0.0
0.4662 -3.087 0.0
0.6216 -3.087 0.0
0.777 -3.087 0.0
0.9324 -3.087 0.0
1.0879 -3.087 0.0
1.2433 -3.087 0.0
1.3987 -3.087 0.0
1.5541 -3.087 0.0
1.7095 -3.087 0.0
1.8649 -3.087 0.0
2.0203 -3.087 0.0
2.1757 -3.087 0.0
2.3311 -3.087 0.0
2.4865 -3.087 0.0
2.6419 -3.087 0.0
2.7973 -3.087 0.0
2.9528 -3.087 0.0
0 -3.2212 0.0
0.0777 -3.2212 0.0
0.1554 -3.2212 0.0
0.2331 -3.2212 0.0
0.3108 -3.2212 0.0
0.3885 -3.2212 0.0
0.4662 -3.2212 0.0
0.5439 -3.2212 0.0
0.6216 -3.2212 0.0
0.6993 -3.2212 0.0
0.777 -3.2212 0.0
0.8547 -3.2212 0.0
0.9324 -3.2212 0.0
1.0102 -3.2212 0.0
1.0879 -3.2212 0.0
1.1656 -3.2212 0.0
1.2433 -3.2212 0.0
1.321 -3.2212 0.0
1.3987 -3.2212 0.0
1.4764 -3.2212 0.0
1.5541 -3.2212 0.0
1.6318 -3.2212 0.0
1.7095 -3.2212 0.0
1.7872 -3.2212 0.0
1.8649 -3.2212 0.0
1.9426 -3.2212 0.0
2.0203 -3.2212 0.0
2.098 -3.2212 0.0
2.1757 -3.2212 0.0
2.2534 -3.2212 0.0
2.3311 -3.2212 0.0
2.4088 -3.2212 0.0
2.4865 -3.2212 0.0
2.5642 -3.2212 0.0
2.6419 -3.2212 0.0
2.7196 -3.2212 0.0
2.7973 -3.2212 0.0
2.8751 -3.2212 0.0
2.9528 -3.2212 0.0
0 -3.3554 0.0
0.1554 -3.3554 0.0
0.3108 -3.3554 0.0
0.4662 -3.3554 0.0
0.6216 -3.3554 0.0
0.777 -3.3554 0.0
0.9324 -3.3554 0.0
1.0879 -3.3554 0.0
1.2433 -3.3554 0.0
1.3987 -3.3554 0.0
1.5541 -3.3554 0.0
1.7095 -3.3554 0.0
1.8649 -3.3554 0.0
2.0203 -3.3554 0.0
2.1757 -3.3554 0.0
2.3311 -3.3554 0.0
2.4865 -3.3554 0.0
2.6419 -3.3554 0.0
2.7973 -3.3554 0.0
2.9528 -3.3554 0.0
0 -3.4896 0.0
0.0777 -3.4896 0.0
0.1554 -3.4896 0.0
0.2331 -3.4896 0.0
0.3108 -3.4896 0.0
0.3885 -3.4896 0.0
0.4662 -3.4896 0.0
0.5439 -3.4896 0.0
0.6216 -3.4896 0.0
0.6993 -3.4896 0.0
0.777 -3.4896 0.0
0.8547 -3.4896 0.0
0.9324 -3.4896 0.0
1.0102 -3.4896 0.0
1.0879 -3.4896 0.0
1.1656 -3.4896 0.0
1.2433 -3.4896 0.0
1.321 -3.4896 0.0
1.3987 -3.4896 0.0
1.4764 -3.4896 0.0
1.5541 -3.4896 0.0
1.6318 -3.4896 0.0
1.7095 -3.4896 0.0
1.7872 -3.4896 0.0
1.8649 -3.4896 0.0
1.9426 -3.4896 0.0
2.0203 -3.4896 0.0
2.098 -3.4896 0.0
2.1757 -3.4896 0.0
2.2534 -3.4896 0.0
2.3311 -3.4896 0.0
2.4088 -3.4896 0.0
2.4865 -3.4896 0.0
2.5642 -3.4896 0.0
2.6419 -3.4896 0.0
2.7196 -3.4896 0.0
2.7973 -3.4896 0.0
2.8751 -3.4896 0.0
2.9528 -3.4896 0.0
0 -3.6238 0.0
0.1554 -3.6238 0.0
0.3108 -3.6238 0.0
0.4662 -3.6238 0.0
0.6216 -3.6238 0.0
0.777 -3.6238 0.0
0.9324 -3.6238 0.0
1.0879 -3.6238 0.0
1.2433 -3.6238 0.0
1.3987 -3.6238 0.0
1.5541 -3.6238 0.0
1.7095 -3.6238 0.0
1.8649 -3.6238 0.0
2.0203 -3.6238 0.0
2.1757 -3.6238 0.0
2.3311 -3.6238 0.0
2.4865 -3.6238 0.0
2.6419 -3.6238 0.0
2.7973 -3.6238 0.0
2.9528 -3.6238 0.0
0 -3.7581 0.0
0.0777 -3.7581 0.0
0.1554 -3.7581 0.0
0.2331 -3.7581 0.0
0.3108 -3.7581 0.0
0.3885 -3.7581 0.0
0.4662 -3.7581 0.0
0.5439 -3.7581 0.0
0.6216 -3.7581 0.0
0.6993 -3.7581 0.0
0.777 -3.7581 0.0
0.8547 -3.7581 0.0
0.9324 -3.7581 0.0
1.0102 -3.7581 0.0
1.0879 -3.7581 0.0
1.1656 -3.7581 0.0
1.2433 -3.7581 0.0
1.321 -3.7581 0.0
1.3987 -3.7581 0.0
1.4764 -3.7581 0.0
1.5541 -3.7581 0.0
1.6318 -3.7581 0.0
1.7095 -3.7581 0.0
1.7872 -3.7581 0.0
1.8649 -3.7581 0.0
1.9426 -3.7581 0.0
2.0203 -3.7581 0.0
2.098 -3.7581 0.0
2.1757 -3.7581 0.0
2.2534 -3.7581 0.0
2.3311 -3.7581 0.0
2.4088 -3.7581 0.0
2.4865 -3.7581 0.0
2.5642 -3.7581 0.0
2.6419 -3.7581 0.0
2.7196 -3.7581 0.0
2.7973 -3.7581 0.0
2.8751 -3.7581 0.0
2.9528 -3.7581 0.0
0 -3.8923 0.0
0.1554 -3.8923 0.0
0.3108 -3.8923 0.0
0.4662 -3.8923 0.0
0.6216 -3.8923 0.0
0.777 -3.8923 0.0
0.9324 -3.8923 0.0
1.0879 -3.8923 0.0
1.2433 -3.8923 0.0
1.3987 -3.8923 0.0
1.5541 -3.8923 0.0
1.7095 -3.8923 0.0
1.8649 -3.8923 0.0
2.0203 -3.8923 0.0
2.1757 -3.8923 0.0
2.3311 -3.8923 0.0
2.4865 -3.8923 0.0
2.6419 -3.8923 0.0
2.7973 -3.8923 0.0
2.9528 -3.8923 0.0
0 -4.0265 0.0
0.0777 -4.0265 0.0
0.1554 -4.0265 0.0
0.2331 -4.0265 0.0
0.3108 -4.0265 0.0
0.3885 -4.0265 0.0
0.4662 -4.0265 0.0
0.5439 -4.0265 0.0
0.6216 -4.0265 0.0
0.6993 -4.0265 0.0
0.777 -4.0265 0.0
0.8547 -4.0265 0.0
0.9324 -4.0265 0.0
1.0102 -4.0265 0.0
1.0879 -4.0265 0.0
1.1656 -4.0265 0.0
1.2433 -4.0265 0.0
1.321 -4.0265 0.0
1.3987 -4.0265 0.0
1.4764 -4.0265 0.0
1.5541 -4.0265 0.0
1.6318 -4.0265 0.0
1.7095 -4.0265 0.0
1.7872 -4.0265 0.0
1.8649 -4.0265 0.0
1.9426 -4.0265 0.0
2.0203 -4.0265 0.0
2.098 -4.0265 0.0
2.1757 -4.0265 0.0
2.2534 -4.0265 0.0
2.3311 -4.0265 0.0
2.4088 -4.0265 0.0
2.4865 -4.0265 0.0
2.5642 -4.0265 0.0
2.6419 -4.0265 0.0
2.7196 -4.0265 0.0
2.7973 -4.0265 0.0
2.8751 -4.0265 0.0
2.9528 -4.0265 0.0
0 -4.1607 0.0
0.1554 -4.1607 0.0
0.3108 -4.1607 0.0
0.4662 -4.1607 0.0
0.6216 -4.1607 0.0
0.777 -4.1607 0.0
0.9324 -4.1607 0.0
1.0879 -4.1607 0.0
1.2433 -4.1607 0.0
1.3987 -4.1607 0.0
1.5541 -4.1607 0.0
1.7095 -4.1607 0.0
1.8649 -4.1607 0.0
2.0203 -4.1607 0.0
2.1757 -4.1607 0.0
2.3311 -4.1607 0.0
2.4865 -4.1607 0.0
2.6419 -4.1607 0.0
2.7973 -4.1607 0.0
2.9528 -4.1607 0.0
0 -4.2949 0.0
0.0777 -4.2949 0.0
0.1554 -4.2949 0.0
0.2331 -4.2949 0.0
0.3108 -4.2949 0.0
0.3885 -4.2949 0.0
0.4662 -4.2949 0.0
0.5439 -4.2949 0.0
0.6216 -4.2949 0.0
0.6993 -4.2949 0.0
0.777 -4.2949 0.0
0.8547 -4.2949 0.0
0.9324 -4.2949 0.0
1.0102 -4.2949 0.0
1.0879 -4.2949 0.0
1.1656 -4.2949 0.0
1.2433 -4.2949 0.0
1.321 -4.2949 0.0
1.3987 -4.2949 0.0
1.4764 -4.2949 0.0
1.5541 -4.2949 0.0
1.6318 -4.2949 0.0
1.7095 -4.2949 0.0
1.7872 -4.2949 0.0
1.8649 -4.2949 0.0
1.9426 -4.2949 0.0
2.0203 -4.2949 0.0
2.098 -4.2949 0.0
2.1757 -4.2949 0.0
2.2534 -4.2949 0.0
2.3311 -4.2949 0.0
2.4088 -4.2949 0.0
2.4865 -4.2949 0.0
2.5642 -4.2949 0.0
2.6419 -4.2949 0.0
2.7196 -4.2949 0.0
2.7973 -4.2949 0.0
2.8751 -4.2949 0.0
2.9528 -4.2949 0.0
0 -4.4291 0.0
0.1554 -4.4291 0.0
0.3108 -4.4291 0.0
0.4662 -4.4291 0.0
0.6216 -4.4291 0.0
0.777 -4.4291 0.0
0.9324 -4.4291 0.0
1.0879 -4.4291 0.0
1.2433 -4.4291 0.0
1.3987 -4.4291 0.0
1.5541 -4.4291 0.0
1.7095 -4.4291 0.0
1.8649 -4.4291 0.0
2.0203 -4.4291 0.0
2.1757 -4.4291 0.0
2.3311 -4.4291 0.0
2.4865 -4.4291 0.0
2.6419 -4.4291 0.0
2.7973 -4.4291 0.0
2.9528 -4.4291 0.0
0 -4.5634 0.0
0.0777 -4.5634 0.0
0.1554 -4.5634 0.0
0.2331 -4.5634 0.0
0.3108 -4.5634 0.0
0.3885 -4.5634 0.0
0.4662 -4.5634 0.0
0.5439 -4.5634 0.0
0.6216 -4.5634 0.0
0.6993 -4.5634 0.0
0.777 -4.5634 0.0
0.8547 -4.5634 0.0
0.9324 -4.5634 0.0
1.0102 -4.5634 0.0
1.0879 -4.5634 0.0
1.1656 -4.5634 0.0
1.2433 -4.5634 0.0
1.321 -4.5634 0.0
1.3987 -4.5634 0.0
1.4764 -4.5634 0.0
1.5541 -4.5634 0.0
1.6318 -4.5634 0.0
1.7095 -4.5634 0.0
1.7872 -4.5634 0.0
1.8649 -4.5634 0.0
1.9426 -4.5634 0.0
2.0203 -4.5634 0.0
2.098 -4.5634 0.0
2.1757 -4.5634 0.0
2.2534 -4.5634 0.0
2.3311 -4.5634 0.0
2.4088 -4.5634 0.0
2.4865 -4.5634 0.0
2.5642 -4.5634 0.0
2.6419 -4.5634 0.0
2.7196 -4.5634 0.0
2.7973 -4.5634 0.0
2.8751 -4.5634 0.0
2.9528 -4.5634 0.0
0 -4.6976 0.0
0.1554 -4.6976 0.0
0.3108 -4.6976 0.0
0.4662 -4.6976 0.0
0.6216 -4.6976 0.0
0.777 -4.6976 0.0
0.9324 -4.6976 0.0
1.0879 -4.6976 0.0
1.2433 -4.6976 0.0
1.3987 -4.6976 0.0
1.5541 -4.6976 0.0
1.7095 -4.6976 0.0
1.8649 -4.6976 0.0
2.0203 -4.6976 0.0
2.1757 -4.6976 0.0
2.3311 -4.6976 0.0
2.4865 -4.6976 0.0
2.6419 -4.6976 0.0
2.7973 -4.6976 0.0
2.9528 -4.6976 0.0
0 -4.8318 0.0
0.0777 -4.8318 0.0
0.1554 -4.8318 0.0
0.2331 -4.8318 0.0
0.3108 -4.8318 0.0
0.3885 -4.8318 0.0
0.4662 -4.8318 0.0
0.5439 -4.8318 0.0
0.6216 -4.8318 0.0
0.6993 -4.8318 0.0
0.777 -4.8318 0.0
0.8547 -4.8318 0.0
0.9324 -4.8318 0.0
1.0102 -4.8318 0.0
1.0879 -4.8318 0.0
1.1656 -4.8318 0.0
1.2433 -4.8318 0.0
1.321 -4.8318 0.0
1.3987 -4.8318 0.0
1.4764 -4.8318 0.0
1.5541 -4.8318 0.0
1.6318 -4.8318 0.0
1.7095 -4.8318 0.0
1.7872 -4.8318 0.0
1.8649 -4.8318 0.0
1.9426 -4.8318 0.0
2.0203 -4.8318 0.0
2.098 -4.8318 0.0
2.1757 -4.8318 0.0
2.2534 -4.8318 0.0
2.3311 -4.8318 0.0
2.4088 -4.8318 0.0
2.4865 -4.8318 0.0
2.5642 -4.8318 0.0
2.6419 -4.8318 0.0
2.7196 -4.8318 0.0
2.7973 -4.8318 0.0
2.8751 -4.8318 0.0
2.9528 -4.8318 0.0
0 -4.966 0.0
0.1554 -4.966 0.0
0.3108 -4.966 0.0
0.4662 -4.966 0.0
0.6216 -4.966 0.0
0.777 -4.966 0.0
0.9324 -4.966 0.0
1.0879 -4.966 0.0
1.2433 -4.966 0.0
1.3987 -4.966 0.0
1.5541 -4.966 0.0
1.7095 -4.966 0.0
1.8649 -4.966 0.0
2.0203 -4.966 0.0
2.1757 -4.966 0.0
2.3311 -4.966 0.0
2.4865 -4.966 0.0
2.6419 -4.966 0.0
2.7973 -4.966 0.0
2.9528 -4.966 0.0
0 -5.1002 0.0
0.0777 -5.1002 0.0
0.1554 -5.1002 0.0
0.2331 -5.1002 0.0
0.3108 -5.1002 0.0
0.3885 -5.1002 0.0
0.4662 -5.1002 0.0
0.5439 -5.1002 0.0
0.6216 -5.1002 0.0
0.6993 -5.1002 0.0
0.777 -5.1002 0.0
0.8547 -5.1002 0.0
0.9324 -5.1002 0.0
1.0102 -5.1002 0.0
1.0879 -5.1002 0.0
1.1656 -5.1002 0.0
1.2433 -5.1002 0.0
1.321 -5.1002 0.0
1.3987 -5.1002 0.0
1.4764 -5.1002 0.0
1.5541 -5.1002 0.0
1.6318 -5.1002 0.0
1.7095 -5.1002 0.0
1.7872 -5.1002 0.0
1.8649 -5.1002 0.0
1.9426 -5.1002 0.0
2.0203 -5.1002 0.0
2.098 -5.1002 0.0
2.1757 -5.1002 0.0
2.2534 -5.1002 0.0
2.3311 -5.1002 0.0
2.4088 -5.1002 0.0
2.4865 -5.1002 0.0
2.5642 -5.1002 0.0
2.6419 -5.1002 0.0
2.7196 -5.1002 0.0
2.7973 -5.1002 0.0
2.8751 -5.1002 0.0
2.9528 -5.1002 0.0
0 -5.2344 0.0
0.1554 -5.2344 0.0
0.3108 -5.2344 0.0
0.4662 -5.2344 0.0
0.6216 -5.2344 0.0
0.777 -5.2344 0.0
0.9324 -5.2344 0.0
1.0879 -5.2344 0.0
1.2433 -5.2344 0.0
1.3987 -5.2344 0.0
1.5541 -5.2344 0.0
1.7095 -5.2344 0.0
1.8649 -5.2344 0.0
2.0203 -5.2344 0.0
2.1757 -5.2344 0.0
2.3311 -5.2344 0.0
2.4865 -5.2344 0.0
2.6419 -5.2344 0.0
2.7973 -5.2344 0.0
2.9528 -5.2344 0.0
0 -5.3686 0.0
0.0777 -5.3686 0.0
0.1554 -5.3686 0.0
0.2331 -5.3686 0.0
0.3108 -5.3686 0.0
0.3885 -5.3686 0.0
0.4662 -5.3686 0.0
0.5439 -5.3686 0.0
0.6216 -5.3686 0.0
0.6993 -5.3686 0.0
0.777 -5.3686 0.0
0.8547 -5.3686 0.0
0.9324 -5.3686 0.0
1.0102 -5.3686 0.0
1.0879 -5.3686 0.0
1.1656 -5.3686 0.0
1.2433 -5.3686 0.0
1.321 -5.3686 0.0
1.3987 -5.3686 0.0
1.4764 -5.3686 0.0
1.5541 -5.3686 0.0
1.6318 -5.3686 0.0
1.7095 -5.3686 0.0
1.7872 -5.3686 0.0
1.8649 -5.3686 0.0
1.9426 -5.3686 0.0
2.0203 -5.3686 0.0
2.098 -5.3686 0.0
2.1757 -5.3686 0.0
2.2534 -5.3686 0.0
2.3311 -5.3686 0.0
2.4088 -5.3686 0.0
2.4865 -5.3686 0.0
2.5642 -5.3686 0.0
2.6419 -5.3686 0.0
2.7196 -5.3686 0.0
2.7973 -5.3686 0.0
2.8751 -5.3686 0.0
2.9528 -5.3686 0.0
0 -5.5029 0.0
0.1554 -5.5029 0.0
0.3108 -5.5029 0.0
0.4662 -5.5029 0.0
0.6216 -5.5029 0.0
0.777 -5.5029 0.0
0.9324 -5.5029 0.0
1.0879 -5.5029 0.0
1.2433 -5.5029 0.0
1.3987 -5.5029 0.0
1.5541 -5.5029 0.0
1.7095 -5.5029 0.0
1.8649 -5.5029 0.0
2.0203 -5.5029 0.0
2.1757 -5.5029 0.0
2.3311 -5.5029 0.0
2.4865 -5.5029 0.0
2.6419 -5.5029 0.0
2.7973 -5.5029 0.0
2.9528 -5.5029 0.0
0 -5.6371 0.0
0.0777 -5.6371 0.0
0.1554 -5.6371 0.0
0.2331 -5.6371 0.0
0.3108 -5.6371 0.0
0.3885 -5.6371 0.0
0.4662 -5.6371 0.0
0.5439 -5.6371 0.0
0.6216 -5.6371 0.0
0.6993 -5.6371 0.0
0.777 -5.6371 0.0
0.8547 -5.6371 0.0
0.9324 -5.6371 0.0
1.0102 -5.6371 0.0
1.0879 -5.6371 0.0
1.1656 -5.6371 0.0
1.2433 -5.6371 0.0
1.321 -5.6371 0.0
1.3987 -5.6371 0.0
1.4764 -5.6371 0.0
1.5541 -5.6371 0.0
1.6318 -5.6371 0.0
1.7095 -5.6371 0.0
1.7872 -5.6371 0.0
1.8649 -5.6371 0.0
1.9426 -5.6371 0.0
2.0203 -5.6371 0.0
2.098 -5.6371 0.0
2.1757 -5.6371 0.0
2.2534 -5.6371 0.0
2.3311 -5.6371 0.0
2.4088 -5.6371 0.0
2.4865 -5.6371 0.0
2.5642 -5.6371 0.0
2.6419 -5.6371 0.0
2.7196 -5.6371 0.0
2.7973 -5.6371 0.0
2.8751 -5.6371 0.0
2.9528 -5.6371 0.0
0 -5.7713 0.0
0.1554 -5.7713 0.0
0.3108 -5.7713 0.0
0.4662 -5.7713 0.0
0.6216 -5.7713 0.0
0.777 -5.7713 0.0
0.9324 -5.7713 0.0
1.0879 -5.7713 0.0
1.2433 -5.7713 0.0
1.3987 -5.7713 0.0
1.5541 -5.7713 0.0
1.7095 -5.7713 0.0
1.8649 -5.7713 0.0
2.0203 -5.7713 0.0
2.1757 -5.7713 0.0
2.3311 -5.7713 0.0
2.4865 -5.7713 0.0
2.6419 -5.7713 0.0
2.7973 -5.7713 0.0
2.9528 -5.7713 0.0
0 -5.9055 0.0
0.0777 -5.9055 0.0
0.1554 -5.9055 0.0
0.2331 -5.9055 0.0
0.3108 -5.9055 0.0
0.3885 -5.9055 0.0
0.4662 -5.9055 0.0
0.5439 -5.9055 0.0
0.6216 -5.9055 0.0
0.6993 -5.9055 0.0
0.777 -5.9055 0.0
0.8547 -5.9055 0.0
0.9324 -5.9055 0.0
1.0102 -5.9055 0.0
1.0879 -5.9055 0.0
1.1656 -5.9055 0.0
1.2433 -5.9055 0.0
1.321 -5.9055 0.0
1.3987 -5.9055 0.0
1.4764 -5.9055 0.0
1.5541 -5.9055 0.0
1.6318 -5.9055 0.0
1.7095 -5.9055 0.0
1.7872 -5.9055 0.0
1.8649 -5.9055 0.0
1.9426 -5.9055 0.0
2.0203 -5.9055 0.0
2.098 -5.9055 0.0
2.1757 -5.9055 0.0
2.2534 -5.9055 0.0
2.3311 -5.9055 0.0
2.4088 -5.9055 0.0
2.4865 -5.9055 0.0
2.5642 -5.9055 0.0
2.6419 -5.9055 0.0
2.7196 -5.9055 0.0
2.7973 -5.9055 0.0
2.8751 -5.9055 0.0
2.9528 -5.9055 0.0

CELLS 418 3762
8 59 61  2  0 60 40  1 39
8 61 63  4  2 62 41  3 40
8 63 65  6  4 64 42  5 41
8 65 67  8  6 66 43  7 42
8 67 69 10  8 68 44  9 43
8 69 71 12 10 70 45 11 44
8 71 73 14 12 72 46 13 45
8 73 75 16 14 74 47 15 46
8 75 77 18 16 76 48 17 47
8 77 79 20 18 78 49 19 48
8 79 81 22 20 80 50 21 49
8 81 83 24 22 82 51 23 50
8 83 85 26 24 84 52 25 51
8 85 87 28 26 86 53 27 52
8 87 89 30 28 88 54 29 53
8 89 91 32 30 90 55 31 54
8 91 93 34 32 92 56 33 55
8 93 95 36 34 94 57 35 56
8 95 97 38 36 96 58 37 57
8 118 120  61  59 119  99  60  98
8 120 122  63  61 121 100  62  99
8 122 124  65  63 123 101  64 100
8 124 126  67  65 125 102  66 101
8 126 128  69  67 127 103  68 102
8 128 130  71  69 129 104  70 103
8 130 132  73  71 131 105  72 104
8 132 134  75  73 133 106  74 105
8 134 136  77  75 135 107  76 106
8 136 138  79  77 137 108  78 107
8 138 140  81  79 139 109  80 108
8 140 142  83  81 141 110  82 109
8 142 144  85  83 143 111  84 110
8 144 146  87  85 145 112  86 111
8 146 148  89  87 147 113  88 112
8 148 150  91  89 149 114  90 113
8 150 152  93  91 151 115  92 114
8 152 154  95  93 153 116  94 115
8 154 156  97  95 155 117  96 116
8 177 179 120 118 178 158 119 157
8 179 181 122 120 180 159 121 158
8 181 183 124 122 182 160 123 159
8 183 185 126 124 184 161 125 160
8 185 187 128 126 186 162 127 161
8 187 189 130 128 188 163 129 162
8 189 191 132 130 190 164 131 163
8 191 193 134 132 192 165 133 164
8 193 195 136 134 194 166 135 165
8 195 197 138 136 196 167 137 166
8 197 199 140 138 198 168 139 167
8 199 201 142 140 200 169 141 168
8 201 203 144 142 202 170 143 169
8 203 205 146 144 204 171 145 170
8 205 207 148 146 206 172 147 171
8 207 209 150 148 208 173 149 172
8 209 211 152 150 210 174 151 173
8 211 213 154 152 212 175 153 174
8 213 215 156 154 214 176 155 175
8 236 238 179 177 237 217 178 216
8 238 240 181 179 239 218 180 217
8 240 242 183 181 241 219 182 218
8 242 244 185 183 243 220 184 219
8 244 246 187 185 245 221 186 220
8 246 248 189 187 247 222 188 221
8 248 250 191 189 249 223 190 222
8 250 252 193 191 251 224 192 223
8 252 254 195 193 253 225 194 224
8 254 256 197 195 255 226 196 225
8 256 258 199 197 257 227 198 226
8 258 260 201 199 259 228 200 227
8 260 262 203 201 261 229 202 228
8 262 264 205 203 263 230 204 229
8 264 266 207 205 265 231 206 230
8 266 268 209 207 267 232 208 231
8 268 270 211 209 269 233 210 232
8 270 272 213 211 271 234 212 233
8 272 274 215 213 273 235 214 234
8 295 297 238 236 296 276 237 275
8 297 299 240 238 298 277 239 276
8 299 301 242 240 300 278 241 277
8 301 303 244 242 302 279 243 278
8 303 305 246 244 304 280 245 279
8 305 307 248 246 306 281 247 280
8 307 309 250 248 308 282 249 281
8 309 311 252 250 310 283 251 282
8 311 313 254 252 312 284 253 283
8 313 315 256 254 314 285 255 284
8 315 317 258 256 316 286 257 285
8 317 319 260 258 318 287 259 286
8 319 321 262 260 320 288 261 287
8 321 323 264 262 322 289 263 288
8 323 325 266 264 324 290 265 289
8 325 327 268 266 326 291 267 290
8 327 329 270 268 328 292 269 291
8 329 331 272 270 330 293 271 292
8 331 333 274 272 332 294 273 293
8 354 356 297 295 355 335 296 334
8 356 358 299 297 357 336 298 335
8 358 360 301 299 359 337 300 336
8 360 362 303 301 361 338 302 337
8 362 364 305 303 363 339 304 338
8 364 366 307 305 365 340 306 339
8 366 368 309 307 367 341 308 340
8 368 370 311 309 369 342 310 341
8 370 372 313 311 371 343 312 342
8 372 374 315 313 373 344 314 343
8 374 376 317 315 375 345 316 344
8 376 378 319 317 377 346 318 345
8 378 380 321 319 379 347 320 346
8 380 382 323 321 381 348 322 347
8 382 384 325 323 383 349 324 348
8 384 386 327 325 385 350 326 349
8 386 388 329 327 387 351 328 350
8 388 390 331 329 389 352 330 351
8 390 392 333 331 391 353 332 352
8 413 415 356 354 414 394 355 393
8 415 417 358 356 416 395 357 394
8 417 419 360 358 418 396 359 395
8 419 421 362 360 420 397 361 396
8 421 423 364 362 422 398 363 397
8 423 425 366 364 424 399 365 398
8 425 427 368 366 426 400 367 399
8 427 429 370 368 428 401 369 400
8 429 431 372 370 430 402 371 401
8 431 433 374 372 432 403 373 402
8 433 435 376 374 434 404 375 403
8 435 437 378 376 436 405 377 404
8 437 439 380 378 438 406 379 405
8 439 441 382 380 440 407 381 406
8 441 443 384 382 442 408 383 407
8 443 445 386 384 444 409 385 408
8 445 447 388 386 446 410 387 409
8 447 449 390 388 448 411 389 410
8 449 451 392 390 450 412 391 411
8 472 474 415 413 473 453 414 452
8 474 476 417 415 475 454 416 453
8 476 478 419 417 477 455 418 454
8 478 480 421 419 479 456 420 455
8 480 482 423 421 481 457 422 456
8 482 484 425 423 483 458 424 457
8 484 486 427 425 485 459 426 458
8 486 488 429 427 487 460 428 459
8 488 490 431 429 489 461 430 460
8 490 492 433 431 491 462 432 461
8 492 494 435 433 493 463 434 462
8 494 496 437 435 495 464 436 463
8 496 498 439 437 497 465 438 464
8 498 500 441 439 499 466 440 465
8 500 502 443 441 501 467 442 466
8 502 504 445 443 503 468 444 467
8 504 506 447 445 505 469 446 468
8 506 508 449 447 507 470 448 469
8 508 510 451 449 509 471 450 470
8 531 533 474 472 532 512 473 511
8 533 535 476 474 534 513 475 512
8 535 537 478 476 536 514 477 513
8 537 539 480 478 538 515 479 514
8 539 541 482 480 540 516 481 515
8 541 543 484 482 542 517 483 516
8 543 545 486 484 544 518 485 517
8 545 547 488 486 546 519 487 518
8 547 549 490 488 548 520 489 519
8 549 551 492 490 550 521 491 520
8 551 553 494 492 552 522 493 521
8 553 555 496 494 554 523 495 522
8 555 557 498 496 556 524 497 523
8 557 559 500 498 558 525 499 524
8 559 561 502 500 560 526 501 525
8 561 563 504 502 562 527 503 526
8 563 565 506 504 564 528 505 527
8 565 567 508 506 566 529 507 528
8 567 569 510 508 568 530 509 529
8 590 592 533 531 591 571 532 570
8 592 594 535 533 593 572 534 571
8 594 596 537 535 595 573 536 572
8 596 598 539 537 597 574 538 573
8 598 600 541 539 599 575 540 574
8 600 602 543 541 601 576 542 575
8 602 604 545 543 603 577 544 576
8 604 606 547 545 605 578 546 577
8 606 608 549 547 607 579 548 578
8 608 610 551 549 609 580 550 579
8 610 612 553 551 611 581 552 580
8 612 614 555 553 613 582 554 581
8 614 616 557 555 615 583 556 582
8 616 618 559 557 617 584 558 583
8 618 620 561 559 619 585 560 584
8 620 622 563 561 621 586 562 585
8 622 624 565 563 623 587 564 586
8 624 626 567 565 625 588 566 587
8 626 628 569 567 627 589 568 588
8 649 651 592 590 650 630 591 629
8 651 653 594 592 652 631 593 630
8 653 655 596 594 654 632 595 631
8 655 657 598 596 656 633 597 632
8 657 659 600 598 658 634 599 633
8 659 661 602 600 660 635 601 634
8 661 663 604 602 662 636 603 635
8 663 665 606 604 664 637 605 636
8 665 667 608 606 666 638 607 637
8 667 669 610 608 668 639 609 638
8 669 671 612 610 670 640 611 639
8 671 673 614 612 672 641 613 640
8 673 675 616 614 674 642 615 641
8 675 677 618 616 676 643 617 642
8 677 679 620 618 678 644 619 643
8 679 681 622 620 680 645 621 644
8 681 683 624 622 682 646 623 645
8 683 685 626 624 684 647 625 646
8 685 687 628 626 686 648 627 647
8 708 710 651 649 709 689 650 688
8 710 712 653 651 711 690 652 689
8 712 714 655 653 713 691 654 690
8 714 716 657 655 715 692 656 691
8 716 718 659 657 717 693 658 692
8 718 720 661 659 719 694 660 693
8 720 722 663 661 721 695 662 694
8 722 724 665 663 723 696 664 695
8 724 726 667 665 725 697 666 696
8 726 728 669 667 727 698 668 697
8 728 730 671 669 729 699 670 698
8 730 732 673 671 731 700 672 699
8 732 734 675 673 733 701 674 700
8 734 736 677 675 735 702 676 701
8 736 738 679 677 737 703 678 702
8 738 740 681 679 739 704 680 703
8 740 742 683 681 741 705 682 704
8 742 744 685 683 743 706 684 705
8 744 746 687 685 745 707 686 706
8 767 769 710 708 768 748 709 747
8 769 771 712 710 770 749 711 748
8 771 773 714 712 772 750 713 749
8 773 775 716 714 774 751 715 750
8 775 777 718 716 776 752 717 751
8 777 779 720 718 778 753 719 752
8 779 781 722 720 780 754 721 753
8 781 783 724 722 782 755 723 754
8 783 785 726 724 784 756 725 755
8 785 787 728 726 786 757 727 756
8 787 789 730 728 788 758 729 757
8 789 791 732 730 790 759 731 758
8 791 793 734 732 792 760 733 759
8 793 795 736 734 794 761 735 760
8 795 797 738 736 796 762 737 761
8 797 799 740 738 798 763 739 762
8 799 801 742 740 800 764 741 763
8 801 803 744 742 802 765 743 764
8 803 805 746 744 804 766 745 765
8 826 828 769 767 827 807 768 806
8 828 830 771 769 829 808 770 807
8 830 832 773 771 831 809 772 808
8 832 834 775 773 833 810 774 809
8 834 836 777 775 835 811 776 810
8 836 838 779 777 837 812 778 811
8 838 840 781 779 839 813 780 812
8 840 842 783 781 841 814 782 813
8 842 844 785 783 843 815 784 814
8 844 846 787 785 845 816 786 815
8 846 848 789 787 847 817 788 816
8 848 850 791 789 849 818 790 817
8 850 852 793 791 851 819 792 818
8 852 854 795 793 853 820 794 819
8 854 856 797 795 855 821 796 820
8 856 858 799 797 857 822 798 821
8 858 860 801 799 859 823 800 822
8 860 862 803 801 861 824 802 823
8 862 864 805 803 863 825 804 824
8 885 887 828 826 886 866 827 865
8 887 889 830 828 888 867 829 866
8 889 891 832 830 890 868 831 867
8 891 893 834 832 892 869 833 868
8 893 895 836 834 894 870 835 869
8 895 897 838 836 896 871 837 870
8 897 899 840 838 898 872 839 871
8 899 901 842 840 900 873 841 872
8 901 903 844 842 902 874 843 873
8 903 905 846 844 904 875 845 874
8 905 907 848 846 906 876 847 875
8 907 909 850 848 908 877 849 876
8 909 911 852 850 910 878 851 877
8 911 913 854 852 912 879 853 878
8 913 915 856 854 914 880 855 879
8 915 917 858 856 916 881 857 880
8 917 919 860 858 918 882 859 881
8 919 921 862 860 920 883 861 882
8 921 923 864 862 922 884 863 883
8 944 946 887 885 945 925 886 924
8 946 948 889 887 947 926 888 925
8 948 950 891 889 949 927 890 926
8 950 952 893 891 951 928 892 927
8 952 954 895 893 953 929 894 928
8 954 956 897 895 955 930 896 929
8 956 958 899 897 957 931 898 930
8 958 960 901 899 959 932 900 931
8 960 962 903 901 961 933 902 932
8 962 964 905 903 963 934 904 933
8 964 966 907 905 965 935 906 934
8 966 968 909 907 967 936 908 935
8 968 970 911 909 969 937 910 936
8 970 972 913 911 971 938 912 937
8 972 974 915 913 973 939 914 938
8 974 976 917 915 975 940 916 939
8 976 978 919 917 977 941 918 940
8 978 980 921 919 979 942 920 941
8 980 982 923 921 981 943 922 942
8 1003 1005  946  944 1004  984  945  983
8 1005 1007  948  946 1006  985  947  984
8 1007 1009  950  948 1008  986  949  985
8 1009 1011  952  950 1010  987  951  986
8 1011 1013  954  952 1012  988  953  987
8 1013 1015  956  954 1014  989  955  988
8 1015 1017  958  956 1016  990  957  989
8 1017 1019  960  958 1018  991  959  990
8 1019 1021  962  960 1020  992  961  991
8 1021 1023  964  962 1022  993  963  992
8 1023 1025  966  964 1024  994  965  993
8 1025 1027  968  966 1026  995  967  994
8 1027 1029  970  968 1028  996  969  995
8 1029 1031  972  970 1030  997  971  996
8 1031 1033  974  972 1032  998  973  997
8 1033 1035  976  974 1034  999  975  998
8 1035 1037  978  976 1036 1000  977  999
8 1037 1039  980  978 1038 1001  979 1000
8 1039 1041  982  980 1040 1002  981 1001
8 1062 1064 1005 1003 1063 1043 1004 1042
8 1064 1066 1007 1005 1065 1044 1006 1043
8 1066 1068 1009 1007 1067 1045 1008 1044
8 1068 1070 1011 1009 1069 1046 1010 1045
8 1070 1072 1013 1011 1071 1047 1012 1046
8 1072 1074 1015 1013 1073 1048 1014 1047
8 1074 1076 1017 1015 1075 1049 1016 1048
8 1076 1078 1019 1017 1077 1050 1018 1049
8 1078 1080 1021 1019 1079 1051 1020 1050
8 1080 1082 1023 1021 1081 1052 1022 1051
8 1082 1084 1025 1023 1083 1053 1024 1052
8 1084 1086 1027 1025 1085 1054 1026 1053
8 1086 1088 1029 1027 1087 1055 1028 1054
8 1088 1090 1031 1029 1089 1056 1030 1055
8 1090 1092 1033 1031 1091 1057 1032 1056
8 1092 1094 1035 1033 1093 1058 1034 1057
8 1094 1096 1037 1035 1095 1059 1036 1058
8 1096 1098 1039 1037 1097 1060 1038 1059
8 1098 1100 1041 1039 1099 1061 1040 1060
8 1121 1123 1064 1062 1122 1102 1063 1101
8 1123 1125 1066 1064 1124 1103 1065 1102
8 1125 1127 1068 1066 1126 1104 1067 1103
8 1127 1129 1070 1068 1128 1105 1069 1104
8 1129 1131 1072 1070 1130 1106 1071 1105
8 1131 1133 1074 1072 1132 1107 1073 1106
8 1133 1135 1076 1074 1134 1108 1075 1107
8 1135 1137 1078 1076 1136 1109 1077 1108
8 1137 1139 1080 1078 1138 1110 1079 1109
8 1139 1141 1082 1080 1140 1111 1081 1110
8 1141 1143 1084 1082 1142 1112 1083 1111
8 1143 1145 1086 1084 1144 1113 1085 1112
8 1145 1147 1088 1086 1146 1114 1087 1113
8 1147 1149 1090 1088 1148 1115 1089 1114
8 1149 1151 1092 1090 1150 1116 1091 1115
8 1151 1153 1094 1092 1152 1117 1093 1116
8 1153 1155 1096 1094 1154 1118 1095 1117
8 1155 1157 1098 1096 1156 1119 1097 1118
8 1157 1159 1100 1098 1158 1120 1099 1119
8 1180 1182 1123 1121 1181 1161 1122 1160
8 1182 1184 1125 1123 1183 1162 1124 1161
8 1184 1186 1127 1125 1185 1163 1126 1162
8 1186 1188 1129 1127 1187 1164 1128 1163
8 1188 1190 1131 1129 1189 1165 1130 1164
8 1190 1192 1133 1131 1191 1166 1132 1165
8 1192 1194 1135 1133 1193 1167 1134 1166
8 1194 1196 1137 1135 1195 1168 1136 1167
8 1196 1198 1139 1137 1197 1169 1138 1168
8 1198 1200 1141 1139 1199 1170 1140 1169
8 1200 1202 1143 1141 1201 1171 1142 1170
8 1202 1204 1145 1143 1203 1172 1144 1171
8 1204 1206 1147 1145 1205 1173 1146 1172
8 1206 1208 1149 1147 1207 1174 1148 1173
8 1208 1210 1151 1149 1209 1175 1150 1174
8 1210 1212 1153 1151 1211 1176 1152 1175
8 1212 1214 1155 1153 1213 1177 1154 1176
8 1214 1216 1157 1155 1215 1178 1156 1177
8 1216 1218 1159 1157 1217 1179 1158 1178
8 1239 1241 1182 1180 1240 1220 1181 1219
8 1241 1243 1184 1182 1242 1221 1183 1220
8 1243 1245 1186 1184 1244 1222 1185 1221
8 1245 1247 1188 1186 1246 1223 1187 1222
8 1247 1249 1190 1188 1248 1224 1189 1223
8 1249 1251 1192 1190 1250 1225 1191 1224
8 1251 1253 1194 1192 1252 1226 1193 1225
8 1253 1255 1196 1194 1254 1227 1195 1226
8 1255 1257 1198 1196 1256 1228 1197 1227
8 1257 1259 1200 1198 1258 1229 1199 1228
8 1259 1261 1202 1200 1260 1230 1201 1229
8 1261 1263 1204 1202 1262 1231 1203 1230
8 1263 1265 1206 1204 1264 1232 1205 1231
8 1265 1267 1208 1206 1266 1233 1207 1232
8 1267 1269 1210 1208 1268 1234 1209 1233
8 1269 1271 1212 1210 1270 1235 1211 1234
8 1271 1273 1214 1212 1272 1236 1213 1235
8 1273 1275 1216 1214 1274 1237 1215 1236
8 1275 1277 1218 1216 1276 1238 1217 1237
8 1298 1300 1241 1239 1299 1279 1240 1278
8 1300 1302 1243 1241 1301 1280 1242 1279
8 1302 1304 1245 1243 1303 1281 1244 1280
8 1304 1306 1247 1245 1305 1282 1246 1281
8 1306 1308 1249 1247 1307 1283 1248 1282
8 1308 1310 1251 1249 1309 1284 1250 1283
8 1310 1312 1253 1251 1311 1285 1252 1284
8 1312 1314 1255 1253 1313 1286 1254 1285
8 1314 1316 1257 1255 1315 1287 1256 1286
8 1316 1318 1259 1257 1317 1288 1258 1287
8 1318 1320 1261 1259 1319 1289 1260 1288
8 1320 1322 1263 1261 1321 1290 1262 1289
8 1322 1324 1265 1263 1323 1291 1264 1290
8 1324 1326 1267 1265 1325 1292 1266 1291
8 1326 1328 1269 1267 1327 1293 1268 1292
8 1328 1330 1271 1269 1329 1294 1270 1293
8 1330 1332 1273 1271 1331 1295 1272 1294
8 1332 1334 1275 1273 1333 1296 1274 1295
8 1334 1336 1277 1275 1335 1297 1276 1296

CELL_TYPES 418
23
23
23
23
23
23
23
23
23
23
23
23
23
23
23
23
23
23
23
23
23
23
23
23
23
23
23
23
23
23
23
23
23
23
23
23
23
23
23
23
23
23
23
23
23
23
23
23
23
23
23
23
23
23
23
23
23
23
23
23
23
23
23
23
23
23
23
23
23
23
23
23
23
23
23
23
23
23
23
23
23
23
23
23
23
23
23
23
23
23
23
23
23
23
23
23
23
23
23
23
23
23
23
23
23
23
23
23
23
23
23
23
23
23
23
23
23
23
23
23
23
23
23
23
23
23
23
23
23
23
23
23
23
23
23
23
23
23
23
23
23
23
23
23
23
23
23
23
23
23
23
23
23
23
23
23
23
23
23
23
23
23
23
23
23
23
23
23
23
23
23
23
23
23
23
23
23
23
23
23
23
23
23
23
23
23
23
23
23
23
23
23
23
23
23
23
23
23
23
23
23
23
23
23
23
23
23
23
23
23
23
23
23
23
23
23
23
23
23
23
23
23
23
23
23
23
23
23
23
23
23
23
23
23
23
23
23
23
23
23
23
23
23
23
23
23
23
23
23
23
23
23
23
23
23
23
23
23
23
23
23
23
23
23
23
23
23
23
23
23
23
23
23
23
23
23
23
23
23
23
23
23
23
23
23
23
23
23
23
23
23
23
23
23
23
23
23
23
23
23
23
23
23
23
23
23
23
23
23
23
23
23
23
23
23
23
23
23
23
23
23
23
23
23
23
23
23
23
23
23
23
23
23
23
23
23
23
23
23
23
23
23
23
23
23
23
23
23
23
23
23
23
23
23
23
23
23
23
23
23
23
23
23
23
23
23
23
23
23
23
23
23
23
23
23
23
23
23
23
23
23
23
23
23
23
23
23
23
23
23
23
23
23
23
23
23
23
23
23
23
23
23
23
23
23
23
23
23
23
23
23
23
23
23
23
23
23
23

POINT_DATA 1337
SCALARS Displacement_R double 1
LOOKUP_TABLE default
0
8.10794e-06
1.62136e-05
2.43148e-05
3.24095e-05
4.04952e-05
4.85702e-05
5.66322e-05
6.46795e-05
7.271e-05
8.07224e-05
8.87146e-05
9.66858e-05
0.000104644
0.000112569
0.000120469
0.000128344
0.000136193
0.000144016
0.000151812
0.000159583
0.000167328
0.000175048
0.000182745
0.000190419
0.000198071
0.000205704
0.00021332
0.000220921
0.000228509
0.000236087
0.000243659
0.000251227
0.000258795
0.000266366
0.000273944
0.000281529
0.000289135
0.000296739
0
1.61731e-05
3.23311e-05
4.84596e-05
6.45446e-05
8.05738e-05
9.6536e-05
0.000112433
0.000128236
0.000143954
0.000159584
0.000175128
0.000190592
0.000205984
0.000221317
0.000236604
0.000251862
0.000267109
0.000282363
0.00029765
0
8.08372e-06
1.61657e-05
2.42444e-05
3.23183e-05
4.03856e-05
4.84451e-05
5.6495e-05
6.45343e-05
7.25611e-05
8.05747e-05
8.85734e-05
9.65568e-05
0.000104534
0.000112483
0.000120414
0.000128327
0.00013622
0.000144095
0.00015195
0.000159786
0.000167603
0.000175401
0.000183181
0.000190945
0.000198691
0.000206423
0.00021414
0.000221845
0.000229538
0.000237222
0.000244898
0.000252567
0.000260232
0.000267895
0.000275557
0.000283221
0.000290901
0.00029858
0
1.61872e-05
3.23626e-05
4.85147e-05
6.46325e-05
8.07062e-05
9.67268e-05
0.000112697
0.000128591
0.000144415
0.000160167
0.000175847
0.000191459
0.000207007
0.000222498
0.000237941
0.000253348
0.000268733
0.000284116
0.000299532
0
8.11659e-06
1.62317e-05
2.43441e-05
3.24523e-05
4.0555e-05
4.86509e-05
5.67387e-05
6.48172e-05
7.2885e-05
8.09414e-05
8.8985e-05
9.70151e-05
0.000105041
0.000113041
0.000121025
0.000128993
0.000136943
0.000144877
0.000152792
0.00016069
0.00016857
0.000176432
0.000184277
0.000192104
0.000199916
0.000207711
0.000215491
0.000223258
0.000231011
0.000238753
0.000246485
0.000254209
0.000261926
0.000269639
0.000277352
0.000285067
0.0002928
0.000300536
0
1.62963e-05
3.25817e-05
4.88455e-05
6.50772e-05
8.12674e-05
9.74071e-05
0.000113499
0.000129516
0.000145464
0.00016134
0.000177141
0.000192869
0.000208527
0.00022412
0.000239656
0.000255149
0.000270614
0.000286076
0.00030158
0
8.1892e-06
1.63769e-05
2.45619e-05
3.27427e-05
4.0918e-05
4.90864e-05
5.72466e-05
6.53975e-05
7.35375e-05
8.16658e-05
8.9781e-05
9.78823e-05
0.000105979
0.000114049
0.000122102
0.000130138
0.000138155
0.000146154
0.000154133
0.000162093
0.000170033
0.000177953
0.000185853
0.000193734
0.000201596
0.000209439
0.000217264
0.000225072
0.000232865
0.000240643
0.000248409
0.000256165
0.000263914
0.000271658
0.000279401
0.000287147
0.000294912
0.00030268
0
1.64714e-05
3.29312e-05
4.93679e-05
6.57703e-05
8.21279e-05
9.84305e-05
0.00011468
0.000130847
0.000146935
0.00016294
0.00017886
0.000194692
0.000210441
0.00022611
0.000241711
0.000257257
0.000272769
0.000288275
0.000303821
0
8.2893e-06
1.6577e-05
2.48616e-05
3.31416e-05
4.14155e-05
4.96817e-05
5.79387e-05
6.61852e-05
7.44197e-05
8.26408e-05
9.08472e-05
9.90376e-05
0.000107221
0.000115376
0.000123511
0.000131626
0.00013972
0.000147792
0.00015584
0.000163866
0.000171868
0.000179846
0.0001878
0.00019573
0.000203637
0.000211521
0.000219383
0.000227224
0.000235046
0.00024285
0.000250639
0.000258415
0.000266181
0.00027394
0.000281697
0.000289457
0.000297232
0.00030501
0
1.66919e-05
3.33705e-05
5.00228e-05
6.6636e-05
8.31975e-05
9.96955e-05
0.00011613
0.000132469
0.000148715
0.000164861
0.000180903
0.00019684
0.000212673
0.000228408
0.000244056
0.000259635
0.000275167
0.000290684
0.00030623
0
8.40796e-06
1.6814e-05
2.52167e-05
3.36139e-05
4.20041e-05
5.03855e-05
5.87564e-05
6.7115e-05
7.54596e-05
8.37888e-05
9.21007e-05
0.000100394
0.000108678
0.000116929
0.000125157
0.000133361
0.00014154
0.000149692
0.000157817
0.000165914
0.000173982
0.000182021
0.00019003
0.000198011
0.000205962
0.000213885
0.000221781
0.000229651
0.000237496
0.000245319
0.000253122
0.000260908
0.00026868
0.000276441
0.000284197
0.000291951
0.000299719
0.000307486
0
1.69417e-05
3.38682e-05
5.07644e-05
6.76154e-05
8.44065e-05
0.000101124
0.000117764
0.000134294
0.000150714
0.000167014
0.000183188
0.000199233
0.000215151
0.000230946
0.000246632
0.000262226
0.000277753
0.000293246
0.000308755
0
8.53756e-06
1.7073e-05
2.56044e-05
3.41298e-05
4.26471e-05
5.11543e-05
5.96495e-05
6.81307e-05
7.65958e-05
8.5043e-05
9.34703e-05
0.000101876
0.000110269
0.000118626
0.000126956
0.000135257
0.000143528
0.000151768
0.000159976
0.00016815
0.000176289
0.000184393
0.000192462
0.000200495
0.000208493
0.000216456
0.000224384
0.00023228
0.000240145
0.000247981
0.00025579
0.000263576
0.000271342
0.000279092
0.00028683
0.000294563
0.000302305
0.000310042
0
1.7206e-05
3.4395e-05
5.15498e-05
6.86536e-05
8.56895e-05
0.000102641
0.000119503
0.000136238
0.000152845
0.00016931
0.000185626
0.000201787
0.000217792
0.000233645
0.000249358
0.000264951
0.000280449
0.000295887
0.000311319
0
8.67065e-06
1.73389e-05
2.60029e-05
3.466e-05
4.33084e-05
5.19454e-05
6.05692e-05
6.91772e-05
7.77675e-05
8.63376e-05
9.48855e-05
0.000103409
0.000111917
0.000120385
0.000128822
0.000137227
0.000145597
0.00015393
0.000162226
0.000170482
0.000178698
0.000186873
0.000195004
0.000203093
0.000211139
0.000219143
0.000227104
0.000235024
0.000242905
0.000250749
0.000258557
0.000266335
0.000274084
0.000281809
0.000289516
0.00029721
0.000304906
0.000312592
0
1.74692e-05
3.49201e-05
5.23339e-05
6.96922e-05
8.69761e-05
0.000104167
0.000121257
0.000138207
0.00015501
0.000171651
0.000188118
0.000204401
0.000220497
0.000236407
0.000252141
0.000267717
0.000283162
0.000298513
0.000313829
0
8.7987e-06
1.75949e-05
2.63865e-05
3.5171e-05
4.39461e-05
5.27093e-05
6.14584e-05
7.01906e-05
7.89039e-05
8.75955e-05
9.62632e-05
0.000104904
0.000113527
0.000122108
0.000130655
0.000139165
0.000147637
0.000156068
0.000164456
0.0001728
0.000181096
0.000189345
0.000197544
0.000205692
0.000213789
0.000221835
0.00022983
0.000237774
0.000245669
0.000253516
0.000261319
0.000269079
0.000276801
0.000284489
0.000292149
0.000299787
0.000307419
0.000315033
0
1.77124e-05
3.54059e-05
5.30614e-05
7.06594e-05
8.81798e-05
0.000105602
0.000122917
0.00014008
0.000157083
0.000173906
0.000190532
0.000206945
0.000223138
0.000239107
0.000254857
0.000270404
0.000285774
0.000301007
0.000316163
0
8.91085e-06
1.78192e-05
2.67231e-05
3.56198e-05
4.45073e-05
5.33828e-05
6.22442e-05
7.10887e-05
7.9914e-05
8.87172e-05
9.7496e-05
0.000106247
0.00011498
0.000123668
0.000132321
0.000140935
0.000149508
0.000158036
0.000166518
0.00017495
0.000183331
0.000191657
0.000199926
0.000208138
0.00021629
0.000224382
0.000232412
0.000240381
0.00024829
0.000256139
0.000263931
0.000271668
0.000279354
0.000286994
0.000294593
0.000302157
0.000309704
0.000317223
0
1.7911e-05
3.58041e-05
5.36607e-05
7.14619e-05
8.91874e-05
0.000106816
0.000124336
0.000141701
0.000158898
0.000175902
0.000192691
0.000209242
0.00022554
0.000241573
0.000257339
0.00027285
0.000288127
0.00030321
0.000318164
0
8.99338e-06
1.79845e-05
2.69716e-05
3.59521e-05
4.49243e-05
5.38855e-05
6.28338e-05
7.17663e-05
8.06809e-05
8.95747e-05
9.84453e-05
0.000107289
0.000116116
0.000124899
0.000133646
0.000142355
0.000151021
0.000159643
0.000168215
0.000176735
0.0001852
0.000193605
0.000201949
0.000210227
0.000218439
0.000226581
0.000234651
0.000242649
0.000250574
0.000258426
0.000266206
0.000273917
0.000281561
0.000289143
0.000296668
0.000304143
0.000311585
0.000318986
0
1.80341e-05
3.60529e-05
5.40406e-05
7.19801e-05
8.98527e-05
0.000107637
0.000125322
0.000142859
0.000160231
0.000177407
0.000194358
0.000211054
0.000227467
0.000243575
0.000259366
0.00027484
0.000290013
0.000304919
0.000319627
0
9.02871e-06
1.80557e-05
2.70795e-05
3.60983e-05
4.51105e-05
5.4114e-05
6.31072e-05
7.20876e-05
8.10534e-05
9.00018e-05
9.89307e-05
0.000107837
0.000116729
0.000125581
0.000134401
0.000143185
0.000151929
0.00016063
0.000169284
0.000177885
0.00018643
0.000194914
0.000203333
0.000211683
0.000219959
0.000228157
0.000236275
0.000244309
0.000252257
0.000260118
0.000267891
0.000275577
0.000283177
0.000290696
0.000298138
0.000305509
0.000312827
0.000320084
0
1.80423e-05
3.60743e-05
5.40849e-05
7.20611e-05
8.9988e-05
0.000107847
0.000125628
0.000143281
0.000160787
0.000178111
0.000195215
0.000212057
0.000228598
0.0002448
0.000260634
0.000276084
0.000291151
0.000305863
0.000320282
0
8.99499e-06
1.79891e-05
2.69815e-05
3.59712e-05
4.49573e-05
5.39385e-05
6.29138e-05
7.18814e-05
8.084e-05
8.97873e-05
9.87217e-05
0.00010764
0.000116552
0.000125431
0.000134285
0.000143111
0.000151904
0.00016066
0.000169375
0.000178042
0.000186657
0.000195213
0.000203705
0.000212127
0.000220473
0.000228736
0.000236912
0.000244994
0.000252978
0.00026086
0.000268636
0.000276306
0.000283869
0.000291326
0.00029868
0.000305938
0.000313117
0.000320207
0
1.78878e-05
3.57726e-05
5.36505e-05
7.15156e-05
8.93587e-05
0.000107167
0.000124934
0.000142611
0.000160181
0.000177603
0.000194832
0.000211816
0.000228497
0.000244819
0.000260728
0.000276184
0.000291163
0.000305674
0.00031977
0
8.86621e-06
1.77326e-05
2.65995e-05
3.54669e-05
4.4335e-05
5.32034e-05
6.20721e-05
7.09405e-05
7.98081e-05
8.86734e-05
9.75359e-05
0.000106393
0.000115255
0.000124096
0.000132925
0.000141737
0.00015053
0.000159298
0.000168037
0.000176739
0.000185401
0.000194012
0.000202568
0.000211059
0.000219477
0.000227813
0.00023606
0.000244206
0.000252245
0.000260169
0.00026797
0.000275644
0.000283185
0.000290593
0.000297867
0.000305011
0.00031204
0.000318946
0
1.75147e-05
3.50361e-05
5.25698e-05
7.01193e-05
8.76847e-05
0.000105261
0.00012285
0.00014041
0.000157925
0.000175357
0.000192653
0.000209753
0.000226581
0.000243054
0.000259087
0.000274602
0.000289538
0.000303868
0.000317621
0
8.61283e-06
1.72273e-05
2.58448e-05
3.44668e-05
4.30947e-05
5.17296e-05
6.03728e-05
6.90249e-05
7.76867e-05
8.63584e-05
9.50402e-05
0.000103731
0.000112442
0.000121149
0.000129862
0.000138577
0.000147292
0.000156001
0.000164702
0.000173386
0.000182049
0.00019068
0.000199274
0.000207817
0.000216302
0.000224713
0.000233042
0.000241272
0.000249393
0.000257389
0.000265249
0.000272961
0.000280514
0.000287901
0.000295117
0.000302162
0.000309044
0.000315753
0
1.68619e-05
3.37417e-05
5.06563e-05
6.76209e-05
8.46473e-05
0.000101743
0.000118921
0.00013615
0.000153426
0.000170714
0.000187968
0.000205117
0.000222072
0.000238723
0.000254944
0.000270603
0.00028558
0.000299788
0.000313208
0
8.20423e-06
1.64117e-05
2.46248e-05
3.2847e-05
4.10807e-05
4.9329e-05
5.75942e-05
6.5879e-05
7.41854e-05
8.25155e-05
9.08711e-05
9.92533e-05
0.000107674
0.000116112
0.000124578
0.00013307
0.000141589
0.000150129
0.000158689
0.000167263
0.000175846
0.000184428
0.000193003
0.000201556
0.000210079
0.000218553
0.000226966
0.000235296
0.000243526
0.000251634
0.000259601
0.000267404
0.000275025
0.000282447
0.000289653
0.000296633
0.00030339
0.000309913
0
1.5869e-05
3.17672e-05
4.77235e-05
6.37653e-05
7.99181e-05
9.62037e-05
0.00011265
0.000129246
0.000146001
0.0001629
0.000179908
0.000196963
0.000213969
0.000230795
0.000247269
0.00026319
0.000278348
0.000292557
0.000305704
0
7.61157e-06
1.52278e-05
2.28523e-05
3.049e-05
3.81446e-05
4.58208e-05
5.35224e-05
6.12538e-05
6.90186e-05
7.6821e-05
8.46642e-05
9.25521e-05
0.000100498
0.000108484
0.000116522
0.000124615
0.000132764
0.000140969
0.000149229
0.000157542
0.000165905
0.000174311
0.000182756
0.000191227
0.000199714
0.000208198
0.000216666
0.000225087
0.000233445
0.000241703
0.000249836
0.000257805
0.000265579
0.000273118
0.000280399
0.000287398
0.000294096
0.000300458
0
1.44834e-05
2.90056e-05
4.36055e-05
5.83218e-05
7.31927e-05
8.82553e-05
0.000103555
0.000119102
0.000134932
0.000151057
0.000167474
0.000184148
0.000201005
0.000217912
0.000234666
0.000250987
0.000266539
0.000280961
0.000293983
0
6.8125e-06
1.36307e-05
2.0459e-05
2.73035e-05
3.41689e-05
4.10612e-05
4.7985e-05
5.49466e-05
6.19505e-05
6.90032e-05
7.6109e-05
8.32747e-05
9.05137e-05
9.78142e-05
0.000105189
0.000112646
0.000120186
0.000127817
0.00013554
0.000143359
0.000151276
0.000159291
0.000167402
0.000175604
0.000183891
0.000192248
0.000200664
0.000209109
0.000217562
0.000225978
0.000234322
0.000242537
0.000250577
0.000258385
0.000265891
0.000273025
0.000279764
0.000286087
0
1.26708e-05
2.53859e-05
3.81902e-05
5.11296e-05
6.42511e-05
7.76039e-05
9.12475e-05
0.000105217
0.000119572
0.000134365
0.000149636
0.000165409
0.000181674
0.000198352
0.000215266
0.000232082
0.000248302
0.000263332
0.00027653
0
5.79786e-06
1.16018e-05
1.74163e-05
2.32482e-05
2.91022e-05
3.49852e-05
4.09019e-05
4.68597e-05
5.28633e-05
5.89209e-05
6.50373e-05
7.12212e-05
7.74858e-05
8.38248e-05
9.02511e-05
9.67758e-05
0.000103404
0.000110147
0.00011701
0.000124006
0.00013114
0.000138423
0.00014586
0.000153459
0.000161223
0.000169152
0.000177245
0.000185487
0.000193866
0.000202336
0.000210871
0.000219373
0.000227801
0.000236003
0.000243945
0.000251522
0.000258583
0.000264923
0
1.04288e-05
2.09013e-05
3.14623e-05
4.21581e-05
5.3038e-05
6.41552e-05
7.55755e-05
8.73492e-05
9.95566e-05
0.00011228
0.00012561
0.000139644
0.000154474
0.000170161
0.000186681
0.000203812
0.000220978
0.000237098
0.000251093
0
4.57462e-06
9.15475e-06
1.37446e-05
1.83503e-05
2.29762e-05
2.76286e-05
3.2312e-05
3.70335e-05
4.17974e-05
4.66118e-05
5.14812e-05
5.64148e-05
6.14239e-05
6.65065e-05
7.1674e-05
7.69395e-05
8.23085e-05
8.77967e-05
9.34103e-05
9.91685e-05
0.000105078
0.000111163
0.000117431
0.000123909
0.000130606
0.000137553
0.000144761
0.000152254
0.000160044
0.000168135
0.000176532
0.000185186
0.000194021
0.000202907
0.000211563
0.000219734
0.000227398
0.000234667
0
7.79024e-06
1.56169e-05
2.35176e-05
3.15317e-05
3.97014e-05
4.80736e-05
5.67071e-05
6.56524e-05
7.49891e-05
8.48075e-05
9.52209e-05
0.000106373
0.000118445
0.000131662
0.000146279
0.000162513
0.000180349
0.000198807
0.00021477
0
3.16931e-06
6.34275e-06
9.52347e-06
1.27161e-05
1.59238e-05
1.91515e-05
2.24026e-05
2.56822e-05
2.8994e-05
3.23439e-05
3.57355e-05
3.9176e-05
4.26738e-05
4.62285e-05
4.98488e-05
5.35454e-05
5.7323e-05
6.11955e-05
6.51682e-05
6.92597e-05
7.3476e-05
7.78432e-05
8.23676e-05
8.70868e-05
9.20078e-05
9.71852e-05
0.000102627
0.000108411
0.000114546
0.00012114
0.000128207
0.000135858
0.000144132
0.000153049
0.000162865
0.000172892
0.000182746
0.000189814
0
4.82561e-06
9.67492e-06
1.45724e-05
1.95436e-05
2.46162e-05
2.98209e-05
3.51961e-05
4.07764e-05
4.66156e-05
5.27781e-05
5.93495e-05
6.64493e-05
7.42516e-05
8.30194e-05
9.31573e-05
0.000105271
0.000120189
0.000138622
0.000160094
0
1.62543e-06
3.25299e-06
4.88441e-06
6.52201e-06
8.16761e-06
9.82358e-06
1.14919e-05
1.3175e-05
1.4875e-05
1.65947e-05
1.83364e-05
2.01031e-05
2.18999e-05
2.37257e-05
2.5586e-05
2.74848e-05
2.94262e-05
3.14151e-05
3.34568e-05
3.55575e-05
3.77244e-05
3.99659e-05
4.2292e-05
4.47155e-05
4.72506e-05
4.99188e-05
5.27412e-05
5.57584e-05
5.90015e-05
6.25531e-05
6.64662e-05
7.09176e-05
7.59747e-05
8.20327e-05
8.92763e-05
9.86551e-05
0.000109423
0.000124845
0
1.63955e-06
3.28709e-06
4.95086e-06
6.63941e-06
8.36186e-06
1.01281e-05
1.19503e-05
1.38387e-05
1.58092e-05
1.78798e-05
2.00733e-05
2.24214e-05
2.49717e-05
2.78065e-05
3.10874e-05
3.51777e-05
4.09689e-05
5.08257e-05
7.1954e-05
0
0
0
0
0
0
0
0
0
0
0
0
0
0
0
0
0
0
0
0
0
0
0
0
0
0
0
0
0
0
0
0
0
0
0
0
0
0
0
SCALARS Displacement_Z double 1
LOOKUP_TABLE default
0.00181309
0.0018131
0.00181312
0.00181317
0.00181323
0.0018133
0.00181339
0.0018135
0.00181361
0.00181374
0.00181387
0.00181401
0.00181415
0.0018143
0.00181445
0.00181459
0.00181472
0.00181485
0.00181496
0.00181506
0.00181514
0.0018152
0.00181523
0.00181524
0.00181522
0.00181517
0.00181508
0.00181495
0.00181479
0.00181458
0.00181434
0.00181405
0.00181372
0.00181336
0.00181295
0.00181251
0.00181203
0.00181153
0.00181101
0.00177009
0.00177014
0.00177026
0.00177047
0.00177075
0.00177108
0.00177145
0.00177184
0.00177222
0.00177256
0.00177285
0.00177305
0.00177314
0.00177308
0.00177287
0.00177248
0.00177191
0.00177115
0.00177024
0.00176921
0.00172712
0.00172713
0.00172717
0.00172723
0.00172732
0.00172743
0.00172757
0.00172772
0.00172789
0.00172808
0.00172829
0.0017285
0.00172873
0.00172896
0.0017292
0.00172943
0.00172966
0.00172989
0.0017301
0.0017303
0.00173048
0.00173064
0.00173077
0.00173088
0.00173095
0.00173098
0.00173097
0.00173092
0.00173083
0.00173069
0.0017305
0.00173026
0.00172997
0.00172963
0.00172924
0.00172881
0.00172834
0.00172783
0.00172729
0.00168411
0.00168417
0.00168434
0.00168462
0.00168499
0.00168544
0.00168595
0.00168649
0.00168704
0.00168756
0.00168802
0.0016884
0.00168865
0.00168876
0.00168868
0.00168841
0.00168792
0.00168723
0.00168633
0.00168527
0.001641
0.00164101
0.00164106
0.00164114
0.00164125
0.00164139
0.00164156
0.00164176
0.00164198
0.00164222
0.00164248
0.00164276
0.00164305
0.00164335
0.00164366
0.00164397
0.00164428
0.00164459
0.00164488
0.00164517
0.00164543
0.00164567
0.00164589
0.00164607
0.00164622
0.00164634
0.0016464
0.00164643
0.0016464
0.00164632
0.00164619
0.001646
0.00164575
0.00164545
0.00164509
0.00164467
0.0016442
0.00164368
0.00164311
0.0015978
0.00159788
0.00159808
0.00159842
0.00159888
0.00159943
0.00160006
0.00160074
0.00160144
0.00160212
0.00160276
0.0016033
0.00160372
0.00160398
0.00160405
0.00160391
0.00160353
0.0016029
0.00160202
0.0016009
0.00155447
0.00155449
0.00155455
0.00155464
0.00155477
0.00155494
0.00155514
0.00155538
0.00155564
0.00155593
0.00155625
0.00155659
0.00155694
0.00155731
0.00155769
0.00155808
0.00155847
0.00155886
0.00155924
0.00155961
0.00155996
0.00156029
0.0015606
0.00156087
0.00156111
0.00156131
0.00156146
0.00156156
0.00156161
0.00156161
0.00156154
0.00156141
0.00156122
0.00156095
0.00156062
0.00156022
0.00155975
0.00155921
0.0015586
0.00151097
0.00151105
0.0015113
0.0015117
0.00151224
0.0015129
0.00151366
0.00151449
0.00151535
0.00151622
0.00151703
0.00151777
0.00151838
0.00151883
0.00151907
0.00151908
0.00151882
0.00151828
0.00151742
0.00151623
0.00146727
0.00146729
0.00146736
0.00146747
0.00146763
0.00146783
0.00146807
0.00146834
0.00146866
0.001469
0.00146938
0.00146978
0.00147021
0.00147066
0.00147112
0.0014716
0.00147208
0.00147256
0.00147304
0.00147351
0.00147397
0.0014744
0.00147481
0.00147519
0.00147553
0.00147584
0.00147609
0.00147629
0.00147644
0.00147652
0.00147654
0.00147648
0.00147635
0.00147614
0.00147585
0.00147548
0.00147501
0.00147446
0.00147381
0.00142337
0.00142347
0.00142376
0.00142423
0.00142487
0.00142566
0.00142657
0.00142758
0.00142863
0.0014297
0.00143075
0.00143172
0.00143256
0.00143324
0.0014337
0.00143391
0.0014338
0.00143336
0.00143255
0.00143133
0.00137922
0.00137924
0.00137932
0.00137945
0.00137964
0.00137987
0.00138015
0.00138048
0.00138085
0.00138126
0.00138171
0.00138219
0.0013827
0.00138325
0.00138381
0.00138438
0.00138497
0.00138557
0.00138617
0.00138676
0.00138734
0.00138791
0.00138845
0.00138896
0.00138943
0.00138986
0.00139024
0.00139057
0.00139084
0.00139103
0.00139115
0.00139119
0.00139115
0.00139101
0.00139078
0.00139044
0.00139
0.00138944
0.00138877
0.00133486
0.00133497
0.00133532
0.00133587
0.00133663
0.00133757
0.00133866
0.00133987
0.00134116
0.00134249
0.0013438
0.00134506
0.0013462
0.00134716
0.0013479
0.00134835
0.00134845
0.00134816
0.00134743
0.00134621
0.00129026
0.00129029
0.00129039
0.00129054
0.00129076
0.00129103
0.00129136
0.00129175
0.00129218
0.00129267
0.0012932
0.00129378
0.0012944
0.00129505
0.00129572
0.00129643
0.00129715
0.00129788
0.00129862
0.00129936
0.00130009
0.00130081
0.00130151
0.00130219
0.00130282
0.00130341
0.00130396
0.00130444
0.00130485
0.00130519
0.00130545
0.00130562
0.00130569
0.00130565
0.0013055
0.00130523
0.00130483
0.00130429
0.00130362
0.00124542
0.00124555
0.00124595
0.0012466
0.0012475
0.00124861
0.00124991
0.00125136
0.00125293
0.00125456
0.00125621
0.00125781
0.0012593
0.00126063
0.0012617
0.00126247
0.00126285
0.00126278
0.00126219
0.00126102
0.00120032
0.00120036
0.00120047
0.00120065
0.0012009
0.00120122
0.00120161
0.00120206
0.00120257
0.00120315
0.00120378
0.00120446
0.0012052
0.00120597
0.00120679
0.00120763
0.00120851
0.0012094
0.00121031
0.00121123
0.00121214
0.00121305
0.00121394
0.00121481
0.00121564
0.00121643
0.00121717
0.00121784
0.00121845
0.00121897
0.0012194
0.00121973
0.00121995
0.00122005
0.00122002
0.00121985
0.00121953
0.00121905
0.00121841
0.00115498
0.00115514
0.0011556
0.00115636
0.00115741
0.00115872
0.00116025
0.00116199
0.00116387
0.00116586
0.00116789
0.00116991
0.00117183
0.00117358
0.00117509
0.00117626
0.001177
0.00117723
0.00117686
0.0011758
0.00110936
0.0011094
0.00110953
0.00110974
0.00111003
0.0011104
0.00111085
0.00111138
0.00111198
0.00111265
0.00111339
0.00111419
0.00111505
0.00111597
0.00111694
0.00111795
0.001119
0.00112008
0.00112118
0.0011223
0.00112343
0.00112455
0.00112567
0.00112677
0.00112784
0.00112886
0.00112984
0.00113075
0.00113159
0.00113234
0.001133
0.00113354
0.00113396
0.00113424
0.00113437
0.00113434
0.00113414
0.00113376
0.00113318
0.00106354
0.00106372
0.00106426
0.00106514
0.00106635
0.00106786
0.00106966
0.00107171
0.00107395
0.00107634
0.00107881
0.0010813
0.00108373
0.001086
0.00108802
0.00108969
0.0010909
0.00109153
0.00109147
0.00109063
0.00101751
0.00101755
0.0010177
0.00101794
0.00101827
0.00101869
0.00101921
0.00101981
0.0010205
0.00102127
0.00102213
0.00102306
0.00102406
0.00102513
0.00102627
0.00102745
0.00102869
0.00102998
0.0010313
0.00103264
0.00103401
0.00103539
0.00103676
0.00103813
0.00103947
0.00104077
0.00104203
0.00104323
0.00104435
0.00104538
0.00104631
0.00104712
0.00104779
0.00104832
0.00104867
0.00104884
0.00104882
0.00104858
0.00104812
0.000971271
0.000971474
0.000972078
0.000973075
0.000974453
0.000976189
0.000978259
0.000980627
0.000983249
0.000986072
0.000989034
0.000992059
0.00099506
0.000997938
0.00100058
0.00100286
0.00100465
0.00100581
0.0010062
0.00100567
0.000924865
0.000924919
0.000925079
0.000925345
0.000925717
0.000926193
0.000926771
0.000927451
0.00092823
0.000929105
0.000930074
0.000931132
0.000932277
0.000933505
0.000934809
0.000936184
0.000937624
0.000939122
0.000940671
0.000942263
0.000943888
0.000945537
0.000947199
0.000948861
0.000950513
0.000952138
0.000953725
0.000955256
0.000956715
0.000958086
0.000959351
0.00096049
0.000961484
0.000962315
0.000962961
0.000963403
0.000963621
0.000963595
0.000963306
0.000878322
0.000878546
0.000879215
0.000880324
0.00088186
0.000883806
0.000886139
0.000888831
0.000891837
0.000895109
0.000898586
0.00090219
0.000905829
0.000909395
0.00091276
0.000915779
0.000918293
0.000920128
0.000921104
0.00092104
0.00083165
0.000831709
0.000831884
0.000832175
0.000832582
0.000833104
0.00083374
0.000834488
0.000835347
0.000836314
0.000837388
0.000838566
0.000839844
0.00084122
0.000842688
0.000844242
0.000845879
0.000847592
0.000849373
0.000851215
0.000853109
0.000855044
0.000857011
0.000858996
0.000860986
0.000862967
0.000864922
0.000866835
0.000868686
0.000870455
0.000872121
0.000873662
0.000875054
0.000876272
0.000877292
0.000878087
0.000878631
0.0008789
0.000878865
0.00078497
0.000785211
0.000785935
0.000787135
0.000788805
0.000790932
0.000793499
0.000796483
0.00079985
0.000803556
0.000807546
0.000811746
0.000816063
0.000820384
0.000824568
0.00082845
0.000831841
0.000834528
0.000836282
0.000836866
0.00073831
0.000738373
0.000738559
0.000738868
0.000739302
0.000739858
0.000740537
0.000741337
0.000742258
0.000743299
0.000744457
0.000745731
0.00074712
0.000748621
0.000750229
0.000751942
0.000753755
0.000755662
0.000757659
0.000759738
0.000761891
0.000764109
0.000766382
0.000768698
0.000771042
0.000773401
0.000775756
0.00077809
0.00078038
0.000782606
0.000784741
0.000786759
0.000788631
0.000790328
0.000791818
0.000793068
0.000794044
0.000794712
0.000795037
0.000691742
0.000691995
0.000692752
0.000694012
0.000695771
0.000698025
0.000700765
0.000703979
0.000707641
0.000711723
0.00071618
0.000720949
0.000725946
0.000731057
0.000736136
0.000741002
0.000745434
0.000749174
0.000751933
0.000753403
0.000645354
0.000645418
0.000645609
0.000645927
0.000646372
0.000646945
0.000647645
0.000648472
0.000649427
0.000650508
0.000651716
0.000653049
0.000654508
0.000656093
0.000657799
0.000659626
0.00066157
0.00066363
0.000665802
0.000668079
0.000670457
0.000672927
0.000675482
0.000678111
0.000680801
0.000683537
0.000686304
0.000689081
0.000691848
0.000694577
0.000697243
0.000699814
0.000702257
0.000704534
0.000706607
0.000708433
0.00070997
0.000711173
0.000711993
0.000599239
0.000599493
0.000600255
0.000601528
0.000603313
0.000605613
0.000608431
0.000611767
0.000615613
0.000619957
0.000624776
0.000630026
0.000635642
0.000641525
0.000647533
0.000653479
0.000659113
0.000664131
0.000668173
0.000670837
0.000553478
0.000553541
0.000553728
0.000554042
0.00055448
0.000555046
0.000555738
0.000556557
0.000557505
0.000558583
0.00055979
0.000561129
0.000562601
0.000564207
0.000565945
0.000567817
0.000569823
0.000571964
0.000574236
0.00057664
0.000579173
0.000581829
0.000584605
0.000587491
0.000590481
0.00059356
0.000596716
0.00059993
0.000603181
0.000606442
0.000609686
0.000612877
0.000615977
0.000618942
0.000621725
0.000624273
0.000626529
0.000628438
0.000629933
0.000508259
0.000508503
0.000509235
0.000510461
0.000512189
0.000514429
0.000517196
0.000520506
0.000524369
0.000528798
0.000533797
0.000539355
0.000545441
0.00055199
0.000558886
0.000565952
0.000572928
0.000579466
0.000585121
0.000589376
0.000463688
0.000463747
0.000463922
0.000464215
0.000464625
0.000465154
0.000465803
0.000466573
0.000467467
0.000468486
0.000469632
0.000470909
0.000472317
0.000473864
0.000475547
0.000477371
0.00047934
0.000481457
0.000483723
0.000486143
0.000488717
0.000491447
0.000494333
0.000497372
0.000500562
0.000503895
0.000507364
0.000510954
0.00051465
0.000518427
0.00052226
0.000526111
0.000529941
0.000533696
0.000537324
0.00054076
0.000543932
0.000546761
0.000549159
0.000419912
0.000420133
0.000420796
0.000421909
0.000423486
0.000425544
0.000428107
0.000431206
0.000434871
0.000439141
0.000444054
0.000449644
0.000455931
0.000462909
0.000470523
0.000478643
0.000487033
0.000495317
0.000502976
0.000509326
0.000377094
0.000377145
0.000377298
0.000377553
0.000377912
0.000378375
0.000378945
0.000379623
0.000380411
0.000381313
0.000382331
0.00038347
0.000384732
0.000386126
0.000387651
0.000389317
0.000391127
0.000393089
0.00039521
0.000397497
0.000399957
0.000402597
0.000405425
0.000408446
0.000411667
0.00041509
0.000418717
0.000422545
0.000426567
0.000430768
0.000435131
0.000439624
0.00044421
0.000448837
0.000453443
0.000457941
0.00046225
0.000466282
0.000469906
0.0003354
0.000335585
0.000336142
0.00033708
0.000338415
0.000340168
0.000342369
0.000345059
0.000348283
0.000352104
0.000356593
0.000361832
0.000367908
0.000374903
0.000382868
0.000391784
0.000401505
0.000411707
0.000421782
0.000430912
0.000294982
0.000295023
0.000295146
0.00029535
0.000295638
0.000296011
0.00029647
0.000297017
0.000297655
0.000298387
0.000299216
0.000300147
0.000301184
0.000302334
0.000303601
0.000304993
0.000306518
0.000308185
0.000310004
0.000311986
0.000314143
0.000316489
0.000319038
0.000321807
0.000324811
0.000328068
0.000331594
0.000335404
0.000339511
0.000343918
0.000348633
0.00035363
0.000358904
0.000364392
0.000370049
0.000375804
0.000381539
0.000387082
0.000392299
0.000256079
0.00025622
0.000256644
0.000257359
0.000258382
0.000259732
0.00026144
0.000263548
0.000266108
0.000269192
0.000272893
0.00027733
0.000282653
0.000289047
0.000296715
0.000305843
0.000316516
0.000328564
0.000341525
0.000354228
0.000218845
0.000218874
0.000218961
0.000219107
0.000219314
0.00021958
0.000219909
0.000220302
0.000220761
0.000221289
0.000221889
0.000222565
0.000223321
0.000224164
0.000225096
0.000226127
0.000227264
0.000228517
0.000229895
0.000231413
0.000233084
0.000234927
0.00023696
0.000239206
0.000241691
0.000244447
0.000247504
0.000250903
0.000254679
0.000258881
0.000263538
0.000268699
0.000274366
0.000280551
0.000287222
0.000294256
0.000301597
0.000309188
0.00031673
0.000183457
0.00018355
0.000183831
0.000184307
0.000184988
0.000185891
0.000187041
0.000188471
0.000190226
0.000192371
0.000194995
0.000198223
0.000202232
0.000207273
0.000213692
0.000221953
0.000232601
0.000246038
0.000261892
0.000279489
0.000150088
0.000150106
0.000150159
0.000150247
0.000150371
0.000150533
0.000150732
0.00015097
0.000151248
0.000151569
0.000151934
0.000152347
0.000152809
0.000153326
0.000153901
0.000154538
0.000155245
0.000156029
0.000156898
0.000157863
0.000158936
0.000160133
0.000161471
0.000162976
0.000164672
0.000166598
0.000168788
0.000171305
0.000174199
0.000177559
0.000181465
0.00018603
0.000191383
0.00019759
0.000204895
0.000213108
0.000222428
0.000232104
0.000242015
0.000118901
0.00011895
0.000119101
0.000119356
0.000119721
0.000120207
0.000120828
0.000121603
0.000122561
0.000123742
0.000125208
0.000127048
0.000129403
0.000132497
0.00013669
0.000142572
0.000151089
0.000163749
0.000182491
0.000205695
9.00364e-05
9.0044e-05
9.0068e-05
9.01081e-05
9.01646e-05
9.02378e-05
9.03282e-05
9.04363e-05
9.0563e-05
9.07087e-05
9.08751e-05
9.10627e-05
9.12736e-05
9.15093e-05
9.1772e-05
9.20637e-05
9.23884e-05
9.27486e-05
9.31503e-05
9.35974e-05
9.4099e-05
9.46613e-05
9.52985e-05
9.60212e-05
9.68523e-05
9.78103e-05
9.89333e-05
0.000100257
0.000101842
0.000103761
0.000106107
0.000109052
0.000112694
0.000117439
0.000123266
0.000131427
0.000141121
0.000154463
0.000171087
6.36072e-05
6.36243e-05
6.36777e-05
6.37681e-05
6.38978e-05
6.40702e-05
6.42903e-05
6.45655e-05
6.49057e-05
6.53261e-05
6.58499e-05
6.65135e-05
6.73779e-05
6.85509e-05
7.02336e-05
7.28254e-05
7.71478e-05
8.49926e-05
0.000100385
0.000134114
3.97505e-05
3.9752e-05
3.97576e-05
3.97667e-05
3.97798e-05
3.97967e-05
3.98176e-05
3.98425e-05
3.98718e-05
3.99054e-05
3.99438e-05
3.9987e-05
4.00357e-05
4.00899e-05
4.01504e-05
4.02174e-05
4.0292e-05
4.03746e-05
4.04666e-05
4.05689e-05
4.06833e-05
4.08121e-05
4.09573e-05
4.11235e-05
4.13143e-05
4.15385e-05
4.18034e-05
4.21266e-05
4.2528e-05
4.30362e-05
4.3717e-05
4.46156e-05
4.59516e-05
4.77001e-05
5.06217e-05
5.44893e-05
6.18847e-05
7.08078e-05
8.90487e-05
1.85322e-05
1.85333e-05
1.85378e-05
1.85454e-05
1.85564e-05
1.8571e-05
1.85897e-05
1.86133e-05
1.86427e-05
1.86793e-05
1.87253e-05
1.87846e-05
1.88637e-05
1.89767e-05
1.91531e-05
1.94738e-05
2.01165e-05
2.17291e-05
2.54666e-05
3.80392e-05
-0
-0
-0
-0
-0
-0
-0
-0
-0
-0
-0
-0
-0
-0
-0
-0
-0
-0
-0
-0
-0
-0
-0
-0
-0
-0
-0
-0
-0
-0
-0
-0
-0
-0
-0
-0
-0
-0
-0
SCALARS Stress_R double 1
LOOKUP_TABLE default
2.89748
2.89869
2.89877
2.90034
2.90127
2.90359
2.90532
2.90837
2.91087
2.91456
2.91778
2.92201
2.92588
2.93052
2.93495
2.93989
2.94472
2.94982
2.95494
2.96002
2.96527
2.97016
2.97536
2.97985
2.9848
2.98871
2.99318
2.9963
3.00003
3.00215
3.00486
3.00577
3.00717
3.00671
3.00666
3.00482
3.00378
3.00122
3.00128
2.92124
2.92229
2.9241
2.92705
2.93109
2.93608
2.9419
2.94837
2.95527
2.96242
2.96955
2.97643
2.98279
2.98839
2.99303
2.99655
2.99892
3.00024
3.00067
3.00011
2.91992
2.9211
2.92098
2.9223
2.92277
2.92463
2.92569
2.92805
2.92967
2.93247
2.93462
2.93778
2.94042
2.94384
2.94689
2.9505
2.95386
2.95754
2.96112
2.96475
2.96846
2.97192
2.97564
2.9788
2.9824
2.98515
2.98848
2.99071
2.99366
2.99525
2.9977
2.99857
3.00045
3.00053
3.00188
3.00109
3.00213
3.00027
3.00158
2.93722
2.9382
2.9395
2.94163
2.94454
2.94814
2.95235
2.95703
2.96203
2.96725
2.9725
2.97765
2.98253
2.98701
2.99098
2.99438
2.99715
2.9993
3.00091
3.00125
2.93601
2.93718
2.93694
2.93806
2.93825
2.93976
2.94037
2.94225
2.94328
2.94547
2.9469
2.94935
2.95115
2.95377
2.95589
2.95864
2.96101
2.96381
2.96638
2.96913
2.97184
2.97446
2.97723
2.97964
2.9824
2.98452
2.9872
2.98895
2.99149
2.99279
2.9952
2.99596
2.99825
2.99835
3.00057
2.9998
3.00191
2.99983
3.00186
2.94788
2.94869
2.94969
2.9513
2.95352
2.95628
2.95952
2.96316
2.96709
2.97123
2.97548
2.97973
2.98388
2.98782
2.99148
2.99475
2.99754
2.99976
3.0013
3.00141
2.9467
2.94784
2.94752
2.94851
2.94852
2.94981
2.95015
2.95172
2.95238
2.9542
2.95518
2.9572
2.95847
2.96064
2.96219
2.96446
2.96623
2.96856
2.97052
2.97283
2.97495
2.97718
2.97942
2.98149
2.98382
2.98565
2.98803
2.98955
2.99196
2.99307
2.99549
2.99609
2.99852
2.99844
3.00084
2.99985
3.0021
2.99984
3.00194
2.95482
2.95561
2.95642
2.95773
2.95955
2.96182
2.96453
2.96758
2.97093
2.97451
2.97825
2.98206
2.98585
2.98951
2.99294
2.99601
2.99858
3.00049
3.00157
3.00133
2.95389
2.95513
2.9547
2.95567
2.9555
2.95672
2.95681
2.95826
2.95862
2.96028
2.9609
2.96274
2.96363
2.96558
2.96673
2.96879
2.97015
2.97227
2.97385
2.97596
2.97774
2.97978
2.98174
2.98363
2.98575
2.98741
2.98967
2.99101
2.99339
2.99428
2.99674
2.99707
2.99956
2.99917
3.00159
3.0003
3.00242
3.00002
3.00187
2.95969
2.96051
2.9612
2.96233
2.9639
2.96588
2.96826
2.97098
2.97399
2.97727
2.98073
2.9843
2.98788
2.99135
2.99459
2.99744
2.99972
3.00127
3.00193
3.0013
2.95943
2.96085
2.96028
2.96129
2.96094
2.96216
2.96202
2.96344
2.96353
2.96513
2.96546
2.96721
2.96779
2.96965
2.97048
2.97245
2.97349
2.97552
2.97681
2.97883
2.98035
2.9823
2.98406
2.98585
2.98783
2.98938
2.99156
2.99274
2.99509
2.99579
2.99825
2.99833
3.00082
3.00014
3.00251
3.00091
3.00291
3.00023
3.00193
2.96373
2.9646
2.9652
2.96618
2.96755
2.9693
2.97143
2.9739
2.97666
2.9797
2.98296
2.98634
2.98975
2.99307
2.99615
2.9988
3.00084
3.00209
3.0024
3.00137
2.96492
2.96651
2.96581
2.96687
2.96634
2.96757
2.9672
2.9686
2.96842
2.96998
2.97
2.97171
2.97196
2.97376
2.97425
2.97616
2.97688
2.97885
2.97982
2.9818
2.98304
2.98494
2.98646
2.9882
2.98999
2.99146
2.99351
2.99458
2.99685
2.9974
2.99982
2.99969
3.00216
3.00121
3.00356
3.00163
3.00359
3.00045
3.00213
2.96836
2.96928
2.96977
2.97057
2.9717
2.97318
2.97501
2.97715
2.9796
2.98234
2.98532
2.98846
2.99167
2.9948
2.9977
3.00017
3.002
3.00299
3.00299
3.00153
2.97177
2.97353
2.97269
2.97378
2.97305
2.97426
2.97364
2.97498
2.9745
2.97598
2.97564
2.97725
2.97711
2.9788
2.97888
2.98069
2.98098
2.98286
2.98342
2.98532
2.98616
2.988
2.98917
2.99085
2.99234
2.99376
2.99557
2.99657
2.99867
2.99911
3.00143
3.00114
3.00357
3.00236
3.00473
3.00241
3.00441
3.0007
3.00243
2.97497
2.9759
2.97623
2.97677
2.97756
2.97861
2.97997
2.98162
2.98355
2.9858
2.98832
2.99105
2.9939
2.99673
2.99938
3.00163
3.00324
3.00399
3.0037
3.00175
2.98182
2.98366
2.98271
2.98375
2.98282
2.98393
2.98302
2.98421
2.98335
2.98464
2.98386
2.98524
2.98459
2.98606
2.98558
2.98716
2.98685
2.98854
2.98848
2.99021
2.99046
2.99217
2.99276
2.99435
2.99533
2.99668
2.99805
2.999
3.00076
3.00112
3.00321
3.00279
3.00511
3.00367
3.00603
3.00331
3.00536
3.00097
3.0028
2.98507
2.98594
2.98602
2.98616
2.98641
2.98682
2.98743
2.98827
2.98937
2.9908
2.99254
2.99456
2.99679
2.9991
3.00134
3.00326
3.0046
3.00508
3.00449
3.00202
2.99701
2.99881
2.99777
2.99868
2.99754
2.99841
2.99717
2.99804
2.99673
2.99764
2.99628
2.99726
2.99593
2.99696
2.99571
2.99688
2.99572
2.99702
2.99606
2.99746
2.9968
2.99824
2.99794
2.99933
2.99948
3.0007
3.00133
3.0022
3.00336
3.00366
3.00531
3.00479
3.00684
3.00519
3.00746
3.00433
3.00641
3.00127
3.00322
3.0007
3.00142
3.00114
3.00068
3.00013
2.99954
2.99902
2.9986
2.99839
2.99849
2.99894
2.99977
3.00093
3.00235
3.00386
3.00523
3.00615
3.00628
3.00535
3.0023
3.01953
3.02114
3.02006
3.02069
3.01934
3.0198
3.01818
3.01852
3.01665
3.01694
3.01486
3.01514
3.01292
3.01323
3.01094
3.01139
3.00906
3.00968
3.00747
3.00826
3.00627
3.00721
3.00558
3.00659
3.00545
3.00642
3.00587
3.00661
3.00674
3.00698
3.00783
3.00726
3.00877
3.00699
3.00897
3.00548
3.00751
3.00162
3.00365
3.02423
3.02465
3.02386
3.02256
3.02086
3.01884
3.01665
3.01438
3.0122
3.01027
3.00872
3.00763
3.00706
3.00698
3.00727
3.00769
3.00792
3.00755
3.00622
3.00256
3.05225
3.05344
3.0524
3.05257
3.05103
3.05085
3.04881
3.04835
3.04582
3.04516
3.04219
3.04143
3.03808
3.03728
3.03364
3.03295
3.02907
3.02859
3.02465
3.02442
3.02059
3.02064
3.01709
3.01741
3.01435
3.01483
3.01246
3.01291
3.01141
3.01155
3.01104
3.01046
3.01097
3.00915
3.0105
3.00679
3.00857
3.002
3.00399
3.0585
3.05847
3.05698
3.05455
3.05128
3.0473
3.04279
3.0379
3.03288
3.02799
3.02343
3.01943
3.01615
3.01368
3.01197
3.01085
3.00996
3.00885
3.00703
3.00276
3.09836
3.0989
3.09797
3.09749
3.09579
3.09472
3.09223
3.09065
3.08739
3.08541
3.08139
3.07914
3.07443
3.07202
3.06671
3.06434
3.0585
3.05633
3.05014
3.04831
3.04198
3.0406
3.03438
3.0335
3.02769
3.02728
3.02219
3.02211
3.01806
3.01799
3.01526
3.01472
3.01347
3.0118
3.01198
3.00827
3.00943
3.00243
3.00419
3.10701
3.10635
3.10399
3.1001
3.09481
3.08827
3.08069
3.07229
3.06339
3.05432
3.04546
3.03717
3.02979
3.02358
3.01869
3.01504
3.01236
3.01009
3.00769
3.0028
3.16161
3.16122
3.16051
3.15918
3.15738
3.15515
3.15224
3.14921
3.14516
3.14145
3.13629
3.13205
3.1258
3.12121
3.11394
3.10923
3.10102
3.09642
3.08744
3.0832
3.07367
3.07003
3.06026
3.05741
3.04777
3.04583
3.0368
3.03571
3.02782
3.02732
3.02107
3.02063
3.01647
3.01522
3.01323
3.01
3.01001
3.00295
3.00405
3.17374
3.17229
3.16887
3.16325
3.15552
3.14584
3.13443
3.12154
3.10757
3.09293
3.07812
3.06372
3.05032
3.03846
3.02858
3.02089
3.01523
3.01121
3.00787
3.00259
3.24593
3.24439
3.24399
3.24166
3.23983
3.23625
3.23296
3.22821
3.22342
3.21763
3.21132
3.20465
3.19679
3.18945
3.18008
3.1723
3.16147
3.15356
3.14137
3.1337
3.12033
3.1133
3.09905
3.09308
3.07838
3.07383
3.05929
3.05635
3.04278
3.04136
3.02964
3.02923
3.0202
3.0198
3.01419
3.01203
3.00968
3.00349
3.00354
3.26347
3.26111
3.25654
3.24898
3.2385
3.22522
3.20933
3.19107
3.17085
3.1491
3.12645
3.10366
3.08164
3.06135
3.04372
3.0295
3.01908
3.01189
3.00775
3.0017
3.3554
3.35257
3.35256
3.34915
3.34741
3.34238
3.33884
3.33225
3.32687
3.3188
3.31151
3.30209
3.2928
3.28225
3.27092
3.25942
3.24603
3.23393
3.21843
3.20617
3.18862
3.17678
3.15733
3.1466
3.12564
3.11675
3.09495
3.08857
3.06696
3.06344
3.04343
3.0426
3.02589
3.02666
3.01427
3.01469
3.00859
3.00446
3.00112
3.38076
3.37747
3.37176
3.36229
3.34904
3.33208
3.31146
3.28736
3.26009
3.22998
3.19766
3.16399
3.13016
3.09764
3.06817
3.0434
3.02441
3.01258
3.00513
3.00033
3.49429
3.4902
3.49063
3.48622
3.48465
3.47828
3.47469
3.46636
3.46065
3.45039
3.44248
3.43034
3.42006
3.40619
3.39342
3.37788
3.3625
3.34557
3.32732
3.30942
3.28809
3.26985
3.24527
3.22762
3.19981
3.18397
3.15327
3.14075
3.10805
3.10037
3.06752
3.06543
3.03533
3.03794
3.01488
3.01886
3.00336
3.00504
2.99945
3.53014
3.52605
3.51942
3.50836
3.49278
3.4726
3.44773
3.41815
3.38393
3.34512
3.30209
3.25553
3.20658
3.15708
3.10962
3.06756
3.03458
3.01133
3.00399
2.99463
3.66526
3.66021
3.66101
3.65588
3.65456
3.64724
3.64379
3.63419
3.62851
3.61659
3.60859
3.59429
3.58375
3.5671
3.55386
3.5347
3.51854
3.49696
3.47741
3.45361
3.43013
3.40454
3.37644
3.3499
3.31643
3.29037
3.25093
3.22756
3.18259
3.16489
3.11658
3.10742
3.05853
3.06018
3.01419
3.0271
3.00018
3.01088
2.98326
3.71635
3.71179
3.70466
3.69274
3.67582
3.65369
3.62606
3.59263
3.55315
3.50713
3.45437
3.39489
3.32914
3.25848
3.18543
3.11476
3.05466
3.0154
2.98405
2.98977
3.87016
3.86467
3.86571
3.86034
3.85929
3.85165
3.84852
3.83848
3.83321
3.82065
3.81315
3.7979
3.78796
3.76991
3.7574
3.73614
3.72087
3.69618
3.67761
3.64929
3.62675
3.59468
3.56711
3.53144
3.49725
3.45878
3.41554
3.37635
3.32124
3.28591
3.21437
3.19181
3.10482
3.10901
3.02306
3.05022
2.9696
3.00228
2.99631
3.94097
3.93643
3.92946
3.91777
3.90109
3.87912
3.8514
3.81741
3.77652
3.7277
3.66993
3.60203
3.5228
3.43161
3.32887
3.21875
3.1054
3.00563
3.00321
2.96322
4.10996
4.1048
4.10583
4.10083
4.09997
4.09286
4.09016
4.08077
4.07617
4.06437
4.05782
4.04336
4.03474
4.01743
4.00668
3.98595
3.97302
3.94842
3.93297
3.9039
3.88549
3.85121
3.82898
3.78864
3.76101
3.71382
3.67753
3.6232
3.57321
3.51273
3.43928
3.37655
3.28601
3.23021
3.12468
3.09909
2.98525
3.06919
2.76228
4.20458
4.20064
4.19458
4.18441
4.16987
4.15066
4.12631
4.09626
4.05973
4.01545
3.96187
3.89682
3.81736
3.71979
3.59942
3.45258
3.27059
3.07289
2.81669
2.92834
4.38269
4.37864
4.37939
4.3754
4.37461
4.36888
4.3666
4.359
4.3552
4.3456
4.34026
4.32845
4.32152
4.3073
4.29882
4.28167
4.27176
4.25118
4.23986
4.21515
4.20261
4.1727
4.15923
4.12258
4.10851
4.06295
4.04798
3.99059
3.9727
3.90054
3.86596
3.78019
3.70025
3.61769
3.28931
3.31265
2.76794
3.18509
3.08098
4.50541
4.50262
4.49816
4.49068
4.48004
4.46604
4.44841
4.42679
4.40072
4.36933
4.33144
4.28514
4.22718
4.15215
4.05078
3.91055
3.71151
3.49187
3.01487
1.93146
4.68665
4.68437
4.68462
4.68214
4.68131
4.67766
4.67578
4.67089
4.66794
4.66172
4.65768
4.65003
4.64486
4.63566
4.62938
4.61835
4.61104
4.59792
4.58963
4.57402
4.56499
4.54628
4.5371
4.51429
4.50619
4.47758
4.47301
4.43536
4.43928
4.38628
4.40654
4.32318
4.38159
4.23971
4.3361
4.03675
4.72582
4.33003
3.16884
4.83666
4.83532
4.83287
4.8288
4.82308
4.8157
4.80665
4.79596
4.78376
4.77018
4.75558
4.74058
4.72612
4.71334
4.70257
4.68849
4.64256
4.48271
3.89561
4.77872
5.02306
5.02208
5.02227
5.02099
5.02085
5.01905
5.01844
5.01611
5.01506
5.01216
5.01067
5.00716
5.00525
5.0011
4.99878
4.99388
4.99122
4.98549
4.98254
4.97582
4.97273
4.96484
4.96195
4.95258
4.95066
4.93984
4.9414
4.92846
4.93919
4.93082
4.97448
4.96444
5.08541
5.19792
5.65706
5.68028
6.57158
9.54838
17.4246
SCALARS Stress_Theta double 1
LOOKUP_TABLE default
2.89748
2.89858
2.89856
2.89968
2.90022
2.90184
2.90293
2.90503
2.90664
2.90917
2.91129
2.9142
2.91679
2.92
2.92301
2.92645
2.9298
2.93339
2.93702
2.94066
2.94447
2.94805
2.95195
2.95537
2.95922
2.96235
2.96602
2.96873
2.97204
2.97421
2.97695
2.97842
2.98037
2.98098
2.98201
2.98167
2.98209
2.981
2.98236
2.92124
2.92211
2.92322
2.92503
2.92751
2.93061
2.93424
2.93831
2.94271
2.94734
2.95206
2.95675
2.96128
2.96551
2.96934
2.97272
2.97565
2.97824
2.98062
2.98258
2.91992
2.92102
2.92082
2.92181
2.922
2.92334
2.92392
2.92559
2.92656
2.92851
2.92985
2.93204
2.93374
2.93611
2.93812
2.94062
2.94289
2.94545
2.94794
2.9505
2.95314
2.95562
2.95835
2.96067
2.96342
2.9655
2.96818
2.96996
2.97247
2.97388
2.97614
2.97712
2.97909
2.97957
2.98131
2.98128
2.98306
2.98256
2.98513
2.93722
2.93805
2.93881
2.94003
2.94171
2.94381
2.94626
2.94902
2.95199
2.95513
2.95836
2.9616
2.96478
2.96786
2.97079
2.97359
2.97629
2.97903
2.98211
2.98538
2.93601
2.93711
2.9368
2.93764
2.93759
2.93865
2.93886
2.94014
2.94061
2.94206
2.94279
2.94438
2.94536
2.94704
2.94824
2.94999
2.95138
2.95314
2.9547
2.95643
2.95813
2.95977
2.96157
2.96309
2.96495
2.9663
2.96821
2.96935
2.97129
2.97221
2.97421
2.97486
2.97702
2.9774
2.97986
2.97992
2.98284
2.98246
2.98615
2.94788
2.94856
2.94904
2.94981
2.95088
2.9522
2.95376
2.95551
2.95742
2.95945
2.96156
2.96373
2.96593
2.96816
2.97041
2.97274
2.97521
2.97795
2.9812
2.98476
2.9467
2.94777
2.94739
2.94809
2.94786
2.9487
2.94863
2.94959
2.94968
2.95074
2.95099
2.95213
2.95255
2.95372
2.95429
2.95549
2.9562
2.95739
2.95824
2.95939
2.96038
2.96146
2.96257
2.96356
2.96482
2.96568
2.9671
2.96782
2.96943
2.97001
2.97187
2.97228
2.97449
2.97471
2.97737
2.97734
2.9805
2.98008
2.98394
2.95482
2.95547
2.95573
2.95614
2.95671
2.95742
2.95827
2.95922
2.96026
2.96141
2.96263
2.96393
2.96531
2.96681
2.96844
2.97025
2.97233
2.97477
2.97771
2.98103
2.95389
2.95505
2.95455
2.95521
2.95477
2.95548
2.95511
2.95588
2.95559
2.95639
2.9562
2.95701
2.95693
2.95773
2.95775
2.95854
2.95867
2.95943
2.95969
2.96039
2.9608
2.96143
2.96201
2.96256
2.96335
2.96378
2.96483
2.96514
2.9665
2.96668
2.96841
2.96845
2.97062
2.97051
2.97315
2.97284
2.97589
2.97532
2.97893
2.95969
2.96035
2.96042
2.96051
2.96064
2.96081
2.96102
2.96126
2.96154
2.96186
2.96225
2.96273
2.96331
2.96404
2.96496
2.96614
2.96764
2.96956
2.972
2.97485
2.95943
2.96076
2.96011
2.96076
2.9601
2.96073
2.96007
2.96068
2.96003
2.96062
2.95999
2.96055
2.95997
2.96046
2.95996
2.96041
2.95997
2.96036
2.96004
2.96035
2.9602
2.96041
2.96047
2.96058
2.9609
2.96089
2.96153
2.9614
2.96243
2.96216
2.96364
2.96323
2.9652
2.96465
2.9671
2.96639
2.96922
2.9683
2.97168
2.96373
2.96442
2.9643
2.96408
2.96379
2.96342
2.96301
2.96254
2.96202
2.96151
2.96103
2.96061
2.96029
2.96014
2.96021
2.96057
2.9613
2.96249
2.96427
2.96651
2.96492
2.96641
2.96561
2.96626
2.96537
2.96593
2.96496
2.96544
2.9644
2.9648
2.96371
2.96402
2.96293
2.96312
2.96205
2.96215
2.96111
2.96112
2.96018
2.96008
2.9593
2.95908
2.95852
2.95816
2.9579
2.9574
2.95751
2.95687
2.95742
2.95663
2.95769
2.95675
2.95836
2.95727
2.95942
2.95816
2.96074
2.95924
2.96245
2.96836
2.96907
2.96875
2.96819
2.96744
2.9665
2.9654
2.96413
2.96274
2.96127
2.95978
2.9583
2.9569
2.95565
2.95463
2.95393
2.95363
2.95386
2.95478
2.95622
2.97177
2.97341
2.97247
2.9731
2.97198
2.97244
2.97115
2.97147
2.97002
2.97018
2.96861
2.96863
2.96697
2.96681
2.96511
2.96483
2.96309
2.96267
2.96099
2.96042
2.95887
2.95815
2.95681
2.95593
2.95489
2.95384
2.95321
2.95198
2.95185
2.95043
2.95089
2.94929
2.95038
2.9486
2.95034
2.94835
2.95062
2.94833
2.95137
2.97497
2.97567
2.97512
2.97419
2.97291
2.97129
2.96939
2.96719
2.96475
2.96214
2.95941
2.95662
2.95386
2.95121
2.94878
2.94668
2.94503
2.94398
2.94374
2.94411
2.98182
2.98354
2.98248
2.98304
2.9817
2.982
2.98038
2.98046
2.97858
2.97844
2.97632
2.97597
2.97366
2.97308
2.97063
2.96987
2.96729
2.96635
2.96374
2.96262
2.96008
2.95876
2.9564
2.95488
2.95281
2.95109
2.94944
2.9475
2.9464
2.94423
2.9438
2.9414
2.94173
2.93909
2.94021
2.9373
2.9391
2.93578
2.93855
2.98507
2.98571
2.98488
2.9835
2.98159
2.97918
2.97631
2.97299
2.96927
2.96525
2.96098
2.95655
2.95206
2.94763
2.94337
2.93944
2.93599
2.93322
2.93141
2.93032
2.99701
2.99869
2.99754
2.99796
2.99641
2.99649
2.99453
2.99428
2.99193
2.99138
2.98865
2.98782
2.98476
2.98363
2.98029
2.97892
2.97532
2.97372
2.96997
2.96815
2.96435
2.9623
2.9586
2.9563
2.95284
2.9503
2.94725
2.94445
2.94198
2.9389
2.93719
2.93382
2.93301
2.92932
2.9295
2.92543
2.92652
2.92188
2.92418
3.0007
3.00119
3.00005
2.99812
2.99546
2.99208
2.98804
2.98334
2.97805
2.97228
2.96609
2.95958
2.95288
2.94613
2.93948
2.93313
2.92727
2.92217
2.9182
2.91507
3.01953
3.02103
3.01986
3.02004
3.01832
3.01804
3.01576
3.01505
3.01222
3.01111
3.00772
3.00625
3.00235
3.00049
2.99612
2.99397
2.98914
2.98671
2.98155
2.97884
2.97347
2.97049
2.96506
2.9618
2.9565
2.95296
2.94801
2.94416
2.9398
2.93562
2.9321
2.92754
2.92509
2.9201
2.91886
2.91337
2.91332
2.90704
2.90853
3.02423
3.02446
3.02293
3.02036
3.01679
3.01225
3.00678
3.00041
2.9932
2.98526
2.97666
2.96754
2.95802
2.94828
2.93853
2.92898
2.91991
2.91166
2.9047
2.89872
3.05225
3.05336
3.05224
3.05206
3.05024
3.04946
3.0469
3.04557
3.04226
3.04042
3.03635
3.03403
3.02921
3.02643
3.0209
3.01773
3.01149
3.00797
3.00113
2.99729
2.98997
2.98581
2.97819
2.97372
2.96602
2.96124
2.95375
2.94861
2.94165
2.93611
2.93003
2.92403
2.91919
2.91263
2.90927
2.90202
2.90022
2.89191
2.89201
3.0585
3.05834
3.05635
3.05302
3.04838
3.04246
3.03529
3.0269
3.01736
3.00677
2.99521
2.98281
2.96974
2.9562
2.94242
2.9287
2.91537
2.90289
2.89184
2.88189
3.09836
3.09885
3.09789
3.09722
3.09537
3.09395
3.09117
3.08906
3.08531
3.08255
3.0778
3.07443
3.06867
3.06471
3.05793
3.05348
3.04567
3.04078
3.032
3.02671
3.01708
3.01142
3.0011
2.9951
2.98435
2.97801
2.96717
2.96045
2.94995
2.94278
2.93312
2.92539
2.91708
2.90864
2.90214
2.89277
2.88829
2.8775
2.87538
3.10701
3.10632
3.1038
3.0996
3.09373
3.08621
3.07707
3.06631
3.05401
3.04024
3.02509
3.00867
2.99118
2.97282
2.95389
2.93472
2.91578
2.89759
2.881
2.86555
3.16161
3.16123
3.16053
3.15924
3.15748
3.15527
3.15239
3.14932
3.14524
3.14135
3.13602
3.13136
3.12472
3.11933
3.11132
3.10528
3.09584
3.08924
3.07836
3.07125
3.05899
3.05144
3.03793
3.02999
3.01547
3.00717
2.99203
2.98335
2.96812
2.95898
2.94435
2.93457
2.92134
2.9107
2.89954
2.88768
2.87921
2.86543
2.85981
3.17374
3.17238
3.16928
3.16413
3.1569
3.14761
3.13625
3.12282
3.10736
3.08991
3.07052
3.0493
3.02641
3.00208
2.97662
2.95045
2.92409
2.89835
2.87412
2.85115
3.24593
3.24447
3.24415
3.24214
3.24059
3.23749
3.23465
3.23049
3.22627
3.2211
3.21539
3.20925
3.20194
3.19488
3.18584
3.17793
3.16703
3.15835
3.14547
3.13611
3.12116
3.11123
3.09422
3.08382
3.0649
3.05412
3.03363
3.02251
3.00108
2.98956
2.96808
2.95596
2.9356
2.92246
2.9045
2.8898
2.87521
2.85792
2.84708
3.26347
3.26134
3.25765
3.25151
3.24287
3.23171
3.21799
3.20167
3.18275
3.16119
3.137
3.11021
3.08093
3.04934
3.01576
2.98064
2.94475
2.90881
2.87455
2.84095
3.3554
3.35273
3.35287
3.3501
3.3489
3.34488
3.34227
3.337
3.33287
3.32638
3.3206
3.31291
3.3053
3.29646
3.28684
3.27686
3.26499
3.25395
3.23954
3.22753
3.21029
3.19745
3.17712
3.16362
3.14007
3.12611
3.09948
3.08521
3.05605
3.04151
3.01089
2.99591
2.96554
2.94973
2.92135
2.90367
2.88003
2.85895
2.83929
3.38076
3.37785
3.37361
3.36655
3.35659
3.34365
3.32766
3.3085
3.28613
3.26036
3.2311
3.19826
3.1618
3.12177
3.07844
3.03221
2.98367
2.93469
2.88574
2.8383
3.49429
3.49044
3.49108
3.48761
3.48685
3.48201
3.47979
3.47353
3.46975
3.46207
3.4566
3.44747
3.44009
3.42956
3.42005
3.40802
3.39608
3.38258
3.36773
3.35283
3.33448
3.31828
3.29578
3.27849
3.25112
3.23306
3.20029
3.1819
3.14359
3.12544
3.08249
3.06468
3.0194
3.00079
2.95722
2.93693
2.89803
2.87293
2.84174
3.53014
3.52657
3.5219
3.51414
3.50315
3.48882
3.47098
3.44947
3.42412
3.39459
3.36062
3.3219
3.2781
3.22894
3.1743
3.11448
3.05071
2.98307
2.91753
2.84746
3.66526
3.6605
3.66156
3.65761
3.65729
3.65189
3.65017
3.64323
3.64003
3.63152
3.62673
3.61659
3.61001
3.59823
3.58967
3.57603
3.56522
3.54967
3.53601
3.51851
3.50122
3.48176
3.45971
3.43837
3.41008
3.38712
3.3508
3.3267
3.28102
3.25657
3.20145
3.17747
3.11383
3.09194
3.02299
3.001
2.94009
2.91477
2.85366
3.71635
3.71238
3.70753
3.69947
3.688
3.67299
3.65418
3.63135
3.6042
3.5722
3.53487
3.49161
3.44167
3.38424
3.3182
3.24281
3.15895
3.07053
2.96869
2.87548
3.87016
3.86499
3.8663
3.8622
3.86222
3.85668
3.85543
3.84833
3.84578
3.83706
3.83316
3.82271
3.81734
3.80512
3.79821
3.7839
3.77532
3.75876
3.74807
3.72908
3.71562
3.69395
3.67657
3.65202
3.62878
3.60123
3.56882
3.53847
3.49217
3.46011
3.39192
3.36147
3.26656
3.2463
3.13454
3.12561
3.00843
2.97499
2.9053
3.94097
3.93702
3.93234
3.92455
3.91345
3.89886
3.88051
3.85811
3.83128
3.79932
3.76153
3.71696
3.66435
3.60216
3.52818
3.44042
3.33104
3.19685
3.09782
2.94811
4.10996
4.10509
4.10637
4.10256
4.10269
4.09754
4.09657
4.08996
4.08791
4.07977
4.07665
4.06685
4.06264
4.05112
4.04591
4.03233
4.02624
4.01038
4.00334
3.98493
3.97682
3.9555
3.94588
3.92118
3.90888
3.88027
3.86236
3.82922
3.80034
3.76172
3.71007
3.66428
3.58907
3.52821
3.4139
3.32969
3.15502
3.19413
2.844
4.20458
4.20114
4.19703
4.19018
4.18043
4.16762
4.1515
4.13182
4.10819
4.07993
4.04629
4.00617
3.958
3.8997
3.82802
3.73921
3.61932
3.46754
3.17617
2.99326
4.38269
4.37886
4.3798
4.37671
4.37668
4.37245
4.3715
4.36603
4.36418
4.3574
4.3547
4.34651
4.34301
4.33335
4.32921
4.31777
4.3133
4.29989
4.29541
4.27976
4.27587
4.25758
4.25521
4.23375
4.23421
4.20886
4.21337
4.18329
4.19204
4.15671
4.1591
4.1211
4.09054
4.06236
3.79465
3.85265
3.33502
3.52607
3.14624
4.50541
4.50295
4.49978
4.49451
4.48704
4.4773
4.46515
4.45048
4.43312
4.4127
4.3888
4.36066
4.32695
4.28533
4.23141
4.15977
4.05887
3.96754
3.62136
2.54477
4.68665
4.68449
4.68484
4.68284
4.68242
4.67956
4.6784
4.67463
4.67272
4.66799
4.66536
4.65961
4.65627
4.64945
4.64547
4.63743
4.63298
4.62358
4.61889
4.60796
4.60349
4.59083
4.58752
4.57277
4.57246
4.55514
4.56144
4.54068
4.56075
4.53502
4.58126
4.54635
4.65023
4.59796
4.77955
4.66984
5.5606
5.50494
4.6845
4.83666
4.83543
4.83343
4.83012
4.82548
4.81954
4.81232
4.80393
4.79455
4.78443
4.77412
4.76452
4.75711
4.75412
4.75848
4.77121
4.7814
4.74939
4.45994
6.12558
5.02306
5.02208
5.02227
5.02099
5.02085
5.01905
5.01844
5.01611
5.01506
5.01216
5.01068
5.00717
5.00525
5.0011
4.99878
4.99389
4.99123
4.98549
4.98254
4.97582
4.97273
4.96484
4.96194
4.95256
4.95063
4.93979
4.94133
4.92835
4.93905
4.93061
4.9743
4.96421
5.086
5.19902
5.6649
5.69536
6.67109
9.75599
17.8226
SCALARS Stress_Z double 1
LOOKUP_TABLE default
5.9862
5.98748
5.98697
5.9877
5.98733
5.98812
5.98788
5.98874
5.98865
5.98955
5.98964
5.99055
5.99084
5.99173
5.9922
5.99309
5.99373
5.99458
5.99541
5.99619
5.99719
5.99788
5.99903
5.9996
6.00087
6.00128
6.00259
6.00281
6.00405
6.00403
6.00504
6.00469
6.00525
6.00442
6.00443
6.00292
6.00277
6.00049
6.00204
6.01743
6.01798
6.01781
6.01752
6.01712
6.01662
6.01602
6.01532
6.01452
6.01365
6.01272
6.01175
6.01078
6.00984
6.00901
6.0084
6.0082
6.00868
6.01009
6.01209
6.01452
6.01588
6.01521
6.016
6.0154
6.01621
6.01569
6.0165
6.01609
6.01688
6.0166
6.01734
6.01721
6.01787
6.01789
6.01848
6.01864
6.01913
6.01944
6.0198
6.02027
6.02048
6.02108
6.02112
6.02183
6.02169
6.02248
6.02212
6.02294
6.02235
6.02315
6.0223
6.02309
6.02196
6.02289
6.02155
6.02314
6.02194
6.02563
6.04591
6.04656
6.04622
6.04566
6.04488
6.04389
6.04272
6.04134
6.03979
6.03811
6.03632
6.03447
6.03263
6.03088
6.02933
6.02815
6.02759
6.02808
6.03046
6.03525
6.05189
6.05332
6.05252
6.05319
6.05233
6.05288
6.05196
6.0524
6.05146
6.05176
6.05082
6.05096
6.05004
6.04998
6.0491
6.04887
6.04802
6.0476
6.0468
6.04618
6.04546
6.04463
6.04401
6.04298
6.04248
6.04126
6.04092
6.03955
6.03944
6.03796
6.03822
6.03671
6.03759
6.03619
6.0381
6.03699
6.04044
6.03984
6.04576
6.08201
6.08247
6.08179
6.08066
6.0791
6.07711
6.07473
6.07197
6.06886
6.06548
6.0619
6.05819
6.05449
6.05094
6.04776
6.04522
6.04371
6.04383
6.04644
6.05203
6.09418
6.09555
6.09463
6.09508
6.09392
6.0941
6.09272
6.09263
6.09105
6.09068
6.08892
6.08826
6.08636
6.08538
6.08337
6.08211
6.08
6.07846
6.0763
6.07449
6.07234
6.07028
6.06822
6.06594
6.06406
6.06162
6.06004
6.05753
6.05641
6.05393
6.05351
6.0512
6.05179
6.04983
6.0518
6.05037
6.05407
6.05327
6.05935
6.12351
6.12387
6.12274
6.12085
6.11823
6.11491
6.11092
6.1063
6.10111
6.09546
6.08945
6.08325
6.07703
6.07103
6.06556
6.061
6.05782
6.05661
6.0581
6.06271
6.14035
6.14185
6.1407
6.14099
6.1394
6.13925
6.13724
6.13663
6.13423
6.13317
6.13042
6.1289
6.12584
6.12385
6.12052
6.11812
6.11456
6.11176
6.10806
6.10489
6.10116
6.09766
6.09402
6.09027
6.08687
6.08297
6.08
6.07605
6.07374
6.0699
6.06852
6.06496
6.06482
6.06175
6.06311
6.06073
6.06378
6.06226
6.06746
6.16962
6.16991
6.16824
6.16546
6.16161
6.15671
6.15083
6.14401
6.13634
6.12799
6.11909
6.10986
6.10055
6.09149
6.08306
6.07571
6.06998
6.06646
6.06584
6.06843
6.19046
6.19216
6.19072
6.19089
6.1888
6.18831
6.18559
6.18446
6.18115
6.17937
6.1755
6.17308
6.16872
6.16565
6.16086
6.15722
6.15205
6.14787
6.14246
6.13778
6.13227
6.12716
6.12172
6.11627
6.11111
6.10546
6.1008
6.09509
6.09122
6.08564
6.08284
6.0776
6.07617
6.0715
6.07168
6.06782
6.0697
6.06681
6.07088
6.21966
6.21989
6.21765
6.2139
6.2087
6.20209
6.19413
6.18487
6.17444
6.16304
6.15084
6.1381
6.12515
6.11239
6.10026
6.08929
6.08009
6.0733
6.06963
6.0694
6.2445
6.24643
6.24469
6.24473
6.24211
6.24129
6.23782
6.23614
6.23185
6.22934
6.22427
6.22092
6.21517
6.21096
6.20459
6.19964
6.19271
6.18704
6.17973
6.1734
6.16587
6.15897
6.15144
6.14408
6.1368
6.12913
6.12237
6.11458
6.10866
6.10095
6.09621
6.08884
6.08559
6.07882
6.07731
6.07141
6.07175
6.06688
6.06963
6.27346
6.27362
6.27078
6.26603
6.25944
6.25102
6.24086
6.22901
6.2156
6.20086
6.18498
6.16827
6.1511
6.13393
6.11729
6.10179
6.08812
6.07703
6.06937
6.06546
6.30233
6.30445
6.30242
6.30232
6.29919
6.29801
6.29379
6.29156
6.28629
6.28302
6.27674
6.27242
6.26522
6.25984
6.25179
6.24547
6.23663
6.2294
6.21998
6.2119
6.20208
6.19324
6.18328
6.1738
6.16399
6.15404
6.14471
6.13449
6.126
6.11577
6.10851
6.09854
6.09289
6.08349
6.07979
6.07126
6.06965
6.06216
6.06332
6.33064
6.3307
6.32728
6.32156
6.31357
6.30335
6.29096
6.27644
6.25992
6.2416
6.22172
6.20059
6.17862
6.15632
6.1343
6.11327
6.09403
6.07749
6.0647
6.0561
6.36401
6.36624
6.36397
6.36369
6.3601
6.35855
6.35364
6.35084
6.34463
6.34058
6.33311
6.32783
6.31916
6.3126
6.30281
6.29509
6.28424
6.27539
6.26367
6.25374
6.24137
6.23045
6.2177
6.20591
6.19311
6.18062
6.16816
6.15519
6.1435
6.13032
6.11988
6.1068
6.0981
6.08548
6.07893
6.06714
6.06299
6.0522
6.0513
6.3904
6.39034
6.38638
6.37975
6.37046
6.35854
6.344
6.32685
6.3072
6.28522
6.26112
6.2352
6.2079
6.17976
6.15145
6.12381
6.09777
6.07447
6.05521
6.04059
6.42899
6.43119
6.42877
6.42827
6.42433
6.42238
6.41689
6.41352
6.40649
6.40169
6.39312
6.3869
6.37683
6.36913
6.35762
6.34853
6.33561
6.32516
6.311
6.29921
6.28404
6.27097
6.25506
6.24083
6.22456
6.20932
6.19312
6.1771
6.1615
6.14496
6.13056
6.11386
6.10126
6.08481
6.07459
6.05879
6.05134
6.03642
6.03276
6.45188
6.45162
6.44722
6.43983
6.42944
6.41603
6.39957
6.37999
6.35736
6.33178
6.30339
6.27247
6.2394
6.20474
6.16923
6.13379
6.09956
6.0679
6.04047
6.01808
6.49611
6.49806
6.49563
6.49484
6.49073
6.48836
6.48251
6.47858
6.47095
6.46545
6.456
6.44891
6.43764
6.42889
6.41581
6.40547
6.39054
6.37859
6.36197
6.34839
6.33026
6.31509
6.29572
6.27902
6.2588
6.24069
6.22012
6.2008
6.18051
6.16025
6.14095
6.12011
6.10261
6.08164
6.06669
6.04607
6.03427
6.01425
6.00681
6.51343
6.5129
6.5082
6.50029
6.48912
6.47459
6.45663
6.43506
6.40985
6.38099
6.34852
6.31259
6.27352
6.23182
6.18824
6.14378
6.09977
6.05786
6.02014
5.98768
6.56373
6.56517
6.56293
6.56178
6.55775
6.55495
6.54904
6.5446
6.53671
6.53062
6.52066
6.51286
6.50076
6.49115
6.47683
6.46544
6.44879
6.43555
6.41664
6.40148
6.38041
6.36329
6.34028
6.32121
6.29665
6.27568
6.25009
6.22735
6.20145
6.17719
6.15186
6.12641
6.10268
6.07651
6.0554
6.02904
6.01145
5.9852
5.97252
6.57264
6.57176
6.56696
6.55886
6.54734
6.53226
6.51343
6.49057
6.4635
6.43205
6.39607
6.35554
6.31059
6.26161
6.20927
6.15462
6.09912
6.04476
5.99411
5.94865
6.6291
6.6297
6.62789
6.62632
6.6227
6.61949
6.61392
6.60908
6.60143
6.59491
6.585
6.57673
6.56438
6.55422
6.53925
6.52717
6.50936
6.49522
6.47447
6.45812
6.43441
6.41572
6.38915
6.36804
6.33888
6.31529
6.28408
6.25802
6.22555
6.19716
6.16448
6.13405
6.10246
6.07041
6.04131
6.00821
5.9829
5.94908
5.92919
6.62636
6.62505
6.62039
6.61251
6.60124
6.58634
6.56752
6.54438
6.51657
6.48367
6.44529
6.4011
6.35096
6.29495
6.23354
6.16767
6.09891
6.02952
5.96274
5.90045
6.68842
6.68788
6.68675
6.68472
6.68187
6.67832
6.6736
6.6685
6.66171
6.65501
6.64588
6.63747
6.62572
6.61544
6.60074
6.58846
6.57042
6.55594
6.53426
6.51732
6.49173
6.47211
6.44247
6.41992
6.38631
6.36063
6.32344
6.29447
6.25449
6.22219
6.18063
6.1451
6.10361
6.06521
6.02565
5.98483
5.94921
5.90633
5.87646
6.67042
6.6686
6.66437
6.65718
6.64682
6.63298
6.61528
6.59317
6.56613
6.53345
6.49442
6.4483
6.39447
6.33252
6.26243
6.18483
6.10112
6.01392
5.92695
5.84297
6.73645
6.7345
6.73429
6.73179
6.73011
6.72631
6.723
6.71785
6.71264
6.70607
6.69864
6.69052
6.68046
6.6706
6.65746
6.64562
6.62882
6.61474
6.59366
6.57699
6.55101
6.53137
6.49995
6.47692
6.43971
6.41289
6.36989
6.33889
6.29069
6.25517
6.20304
6.16283
6.1088
6.0638
6.01055
5.96124
5.91168
5.85799
5.81438
6.70037
6.69802
6.69446
6.6884
6.6796
6.6677
6.65224
6.63263
6.60814
6.57781
6.54055
6.49512
6.44022
6.37464
6.29751
6.20863
6.10902
6.00097
5.88935
5.77715
6.76696
6.76347
6.76435
6.76145
6.76124
6.75735
6.7559
6.75097
6.748
6.74193
6.73712
6.72976
6.72262
6.7138
6.70376
6.69313
6.67947
6.6667
6.64846
6.63312
6.60922
6.59078
6.56004
6.5379
6.49921
6.47271
6.42532
6.39371
6.33753
6.30005
6.23603
6.19199
6.12247
6.0717
6.00003
5.94165
5.87302
5.8075
5.74388
6.71069
6.70785
6.70514
6.70056
6.69381
6.68459
6.67241
6.65667
6.6366
6.61101
6.57852
6.53739
6.48548
6.42045
6.34004
6.24245
6.12688
5.99589
5.85313
5.70463
6.77374
6.76885
6.77081
6.76763
6.76898
6.7652
6.76584
6.76136
6.76106
6.75581
6.75429
6.74812
6.74491
6.73768
6.73225
6.72354
6.71512
6.70459
6.69199
6.67915
6.66085
6.64505
6.61912
6.59956
6.56373
6.53944
6.49131
6.46131
6.39893
6.36232
6.28533
6.24081
6.15151
6.09626
6.00012
5.93468
5.8386
5.75851
5.66812
6.69618
6.693
6.6912
6.68818
6.68368
6.67747
6.66913
6.65817
6.64391
6.62515
6.60045
6.56776
6.52425
6.46621
6.38915
6.28853
6.16158
6.00582
5.82885
5.63095
6.74944
6.74357
6.74639
6.74315
6.74584
6.74235
6.74488
6.74107
6.74333
6.73911
6.74096
6.73623
6.73734
6.73206
6.7321
6.72583
6.72424
6.71672
6.71239
6.70318
6.69451
6.68295
6.6675
6.65265
6.62696
6.60752
6.56698
6.54125
6.48109
6.44699
6.36355
6.31889
6.21036
6.15545
6.02517
5.95267
5.81722
5.73164
5.5892
6.65406
6.65078
6.64976
6.64808
6.64558
6.6421
6.63737
6.63113
6.62291
6.61181
6.59671
6.57579
6.54621
6.50359
6.44106
6.34958
6.21981
6.04724
5.81775
5.55641
6.68935
6.68319
6.68642
6.68335
6.68679
6.68374
6.68747
6.68435
6.68838
6.68517
6.68953
6.68618
6.69081
6.68738
6.6923
6.68845
6.6936
6.68923
6.69408
6.68895
6.69259
6.68626
6.68683
6.67855
6.67264
6.66109
6.64246
6.62562
6.58447
6.55945
6.47875
6.44336
6.3074
6.2667
6.08057
6.03836
5.82526
5.70545
5.52744
6.58132
6.57825
6.57771
6.57689
6.57567
6.57403
6.57186
6.56913
6.56572
6.56118
6.55503
6.54631
6.53321
6.51247
6.4775
6.41754
6.30521
6.10918
5.88716
5.54985
6.59276
6.58719
6.5902
6.58752
6.59085
6.58827
6.59206
6.58951
6.59385
6.59136
6.59643
6.59398
6.59994
6.5977
6.60493
6.60269
6.61168
6.60958
6.62066
6.61881
6.63238
6.63085
6.64693
6.64575
6.66336
6.66226
6.67772
6.6757
6.68091
6.67459
6.64968
6.63024
6.56527
6.501
6.35171
6.19169
5.88904
5.91155
5.35002
6.4791
6.47656
6.4761
6.47544
6.47452
6.4734
6.47209
6.47075
6.46951
6.46839
6.46758
6.46719
6.4672
6.46718
6.46493
6.45581
6.41384
6.31401
5.92298
5.40036
6.46158
6.4574
6.45957
6.45744
6.45978
6.45762
6.46024
6.45801
6.46101
6.45872
6.4623
6.45998
6.46438
6.46216
6.46785
6.46566
6.47338
6.47142
6.4821
6.48064
6.4958
6.49528
6.51721
6.51831
6.55032
6.55414
6.60019
6.60845
6.67205
6.68756
6.75845
6.78765
6.83232
6.88993
6.61764
6.78771
6.12102
6.21576
5.41369
6.35185
6.35004
6.3493
6.34813
6.34654
6.34461
6.34243
6.34022
6.33827
6.33687
6.33662
6.33826
6.34275
6.35132
6.36489
6.38608
6.41149
6.49967
6.2548
4.85473
6.30457
6.30229
6.30323
6.30173
6.30245
6.30066
6.30122
6.29909
6.29954
6.29708
6.29751
6.2947
6.29521
6.29212
6.29293
6.28951
6.29101
6.28733
6.29005
6.28626
6.29118
6.28754
6.29647
6.29346
6.30976
6.30838
6.33843
6.34061
6.39695
6.40669
6.51174
6.53646
6.74407
6.79647
7.15576
7.24589
8.69403
9.00084
8.33112
6.20415
6.20308
6.20174
6.19956
6.19654
6.19278
6.18837
6.18354
6.17863
6.17419
6.17115
6.17107
6.17659
6.19202
6.22436
6.28276
6.37451
6.49953
6.48645
9.59213
6.13948
6.13828
6.13851
6.13696
6.13678
6.13459
6.13384
6.13099
6.12971
6.12617
6.12435
6.12006
6.11772
6.11264
6.10981
6.10381
6.10055
6.09352
6.08991
6.08166
6.07786
6.06816
6.06457
6.05302
6.05057
6.03718
6.03894
6.02285
6.03583
6.02522
6.07884
6.06645
6.21781
6.35793
6.9412
6.99361
8.31723
12.252
22.36
SCALARS Stress_Shear double 1
LOOKUP_TABLE default
-0.000139306
1.96926e-05
9.16058e-05
0.00011491
0.000171881
0.000191566
0.000255712
0.000264939
0.000335437
0.000334267
0.000409397
0.000397663
0.000477201
0.000454745
0.000531616
0.000501957
0.000577549
0.000537024
0.000607085
0.000557695
0.000618018
0.000560069
0.000605945
0.000539528
0.000565192
0.000489719
0.000487889
0.000401459
0.000362561
0.00026147
0.000172837
5.36947e-05
-9.93824e-05
-0.000226401
-0.000448099
-0.000509902
-0.000744447
-0.000501104
-0.000262881
-4.63799e-05
0.00140346
0.00277063
0.00407309
0.00527557
0.00634576
0.00725259
0.00796329
0.00845197
0.00869096
0.00865871
0.00833844
0.0077206
0.00680581
0.00560965
0.00417191
0.00257761
0.00100736
-0.000140154
-0.000193545
1.96222e-05
0.00133356
0.00266658
0.00396326
0.0052734
0.00649932
0.00775081
0.00887637
0.0100368
0.0110318
0.0120695
0.0129047
0.0137889
0.0144367
0.0151375
0.0155711
0.0160604
0.0162583
0.016511
0.0164548
0.0164496
0.0161267
0.0158478
0.0152537
0.0146931
0.0138345
0.0129951
0.011895
0.0107966
0.00950355
0.00819246
0.00679487
0.00536156
0.00401066
0.00261865
0.0015544
0.000476372
4.74658e-05
-0.000348526
2.1697e-05
0.00363117
0.00717551
0.010545
0.0136534
0.0164168
0.0187548
0.020592
0.0218569
0.0224913
0.0224478
0.0216966
0.0202307
0.0180742
0.0152941
0.0120175
0.00845654
0.00493752
0.00191444
-0.000110806
9.25059e-06
0.00228287
0.00456414
0.00678907
0.00901776
0.0111325
0.0132527
0.0152037
0.0171614
0.0188967
0.0206393
0.0221093
0.0235865
0.024746
0.0259104
0.0267153
0.0275233
0.0279401
0.0283559
0.0283574
0.0283529
0.0279234
0.0274821
0.0266207
0.0257411
0.0244658
0.0231665
0.0215202
0.0198461
0.017903
0.0159324
0.0138042
0.0116555
0.00949399
0.00732601
0.00531144
0.00330416
0.00160504
-6.07864e-05
6.55776e-06
0.0053094
0.0104923
0.0154235
0.0199799
0.0240421
0.0274965
0.030238
0.0321686
0.0332111
0.0333055
0.0324179
0.0305478
0.0277359
0.0240742
0.0197143
0.0148702
0.0098052
0.00477934
-1.26008e-05
6.8948e-06
0.00302578
0.00604919
0.00900534
0.0119566
0.0147735
0.0175821
0.0201911
0.022788
0.0251224
0.0274407
0.0294372
0.0314135
0.0330143
0.0345889
0.0357386
0.036858
0.0375144
0.0381351
0.0382647
0.0383538
0.0379372
0.0374764
0.0365119
0.035501
0.034008
0.0324687
0.0304912
0.0284706
0.0260788
0.0236509
0.0209388
0.0182015
0.0152771
0.0123404
0.00930174
0.00625887
0.00315812
4.59809e-05
8.4053e-07
0.00667758
0.0132027
0.0194244
0.0251943
0.0303683
0.0348098
0.0383916
0.0409955
0.0425275
0.0429134
0.0421082
0.0401021
0.0369272
0.0326613
0.0274283
0.0213897
0.0147218
0.00757128
8.64503e-06
5.66257e-06
0.00366084
0.00731826
0.0109009
0.0144736
0.0178984
0.0213061
0.0244937
0.0276572
0.0305305
0.0333728
0.0358584
0.0383065
0.0403367
0.0423211
0.0438301
0.045288
0.0462245
0.0471037
0.0474249
0.0476842
0.0473616
0.0469744
0.0459966
0.0449538
0.043329
0.0416416
0.0393991
0.0370993
0.0342889
0.031429
0.0281164
0.024764
0.0210221
0.0172492
0.0131422
0.00900732
0.00457192
9.97072e-05
-2.62607e-06
0.00788792
0.0156072
0.0229904
0.0298722
0.0360912
0.0414928
0.0459306
0.0492655
0.051383
0.0521861
0.0516053
0.0496033
0.0461799
0.0413745
0.0352639
0.0279557
0.019573
0.010231
1.19566e-05
5.07866e-06
0.00424218
0.00848051
0.0126396
0.016786
0.0207761
0.0247443
0.028479
0.0321832
0.0355783
0.0389341
0.0419077
0.0448342
0.0473093
0.0497276
0.0516273
0.0534635
0.0547247
0.0559152
0.0564809
0.0569708
0.0567969
0.056544
0.055601
0.0545782
0.0528538
0.0510515
0.048552
0.0459789
0.0427291
0.039412
0.0354532
0.0314345
0.0268202
0.022153
0.016943
0.0116814
0.00593466
0.000133045
-3.24162e-06
0.00901416
0.0178515
0.0263359
0.0342916
0.0415448
0.0479257
0.0532689
0.0574113
0.0602118
0.0615406
0.0612903
0.0593804
0.0557626
0.0504248
0.0433922
0.0347274
0.0245261
0.01291
1.3136e-05
5.23485e-06
0.0047897
0.00957523
0.0142798
0.0189711
0.0235022
0.0280102
0.0322779
0.036513
0.0404279
0.0443007
0.047774
0.0511966
0.0541419
0.0570259
0.0593537
0.061612
0.0632446
0.0647987
0.0656602
0.0664366
0.0664609
0.0663952
0.0655281
0.0645682
0.0627699
0.0608786
0.0581271
0.0552847
0.0515779
0.0477843
0.0431415
0.0384172
0.0328803
0.0272678
0.0209014
0.0144611
0.00735284
0.000172039
-1.69674e-06
0.0100658
0.0199546
0.0294888
0.0384888
0.0467729
0.0541591
0.060463
0.0654945
0.0690801
0.0710479
0.0712406
0.0695214
0.0657806
0.0599435
0.0519777
0.0419002
0.0297841
0.0157623
1.71595e-05
6.12867e-06
0.00529398
0.0105837
0.015794
0.0209922
0.0260318
0.0310503
0.0358293
0.0405781
0.0450049
0.0493919
0.0533722
0.0573042
0.0607429
0.0641219
0.0669162
0.0696405
0.0716953
0.073669
0.0748855
0.0760117
0.0762965
0.0764832
0.0757504
0.0749137
0.0730897
0.0711581
0.068186
0.0651053
0.0609507
0.0566888
0.0513453
0.0458977
0.0393925
0.0327884
0.0251881
0.0174901
0.0089041
0.00022444
2.00588e-06
0.0109978
0.0218275
0.032319
0.0422965
0.051577
0.0599704
0.0672755
0.0732739
0.0777553
0.080498
0.0812842
0.0799065
0.0761785
0.0699471
0.0611063
0.0496129
0.0355031
0.0189043
2.78124e-05
7.65546e-06
0.00571945
0.0114349
0.0170763
0.022709
0.0281917
0.0336591
0.0388979
0.044114
0.0490189
0.0538924
0.058367
0.0628021
0.0667441
0.070635
0.0739285
0.0771586
0.0796902
0.0821442
0.0837887
0.0853429
0.0859742
0.0865034
0.085997
0.0853782
0.0836174
0.0817362
0.0786195
0.075377
0.0708267
0.0661483
0.0601212
0.0539663
0.0464635
0.0388361
0.0299141
0.0208664
0.0106435
0.000298631
8.22802e-06
0.0117131
0.0232788
0.0345454
0.0453517
0.0555228
0.0648682
0.0731753
0.0801992
0.0856921
0.0893762
0.0909622
0.0901568
0.0866761
0.0802635
0.0707112
0.0578855
0.0417535
0.0224046
4.91735e-05
9.79073e-06
0.00600445
0.0120055
0.0179431
0.023878
0.0296807
0.0354783
0.0410722
0.0466566
0.051959
0.0572454
0.0621625
0.0670572
0.0714837
0.0758767
0.079686
0.0834476
0.0865085
0.089504
0.091663
0.0937396
0.0948329
0.0958264
0.0956828
0.0954229
0.0938709
0.0921882
0.0890666
0.0858028
0.0809734
0.075994
0.0693568
0.0625653
0.0540749
0.0454301
0.0351127
0.0246352
0.0125995
0.000403527
1.68077e-05
0.0120632
0.0240142
0.0357339
0.0470901
0.0579291
0.0680725
0.0773068
0.0853682
0.0919746
0.0967899
0.0994439
0.0995396
0.096669
0.0904367
0.08049
0.0665558
0.0484811
0.0262679
8.34109e-05
1.27365e-05
0.00606233
0.0121224
0.0181358
0.0241554
0.0300725
0.0359999
0.0417662
0.0475432
0.0530911
0.0586474
0.0638936
0.069145
0.0739876
0.0788264
0.0831345
0.087423
0.0910509
0.0946381
0.0974044
0.100108
0.101808
0.10342
0.103827
0.104122
0.102995
0.101733
0.0988314
0.0957733
0.0908729
0.0857992
0.0787131
0.0714424
0.0620474
0.0524612
0.0407225
0.0287796
0.0147708
0.000550558
2.76275e-05
0.0118506
0.0236409
0.0353015
0.0467466
0.0578619
0.0684993
0.0784617
0.0874822
0.0952555
0.101392
0.105436
0.106871
0.105132
0.09964
0.0898352
0.0752337
0.0554854
0.0304308
0.000131468
1.6105e-05
0.00578147
0.0115624
0.0173204
0.0230967
0.0288138
0.0345617
0.0402122
0.0459013
0.0514428
0.0570272
0.0623975
0.0678131
0.0729245
0.0780771
0.0828049
0.0875581
0.091751
0.0959457
0.0993998
0.102829
0.105298
0.10771
0.108907
0.11001
0.10961
0.109078
0.106734
0.104224
0.09959
0.0947594
0.0875204
0.0800605
0.069967
0.0596376
0.0465502
0.0332005
0.0171152
0.000750631
4.01898e-05
0.0108344
0.0216773
0.0325272
0.0433638
0.0541347
0.0647463
0.0750443
0.0847855
0.0936662
0.101262
0.10704
0.110354
0.110453
0.106517
0.0976997
0.0832014
0.0623603
0.0347405
0.000205906
1.95268e-05
0.00503104
0.0100637
0.0151042
0.0201771
0.025248
0.0303744
0.0354886
0.0406759
0.0458279
0.0510667
0.0562288
0.0614892
0.066603
0.0718201
0.0767844
0.0818399
0.0865141
0.0912571
0.0954298
0.0996411
0.103036
0.106428
0.108696
0.11091
0.111629
0.112239
0.110931
0.109456
0.105607
0.101538
0.0946421
0.0874838
0.0770976
0.0664137
0.0522144
0.0376805
0.0195353
0.00101847
5.26847e-05
0.00874637
0.0175834
0.0265921
0.0358367
0.0453496
0.0551209
0.065075
0.0750345
0.0847415
0.0937797
0.101572
0.107357
0.110183
0.108931
0.102365
0.0892263
0.0683645
0.0388882
0.000317282
2.22489e-05
0.00367323
0.00735054
0.0110713
0.0148388
0.0186719
0.0225864
0.0265915
0.0307067
0.0349259
0.0392813
0.0437362
0.0483521
0.0530328
0.0578947
0.0627485
0.0677816
0.0727061
0.0777961
0.0826018
0.0875467
0.091953
0.0964539
0.100068
0.103714
0.106021
0.10828
0.108645
0.108872
0.106562
0.104025
0.0982608
0.0921858
0.0822132
0.0718761
0.057092
0.0418584
0.0218646
0.00137765
6.24233e-05
0.0053242
0.010825
0.0166725
0.0230265
0.0300232
0.0377659
0.0462997
0.0555705
0.0654362
0.0755682
0.0854253
0.0941952
0.100753
0.103649
0.101145
0.0913215
0.0722735
0.0423484
0.000456843
2.27912e-05
0.00158239
0.00317113
0.00483918
0.00656495
0.00842734
0.0103912
0.0125559
0.0148617
0.0174252
0.0201691
0.0232148
0.0264826
0.030069
0.0339197
0.0380742
0.0425107
0.0472089
0.0521971
0.0573213
0.0627287
0.0680496
0.0736208
0.0787547
0.0840738
0.0884467
0.092905
0.095729
0.0985075
0.0987815
0.0988629
0.0954217
0.0916502
0.0832891
0.0744514
0.0600278
0.0450549
0.023822
0.00191458
6.54209e-05
0.00036853
0.000987441
0.00210637
0.00397647
0.00684296
0.0109413
0.0164742
0.0235772
0.032316
0.0425762
0.0540037
0.065894
0.0770797
0.0858369
0.0898434
0.0862831
0.0720666
0.0442686
0.000719011
1.98948e-05
-0.001316
-0.00262448
-0.00382436
-0.00496415
-0.00590584
-0.00674044
-0.0072757
-0.00765814
-0.00763978
-0.00741877
-0.00669781
-0.00571656
-0.00415354
-0.00226134
0.000282011
0.00320039
0.00682409
0.0108698
0.0155994
0.0207888
0.0265407
0.0327629
0.0392731
0.0462195
0.0529629
0.060048
0.0661554
0.0724458
0.0766495
0.0808163
0.0814618
0.0817957
0.0769187
0.0715614
0.0593145
0.0462174
0.0248183
0.00251341
5.77145e-05
-0.00618074
-0.0120705
-0.0173715
-0.0217694
-0.0249309
-0.0264971
-0.0260971
-0.0233578
-0.017915
-0.00951156
0.00192081
0.0160905
0.0321215
0.0482888
0.0618054
0.0687188
0.0641855
0.0430274
0.000985062
1.21026e-05
-0.00500414
-0.0100015
-0.0148761
-0.0197021
-0.024294
-0.0287976
-0.0329403
-0.0369529
-0.0404675
-0.0438022
-0.0464891
-0.0489315
-0.0505778
-0.05189
-0.0522342
-0.0521725
-0.0509574
-0.0492407
-0.0462234
-0.0425961
-0.037588
-0.0318664
-0.0248248
-0.0169976
-0.00816532
0.00145705
0.0113559
0.0219342
0.0315118
0.0414991
0.0486051
0.0557109
0.0574212
0.0584975
0.0511425
0.043122
0.0241908
0.00391164
3.68448e-05
-0.0141633
-0.0280482
-0.0413623
-0.0537839
-0.0649478
-0.0744254
-0.0817242
-0.0862499
-0.087315
-0.0841764
-0.07609
-0.0624832
-0.0432727
-0.019415
0.00646065
0.0295383
0.0423067
0.0358912
0.00198123
-1.5851e-07
-0.00933244
-0.0186614
-0.0278758
-0.037069
-0.0460331
-0.0549571
-0.063521
-0.0720217
-0.0800118
-0.0879063
-0.0951119
-0.102172
-0.108349
-0.114294
-0.119089
-0.123582
-0.126603
-0.129198
-0.129965
-0.130132
-0.12809
-0.125225
-0.119806
-0.113307
-0.104068
-0.093508
-0.0804213
-0.0659311
-0.0498539
-0.0325752
-0.016061
0.00130721
0.0138899
0.0269826
0.0308303
0.0326597
0.0194891
0.00451785
3.2814e-06
-0.0231306
-0.0460573
-0.0685595
-0.090383
-0.111218
-0.130669
-0.148244
-0.163255
-0.174822
-0.181795
-0.182705
-0.175782
-0.159139
-0.131351
-0.0927089
-0.0479345
-0.00642812
0.0163894
0.00188027
-1.4665e-05
-0.0139885
-0.0279791
-0.0418876
-0.0558146
-0.0695651
-0.0833468
-0.0968451
-0.110384
-0.123509
-0.13668
-0.14927
-0.1619
-0.173757
-0.18561
-0.196382
-0.207138
-0.216407
-0.225586
-0.232749
-0.239678
-0.243889
-0.247621
-0.247745
-0.24699
-0.2416
-0.2347
-0.222256
-0.207453
-0.186914
-0.16294
-0.1353
-0.104225
-0.0739425
-0.0426857
-0.0208701
0.00344393
0.00840168
0.0110016
-3.60624e-05
-0.0323359
-0.0645932
-0.0966799
-0.128479
-0.159827
-0.190486
-0.220138
-0.248232
-0.274011
-0.296326
-0.313439
-0.322773
-0.320597
-0.301827
-0.260502
-0.193234
-0.106415
-0.0255183
0.00640841
-2.73235e-05
-0.018527
-0.0370621
-0.0555654
-0.0741285
-0.0926049
-0.111188
-0.129627
-0.148219
-0.166589
-0.185165
-0.203411
-0.221915
-0.239969
-0.258309
-0.275945
-0.293967
-0.310931
-0.328347
-0.344185
-0.360514
-0.37447
-0.388892
-0.399735
-0.410864
-0.416602
-0.422111
-0.419584
-0.415847
-0.400315
-0.381803
-0.346946
-0.308827
-0.249329
-0.185677
-0.118293
-0.0519312
-0.0253516
-0.00539987
-7.21913e-05
-0.04084
-0.0817436
-0.122769
-0.163967
-0.20537
-0.246979
-0.28878
-0.330578
-0.372102
-0.412782
-0.451543
-0.486407
-0.513792
-0.527237
-0.515649
-0.459387
-0.329542
-0.156195
0.0192842
-3.60452e-05
-0.0224445
-0.0449006
-0.067378
-0.0899448
-0.112524
-0.135264
-0.158018
-0.181006
-0.203999
-0.227313
-0.250611
-0.274329
-0.298026
-0.322237
-0.346306
-0.371096
-0.395579
-0.421016
-0.44585
-0.47196
-0.496922
-0.523611
-0.54814
-0.575024
-0.597883
-0.623823
-0.642401
-0.66461
-0.673921
-0.68497
-0.675687
-0.660539
-0.619576
-0.533709
-0.44124
-0.304111
-0.0968725
0.126269
-9.46688e-05
-0.0476949
-0.0955681
-0.1438
-0.192581
-0.242111
-0.292602
-0.344329
-0.397477
-0.452356
-0.509245
-0.568361
-0.629687
-0.692531
-0.754278
-0.807995
-0.834245
-0.797364
-0.554101
0.20294
-3.38575e-05
-0.0252961
-0.050607
-0.0759771
-0.101444
-0.127001
-0.152732
-0.1786
-0.204718
-0.231022
-0.257665
-0.284547
-0.311869
-0.33953
-0.36772
-0.396274
-0.425559
-0.455285
-0.485959
-0.51716
-0.549624
-0.582707
-0.617533
-0.653023
-0.691068
-0.72961
-0.772167
-0.814235
-0.863312
-0.90829
-0.966396
-1.0078
-1.07866
-1.0938
-1.17272
-1.06507
-1.19712
-0.78436
-0.168763
-8.36346e-05
-0.0521508
-0.104534
-0.157393
-0.21098
-0.265567
-0.321452
-0.379021
-0.4386
-0.500727
-0.566046
-0.635425
-0.710102
-0.791941
-0.883711
-0.989985
-1.11459
-1.26661
-1.35717
-1.63169
-9.06514e-07
-0.0268101
-0.0536555
-0.0805515
-0.107552
-0.134658
-0.16194
-0.189382
-0.217077
-0.244986
-0.273234
-0.301748
-0.3307
-0.360009
-0.389833
-0.420024
-0.450909
-0.482201
-0.51437
-0.546968
-0.580692
-0.614839
-0.650477
-0.686482
-0.724566
-0.76294
-0.804449
-0.846099
-0.89306
-0.94096
-0.999359
-1.05904
-1.1432
-1.25011
-1.42664
-1.60305
-1.97349
-3.08785
-5.2868
SCALARS Radial_Distance double 1
LOOKUP_TABLE default
0
0.0777
0.1554
0.2331
0.3108
0.3885
0.4662
0.5439
0.6216
0.6993
0.777
0.8547
0.9324
1.0102
1.0879
1.1656
1.2433
1.321
1.3987
1.4764
1.5541
1.6318
1.7095
1.7872
1.8649
1.9426
2.0203
2.098
2.1757
2.2534
2.3311
2.4088
2.4865
2.5642
2.6419
2.7196
2.7973
2.8751
2.9528
0
0.1554
0.3108
0.4662
0.6216
0.777
0.9324
1.0879
1.2433
1.3987
1.5541
1.7095
1.8649
2.0203
2.1757
2.3311
2.4865
2.6419
2.7973
2.9528
0
0.0777
0.1554
0.2331
0.3108
0.3885
0.4662
0.5439
0.6216
0.6993
0.777
0.8547
0.9324
1.0102
1.0879
1.1656
1.2433
1.321
1.3987
1.4764
1.5541
1.6318
1.7095
1.7872
1.8649
1.9426
2.0203
2.098
2.1757
2.2534
2.3311
2.4088
2.4865
2.5642
2.6419
2.7196
2.7973
2.8751
2.9528
0
0.1554
0.3108
0.4662
0.6216
0.777
0.9324
1.0879
1.2433
1.3987
1.5541
1.7095
1.8649
2.0203
2.1757
2.3311
2.4865
2.6419
2.7973
2.9528
0
0.0777
0.1554
0.2331
0.3108
0.3885
0.4662
0.5439
0.6216
0.6993
0.777
0.8547
0.9324
1.0102
1.0879
1.1656
1.2433
1.321
1.3987
1.4764
1.5541
1.6318
1.7095
1.7872
1.8649
1.9426
2.0203
2.098
2.1757
2.2534
2.3311
2.4088
2.4865
2.5642
2.6419
2.7196
2.7973
2.8751
2.9528
0
0.1554
0.3108
0.4662
0.6216
0.777
0.9324
1.0879
1.2433
1.3987
1.5541
1.7095
1.8649
2.0203
2.1757
2.3311
2.4865
2.6419
2.7973
2.9528
0
0.0777
0.1554
0.2331
0.3108
0.3885
0.4662
0.5439
0.6216
0.6993
0.777
0.8547
0.9324
1.0102
1.0879
1.1656
1.2433
1.321
1.3987
1.4764
1.5541
1.6318
1.7095
1.7872
1.8649
1.9426
2.0203
2.098
2.1757
2.2534
2.3311
2.4088
2.4865
2.5642
2.6419
2.7196
2.7973
2.8751
2.9528
0
0.1554
0.3108
0.4662
0.6216
0.777
0.9324
1.0879
1.2433
1.3987
1.5541
1.7095
1.8649
2.0203
2.1757
2.3311
2.4865
2.6419
2.7973
2.9528
0
0.0777
0.1554
0.2331
0.3108
0.3885
0.4662
0.5439
0.6216
0.6993
0.777
0.8547
0.9324
1.0102
1.0879
1.1656
1.2433
1.321
1.3987
1.4764
1.5541
1.6318
1.7095
1.7872
1.8649
1.9426
2.0203
2.098
2.1757
2.2534
2.3311
2.4088
2.4865
2.5642
2.6419
2.7196
2.7973
2.8751
2.9528
0
0.1554
0.3108
0.4662
0.6216
0.777
0.9324
1.0879
1.2433
1.3987
1.5541
1.7095
1.8649
2.0203
2.1757
2.3311
2.4865
2.6419
2.7973
2.9528
0
0.0777
0.1554
0.2331
0.3108
0.3885
0.4662
0.5439
0.6216
0.6993
0.777
0.8547
0.9324
1.0102
1.0879
1.1656
1.2433
1.321
1.3987
1.4764
1.5541
1.6318
1.7095
1.7872
1.8649
1.9426
2.0203
2.098
2.1757
2.2534
2.3311
2.4088
2.4865
2.5642
2.6419
2.7196
2.7973
2.8751
2.9528
0
0.1554
0.3108
0.4662
0.6216
0.777
0.9324
1.0879
1.2433
1.3987
1.5541
1.7095
1.8649
2.0203
2.1757
2.3311
2.4865
2.6419
2.7973
2.9528
0
0.0777
0.1554
0.2331
0.3108
0.3885
0.4662
0.5439
0.6216
0.6993
0.777
0.8547
0.9324
1.0102
1.0879
1.1656
1.2433
1.321
1.3987
1.4764
1.5541
1.6318
1.7095
1.7872
1.8649
1.9426
2.0203
2.098
2.1757
2.2534
2.3311
2.4088
2.4865
2.5642
2.6419
2.7196
2.7973
2.8751
2.9528
0
0.1554
0.3108
0.4662
0.6216
0.777
0.9324
1.0879
1.2433
1.3987
1.5541
1.7095
1.8649
2.0203
2.1757
2.3311
2.4865
2.6419
2.7973
2.9528
0
0.0777
0.1554
0.2331
0.3108
0.3885
0.4662
0.5439
0.6216
0.6993
0.777
0.8547
0.9324
1.0102
1.0879
1.1656
1.2433
1.321
1.3987
1.4764
1.5541
1.6318
1.7095
1.7872
1.8649
1.9426
2.0203
2.098
2.1757
2.2534
2.3311
2.4088
2.4865
2.5642
2.6419
2.7196
2.7973
2.8751
2.9528
0
0.1554
0.3108
0.4662
0.6216
0.777
0.9324
1.0879
1.2433
1.3987
1.5541
1.7095
1.8649
2.0203
2.1757
2.3311
2.4865
2.6419
2.7973
2.9528
0
0.0777
0.1554
0.2331
0.3108
0.3885
0.4662
0.5439
0.6216
0.6993
0.777
0.8547
0.9324
1.0102
1.0879
1.1656
1.2433
1.321
1.3987
1.4764
1.5541
1.6318
1.7095
1.7872
1.8649
1.9426
2.0203
2.098
2.1757
2.2534
2.3311
2.4088
2.4865
2.5642
2.6419
2.7196
2.7973
2.8751
2.9528
0
0.1554
0.3108
0.4662
0.6216
0.777
0.9324
1.0879
1.2433
1.3987
1.5541
1.7095
1.8649
2.0203
2.1757
2.3311
2.4865
2.6419
2.7973
2.9528
0
0.0777
0.1554
0.2331
0.3108
0.3885
0.4662
0.5439
0.6216
0.6993
0.777
0.8547
0.9324
1.0102
1.0879
1.1656
1.2433
1.321
1.3987
1.4764
1.5541
1.6318
1.7095
1.7872
1.8649
1.9426
2.0203
2.098
2.1757
2.2534
2.3311
2.4088
2.4865
2.5642
2.6419
2.7196
2.7973
2.8751
2.9528
0
0.1554
0.3108
0.4662
0.6216
0.777
0.9324
1.0879
1.2433
1.3987
1.5541
1.7095
1.8649
2.0203
2.1757
2.3311
2.4865
2.6419
2.7973
2.9528
0
0.0777
0.1554
0.2331
0.3108
0.3885
0.4662
0.5439
0.6216
0.6993
0.777
0.8547
0.9324
1.0102
1.0879
1.1656
1.2433
1.321
1.3987
1.4764
1.5541
1.6318
1.7095
1.7872
1.8649
1.9426
2.0203
2.098
2.1757
2.2534
2.3311
2.4088
2.4865
2.5642
2.6419
2.7196
2.7973
2.8751
2.9528
0
0.1554
0.3108
0.4662
0.6216
0.777
0.9324
1.0879
1.2433
1.3987
1.5541
1.7095
1.8649
2.0203
2.1757
2.3311
2.4865
2.6419
2.7973
2.9528
0
0.0777
0.1554
0.2331
0.3108
0.3885
0.4662
0.5439
0.6216
0.6993
0.777
0.8547
0.9324
1.0102
1.0879
1.1656
1.2433
1.321
1.3987
1.4764
1.5541
1.6318
1.7095
1.7872
1.8649
1.9426
2.0203
2.098
2.1757
2.2534
2.3311
2.4088
2.4865
2.5642
2.6419
2.7196
2.7973
2.8751
2.9528
0
0.1554
0.3108
0.4662
0.6216
0.777
0.9324
1.0879
1.2433
1.3987
1.5541
1.7095
1.8649
2.0203
2.1757
2.3311
2.4865
2.6419
2.7973
2.9528
0
0.0777
0.1554
0.2331
0.3108
0.3885
0.4662
0.5439
0.6216
0.6993
0.777
0.8547
0.9324
1.0102
1.0879
1.1656
1.2433
1.321
1.3987
1.4764
1.5541
1.6318
1.7095
1.7872
1.8649
1.9426
2.0203
2.098
2.1757
2.2534
2.3311
2.4088
2.4865
2.5642
2.6419
2.7196
2.7973
2.8751
2.9528
0
0.1554
0.3108
0.4662
0.6216
0.777
0.9324
1.0879
1.2433
1.3987
1.5541
1.7095
1.8649
2.0203
2.1757
2.3311
2.4865
2.6419
2.7973
2.9528
0
0.0777
0.1554
0.2331
0.3108
0.3885
0.4662
0.5439
0.6216
0.6993
0.777
0.8547
0.9324
1.0102
1.0879
1.1656
1.2433
1.321
1.3987
1.4764
1.5541
1.6318
1.7095
1.7872
1.8649
1.9426
2.0203
2.098
2.1757
2.2534
2.3311
2.4088
2.4865
2.5642
2.6419
2.7196
2.7973
2.8751
2.9528
0
0.1554
0.3108
0.4662
0.6216
0.777
0.9324
1.0879
1.2433
1.3987
1.5541
1.7095
1.8649
2.0203
2.1757
2.3311
2.4865
2.6419
2.7973
2.9528
0
0.0777
0.1554
0.2331
0.3108
0.3885
0.4662
0.5439
0.6216
0.6993
0.777
0.8547
0.9324
1.0102
1.0879
1.1656
1.2433
1.321
1.3987
1.4764
1.5541
1.6318
1.7095
1.7872
1.8649
1.9426
2.0203
2.098
2.1757
2.2534
2.3311
2.4088
2.4865
2.5642
2.6419
2.7196
2.7973
2.8751
2.9528
0
0.1554
0.3108
0.4662
0.6216
0.777
0.9324
1.0879
1.2433
1.3987
1.5541
1.7095
1.8649
2.0203
2.1757
2.3311
2.4865
2.6419
2.7973
2.9528
0
0.0777
0.1554
0.2331
0.3108
0.3885
0.4662
0.5439
0.6216
0.6993
0.777
0.8547
0.9324
1.0102
1.0879
1.1656
1.2433
1.321
1.3987
1.4764
1.5541
1.6318
1.7095
1.7872
1.8649
1.9426
2.0203
2.098
2.1757
2.2534
2.3311
2.4088
2.4865
2.5642
2.6419
2.7196
2.7973
2.8751
2.9528
0
0.1554
0.3108
0.4662
0.6216
0.777
0.9324
1.0879
1.2433
1.3987
1.5541
1.7095
1.8649
2.0203
2.1757
2.3311
2.4865
2.6419
2.7973
2.9528
0
0.0777
0.1554
0.2331
0.3108
0.3885
0.4662
0.5439
0.6216
0.6993
0.777
0.8547
0.9324
1.0102
1.0879
1.1656
1.2433
1.321
1.3987
1.4764
1.5541
1.6318
1.7095
1.7872
1.8649
1.9426
2.0203
2.098
2.1757
2.2534
2.3311
2.4088
2.4865
2.5642
2.6419
2.7196
2.7973
2.8751
2.9528
0
0.1554
0.3108
0.4662
0.6216
0.777
0.9324
1.0879
1.2433
1.3987
1.5541
1.7095
1.8649
2.0203
2.1757
2.3311
2.4865
2.6419
2.7973
2.9528
0
0.0777
0.1554
0.2331
0.3108
0.3885
0.4662
0.5439
0.6216
0.6993
0.777
0.8547
0.9324
1.0102
1.0879
1.1656
1.2433
1.321
1.3987
1.4764
1.5541
1.6318
1.7095
1.7872
1.8649
1.9426
2.0203
2.098
2.1757
2.2534
2.3311
2.4088
2.4865
2.5642
2.6419
2.7196
2.7973
2.8751
2.9528
0
0.1554
0.3108
0.4662
0.6216
0.777
0.9324
1.0879
1.2433
1.3987
1.5541
1.7095
1.8649
2.0203
2.1757
2.3311
2.4865
2.6419
2.7973
2.9528
0
0.0777
0.1554
0.2331
0.3108
0.3885
0.4662
0.5439
0.6216
0.6993
0.777
0.8547
0.9324
1.0102
1.0879
1.1656
1.2433
1.321
1.3987
1.4764
1.5541
1.6318
1.7095
1.7872
1.8649
1.9426
2.0203
2.098
2.1757
2.2534
2.3311
2.4088
2.4865
2.5642
2.6419
2.7196
2.7973
2.8751
2.9528
0
0.1554
0.3108
0.4662
0.6216
0.777
0.9324
1.0879
1.2433
1.3987
1.5541
1.7095
1.8649
2.0203
2.1757
2.3311
2.4865
2.6419
2.7973
2.9528
0
0.0777
0.1554
0.2331
0.3108
0.3885
0.4662
0.5439
0.6216
0.6993
0.777
0.8547
0.9324
1.0102
1.0879
1.1656
1.2433
1.321
1.3987
1.4764
1.5541
1.6318
1.7095
1.7872
1.8649
1.9426
2.0203
2.098
2.1757
2.2534
2.3311
2.4088
2.4865
2.5642
2.6419
2.7196
2.7973
2.8751
2.9528
0
0.1554
0.3108
0.4662
0.6216
0.777
0.9324
1.0879
1.2433
1.3987
1.5541
1.7095
1.8649
2.0203
2.1757
2.3311
2.4865
2.6419
2.7973
2.9528
0
0.0777
0.1554
0.2331
0.3108
0.3885
0.4662
0.5439
0.6216
0.6993
0.777
0.8547
0.9324
1.0102
1.0879
1.1656
1.2433
1.321
1.3987
1.4764
1.5541
1.6318
1.7095
1.7872
1.8649
1.9426
2.0203
2.098
2.1757
2.2534
2.3311
2.4088
2.4865
2.5642
2.6419
2.7196
2.7973
2.8751
2.9528
0
0.1554
0.3108
0.4662
0.6216
0.777
0.9324
1.0879
1.2433
1.3987
1.5541
1.7095
1.8649
2.0203
2.1757
2.3311
2.4865
2.6419
2.7973
2.9528
0
0.0777
0.1554
0.2331
0.3108
0.3885
0.4662
0.5439
0.6216
0.6993
0.777
0.8547
0.9324
1.0102
1.0879
1.1656
1.2433
1.321
1.3987
1.4764
1.5541
1.6318
1.7095
1.7872
1.8649
1.9426
2.0203
2.098
2.1757
2.2534
2.3311
2.4088
2.4865
2.5642
2.6419
2.7196
2.7973
2.8751
2.9528
0
0.1554
0.3108
0.4662
0.6216
0.777
0.9324
1.0879
1.2433
1.3987
1.5541
1.7095
1.8649
2.0203
2.1757
2.3311
2.4865
2.6419
2.7973
2.9528
0
0.0777
0.1554
0.2331
0.3108
0.3885
0.4662
0.5439
0.6216
0.6993
0.777
0.8547
0.9324
1.0102
1.0879
1.1656
1.2433
1.321
1.3987
1.4764
1.5541
1.6318
1.7095
1.7872
1.8649
1.9426
2.0203
2.098
2.1757
2.2534
2.3311
2.4088
2.4865
2.5642
2.6419
2.7196
2.7973
2.8751
2.9528
SCALARS Depth double 1
LOOKUP_TABLE default
0
0
0
0
0
0
0
0
0
0
0
0
0
0
0
0
0
0
0
0
0
0
0
0
0
0
0
0
0
0
0
0
0
0
0
0
0
0
0
-0.1342
-0.1342
-0.1342
-0.1342
-0.1342
-0.1342
-0.1342
-0.1342
-0.1342
-0.1342
-0.1342
-0.1342
-0.1342
-0.1342
-0.1342
-0.1342
-0.1342
-0.1342
-0.1342
-0.1342
-0.2684
-0.2684
-0.2684
-0.2684
-0.2684
-0.2684
-0.2684
-0.2684
-0.2684
-0.2684
-0.2684
-0.2684
-0.2684
-0.2684
-0.2684
-0.2684
-0.2684
-0.2684
-0.2684
-0.2684
-0.2684
-0.2684
-0.2684
-0.2684
-0.2684
-0.2684
-0.2684
-0.2684
-0.2684
-0.2684
-0.2684
-0.2684
-0.2684
-0.2684
-0.2684
-0.2684
-0.2684
-0.2684
-0.2684
-0.4026
-0.4026
-0.4026
-0.4026
-0.4026
-0.4026
-0.4026
-0.4026
-0.4026
-0.4026
-0.4026
-0.4026
-0.4026
-0.4026
-0.4026
-0.4026
-0.4026
-0.4026
-0.4026
-0.4026
-0.5369
-0.5369
-0.5369
-0.5369
-0.5369
-0.5369
-0.5369
-0.5369
-0.5369
-0.5369
-0.5369
-0.5369
-0.5369
-0.5369
-0.5369
-0.5369
-0.5369
-0.5369
-0.5369
-0.5369
-0.5369
-0.5369
-0.5369
-0.5369
-0.5369
-0.5369
-0.5369
-0.5369
-0.5369
-0.5369
-0.5369
-0.5369
-0.5369
-0.5369
-0.5369
-0.5369
-0.5369
-0.5369
-0.5369
-0.6711
-0.6711
-0.6711
-0.6711
-0.6711
-0.6711
-0.6711
-0.6711
-0.6711
-0.6711
-0.6711
-0.6711
-0.6711
-0.6711
-0.6711
-0.6711
-0.6711
-0.6711
-0.6711
-0.6711
-0.8053
-0.8053
-0.8053
-0.8053
-0.8053
-0.8053
-0.8053
-0.8053
-0.8053
-0.8053
-0.8053
-0.8053
-0.8053
-0.8053
-0.8053
-0.8053
-0.8053
-0.8053
-0.8053
-0.8053
-0.8053
-0.8053
-0.8053
-0.8053
-0.8053
-0.8053
-0.8053
-0.8053
-0.8053
-0.8053
-0.8053
-0.8053
-0.8053
-0.8053
-0.8053
-0.8053
-0.8053
-0.8053
-0.8053
-0.9395
-0.9395
-0.9395
-0.9395
-0.9395
-0.9395
-0.9395
-0.9395
-0.9395
-0.9395
-0.9395
-0.9395
-0.9395
-0.9395
-0.9395
-0.9395
-0.9395
-0.9395
-0.9395
-0.9395
-1.0737
-1.0737
-1.0737
-1.0737
-1.0737
-1.0737
-1.0737
-1.0737
-1.0737
-1.0737
-1.0737
-1.0737
-1.0737
-1.0737
-1.0737
-1.0737
-1.0737
-1.0737
-1.0737
-1.0737
-1.0737
-1.0737
-1.0737
-1.0737
-1.0737
-1.0737
-1.0737
-1.0737
-1.0737
-1.0737
-1.0737
-1.0737
-1.0737
-1.0737
-1.0737
-1.0737
-1.0737
-1.0737
-1.0737
-1.2079
-1.2079
-1.2079
-1.2079
-1.2079
-1.2079
-1.2079
-1.2079
-1.2079
-1.2079
-1.2079
-1.2079
-1.2079
-1.2079
-1.2079
-1.2079
-1.2079
-1.2079
-1.2079
-1.2079
-1.3422
-1.3422
-1.3422
-1.3422
-1.3422
-1.3422
-1.3422
-1.3422
-1.3422
-1.3422
-1.3422
-1.3422
-1.3422
-1.3422
-1.3422
-1.3422
-1.3422
-1.3422
-1.3422
-1.3422
-1.3422
-1.3422
-1.3422
-1.3422
-1.3422
-1.3422
-1.3422
-1.3422
-1.3422
-1.3422
-1.3422
-1.3422
-1.3422
-1.3422
-1.3422
-1.3422
-1.3422
-1.3422
-1.3422
-1.4764
-1.4764
-1.4764
-1.4764
-1.4764
-1.4764
-1.4764
-1.4764
-1.4764
-1.4764
-1.4764
-1.4764
-1.4764
-1.4764
-1.4764
-1.4764
-1.4764
-1.4764
-1.4764
-1.4764
-1.6106
-1.6106
-1.6106
-1.6106
-1.6106
-1.6106
-1.6106
-1.6106
-1.6106
-1.6106
-1.6106
-1.6106
-1.6106
-1.6106
-1.6106
-1.6106
-1.6106
-1.6106
-1.6106
-1.6106
-1.6106
-1.6106
-1.6106
-1.6106
-1.6106
-1.6106
-1.6106
-1.6106
-1.6106
-1.6106
-1.6106
-1.6106
-1.6106
-1.6106
-1.6106
-1.6106
-1.6106
-1.6106
-1.6106
-1.7448
-1.7448
-1.7448
-1.7448
-1.7448
-1.7448
-1.7448
-1.7448
-1.7448
-1.7448
-1.7448
-1.7448
-1.7448
-1.7448
-1.7448
-1.7448
-1.7448
-1.7448
-1.7448
-1.7448
-1.879
-1.879
-1.879
-1.879
-1.879
-1.879
-1.879
-1.879
-1.879
-1.879
-1.879
-1.879
-1.879
-1.879
-1.879
-1.879
-1.879
-1.879
-1.879
-1.879
-1.879
-1.879
-1.879
-1.879
-1.879
-1.879
-1.879
-1.879
-1.879
-1.879
-1.879
-1.879
-1.879
-1.879
-1.879
-1.879
-1.879
-1.879
-1.879
-2.0132
-2.0132
-2.0132
-2.0132
-2.0132
-2.0132
-2.0132
-2.0132
-2.0132
-2.0132
-2.0132
-2.0132
-2.0132
-2.0132
-2.0132
-2.0132
-2.0132
-2.0132
-2.0132
-2.0132
-2.1475
-2.1475
-2.1475
-2.1475
-2.1475
-2.1475
-2.1475
-2.1475
-2.1475
-2.1475
-2.1475
-2.1475
-2.1475
-2.1475
-2.1475
-2.1475
-2.1475
-2.1475
-2.1475
-2.1475
-2.1475
-2.1475
-2.1475
-2.1475
-2.1475
-2.1475
-2.1475
-2.1475
-2.1475
-2.1475
-2.1475
-2.1475
-2.1475
-2.1475
-2.1475
-2.1475
-2.1475
-2.1475
-2.1475
-2.2817
-2.2817
-2.2817
-2.2817
-2.2817
-2.2817
-2.2817
-2.2817
-2.2817
-2.2817
-2.2817
-2.2817
-2.2817
-2.2817
-2.2817
-2.2817
-2.2817
-2.2817
-2.2817
-2.2817
-2.4159
-2.4159
-2.4159
-2.4159
-2.4159
-2.4159
-2.4159
-2.4159
-2.4159
-2.4159
-2.4159
-2.4159
-2.4159
-2.4159
-2.4159
-2.4159
-2.4159
-2.4159
-2.4159
-2.4159
-2.4159
-2.4159
-2.4159
-2.4159
-2.4159
-2.4159
-2.4159
-2.4159
-2.4159
-2.4159
-2.4159
-2.4159
-2.4159
-2.4159
-2.4159
-2.4159
-2.4159
-2.4159
-2.4159
-2.5501
-2.5501
-2.5501
-2.5501
-2.5501
-2.5501
-2.5501
-2.5501
-2.5501
-2.5501
-2.5501
-2.5501
-2.5501
-2.5501
-2.5501
-2.5501
-2.5501
-2.5501
-2.5501
-2.5501
-2.6843
-2.6843
-2.6843
-2.6843
-2.6843
-2.6843
-2.6843
-2.6843
-2.6843
-2.6843
-2.6843
-2.6843
-2.6843
-2.6843
-2.6843
-2.6843
-2.6843
-2.6843
-2.6843
-2.6843
-2.6843
-2.6843
-2.6843
-2.6843
-2.6843
-2.6843
-2.6843
-2.6843
-2.6843
-2.6843
-2.6843
-2.6843
-2.6843
-2.6843
-2.6843
-2.6843
-2.6843
-2.6843
-2.6843
-2.8185
-2.8185
-2.8185
-2.8185
-2.8185
-2.8185
-2.8185
-2.8185
-2.8185
-2.8185
-2.8185
-2.8185
-2.8185
-2.8185
-2.8185
-2.8185
-2.8185
-2.8185
-2.8185
-2.8185
-2.9528
-2.9528
-2.9528
-2.9528
-2.9528
-2.9528
-2.9528
-2.9528
-2.9528
-2.9528
-2.9528
-2.9528
-2.9528
-2.9528
-2.9528
-2.9528
-2.9528
-2.9528
-2.9528
-2.9528
-2.9528
-2.9528
-2.9528
-2.9528
-2.9528
-2.9528
-2.9528
-2.9528
-2.9528
-2.9528
-2.9528
-2.9528
-2.9528
-2.9528
-2.9528
-2.9528
-2.9528
-2.9528
-2.9528
-3.087
-3.087
-3.087
-3.087
-3.087
-3.087
-3.087
-3.087
-3.087
-3.087
-3.087
-3.087
-3.087
-3.087
-3.087
-3.087
-3.087
-3.087
-3.087
-3.087
-3.2212
-3.2212
-3.2212
-3.2212
-3.2212
-3.2212
-3.2212
-3.2212
-3.2212
-3.2212
-3.2212
-3.2212
-3.2212
-3.2212
-3.2212
-3.2212
-3.2212
-3.2212
-3.2212
-3.2212
-3.2212
-3.2212
-3.2212
-3.2212
-3.2212
-3.2212
-3.2212
-3.2212
-3.2212
-3.2212
-3.2212
-3.2212
-3.2212
-3.2212
-3.2212
-3.2212
-3.2212
-3.2212
-3.2212
-3.3554
-3.3554
-3.3554
-3.3554
-3.3554
-3.3554
-3.3554
-3.3554
-3.3554
-3.3554
-3.3554
-3.3554
-3.3554
-3.3554
-3.3554
-3.3554
-3.3554
-3.3554
-3.3554
-3.3554
-3.4896
-3.4896
-3.4896
-3.4896
-3.4896
-3.4896
-3.4896
-3.4896
-3.4896
-3.4896
-3.4896
-3.4896
-3.4896
-3.4896
-3.4896
-3.4896
-3.4896
-3.4896
-3.4896
-3.4896
-3.4896
-3.4896
-3.4896
-3.4896
-3.4896
-3.4896
-3.4896
-3.4896
-3.4896
-3.4896
-3.4896
-3.4896
-3.4896
-3.4896
-3.4896
-3.4896
-3.4896
-3.4896
-3.4896
-3.6238
-3.6238
-3.6238
-3.6238
-3.6238
-3.6238
-3.6238
-3.6238
-3.6238
-3.6238
-3.6238
-3.6238
-3.6238
-3.6238
-3.6238
-3.6238
-3.6238
-3.6238
-3.6238
-3.6238
-3.7581
-3.7581
-3.7581
-3.7581
-3.7581
-3.7581
-3.7581
-3.7581
-3.7581
-3.7581
-3.7581
-3.7581
-3.7581
-3.7581
-3.7581
-3.7581
-3.7581
-3.7581
-3.7581
-3.7581
-3.7581
-3.7581
-3.7581
-3.7581
-3.7581
-3.7581
-3.7581
-3.7581
-3.7581
-3.7581
-3.7581
-3.7581
-3.7581
-3.7581
-3.7581
-3.7581
-3.7581
-3.7581
-3.7581
-3.8923
-3.8923
-3.8923
-3.8923
-3.8923
-3.8923
-3.8923
-3.8923
-3.8923
-3.8923
-3.8923
-3.8923
-3.8923
-3.8923
-3.8923
-3.8923
-3.8923
-3.8923
-3.8923
-3.8923
-4.0265
-4.0265
-4.0265
-4.0265
-4.0265
-4.0265
-4.0265
-4.0265
-4.0265
-4.0265
-4.0265
-4.0265
-4.0265
-4.0265
-4.0265
-4.0265
-4.0265
-4.0265
-4.0265
-4.0265
-4.0265
-4.0265
-4.0265
-4.0265
-4.0265
-4.0265
-4.0265
-4.0265
-4.0265
-4.0265
-4.0265
-4.0265
-4.0265
-4.0265
-4.0265
-4.0265
-4.0265
-4.0265
-4.0265
-4.1607
-4.1607
-4.1607
-4.1607
-4.1607
-4.1607
-4.1607
-4.1607
-4.1607
-4.1607
-4.1607
-4.1607
-4.1607
-4.1607
-4.1607
-4.1607
-4.1607
-4.1607
-4.1607
-4.1607
-4.2949
-4.2949
-4.2949
-4.2949
-4.2949
-4.2949
-4.2949
-4.2949
-4.2949
-4.2949
-4.2949
-4.2949
-4.2949
-4.2949
-4.2949
-4.2949
-4.2949
-4.2949
-4.2949
-4.2949
-4.2949
-4.2949
-4.2949
-4.2949
-4.2949
-4.2949
-4.2949
-4.2949
-4.2949
-4.2949
-4.2949
-4.2949
-4.2949
-4.2949
-4.2949
-4.2949
-4.2949
-4.2949
-4.2949
-4.4291
-4.4291
-4.4291
-4.4291
-4.4291
-4.4291
-4.4291
-4.4291
-4.4291
-4.4291
-4.4291
-4.4291
-4.4291
-4.4291
-4.4291
-4.4291
-4.4291
-4.4291
-4.4291
-4.4291
-4.5634
-4.5634
-4.5634
-4.5634
-4.5634
-4.5634
-4.5634
-4.5634
-4.5634
-4.5634
-4.5634
-4.5634
-4.5634
-4.5634
-4.5634
-4.5634
-4.5634
-4.5634
-4.5634
-4.5634
-4.5634
-4.5634
-4.5634
-4.5634
-4.5634
-4.5634
-4.5634
-4.5634
-4.5634
-4.5634
-4.5634
-4.5634
-4.5634
-4.5634
-4.5634
-4.5634
-4.5634
-4.5634
-4.5634
-4.6976
-4.6976
-4.6976
-4.6976
-4.6976
-4.6976
-4.6976
-4.6976
-4.6976
-4.6976
-4.6976
-4.6976
-4.6976
-4.6976
-4.6976
-4.6976
-4.6976
-4.6976
-4.6976
-4.6976
-4.8318
-4.8318
-4.8318
-4.8318
-4.8318
-4.8318
-4.8318
-4.8318
-4.8318
-4.8318
-4.8318
-4.8318
-4.8318
-4.8318
-4.8318
-4.8318
-4.8318
-4.8318
-4.8318
-4.8318
-4.8318
-4.8318
-4.8318
-4.8318
-4.8318
-4.8318
-4.8318
-4.8318
-4.8318
-4.8318
-4.8318
-4.8318
-4.8318
-4.8318
-4.8318
-4.8318
-4.8318
-4.8318
-4.8318
-4.966
-4.966
-4.966
-4.966
-4.966
-4.966
-4.966
-4.966
-4.966
-4.966
-4.966
-4.966
-4.966
-4.966
-4.966
-4.966
-4.966
-4.966
-4.966
-4.966
-5.1002
-5.1002
-5.1002
-5.1002
-5.1002
-5.1002
-5.1002
-5.1002
-5.1002
-5.1002
-5.1002
-5.1002
-5.1002
-5.1002
-5.1002
-5.1002
-5.1002
-5.1002
-5.1002
-5.1002
-5.1002
-5.1002
-5.1002
-5.1002
-5.1002
-5.1002
-5.1002
-5.1002
-5.1002
-5.1002
-5.1002
-5.1002
-5.1002
-5.1002
-5.1002
-5.1002
-5.1002
-5.1002
-5.1002
-5.2344
-5.2344
-5.2344
-5.2344
-5.2344
-5.2344
-5.2344
-5.2344
-5.2344
-5.2344
-5.2344
-5.2344
-5.2344
-5.2344
-5.2344
-5.2344
-5.2344
-5.2344
-5.2344
-5.2344
-5.3686
-5.3686
-5.3686
-5.3686
-5.3686
-5.3686
-5.3686
-5.3686
-5.3686
-5.3686
-5.3686
-5.3686
-5.3686
-5.3686
-5.3686
-5.3686
-5.3686
-5.3686
-5.3686
-5.3686
-5.3686
-5.3686
-5.3686
-5.3686
-5.3686
-5.3686
-5.3686
-5.3686
-5.3686
-5.3686
-5.3686
-5.3686
-5.3686
-5.3686
-5.3686
-5.3686
-5.3686
-5.3686
-5.3686
-5.5029
-5.5029
-5.5029
-5.5029
-5.5029
-5.5029
-5.5029
-5.5029
-5.5029
-5.5029
-5.5029
-5.5029
-5.5029
-5.5029
-5.5029
-5.5029
-5.5029
-5.5029
-5.5029
-5.5029
-5.6371
-5.6371
-5.6371
-5.6371
-5.6371
-5.6371
-5.6371
-5.6371
-5.6371
-5.6371
-5.6371
-5.6371
-5.6371
-5.6371
-5.6371
-5.6371
-5.6371
-5.6371
-5.6371
-5.6371
-5.6371
-5.6371
-5.6371
-5.6371
-5.6371
-5.6371
-5.6371
-5.6371
-5.6371
-5.6371
-5.6371
-5.6371
-5.6371
-5.6371
-5.6371
-5.6371
-5.6371
-5.6371
-5.6371
-5.7713
-5.7713
-5.7713
-5.7713
-5.7713
-5.7713
-5.7713
-5.7713
-5.7713
-5.7713
-5.7713
-5.7713
-5.7713
-5.7713
-5.7713
-5.7713
-5.7713
-5.7713
-5.7713
-5.7713
-5.9055
-5.9055
-5.9055
-5.9055
-5.9055
-5.9055
-5.9055
-5.9055
-5.9055
-5.9055
-5.9055
-5.9055
-5.9055
-5.9055
-5.9055
-5.9055
-5.9055
-5.9055
-5.9055
-5.9055
-5.9055
-5.9055
-5.9055
-5.9055
-5.9055
-5.9055
-5.9055
-5.9055
-5.9055
-5.9055
-5.9055
-5.9055
-5.9055
-5.9055
-5.9055
-5.9055
-5.9055
-5.9055
-5.9055
