# vtk DataFile Version 2.0
./vtk
ASCII

DATASET UNSTRUCTURED_GRID
POINTS 971 double
0 0 0.0
0.0738 0 0.0
0.1476 0 0.0
0.2215 0 0.0
0.2953 0 0.0
0.3691 0 0.0
0.4429 0 0.0
0.5167 0 0.0
0.5906 0 0.0
0.6644 0 0.0
0.7382 0 0.0
0.812 0 0.0
0.8858 0 0.0
0.9596 0 0.0
1.0335 0 0.0
1.1073 0 0.0
1.1811 0 0.0
1.2549 0 0.0
1.3287 0 0.0
1.4026 0 0.0
1.4764 0 0.0
1.5502 0 0.0
1.624 0 0.0
1.6978 0 0.0
1.7717 0 0.0
1.8455 0 0.0
1.9193 0 0.0
1.9931 0 0.0
2.0669 0 0.0
2.1407 0 0.0
2.2146 0 0.0
2.2884 0 0.0
2.3622 0 0.0
2.436 0 0.0
2.5098 0 0.0
2.5837 0 0.0
2.6575 0 0.0
2.7313 0 0.0
2.8051 0 0.0
2.8789 0 0.0
2.9528 0 0.0
0 -0.1969 0.0
0.1476 -0.1969 0.0
0.2953 -0.1969 0.0
0.4429 -0.1969 0.0
0.5906 -0.1969 0.0
0.7382 -0.1969 0.0
0.8858 -0.1969 0.0
1.0335 -0.1969 0.0
1.1811 -0.1969 0.0
1.3287 -0.1969 0.0
1.4764 -0.1969 0.0
1.624 -0.1969 0.0
1.7717 -0.1969 0.0
1.9193 -0.1969 0.0
2.0669 -0.1969 0.0
2.2146 -0.1969 0.0
2.3622 -0.1969 0.0
2.5098 -0.1969 0.0
2.6575 -0.1969 0.0
2.8051 -0.1969 0.0
2.9528 -0.1969 0.0
0 -0.3937 0.0
0.0738 -0.3937 0.0
0.1476 -0.3937 0.0
0.2215 -0.3937 0.0
0.2953 -0.3937 0.0
0.3691 -0.3937 0.0
0.4429 -0.3937 0.0
0.5167 -0.3937 0.0
0.5906 -0.3937 0.0
0.6644 -0.3937 0.0
0.7382 -0.3937 0.0
0.812 -0.3937 0.0
0.8858 -0.3937 0.0
0.9596 -0.3937 0.0
1.0335 -0.3937 0.0
1.1073 -0.3937 0.0
1.1811 -0.3937 0.0
1.2549 -0.3937 0.0
1.3287 -0.3937 0.0
1.4026 -0.3937 0.0
1.4764 -0.3937 0.0
1.5502 -0.3937 0.0
1.624 -0.3937 0.0
1.6978 -0.3937 0.0
1.7717 -0.3937 0.0
1.8455 -0.3937 0.0
1.9193 -0.3937 0.0
1.9931 -0.3937 0.0
2.0669 -0.3937 0.0
2.1407 -0.3937 0.0
2.2146 -0.3937 0.0
2.2884 -0.3937 0.0
2.3622 -0.3937 0.0
2.436 -0.3937 0.0
2.5098 -0.3937 0.0
2.5837 -0.3937 0.0
2.6575 -0.3937 0.0
2.7313 -0.3937 0.0
2.8051 -0.3937 0.0
2.8789 -0.3937 0.0
2.9528 -0.3937 0.0
0 -0.5906 0.0
0.1476 -0.5906 0.0
0.2953 -0.5906 0.0
0.4429 -0.5906 0.0
0.5906 -0.5906 0.0
0.7382 -0.5906 0.0
0.8858 -0.5906 0.0
1.0335 -0.5906 0.0
1.1811 -0.5906 0.0
1.3287 -0.5906 0.0
1.4764 -0.5906 0.0
1.624 -0.5906 0.0
1.7717 -0.5906 0.0
1.9193 -0.5906 0.0
2.0669 -0.5906 0.0
2.2146 -0.5906 0.0
2.3622 -0.5906 0.0
2.5098 -0.5906 0.0
2.6575 -0.5906 0.0
2.8051 -0.5906 0.0
2.9528 -0.5906 0.0
0 -0.7874 0.0
0.0738 -0.7874 0.0
0.1476 -0.7874 0.0
0.2215 -0.7874 0.0
0.2953 -0.7874 0.0
0.3691 -0.7874 0.0
0.4429 -0.7874 0.0
0.5167 -0.7874 0.0
0.5906 -0.7874 0.0
0.6644 -0.7874 0.0
0.7382 -0.7874 0.0
0.812 -0.7874 0.0
0.8858 -0.7874 0.0
0.9596 -0.7874 0.0
1.0335 -0.7874 0.0
1.1073 -0.7874 0.0
1.1811 -0.7874 0.0
1.2549 -0.7874 0.0
1.3287 -0.7874 0.0
1.4026 -0.7874 0.0
1.4764 -0.7874 0.0
1.5502 -0.7874 0.0
1.624 -0.7874 0.0
1.6978 -0.7874 0.0
1.7717 -0.7874 0.0
1.8455 -0.7874 0.0
1.9193 -0.7874 0.0
1.9931 -0.7874 0.0
2.0669 -0.7874 0.0
2.1407 -0.7874 0.0
2.2146 -0.7874 0.0
2.2884 -0.7874 0.0
2.3622 -0.7874 0.0
2.436 -0.7874 0.0
2.5098 -0.7874 0.0
2.5837 -0.7874 0.0
2.6575 -0.7874 0.0
2.7313 -0.7874 0.0
2.8051 -0.7874 0.0
2.8789 -0.7874 0.0
2.9528 -0.7874 0.0
0 -0.9843 0.0
0.1476 -0.9843 0.0
0.2953 -0.9843 0.0
0.4429 -0.9843 0.0
0.5906 -0.9843 0.0
0.7382 -0.9843 0.0
0.8858 -0.9843 0.0
1.0335 -0.9843 0.0
1.1811 -0.9843 0.0
1.3287 -0.9843 0.0
1.4764 -0.9843 0.0
1.624 -0.9843 0.0
1.7717 -0.9843 0.0
1.9193 -0.9843 0.0
2.0669 -0.9843 0.0
2.2146 -0.9843 0.0
2.3622 -0.9843 0.0
2.5098 -0.9843 0.0
2.6575 -0.9843 0.0
2.8051 -0.9843 0.0
2.9528 -0.9843 0.0
0 -1.1811 0.0
0.0738 -1.1811 0.0
0.1476 -1.1811 0.0
0.2215 -1.1811 0.0
0.2953 -1.1811 0.0
0.3691 -1.1811 0.0
0.4429 -1.1811 0.0
0.5167 -1.1811 0.0
0.5906 -1.1811 0.0
0.6644 -1.1811 0.0
0.7382 -1.1811 0.0
0.812 -1.1811 0.0
0.8858 -1.1811 0.0
0.9596 -1.1811 0.0
1.0335 -1.1811 0.0
1.1073 -1.1811 0.0
1.1811 -1.1811 0.0
1.2549 -1.1811 0.0
1.3287 -1.1811 0.0
1.4026 -1.1811 0.0
1.4764 -1.1811 0.0
1.5502 -1.1811 0.0
1.624 -1.1811 0.0
1.6978 -1.1811 0.0
1.7717 -1.1811 0.0
1.8455 -1.1811 0.0
1.9193 -1.1811 0.0
1.9931 -1.1811 0.0
2.0669 -1.1811 0.0
2.1407 -1.1811 0.0
2.2146 -1.1811 0.0
2.2884 -1.1811 0.0
2.3622 -1.1811 0.0
2.436 -1.1811 0.0
2.5098 -1.1811 0.0
2.5837 -1.1811 0.0
2.6575 -1.1811 0.0
2.7313 -1.1811 0.0
2.8051 -1.1811 0.0
2.8789 -1.1811 0.0
2.9528 -1.1811 0.0
0 -1.378 0.0
0.1476 -1.378 0.0
0.2953 -1.378 0.0
0.4429 -1.378 0.0
0.5906 -1.378 0.0
0.7382 -1.378 0.0
0.8858 -1.378 0.0
1.0335 -1.378 0.0
1.1811 -1.378 0.0
1.3287 -1.378 0.0
1.4764 -1.378 0.0
1.624 -1.378 0.0
1.7717 -1.378 0.0
1.9193 -1.378 0.0
2.0669 -1.378 0.0
2.2146 -1.378 0.0
2.3622 -1.378 0.0
2.5098 -1.378 0.0
2.6575 -1.378 0.0
2.8051 -1.378 0.0
2.9528 -1.378 0.0
0 -1.5748 0.0
0.0738 -1.5748 0.0
0.1476 -1.5748 0.0
0.2215 -1.5748 0.0
0.2953 -1.5748 0.0
0.3691 -1.5748 0.0
0.4429 -1.5748 0.0
0.5167 -1.5748 0.0
0.5906 -1.5748 0.0
0.6644 -1.5748 0.0
0.7382 -1.5748 0.0
0.812 -1.5748 0.0
0.8858 -1.5748 0.0
0.9596 -1.5748 0.0
1.0335 -1.5748 0.0
1.1073 -1.5748 0.0
1.1811 -1.5748 0.0
1.2549 -1.5748 0.0
1.3287 -1.5748 0.0
1.4026 -1.5748 0.0
1.4764 -1.5748 0.0
1.5502 -1.5748 0.0
1.624 -1.5748 0.0
1.6978 -1.5748 0.0
1.7717 -1.5748 0.0
1.8455 -1.5748 0.0
1.9193 -1.5748 0.0
1.9931 -1.5748 0.0
2.0669 -1.5748 0.0
2.1407 -1.5748 0.0
2.2146 -1.5748 0.0
2.2884 -1.5748 0.0
2.3622 -1.5748 0.0
2.436 -1.5748 0.0
2.5098 -1.5748 0.0
2.5837 -1.5748 0.0
2.6575 -1.5748 0.0
2.7313 -1.5748 0.0
2.8051 -1.5748 0.0
2.8789 -1.5748 0.0
2.9528 -1.5748 0.0
0 -1.7717 0.0
0.1476 -1.7717 0.0
0.2953 -1.7717 0.0
0.4429 -1.7717 0.0
0.5906 -1.7717 0.0
0.7382 -1.7717 0.0
0.8858 -1.7717 0.0
1.0335 -1.7717 0.0
1.1811 -1.7717 0.0
1.3287 -1.7717 0.0
1.4764 -1.7717 0.0
1.624 -1.7717 0.0
1.7717 -1.7717 0.0
1.9193 -1.7717 0.0
2.0669 -1.7717 0.0
2.2146 -1.7717 0.0
2.3622 -1.7717 0.0
2.5098 -1.7717 0.0
2.6575 -1.7717 0.0
2.8051 -1.7717 0.0
2.9528 -1.7717 0.0
0 -1.9685 0.0
0.0738 -1.9685 0.0
0.1476 -1.9685 0.0
0.2215 -1.9685 0.0
0.2953 -1.9685 0.0
0.3691 -1.9685 0.0
0.4429 -1.9685 0.0
0.5167 -1.9685 0.0
0.5906 -1.9685 0.0
0.6644 -1.9685 0.0
0.7382 -1.9685 0.0
0.812 -1.9685 0.0
0.8858 -1.9685 0.0
0.9596 -1.9685 0.0
1.0335 -1.9685 0.0
1.1073 -1.9685 0.0
1.1811 -1.9685 0.0
1.2549 -1.9685 0.0
1.3287 -1.9685 0.0
1.4026 -1.9685 0.0
1.4764 -1.9685 0.0
1.5502 -1.9685 0.0
1.624 -1.9685 0.0
1.6978 -1.9685 0.0
1.7717 -1.9685 0.0
1.8455 -1.9685 0.0
1.9193 -1.9685 0.0
1.9931 -1.9685 0.0
2.0669 -1.9685 0.0
2.1407 -1.9685 0.0
2.2146 -1.9685 0.0
2.2884 -1.9685 0.0
2.3622 -1.9685 0.0
2.436 -1.9685 0.0
2.5098 -1.9685 0.0
2.5837 -1.9685 0.0
2.6575 -1.9685 0.0
2.7313 -1.9685 0.0
2.8051 -1.9685 0.0
2.8789 -1.9685 0.0
2.9528 -1.9685 0.0
0 -2.1654 0.0
0.1476 -2.1654 0.0
0.2953 -2.1654 0.0
0.4429 -2.1654 0.0
0.5906 -2.1654 0.0
0.7382 -2.1654 0.0
0.8858 -2.1654 0.0
1.0335 -2.1654 0.0
1.1811 -2.1654 0.0
1.3287 -2.1654 0.0
1.4764 -2.1654 0.0
1.624 -2.1654 0.0
1.7717 -2.1654 0.0
1.9193 -2.1654 0.0
2.0669 -2.1654 0.0
2.2146 -2.1654 0.0
2.3622 -2.1654 0.0
2.5098 -2.1654 0.0
2.6575 -2.1654 0.0
2.8051 -2.1654 0.0
2.9528 -2.1654 0.0
0 -2.3622 0.0
0.0738 -2.3622 0.0
0.1476 -2.3622 0.0
0.2215 -2.3622 0.0
0.2953 -2.3622 0.0
0.3691 -2.3622 0.0
0.4429 -2.3622 0.0
0.5167 -2.3622 0.0
0.5906 -2.3622 0.0
0.6644 -2.3622 0.0
0.7382 -2.3622 0.0
0.812 -2.3622 0.0
0.8858 -2.3622 0.0
0.9596 -2.3622 0.0
1.0335 -2.3622 0.0
1.1073 -2.3622 0.0
1.1811 -2.3622 0.0
1.2549 -2.3622 0.0
1.3287 -2.3622 0.0
1.4026 -2.3622 0.0
1.4764 -2.3622 0.0
1.5502 -2.3622 0.0
1.624 -2.3622 0.0
1.6978 -2.3622 0.0
1.7717 -2.3622 0.0
1.8455 -2.3622 0.0
1.9193 -2.3622 0.0
1.9931 -2.3622 0.0
2.0669 -2.3622 0.0
2.1407 -2.3622 0.0
2.2146 -2.3622 0.0
2.2884 -2.3622 0.0
2.3622 -2.3622 0.0
2.436 -2.3622 0.0
2.5098 -2.3622 0.0
2.5837 -2.3622 0.0
2.6575 -2.3622 0.0
2.7313 -2.3622 0.0
2.8051 -2.3622 0.0
2.8789 -2.3622 0.0
2.9528 -2.3622 0.0
0 -2.5591 0.0
0.1476 -2.5591 0.0
0.2953 -2.5591 0.0
0.4429 -2.5591 0.0
0.5906 -2.5591 0.0
0.7382 -2.5591 0.0
0.8858 -2.5591 0.0
1.0335 -2.5591 0.0
1.1811 -2.5591 0.0
1.3287 -2.5591 0.0
1.4764 -2.5591 0.0
1.624 -2.5591 0.0
1.7717 -2.5591 0.0
1.9193 -2.5591 0.0
2.0669 -2.5591 0.0
2.2146 -2.5591 0.0
2.3622 -2.5591 0.0
2.5098 -2.5591 0.0
2.6575 -2.5591 0.0
2.8051 -2.5591 0.0
2.9528 -2.5591 0.0
0 -2.7559 0.0
0.0738 -2.7559 0.0
0.1476 -2.7559 0.0
0.2215 -2.7559 0.0
0.2953 -2.7559 0.0
0.3691 -2.7559 0.0
0.4429 -2.7559 0.0
0.5167 -2.7559 0.0
0.5906 -2.7559 0.0
0.6644 -2.7559 0.0
0.7382 -2.7559 0.0
0.812 -2.7559 0.0
0.8858 -2.7559 0.0
0.9596 -2.7559 0.0
1.0335 -2.7559 0.0
1.1073 -2.7559 0.0
1.1811 -2.7559 0.0
1.2549 -2.7559 0.0
1.3287 -2.7559 0.0
1.4026 -2.7559 0.0
1.4764 -2.7559 0.0
1.5502 -2.7559 0.0
1.624 -2.7559 0.0
1.6978 -2.7559 0.0
1.7717 -2.7559 0.0
1.8455 -2.7559 0.0
1.9193 -2.7559 0.0
1.9931 -2.7559 0.0
2.0669 -2.7559 0.0
2.1407 -2.7559 0.0
2.2146 -2.7559 0.0
2.2884 -2.7559 0.0
2.3622 -2.7559 0.0
2.436 -2.7559 0.0
2.5098 -2.7559 0.0
2.5837 -2.7559 0.0
2.6575 -2.7559 0.0
2.7313 -2.7559 0.0
2.8051 -2.7559 0.0
2.8789 -2.7559 0.0
2.9528 -2.7559 0.0
0 -2.9528 0.0
0.1476 -2.9528 0.0
0.2953 -2.9528 0.0
0.4429 -2.9528 0.0
0.5906 -2.9528 0.0
0.7382 -2.9528 0.0
0.8858 -2.9528 0.0
1.0335 -2.9528 0.0
1.1811 -2.9528 0.0
1.3287 -2.9528 0.0
1.4764 -2.9528 0.0
1.624 -2.9528 0.0
1.7717 -2.9528 0.0
1.9193 -2.9528 0.0
2.0669 -2.9528 0.0
2.2146 -2.9528 0.0
2.3622 -2.9528 0.0
2.5098 -2.9528 0.0
2.6575 -2.9528 0.0
2.8051 -2.9528 0.0
2.9528 -2.9528 0.0
0 -3.1496 0.0
0.0738 -3.1496 0.0
0.1476 -3.1496 0.0
0.2215 -3.1496 0.0
0.2953 -3.1496 0.0
0.3691 -3.1496 0.0
0.4429 -3.1496 0.0
0.5167 -3.1496 0.0
0.5906 -3.1496 0.0
0.6644 -3.1496 0.0
0.7382 -3.1496 0.0
0.812 -3.1496 0.0
0.8858 -3.1496 0.0
0.9596 -3.1496 0.0
1.0335 -3.1496 0.0
1.1073 -3.1496 0.0
1.1811 -3.1496 0.0
1.2549 -3.1496 0.0
1.3287 -3.1496 0.0
1.4026 -3.1496 0.0
1.4764 -3.1496 0.0
1.5502 -3.1496 0.0
1.624 -3.1496 0.0
1.6978 -3.1496 0.0
1.7717 -3.1496 0.0
1.8455 -3.1496 0.0
1.9193 -3.1496 0.0
1.9931 -3.1496 0.0
2.0669 -3.1496 0.0
2.1407 -3.1496 0.0
2.2146 -3.1496 0.0
2.2884 -3.1496 0.0
2.3622 -3.1496 0.0
2.436 -3.1496 0.0
2.5098 -3.1496 0.0
2.5837 -3.1496 0.0
2.6575 -3.1496 0.0
2.7313 -3.1496 0.0
2.8051 -3.1496 0.0
2.8789 -3.1496 0.0
2.9528 -3.1496 0.0
0 -3.3465 0.0
0.1476 -3.3465 0.0
0.2953 -3.3465 0.0
0.4429 -3.3465 0.0
0.5906 -3.3465 0.0
0.7382 -3.3465 0.0
0.8858 -3.3465 0.0
1.0335 -3.3465 0.0
1.1811 -3.3465 0.0
1.3287 -3.3465 0.0
1.4764 -3.3465 0.0
1.624 -3.3465 0.0
1.7717 -3.3465 0.0
1.9193 -3.3465 0.0
2.0669 -3.3465 0.0
2.2146 -3.3465 0.0
2.3622 -3.3465 0.0
2.5098 -3.3465 0.0
2.6575 -3.3465 0.0
2.8051 -3.3465 0.0
2.9528 -3.3465 0.0
0 -3.5433 0.0
0.0738 -3.5433 0.0
0.1476 -3.5433 0.0
0.2215 -3.5433 0.0
0.2953 -3.5433 0.0
0.3691 -3.5433 0.0
0.4429 -3.5433 0.0
0.5167 -3.5433 0.0
0.5906 -3.5433 0.0
0.6644 -3.5433 0.0
0.7382 -3.5433 0.0
0.812 -3.5433 0.0
0.8858 -3.5433 0.0
0.9596 -3.5433 0.0
1.0335 -3.5433 0.0
1.1073 -3.5433 0.0
1.1811 -3.5433 0.0
1.2549 -3.5433 0.0
1.3287 -3.5433 0.0
1.4026 -3.5433 0.0
1.4764 -3.5433 0.0
1.5502 -3.5433 0.0
1.624 -3.5433 0.0
1.6978 -3.5433 0.0
1.7717 -3.5433 0.0
1.8455 -3.5433 0.0
1.9193 -3.5433 0.0
1.9931 -3.5433 0.0
2.0669 -3.5433 0.0
2.1407 -3.5433 0.0
2.2146 -3.5433 0.0
2.2884 -3.5433 0.0
2.3622 -3.5433 0.0
2.436 -3.5433 0.0
2.5098 -3.5433 0.0
2.5837 -3.5433 0.0
2.6575 -3.5433 0.0
2.7313 -3.5433 0.0
2.8051 -3.5433 0.0
2.8789 -3.5433 0.0
2.9528 -3.5433 0.0
0 -3.7402 0.0
0.1476 -3.7402 0.0
0.2953 -3.7402 0.0
0.4429 -3.7402 0.0
0.5906 -3.7402 0.0
0.7382 -3.7402 0.0
0.8858 -3.7402 0.0
1.0335 -3.7402 0.0
1.1811 -3.7402 0.0
1.3287 -3.7402 0.0
1.4764 -3.7402 0.0
1.624 -3.7402 0.0
1.7717 -3.7402 0.0
1.9193 -3.7402 0.0
2.0669 -3.7402 0.0
2.2146 -3.7402 0.0
2.3622 -3.7402 0.0
2.5098 -3.7402 0.0
2.6575 -3.7402 0.0
2.8051 -3.7402 0.0
2.9528 -3.7402 0.0
0 -3.937 0.0
0.0738 -3.937 0.0
0.1476 -3.937 0.0
0.2215 -3.937 0.0
0.2953 -3.937 0.0
0.3691 -3.937 0.0
0.4429 -3.937 0.0
0.5167 -3.937 0.0
0.5906 -3.937 0.0
0.6644 -3.937 0.0
0.7382 -3.937 0.0
0.812 -3.937 0.0
0.8858 -3.937 0.0
0.9596 -3.937 0.0
1.0335 -3.937 0.0
1.1073 -3.937 0.0
1.1811 -3.937 0.0
1.2549 -3.937 0.0
1.3287 -3.937 0.0
1.4026 -3.937 0.0
1.4764 -3.937 0.0
1.5502 -3.937 0.0
1.624 -3.937 0.0
1.6978 -3.937 0.0
1.7717 -3.937 0.0
1.8455 -3.937 0.0
1.9193 -3.937 0.0
1.9931 -3.937 0.0
2.0669 -3.937 0.0
2.1407 -3.937 0.0
2.2146 -3.937 0.0
2.2884 -3.937 0.0
2.3622 -3.937 0.0
2.436 -3.937 0.0
2.5098 -3.937 0.0
2.5837 -3.937 0.0
2.6575 -3.937 0.0
2.7313 -3.937 0.0
2.8051 -3.937 0.0
2.8789 -3.937 0.0
2.9528 -3.937 0.0
0 -4.1339 0.0
0.1476 -4.1339 0.0
0.2953 -4.1339 0.0
0.4429 -4.1339 0.0
0.5906 -4.1339 0.0
0.7382 -4.1339 0.0
0.8858 -4.1339 0.0
1.0335 -4.1339 0.0
1.1811 -4.1339 0.0
1.3287 -4.1339 0.0
1.4764 -4.1339 0.0
1.624 -4.1339 0.0
1.7717 -4.1339 0.0
1.9193 -4.1339 0.0
2.0669 -4.1339 0.0
2.2146 -4.1339 0.0
2.3622 -4.1339 0.0
2.5098 -4.1339 0.0
2.6575 -4.1339 0.0
2.8051 -4.1339 0.0
2.9528 -4.1339 0.0
0 -4.3307 0.0
0.0738 -4.3307 0.0
0.1476 -4.3307 0.0
0.2215 -4.3307 0.0
0.2953 -4.3307 0.0
0.3691 -4.3307 0.0
0.4429 -4.3307 0.0
0.5167 -4.3307 0.0
0.5906 -4.3307 0.0
0.6644 -4.3307 0.0
0.7382 -4.3307 0.0
0.812 -4.3307 0.0
0.8858 -4.3307 0.0
0.9596 -4.3307 0.0
1.0335 -4.3307 0.0
1.1073 -4.3307 0.0
1.1811 -4.3307 0.0
1.2549 -4.3307 0.0
1.3287 -4.3307 0.0
1.4026 -4.3307 0.0
1.4764 -4.3307 0.0
1.5502 -4.3307 0.0
1.624 -4.3307 0.0
1.6978 -4.3307 0.0
1.7717 -4.3307 0.0
1.8455 -4.3307 0.0
1.9193 -4.3307 0.0
1.9931 -4.3307 0.0
2.0669 -4.3307 0.0
2.1407 -4.3307 0.0
2.2146 -4.3307 0.0
2.2884 -4.3307 0.0
2.3622 -4.3307 0.0
2.436 -4.3307 0.0
2.5098 -4.3307 0.0
2.5837 -4.3307 0.0
2.6575 -4.3307 0.0
2.7313 -4.3307 0.0
2.8051 -4.3307 0.0
2.8789 -4.3307 0.0
2.9528 -4.3307 0.0
0 -4.5276 0.0
0.1476 -4.5276 0.0
0.2953 -4.5276 0.0
0.4429 -4.5276 0.0
0.5906 -4.5276 0.0
0.7382 -4.5276 0.0
0.8858 -4.5276 0.0
1.0335 -4.5276 0.0
1.1811 -4.5276 0.0
1.3287 -4.5276 0.0
1.4764 -4.5276 0.0
1.624 -4.5276 0.0
1.7717 -4.5276 0.0
1.9193 -4.5276 0.0
2.0669 -4.5276 0.0
2.2146 -4.5276 0.0
2.3622 -4.5276 0.0
2.5098 -4.5276 0.0
2.6575 -4.5276 0.0
2.8051 -4.5276 0.0
2.9528 -4.5276 0.0
0 -4.7244 0.0
0.0738 -4.7244 0.0
0.1476 -4.7244 0.0
0.2215 -4.7244 0.0
0.2953 -4.7244 0.0
0.3691 -4.7244 0.0
0.4429 -4.7244 0.0
0.5167 -4.7244 0.0
0.5906 -4.7244 0.0
0.6644 -4.7244 0.0
0.7382 -4.7244 0.0
0.812 -4.7244 0.0
0.8858 -4.7244 0.0
0.9596 -4.7244 0.0
1.0335 -4.7244 0.0
1.1073 -4.7244 0.0
1.1811 -4.7244 0.0
1.2549 -4.7244 0.0
1.3287 -4.7244 0.0
1.4026 -4.7244 0.0
1.4764 -4.7244 0.0
1.5502 -4.7244 0.0
1.624 -4.7244 0.0
1.6978 -4.7244 0.0
1.7717 -4.7244 0.0
1.8455 -4.7244 0.0
1.9193 -4.7244 0.0
1.9931 -4.7244 0.0
2.0669 -4.7244 0.0
2.1407 -4.7244 0.0
2.2146 -4.7244 0.0
2.2884 -4.7244 0.0
2.3622 -4.7244 0.0
2.436 -4.7244 0.0
2.5098 -4.7244 0.0
2.5837 -4.7244 0.0
2.6575 -4.7244 0.0
2.7313 -4.7244 0.0
2.8051 -4.7244 0.0
2.8789 -4.7244 0.0
2.9528 -4.7244 0.0
0 -4.9213 0.0
0.1476 -4.9213 0.0
0.2953 -4.9213 0.0
0.4429 -4.9213 0.0
0.5906 -4.9213 0.0
0.7382 -4.9213 0.0
0.8858 -4.9213 0.0
1.0335 -4.9213 0.0
1.1811 -4.9213 0.0
1.3287 -4.9213 0.0
1.4764 -4.9213 0.0
1.624 -4.9213 0.0
1.7717 -4.9213 0.0
1.9193 -4.9213 0.0
2.0669 -4.9213 0.0
2.2146 -4.9213 0.0
2.3622 -4.9213 0.0
2.5098 -4.9213 0.0
2.6575 -4.9213 0.0
2.8051 -4.9213 0.0
2.9528 -4.9213 0.0
0 -5.1181 0.0
0.0738 -5.1181 0.0
0.1476 -5.1181 0.0
0.2215 -5.1181 0.0
0.2953 -5.1181 0.0
0.3691 -5.1181 0.0
0.4429 -5.1181 0.0
0.5167 -5.1181 0.0
0.5906 -5.1181 0.0
0.6644 -5.1181 0.0
0.7382 -5.1181 0.0
0.812 -5.1181 0.0
0.8858 -5.1181 0.0
0.9596 -5.1181 0.0
1.0335 -5.1181 0.0
1.1073 -5.1181 0.0
1.1811 -5.1181 0.0
1.2549 -5.1181 0.0
1.3287 -5.1181 0.0
1.4026 -5.1181 0.0
1.4764 -5.1181 0.0
1.5502 -5.1181 0.0
1.624 -5.1181 0.0
1.6978 -5.1181 0.0
1.7717 -5.1181 0.0
1.8455 -5.1181 0.0
1.9193 -5.1181 0.0
1.9931 -5.1181 0.0
2.0669 -5.1181 0.0
2.1407 -5.1181 0.0
2.2146 -5.1181 0.0
2.2884 -5.1181 0.0
2.3622 -5.1181 0.0
2.436 -5.1181 0.0
2.5098 -5.1181 0.0
2.5837 -5.1181 0.0
2.6575 -5.1181 0.0
2.7313 -5.1181 0.0
2.8051 -5.1181 0.0
2.8789 -5.1181 0.0
2.9528 -5.1181 0.0
0 -5.315 0.0
0.1476 -5.315 0.0
0.2953 -5.315 0.0
0.4429 -5.315 0.0
0.5906 -5.315 0.0
0.7382 -5.315 0.0
0.8858 -5.315 0.0
1.0335 -5.315 0.0
1.1811 -5.315 0.0
1.3287 -5.315 0.0
1.4764 -5.315 0.0
1.624 -5.315 0.0
1.7717 -5.315 0.0
1.9193 -5.315 0.0
2.0669 -5.315 0.0
2.2146 -5.315 0.0
2.3622 -5.315 0.0
2.5098 -5.315 0.0
2.6575 -5.315 0.0
2.8051 -5.315 0.0
2.9528 -5.315 0.0
0 -5.5118 0.0
0.0738 -5.5118 0.0
0.1476 -5.5118 0.0
0.2215 -5.5118 0.0
0.2953 -5.5118 0.0
0.3691 -5.5118 0.0
0.4429 -5.5118 0.0
0.5167 -5.5118 0.0
0.5906 -5.5118 0.0
0.6644 -5.5118 0.0
0.7382 -5.5118 0.0
0.812 -5.5118 0.0
0.8858 -5.5118 0.0
0.9596 -5.5118 0.0
1.0335 -5.5118 0.0
1.1073 -5.5118 0.0
1.1811 -5.5118 0.0
1.2549 -5.5118 0.0
1.3287 -5.5118 0.0
1.4026 -5.5118 0.0
1.4764 -5.5118 0.0
1.5502 -5.5118 0.0
1.624 -5.5118 0.0
1.6978 -5.5118 0.0
1.7717 -5.5118 0.0
1.8455 -5.5118 0.0
1.9193 -5.5118 0.0
1.9931 -5.5118 0.0
2.0669 -5.5118 0.0
2.1407 -5.5118 0.0
2.2146 -5.5118 0.0
2.2884 -5.5118 0.0
2.3622 -5.5118 0.0
2.436 -5.5118 0.0
2.5098 -5.5118 0.0
2.5837 -5.5118 0.0
2.6575 -5.5118 0.0
2.7313 -5.5118 0.0
2.8051 -5.5118 0.0
2.8789 -5.5118 0.0
2.9528 -5.5118 0.0
0 -5.7087 0.0
0.1476 -5.7087 0.0
0.2953 -5.7087 0.0
0.4429 -5.7087 0.0
0.5906 -5.7087 0.0
0.7382 -5.7087 0.0
0.8858 -5.7087 0.0
1.0335 -5.7087 0.0
1.1811 -5.7087 0.0
1.3287 -5.7087 0.0
1.4764 -5.7087 0.0
1.624 -5.7087 0.0
1.7717 -5.7087 0.0
1.9193 -5.7087 0.0
2.0669 -5.7087 0.0
2.2146 -5.7087 0.0
2.3622 -5.7087 0.0
2.5098 -5.7087 0.0
2.6575 -5.7087 0.0
2.8051 -5.7087 0.0
2.9528 -5.7087 0.0
0 -5.9055 0.0
0.0738 -5.9055 0.0
0.1476 -5.9055 0.0
0.2215 -5.9055 0.0
0.2953 -5.9055 0.0
0.3691 -5.9055 0.0
0.4429 -5.9055 0.0
0.5167 -5.9055 0.0
0.5906 -5.9055 0.0
0.6644 -5.9055 0.0
0.7382 -5.9055 0.0
0.812 -5.9055 0.0
0.8858 -5.9055 0.0
0.9596 -5.9055 0.0
1.0335 -5.9055 0.0
1.1073 -5.9055 0.0
1.1811 -5.9055 0.0
1.2549 -5.9055 0.0
1.3287 -5.9055 0.0
1.4026 -5.9055 0.0
1.4764 -5.9055 0.0
1.5502 -5.9055 0.0
1.624 -5.9055 0.0
1.6978 -5.9055 0.0
1.7717 -5.9055 0.0
1.8455 -5.9055 0.0
1.9193 -5.9055 0.0
1.9931 -5.9055 0.0
2.0669 -5.9055 0.0
2.1407 -5.9055 0.0
2.2146 -5.9055 0.0
2.2884 -5.9055 0.0
2.3622 -5.9055 0.0
2.436 -5.9055 0.0
2.5098 -5.9055 0.0
2.5837 -5.9055 0.0
2.6575 -5.9055 0.0
2.7313 -5.9055 0.0
2.8051 -5.9055 0.0
2.8789 -5.9055 0.0
2.9528 -5.9055 0.0

CELLS 300 2700
8 62 64  2  0 63 42  1 41
8 64 66  4  2 65 43  3 42
8 66 68  6  4 67 44  5 43
8 68 70  8  6 69 45  7 44
8 70 72 10  8 71 46  9 45
8 72 74 12 10 73 47 11 46
8 74 76 14 12 75 48 13 47
8 76 78 16 14 77 49 15 48
8 78 80 18 16 79 50 17 49
8 80 82 20 18 81 51 19 50
8 82 84 22 20 83 52 21 51
8 84 86 24 22 85 53 23 52
8 86 88 26 24 87 54 25 53
8 88 90 28 26 89 55 27 54
8 90 92 30 28 91 56 29 55
8 92 94 32 30 93 57 31 56
8 94 96 34 32 95 58 33 57
8 96 98 36 34 97 59 35 58
8  98 100  38  36  99  60  37  59
8 100 102  40  38 101  61  39  60
8 124 126  64  62 125 104  63 103
8 126 128  66  64 127 105  65 104
8 128 130  68  66 129 106  67 105
8 130 132  70  68 131 107  69 106
8 132 134  72  70 133 108  71 107
8 134 136  74  72 135 109  73 108
8 136 138  76  74 137 110  75 109
8 138 140  78  76 139 111  77 110
8 140 142  80  78 141 112  79 111
8 142 144  82  80 143 113  81 112
8 144 146  84  82 145 114  83 113
8 146 148  86  84 147 115  85 114
8 148 150  88  86 149 116  87 115
8 150 152  90  88 151 117  89 116
8 152 154  92  90 153 118  91 117
8 154 156  94  92 155 119  93 118
8 156 158  96  94 157 120  95 119
8 158 160  98  96 159 121  97 120
8 160 162 100  98 161 122  99 121
8 162 164 102 100 163 123 101 122
8 186 188 126 124 187 166 125 165
8 188 190 128 126 189 167 127 166
8 190 192 130 128 191 168 129 167
8 192 194 132 130 193 169 131 168
8 194 196 134 132 195 170 133 169
8 196 198 136 134 197 171 135 170
8 198 200 138 136 199 172 137 171
8 200 202 140 138 201 173 139 172
8 202 204 142 140 203 174 141 173
8 204 206 144 142 205 175 143 174
8 206 208 146 144 207 176 145 175
8 208 210 148 146 209 177 147 176
8 210 212 150 148 211 178 149 177
8 212 214 152 150 213 179 151 178
8 214 216 154 152 215 180 153 179
8 216 218 156 154 217 181 155 180
8 218 220 158 156 219 182 157 181
8 220 222 160 158 221 183 159 182
8 222 224 162 160 223 184 161 183
8 224 226 164 162 225 185 163 184
8 248 250 188 186 249 228 187 227
8 250 252 190 188 251 229 189 228
8 252 254 192 190 253 230 191 229
8 254 256 194 192 255 231 193 230
8 256 258 196 194 257 232 195 231
8 258 260 198 196 259 233 197 232
8 260 262 200 198 261 234 199 233
8 262 264 202 200 263 235 201 234
8 264 266 204 202 265 236 203 235
8 266 268 206 204 267 237 205 236
8 268 270 208 206 269 238 207 237
8 270 272 210 208 271 239 209 238
8 272 274 212 210 273 240 211 239
8 274 276 214 212 275 241 213 240
8 276 278 216 214 277 242 215 241
8 278 280 218 216 279 243 217 242
8 280 282 220 218 281 244 219 243
8 282 284 222 220 283 245 221 244
8 284 286 224 222 285 246 223 245
8 286 288 226 224 287 247 225 246
8 310 312 250 248 311 290 249 289
8 312 314 252 250 313 291 251 290
8 314 316 254 252 315 292 253 291
8 316 318 256 254 317 293 255 292
8 318 320 258 256 319 294 257 293
8 320 322 260 258 321 295 259 294
8 322 324 262 260 323 296 261 295
8 324 326 264 262 325 297 263 296
8 326 328 266 264 327 298 265 297
8 328 330 268 266 329 299 267 298
8 330 332 270 268 331 300 269 299
8 332 334 272 270 333 301 271 300
8 334 336 274 272 335 302 273 301
8 336 338 276 274 337 303 275 302
8 338 340 278 276 339 304 277 303
8 340 342 280 278 341 305 279 304
8 342 344 282 280 343 306 281 305
8 344 346 284 282 345 307 283 306
8 346 348 286 284 347 308 285 307
8 348 350 288 286 349 309 287 308
8 372 374 312 310 373 352 311 351
8 374 376 314 312 375 353 313 352
8 376 378 316 314 377 354 315 353
8 378 380 318 316 379 355 317 354
8 380 382 320 318 381 356 319 355
8 382 384 322 320 383 357 321 356
8 384 386 324 322 385 358 323 357
8 386 388 326 324 387 359 325 358
8 388 390 328 326 389 360 327 359
8 390 392 330 328 391 361 329 360
8 392 394 332 330 393 362 331 361
8 394 396 334 332 395 363 333 362
8 396 398 336 334 397 364 335 363
8 398 400 338 336 399 365 337 364
8 400 402 340 338 401 366 339 365
8 402 404 342 340 403 367 341 366
8 404 406 344 342 405 368 343 367
8 406 408 346 344 407 369 345 368
8 408 410 348 346 409 370 347 369
8 410 412 350 348 411 371 349 370
8 434 436 374 372 435 414 373 413
8 436 438 376 374 437 415 375 414
8 438 440 378 376 439 416 377 415
8 440 442 380 378 441 417 379 416
8 442 444 382 380 443 418 381 417
8 444 446 384 382 445 419 383 418
8 446 448 386 384 447 420 385 419
8 448 450 388 386 449 421 387 420
8 450 452 390 388 451 422 389 421
8 452 454 392 390 453 423 391 422
8 454 456 394 392 455 424 393 423
8 456 458 396 394 457 425 395 424
8 458 460 398 396 459 426 397 425
8 460 462 400 398 461 427 399 426
8 462 464 402 400 463 428 401 427
8 464 466 404 402 465 429 403 428
8 466 468 406 404 467 430 405 429
8 468 470 408 406 469 431 407 430
8 470 472 410 408 471 432 409 431
8 472 474 412 410 473 433 411 432
8 496 498 436 434 497 476 435 475
8 498 500 438 436 499 477 437 476
8 500 502 440 438 501 478 439 477
8 502 504 442 440 503 479 441 478
8 504 506 444 442 505 480 443 479
8 506 508 446 444 507 481 445 480
8 508 510 448 446 509 482 447 481
8 510 512 450 448 511 483 449 482
8 512 514 452 450 513 484 451 483
8 514 516 454 452 515 485 453 484
8 516 518 456 454 517 486 455 485
8 518 520 458 456 519 487 457 486
8 520 522 460 458 521 488 459 487
8 522 524 462 460 523 489 461 488
8 524 526 464 462 525 490 463 489
8 526 528 466 464 527 491 465 490
8 528 530 468 466 529 492 467 491
8 530 532 470 468 531 493 469 492
8 532 534 472 470 533 494 471 493
8 534 536 474 472 535 495 473 494
8 558 560 498 496 559 538 497 537
8 560 562 500 498 561 539 499 538
8 562 564 502 500 563 540 501 539
8 564 566 504 502 565 541 503 540
8 566 568 506 504 567 542 505 541
8 568 570 508 506 569 543 507 542
8 570 572 510 508 571 544 509 543
8 572 574 512 510 573 545 511 544
8 574 576 514 512 575 546 513 545
8 576 578 516 514 577 547 515 546
8 578 580 518 516 579 548 517 547
8 580 582 520 518 581 549 519 548
8 582 584 522 520 583 550 521 549
8 584 586 524 522 585 551 523 550
8 586 588 526 524 587 552 525 551
8 588 590 528 526 589 553 527 552
8 590 592 530 528 591 554 529 553
8 592 594 532 530 593 555 531 554
8 594 596 534 532 595 556 533 555
8 596 598 536 534 597 557 535 556
8 620 622 560 558 621 600 559 599
8 622 624 562 560 623 601 561 600
8 624 626 564 562 625 602 563 601
8 626 628 566 564 627 603 565 602
8 628 630 568 566 629 604 567 603
8 630 632 570 568 631 605 569 604
8 632 634 572 570 633 606 571 605
8 634 636 574 572 635 607 573 606
8 636 638 576 574 637 608 575 607
8 638 640 578 576 639 609 577 608
8 640 642 580 578 641 610 579 609
8 642 644 582 580 643 611 581 610
8 644 646 584 582 645 612 583 611
8 646 648 586 584 647 613 585 612
8 648 650 588 586 649 614 587 613
8 650 652 590 588 651 615 589 614
8 652 654 592 590 653 616 591 615
8 654 656 594 592 655 617 593 616
8 656 658 596 594 657 618 595 617
8 658 660 598 596 659 619 597 618
8 682 684 622 620 683 662 621 661
8 684 686 624 622 685 663 623 662
8 686 688 626 624 687 664 625 663
8 688 690 628 626 689 665 627 664
8 690 692 630 628 691 666 629 665
8 692 694 632 630 693 667 631 666
8 694 696 634 632 695 668 633 667
8 696 698 636 634 697 669 635 668
8 698 700 638 636 699 670 637 669
8 700 702 640 638 701 671 639 670
8 702 704 642 640 703 672 641 671
8 704 706 644 642 705 673 643 672
8 706 708 646 644 707 674 645 673
8 708 710 648 646 709 675 647 674
8 710 712 650 648 711 676 649 675
8 712 714 652 650 713 677 651 676
8 714 716 654 652 715 678 653 677
8 716 718 656 654 717 679 655 678
8 718 720 658 656 719 680 657 679
8 720 722 660 658 721 681 659 680
8 744 746 684 682 745 724 683 723
8 746 748 686 684 747 725 685 724
8 748 750 688 686 749 726 687 725
8 750 752 690 688 751 727 689 726
8 752 754 692 690 753 728 691 727
8 754 756 694 692 755 729 693 728
8 756 758 696 694 757 730 695 729
8 758 760 698 696 759 731 697 730
8 760 762 700 698 761 732 699 731
8 762 764 702 700 763 733 701 732
8 764 766 704 702 765 734 703 733
8 766 768 706 704 767 735 705 734
8 768 770 708 706 769 736 707 735
8 770 772 710 708 771 737 709 736
8 772 774 712 710 773 738 711 737
8 774 776 714 712 775 739 713 738
8 776 778 716 714 777 740 715 739
8 778 780 718 716 779 741 717 740
8 780 782 720 718 781 742 719 741
8 782 784 722 720 783 743 721 742
8 806 808 746 744 807 786 745 785
8 808 810 748 746 809 787 747 786
8 810 812 750 748 811 788 749 787
8 812 814 752 750 813 789 751 788
8 814 816 754 752 815 790 753 789
8 816 818 756 754 817 791 755 790
8 818 820 758 756 819 792 757 791
8 820 822 760 758 821 793 759 792
8 822 824 762 760 823 794 761 793
8 824 826 764 762 825 795 763 794
8 826 828 766 764 827 796 765 795
8 828 830 768 766 829 797 767 796
8 830 832 770 768 831 798 769 797
8 832 834 772 770 833 799 771 798
8 834 836 774 772 835 800 773 799
8 836 838 776 774 837 801 775 800
8 838 840 778 776 839 802 777 801
8 840 842 780 778 841 803 779 802
8 842 844 782 780 843 804 781 803
8 844 846 784 782 845 805 783 804
8 868 870 808 806 869 848 807 847
8 870 872 810 808 871 849 809 848
8 872 874 812 810 873 850 811 849
8 874 876 814 812 875 851 813 850
8 876 878 816 814 877 852 815 851
8 878 880 818 816 879 853 817 852
8 880 882 820 818 881 854 819 853
8 882 884 822 820 883 855 821 854
8 884 886 824 822 885 856 823 855
8 886 888 826 824 887 857 825 856
8 888 890 828 826 889 858 827 857
8 890 892 830 828 891 859 829 858
8 892 894 832 830 893 860 831 859
8 894 896 834 832 895 861 833 860
8 896 898 836 834 897 862 835 861
8 898 900 838 836 899 863 837 862
8 900 902 840 838 901 864 839 863
8 902 904 842 840 903 865 841 864
8 904 906 844 842 905 866 843 865
8 906 908 846 844 907 867 845 866
8 930 932 870 868 931 910 869 909
8 932 934 872 870 933 911 871 910
8 934 936 874 872 935 912 873 911
8 936 938 876 874 937 913 875 912
8 938 940 878 876 939 914 877 913
8 940 942 880 878 941 915 879 914
8 942 944 882 880 943 916 881 915
8 944 946 884 882 945 917 883 916
8 946 948 886 884 947 918 885 917
8 948 950 888 886 949 919 887 918
8 950 952 890 888 951 920 889 919
8 952 954 892 890 953 921 891 920
8 954 956 894 892 955 922 893 921
8 956 958 896 894 957 923 895 922
8 958 960 898 896 959 924 897 923
8 960 962 900 898 961 925 899 924
8 962 964 902 900 963 926 901 925
8 964 966 904 902 965 927 903 926
8 966 968 906 904 967 928 905 927
8 968 970 908 906 969 929 907 928

CELL_TYPES 300
23
23
23
23
23
23
23
23
23
23
23
23
23
23
23
23
23
23
23
23
23
23
23
23
23
23
23
23
23
23
23
23
23
23
23
23
23
23
23
23
23
23
23
23
23
23
23
23
23
23
23
23
23
23
23
23
23
23
23
23
23
23
23
23
23
23
23
23
23
23
23
23
23
23
23
23
23
23
23
23
23
23
23
23
23
23
23
23
23
23
23
23
23
23
23
23
23
23
23
23
23
23
23
23
23
23
23
23
23
23
23
23
23
23
23
23
23
23
23
23
23
23
23
23
23
23
23
23
23
23
23
23
23
23
23
23
23
23
23
23
23
23
23
23
23
23
23
23
23
23
23
23
23
23
23
23
23
23
23
23
23
23
23
23
23
23
23
23
23
23
23
23
23
23
23
23
23
23
23
23
23
23
23
23
23
23
23
23
23
23
23
23
23
23
23
23
23
23
23
23
23
23
23
23
23
23
23
23
23
23
23
23
23
23
23
23
23
23
23
23
23
23
23
23
23
23
23
23
23
23
23
23
23
23
23
23
23
23
23
23
23
23
23
23
23
23
23
23
23
23
23
23
23
23
23
23
23
23
23
23
23
23
23
23
23
23
23
23
23
23
23
23
23
23
23
23
23
23
23
23
23
23
23
23
23
23
23
23
23
23
23
23
23
23
23
23
23
23
23
23

POINT_DATA 971
SCALARS Displacement_R double 1
LOOKUP_TABLE default
0
7.50418e-06
1.50064e-05
2.2515e-05
3.00079e-05
3.74932e-05
4.49695e-05
5.24345e-05
5.98974e-05
6.73356e-05
7.47586e-05
8.21642e-05
8.95521e-05
9.692e-05
0.000104278
0.000111605
0.00011891
0.000126192
0.000133452
0.000140698
0.000147912
0.000155103
0.000162272
0.000169419
0.000176556
0.000183662
0.00019075
0.00019782
0.000204875
0.000211916
0.000218956
0.000225976
0.000232989
0.000239998
0.000247004
0.000254021
0.000261031
0.000268048
0.00027507
0.000282101
0.00028915
0
1.49787e-05
2.99556e-05
4.48984e-05
5.98164e-05
7.4679e-05
8.94874e-05
0.000104244
0.000118923
0.00013353
0.000148074
0.000162534
0.000176934
0.000191259
0.000205527
0.000219755
0.000233936
0.000248093
0.000262249
0.0002764
0.000290582
0
7.50444e-06
1.50075e-05
2.25181e-05
3.00148e-05
3.75061e-05
4.49913e-05
5.24687e-05
5.99478e-05
6.74066e-05
7.4855e-05
8.22912e-05
8.97152e-05
9.71253e-05
0.000104532
0.000111913
0.000119279
0.000126629
0.000133963
0.000141291
0.000148592
0.000155877
0.000163146
0.000170398
0.000177646
0.000184867
0.000192075
0.000199269
0.000206449
0.000213618
0.000220785
0.000227932
0.000235071
0.000242202
0.000249328
0.000256458
0.000263577
0.000270695
0.000277816
0.000284943
0.00029209
0
1.50854e-05
3.01712e-05
4.52274e-05
6.02651e-05
7.52553e-05
9.02006e-05
0.000105104
0.00011994
0.000134714
0.000149433
0.000164076
0.000178663
0.000193177
0.000207631
0.000222041
0.000236396
0.000250715
0.000265024
0.000279323
0.000293656
0
7.59937e-06
1.51974e-05
2.28033e-05
3.03952e-05
3.7982e-05
4.55627e-05
5.3136e-05
6.07112e-05
6.82664e-05
7.58111e-05
8.3344e-05
9.08644e-05
9.83711e-05
0.000105874
0.000113351
0.000120813
0.000128258
0.000135686
0.000143107
0.0001505
0.000157875
0.000165232
0.000172571
0.000179902
0.000187205
0.000194491
0.00020176
0.000209013
0.00021625
0.000223483
0.000230693
0.00023789
0.000245078
0.000252257
0.00025944
0.000266611
0.000273781
0.000280954
0.000288136
0.000295339
0
1.5339e-05
3.06776e-05
4.59844e-05
6.12697e-05
7.6503e-05
9.16854e-05
0.000106819
0.000121875
0.000136858
0.000151773
0.000166596
0.000181347
0.000196007
0.000210588
0.000225107
0.000239554
0.000253954
0.000268333
0.000282698
0.000297097
0
7.7513e-06
1.5501e-05
2.32583e-05
3.10006e-05
3.87369e-05
4.64659e-05
5.4186e-05
6.19064e-05
6.96046e-05
7.729e-05
8.4961e-05
9.26166e-05
0.000100255
0.000107887
0.000115489
0.000123071
0.000130633
0.000138173
0.0001457
0.000153195
0.000160666
0.000168114
0.000175537
0.000182947
0.000190323
0.000197676
0.000205005
0.000212313
0.000219599
0.000226875
0.000234123
0.000241354
0.000248571
0.000255776
0.000262981
0.000270171
0.000277358
0.000284546
0.00029174
0.000298953
0
1.56793e-05
3.1356e-05
4.69956e-05
6.26063e-05
7.81545e-05
9.36388e-05
0.000109058
0.000124382
0.000139611
0.000154748
0.000169767
0.000184687
0.000199485
0.000214177
0.000228779
0.000243283
0.000257715
0.000272108
0.000286468
0.000300848
0
7.93478e-06
1.58676e-05
2.38076e-05
3.17313e-05
3.96477e-05
4.75549e-05
5.54513e-05
6.33456e-05
7.12148e-05
7.90678e-05
8.69029e-05
9.47186e-05
0.000102513
0.000110296
0.000118043
0.000125766
0.000133462
0.000141129
0.000148778
0.000156387
0.000163965
0.000171512
0.000179027
0.00018652
0.000193971
0.00020139
0.000208778
0.000216135
0.000223463
0.000230772
0.000238046
0.000245295
0.000252522
0.00025973
0.000266931
0.00027411
0.000281281
0.000288447
0.000295614
0.000302795
0
1.60604e-05
3.21158e-05
4.81284e-05
6.41042e-05
8.0006e-05
9.58295e-05
0.000111571
0.000127195
0.000142699
0.000158085
0.000173321
0.000188423
0.000203367
0.000218167
0.000232838
0.000247373
0.000261799
0.00027615
0.000290437
0.000304716
0
8.1271e-06
1.62519e-05
2.43837e-05
3.24979e-05
4.06037e-05
4.86988e-05
5.67813e-05
6.48598e-05
7.29104e-05
8.09419e-05
8.89523e-05
9.69395e-05
0.000104902
0.000112847
0.000120753
0.000128627
0.000136469
0.000144277
0.000152059
0.000159793
0.000167488
0.000175143
0.000182758
0.000190341
0.000197873
0.000205362
0.000212809
0.000220216
0.000227581
0.000234918
0.000242206
0.000249459
0.000256679
0.000263869
0.000271041
0.000278181
0.000285303
0.000292411
0.000299511
0.000306618
0
1.64336e-05
3.28607e-05
4.92414e-05
6.55802e-05
8.1837e-05
9.80049e-05
0.000114077
0.000130014
0.00014581
0.000161461
0.000176931
0.00019223
0.000207332
0.000222242
0.000236975
0.00025152
0.000265904
0.000280161
0.000294305
0.000308397
0
8.30043e-06
1.65985e-05
2.49036e-05
3.31906e-05
4.14689e-05
4.97359e-05
5.79898e-05
6.62389e-05
7.4459e-05
8.26585e-05
9.08355e-05
9.8987e-05
0.000107111
0.000115216
0.000123278
0.000131305
0.000139295
0.000147245
0.000155164
0.000163029
0.000170848
0.000178619
0.00018634
0.000194021
0.000201639
0.000209203
0.000216714
0.000224171
0.000231575
0.000238934
0.000246232
0.000253479
0.000260678
0.000267831
0.000274952
0.000282026
0.000289066
0.000296079
0.000303071
0.000310057
0
1.67332e-05
3.34608e-05
5.01429e-05
6.67844e-05
8.33443e-05
9.98145e-05
0.000116186
0.000132416
0.000148493
0.000164408
0.000180119
0.000195628
0.000210898
0.00022593
0.000240727
0.000255273
0.000269588
0.000283705
0.00029764
0.000311456
0
8.41546e-06
1.68288e-05
2.525e-05
3.36537e-05
4.205e-05
5.04361e-05
5.88107e-05
6.71821e-05
7.55263e-05
8.38513e-05
9.21557e-05
0.000100436
0.000108691
0.000116927
0.000125121
0.000133279
0.000141401
0.000149481
0.000157529
0.000165518
0.000173458
0.000181345
0.000189176
0.000196959
0.00020467
0.000212318
0.0002199
0.000227415
0.000234861
0.000242248
0.000249556
0.000256795
0.000263967
0.000271073
0.000278125
0.00028511
0.000292041
0.000298924
0.000305766
0.000312583
0
1.68656e-05
3.373e-05
5.0557e-05
6.73551e-05
8.40856e-05
0.000100742
0.000117316
0.000133762
0.000150065
0.000166211
0.000182148
0.000197868
0.000213322
0.000228495
0.000243377
0.000257935
0.000272178
0.000286128
0.000299794
0.000313244
0
8.41661e-06
1.6832e-05
2.52568e-05
3.36665e-05
4.2072e-05
5.04712e-05
5.88634e-05
6.72577e-05
7.56306e-05
8.39905e-05
9.23366e-05
0.000100665
0.000108976
0.000117275
0.000125539
0.000133774
0.000141979
0.000150149
0.000158291
0.000166379
0.000174421
0.000182411
0.000190345
0.000198229
0.000206038
0.000213777
0.000221443
0.00022903
0.000236535
0.000243966
0.000251298
0.000258542
0.000265695
0.000272758
0.000279741
0.000286628
0.00029343
0.000300153
0.000306806
0.000313408
0
1.67019e-05
3.34112e-05
5.01004e-05
6.6786e-05
8.34366e-05
0.000100052
0.000116627
0.00013312
0.000149516
0.000165794
0.000181897
0.000197804
0.000213449
0.000228795
0.000243808
0.000258427
0.000272636
0.000286431
0.000299807
0.000312814
0
8.23036e-06
1.6461e-05
2.47034e-05
3.29353e-05
4.11683e-05
4.94019e-05
5.76367e-05
6.58828e-05
7.41183e-05
8.23527e-05
9.05862e-05
9.88163e-05
0.000107043
0.000115274
0.000123486
0.000131685
0.000139872
0.00014804
0.000156198
0.000164316
0.000172405
0.000180454
0.000188461
0.000196427
0.000204326
0.000212159
0.00021992
0.0002276
0.000235193
0.0002427
0.000250095
0.000257379
0.00026455
0.000271599
0.000278536
0.00028534
0.000292022
0.000298587
0.000305035
0.000311372
0
1.60798e-05
3.21795e-05
4.82855e-05
6.44261e-05
8.05834e-05
9.67688e-05
0.000112989
0.00012921
0.000145426
0.00016162
0.000177731
0.000193731
0.000209534
0.00022508
0.000240296
0.000255078
0.00026936
0.000283086
0.000296199
0.000308733
0
7.77002e-06
1.55423e-05
2.33291e-05
3.11115e-05
3.8902e-05
4.67025e-05
5.45147e-05
6.23507e-05
7.0191e-05
7.8047e-05
8.59203e-05
9.38108e-05
0.00010172
0.000109657
0.000117601
0.000125561
0.000133537
0.000141525
0.000149534
0.000157537
0.000165542
0.000173541
0.00018153
0.000189508
0.000197449
0.000205348
0.000213199
0.000220984
0.000228696
0.000236326
0.000243842
0.00025124
0.000258505
0.000265626
0.000272595
0.000279384
0.000285991
0.00029241
0.000298651
0.000304753
0
1.48227e-05
2.96789e-05
4.45719e-05
5.95439e-05
7.45949e-05
8.9753e-05
0.000105042
0.000120451
0.00013599
0.00015166
0.000167417
0.00018324
0.000199041
0.000214738
0.00023022
0.000245319
0.000259886
0.000273778
0.000286843
0.000298972
0
6.95096e-06
1.3906e-05
2.08777e-05
2.78515e-05
3.48401e-05
4.18478e-05
4.88774e-05
5.59432e-05
6.30286e-05
7.01476e-05
7.73026e-05
8.44978e-05
9.17353e-05
9.90288e-05
0.00010636
0.000113742
0.000121177
0.000128664
0.000136216
0.000143811
0.00015146
0.000159157
0.000166902
0.000174695
0.000182514
0.000190351
0.000198203
0.000206044
0.000213865
0.000221643
0.000229344
0.000236939
0.000244413
0.000251724
0.000258875
0.000265809
0.000272531
0.000278999
0.00028518
0.000290975
0
1.27812e-05
2.5606e-05
3.84921e-05
5.14922e-05
6.46242e-05
7.79322e-05
9.14604e-05
0.000105224
0.000119264
0.000133615
0.000148274
0.000163262
0.000178536
0.000194041
0.000209669
0.000225201
0.000240357
0.00025478
0.000268101
0.000280176
0
5.71751e-06
1.14401e-05
1.71793e-05
2.29254e-05
2.86896e-05
3.44782e-05
4.02944e-05
4.6153e-05
5.20411e-05
5.7974e-05
6.39545e-05
6.99907e-05
7.6085e-05
8.22549e-05
8.84855e-05
9.47951e-05
0.000101185
0.000107666
0.000114249
0.000120925
0.000127705
0.000134598
0.000141605
0.000148742
0.00015599
0.000163359
0.00017085
0.00017845
0.000186158
0.000193953
0.000201807
0.000209671
0.000217524
0.000225275
0.000232864
0.000240195
0.000247156
0.000253795
0.000260041
0.000266187
0
9.89601e-06
1.98359e-05
2.98443e-05
3.99738e-05
5.02519e-05
6.07292e-05
7.14603e-05
8.24821e-05
9.38583e-05
0.000105658
0.000117933
0.000130769
0.000144217
0.00015834
0.00017317
0.000188633
0.000204538
0.000220451
0.000235417
0.00024808
0
4.07531e-06
8.15526e-06
1.22486e-05
1.63497e-05
2.04672e-05
2.46069e-05
2.87717e-05
3.29741e-05
3.7205e-05
4.14781e-05
4.57953e-05
5.01661e-05
5.45919e-05
5.90902e-05
6.36497e-05
6.82901e-05
7.30118e-05
7.78314e-05
8.27552e-05
8.77903e-05
9.2942e-05
9.82357e-05
0.000103669
0.00010928
0.000115051
0.000121025
0.000127199
0.000133614
0.000140266
0.000147204
0.000154408
0.000161906
0.000169706
0.000177757
0.000186073
0.000194418
0.000202929
0.000210824
0.000218271
0.0002239
0
6.25656e-06
1.25453e-05
1.88863e-05
2.53182e-05
3.18642e-05
3.85639e-05
4.54615e-05
5.2593e-05
6.00164e-05
6.78015e-05
7.60173e-05
8.47748e-05
9.41899e-05
0.000104432
0.000115719
0.000128288
0.000142408
0.000158244
0.000175367
0.000192479
0
2.11311e-06
4.22889e-06
6.3521e-06
8.48013e-06
1.06176e-05
1.27681e-05
1.4933e-05
1.71194e-05
1.93228e-05
2.15506e-05
2.38043e-05
2.60889e-05
2.8406e-05
3.07648e-05
3.31603e-05
3.56031e-05
3.80947e-05
4.06441e-05
4.32566e-05
4.59367e-05
4.86896e-05
5.1531e-05
5.44624e-05
5.75102e-05
6.06673e-05
6.39701e-05
6.74193e-05
7.10638e-05
7.49039e-05
7.90221e-05
8.34077e-05
8.81884e-05
9.33711e-05
9.91578e-05
0.00010556
0.000112908
0.000121253
0.000131225
0.000141288
0.000153412
0
2.12423e-06
4.26014e-06
6.41525e-06
8.60326e-06
1.08325e-05
1.31168e-05
1.54711e-05
1.79078e-05
2.04468e-05
2.31123e-05
2.59301e-05
2.89434e-05
3.22051e-05
3.58031e-05
3.98792e-05
4.46646e-05
5.0594e-05
5.85073e-05
7.0136e-05
9.01001e-05
0
0
0
0
0
0
0
0
0
0
0
0
0
0
0
0
0
0
0
0
0
0
0
0
0
0
0
0
0
0
0
0
0
0
0
0
0
0
0
0
0
SCALARS Displacement_Z double 1
LOOKUP_TABLE default
0.00176669
0.00176669
0.00176671
0.00176674
0.00176679
0.00176684
0.0017669
0.00176697
0.00176705
0.00176714
0.00176723
0.00176732
0.00176742
0.00176752
0.00176761
0.0017677
0.00176779
0.00176786
0.00176793
0.00176798
0.00176802
0.00176804
0.00176804
0.00176802
0.00176798
0.00176791
0.00176781
0.00176768
0.00176752
0.00176733
0.0017671
0.00176683
0.00176653
0.0017662
0.00176583
0.00176543
0.00176499
0.00176453
0.00176403
0.00176352
0.00176299
0.00170515
0.00170518
0.00170529
0.00170546
0.00170569
0.00170596
0.00170627
0.00170659
0.0017069
0.00170719
0.00170743
0.0017076
0.00170767
0.00170764
0.00170746
0.00170714
0.00170666
0.00170601
0.0017052
0.00170424
0.00170318
0.0016436
0.00164361
0.00164364
0.0016437
0.00164378
0.00164388
0.001644
0.00164413
0.00164429
0.00164446
0.00164464
0.00164484
0.00164504
0.00164525
0.00164547
0.00164568
0.0016459
0.00164611
0.00164631
0.0016465
0.00164667
0.00164683
0.00164697
0.00164708
0.00164717
0.00164722
0.00164724
0.00164723
0.00164718
0.00164709
0.00164695
0.00164677
0.00164654
0.00164627
0.00164596
0.00164559
0.00164518
0.00164473
0.00164424
0.00164371
0.00164315
0.00158183
0.00158189
0.00158205
0.00158231
0.00158266
0.00158309
0.00158358
0.0015841
0.00158464
0.00158517
0.00158565
0.00158607
0.00158639
0.00158658
0.00158662
0.00158649
0.00158617
0.00158565
0.00158492
0.00158399
0.00158287
0.00151981
0.00151982
0.00151987
0.00151995
0.00152006
0.0015202
0.00152036
0.00152056
0.00152078
0.00152102
0.00152128
0.00152156
0.00152185
0.00152216
0.00152248
0.0015228
0.00152313
0.00152345
0.00152377
0.00152409
0.00152439
0.00152467
0.00152493
0.00152517
0.00152538
0.00152556
0.0015257
0.00152581
0.00152587
0.00152588
0.00152585
0.00152577
0.00152563
0.00152544
0.00152518
0.00152487
0.00152451
0.00152408
0.00152358
0.00152303
0.00152242
0.00145737
0.00145744
0.00145766
0.00145801
0.00145849
0.00145907
0.00145974
0.00146048
0.00146125
0.00146203
0.00146278
0.00146348
0.00146407
0.00146454
0.00146485
0.00146496
0.00146485
0.0014645
0.00146388
0.00146298
0.00146177
0.00139451
0.00139454
0.0013946
0.0013947
0.00139484
0.00139503
0.00139525
0.00139551
0.0013958
0.00139612
0.00139647
0.00139685
0.00139725
0.00139767
0.00139811
0.00139857
0.00139903
0.00139949
0.00139996
0.00140042
0.00140087
0.00140131
0.00140174
0.00140213
0.00140251
0.00140285
0.00140315
0.00140341
0.00140362
0.00140378
0.00140389
0.00140393
0.00140391
0.00140383
0.00140367
0.00140343
0.00140312
0.00140273
0.00140225
0.00140168
0.00140102
0.00133113
0.00133122
0.0013315
0.00133197
0.00133259
0.00133337
0.00133428
0.00133528
0.00133636
0.00133746
0.00133857
0.00133963
0.0013406
0.00134144
0.00134211
0.00134256
0.00134275
0.00134264
0.00134219
0.00134136
0.00134013
0.00126723
0.00126726
0.00126734
0.00126748
0.00126766
0.0012679
0.00126819
0.00126853
0.00126891
0.00126934
0.00126981
0.00127031
0.00127085
0.00127142
0.00127202
0.00127264
0.00127327
0.00127392
0.00127458
0.00127524
0.0012759
0.00127655
0.00127719
0.00127781
0.0012784
0.00127895
0.00127947
0.00127995
0.00128037
0.00128074
0.00128104
0.00128127
0.00128142
0.00128149
0.00128148
0.00128137
0.00128115
0.00128084
0.00128041
0.00127986
0.0012792
0.00120275
0.00120287
0.00120324
0.00120384
0.00120466
0.00120568
0.00120688
0.00120823
0.00120969
0.00121123
0.0012128
0.00121434
0.00121582
0.00121717
0.00121834
0.00121926
0.00121988
0.00122014
0.00121998
0.00121935
0.00121819
0.00113773
0.00113776
0.00113787
0.00113804
0.00113828
0.00113859
0.00113896
0.0011394
0.00113989
0.00114045
0.00114106
0.00114172
0.00114243
0.00114318
0.00114398
0.00114481
0.00114567
0.00114656
0.00114746
0.00114838
0.0011493
0.00115023
0.00115114
0.00115205
0.00115293
0.00115378
0.00115459
0.00115536
0.00115607
0.00115672
0.00115729
0.00115779
0.00115819
0.0011585
0.0011587
0.00115879
0.00115875
0.00115858
0.00115827
0.00115781
0.0011572
0.00107212
0.00107228
0.00107274
0.0010735
0.00107455
0.00107587
0.00107743
0.00107919
0.00108113
0.0010832
0.00108535
0.00108751
0.00108964
0.00109166
0.0010935
0.00109507
0.00109631
0.00109712
0.00109743
0.00109715
0.00109621
0.00100602
0.00100607
0.0010062
0.00100641
0.00100671
0.0010071
0.00100756
0.00100811
0.00100873
0.00100943
0.00101021
0.00101105
0.00101196
0.00101293
0.00101395
0.00101503
0.00101616
0.00101732
0.00101852
0.00101975
0.001021
0.00102226
0.00102353
0.00102479
0.00102604
0.00102726
0.00102845
0.0010296
0.00103069
0.00103172
0.00103268
0.00103354
0.0010343
0.00103495
0.00103548
0.00103586
0.0010361
0.00103618
0.00103608
0.0010358
0.00103532
0.000939425
0.000939615
0.000940182
0.000941118
0.000942413
0.000944045
0.000945992
0.000948224
0.000950702
0.000953381
0.000956209
0.000959121
0.000962048
0.000964904
0.000967603
0.000970045
0.000972123
0.000973726
0.000974739
0.000975047
0.000974534
0.000872486
0.000872537
0.000872692
0.000872949
0.000873308
0.000873768
0.000874327
0.000874985
0.00087574
0.000876587
0.000877526
0.000878554
0.000879666
0.00088086
0.000882133
0.000883476
0.000884886
0.000886358
0.000887884
0.000889461
0.000891075
0.000892722
0.000894391
0.000896075
0.000897762
0.00089944
0.000901097
0.000902721
0.000904299
0.000905816
0.00090726
0.000908612
0.000909857
0.000910979
0.000911962
0.000912789
0.00091344
0.000913901
0.000914152
0.000914179
0.000913963
0.000805258
0.000805478
0.000806139
0.000807233
0.000808753
0.000810683
0.000813003
0.000815692
0.000818712
0.000822025
0.00082558
0.000829311
0.000833145
0.000836989
0.000840738
0.000844275
0.00084746
0.000850148
0.00085218
0.000853388
0.000853614
0.000737987
0.000738045
0.000738219
0.00073851
0.000738916
0.000739437
0.000740072
0.00074082
0.000741681
0.000742652
0.000743732
0.000744919
0.00074621
0.000747603
0.000749096
0.000750682
0.000752359
0.000754122
0.000755965
0.000757885
0.00075987
0.000761914
0.000764008
0.000766144
0.000768312
0.000770495
0.000772683
0.000774862
0.000777015
0.000779127
0.00078118
0.000783151
0.000785022
0.000786772
0.000788376
0.000789816
0.00079106
0.000792089
0.000792876
0.000793392
0.000793613
0.000670813
0.000671054
0.000671775
0.000672974
0.000674649
0.00067679
0.000679389
0.000682435
0.000685902
0.000689764
0.000693985
0.000698507
0.000703266
0.000708169
0.000713105
0.000717942
0.000722508
0.000726618
0.000730061
0.000732606
0.000733993
0.00060409
0.000604151
0.000604334
0.000604639
0.000605066
0.000605614
0.000606284
0.000607075
0.00060799
0.000609025
0.00061018
0.000611456
0.000612852
0.000614367
0.000616001
0.00061775
0.000619613
0.000621587
0.00062367
0.000625861
0.00062815
0.000630533
0.000633003
0.000635555
0.00063818
0.000640862
0.00064359
0.000646353
0.000649131
0.000651908
0.000654666
0.000657377
0.000660015
0.000662558
0.000664971
0.00066723
0.000669289
0.000671123
0.00067269
0.000673967
0.00067491
0.000538071
0.000538313
0.000539037
0.000540246
0.000541944
0.000544132
0.000546815
0.000549997
0.000553675
0.000557845
0.000562498
0.000567604
0.000573126
0.000578992
0.000585109
0.000591348
0.000597522
0.00060341
0.000608732
0.000613151
0.000616368
0.000473232
0.00047329
0.000473464
0.000473755
0.000474162
0.000474687
0.000475329
0.00047609
0.000476973
0.000477975
0.0004791
0.000480348
0.000481721
0.000483221
0.000484851
0.000486609
0.000488497
0.000490518
0.000492672
0.000494962
0.000497383
0.000499936
0.000502621
0.000505434
0.000508376
0.000511432
0.000514599
0.000517866
0.00052122
0.000524646
0.000528126
0.000531631
0.000535136
0.00053861
0.00054202
0.000545328
0.000548483
0.000551436
0.000554135
0.000556496
0.000558469
0.000409947
0.000410163
0.000410815
0.000411905
0.000413446
0.000415448
0.000417929
0.00042091
0.000424411
0.00042846
0.000433086
0.000438303
0.000444134
0.000450564
0.000457563
0.000465049
0.000472862
0.000480775
0.000488487
0.000495574
0.000501383
0.0003488
0.000348848
0.000348994
0.000349238
0.00034958
0.000350021
0.000350563
0.000351206
0.000351955
0.000352808
0.00035377
0.000354843
0.00035603
0.000357335
0.000358764
0.000360317
0.000362001
0.00036382
0.000365781
0.000367891
0.000370153
0.000372572
0.000375159
0.000377915
0.000380855
0.000383971
0.000387275
0.000390765
0.000394443
0.000398304
0.000402344
0.000406539
0.000410866
0.000415309
0.000419801
0.000424347
0.000428817
0.000433244
0.000437483
0.000441561
0.000445374
0.000290268
0.000290435
0.000290939
0.000291785
0.000292987
0.000294559
0.000296526
0.000298919
0.000301773
0.000305139
0.000309079
0.000313661
0.000318974
0.000325107
0.000332155
0.000340196
0.000349229
0.00035913
0.000369556
0.000379978
0.000390059
0.000234991
0.000235025
0.000235127
0.000235298
0.000235538
0.000235848
0.00023623
0.000236684
0.000237213
0.000237818
0.000238503
0.00023927
0.000240123
0.000241065
0.000242103
0.000243239
0.000244481
0.000245835
0.000247309
0.000248914
0.000250657
0.00025255
0.000254607
0.000256841
0.000259274
0.000261915
0.00026479
0.000267916
0.000271321
0.000275025
0.000279062
0.000283433
0.000288177
0.000293279
0.000298781
0.000304567
0.000310738
0.000316923
0.000323284
0.000329364
0.000335073
0.000183487
0.000183591
0.000183905
0.000184432
0.000185184
0.000186171
0.000187413
0.000188937
0.000190775
0.000192976
0.000195607
0.00019875
0.000202529
0.000207101
0.000212687
0.000219582
0.000228143
0.000238763
0.000251733
0.000266655
0.000281601
0.000136354
0.000136372
0.000136427
0.000136518
0.000136646
0.000136812
0.000137016
0.000137259
0.000137542
0.000137866
0.000138233
0.000138645
0.000139103
0.000139611
0.000140171
0.000140787
0.000141463
0.000142204
0.000143016
0.000143907
0.000144884
0.000145957
0.00014714
0.000148443
0.000149891
0.000151496
0.000153291
0.000155298
0.000157566
0.000160127
0.000163052
0.000166388
0.000170216
0.000174659
0.000179748
0.000185727
0.000192426
0.000200657
0.000209332
0.000219878
0.000230867
9.40573e-05
9.41022e-05
9.42388e-05
9.44682e-05
9.4794e-05
9.52207e-05
9.57561e-05
9.64115e-05
9.72021e-05
9.81512e-05
9.92933e-05
0.000100677
0.000102379
0.000104513
0.000107263
0.000110929
0.00011601
0.000123365
0.000134586
0.000152245
0.000179433
5.70394e-05
5.70453e-05
5.70626e-05
5.7092e-05
5.71327e-05
5.71858e-05
5.72502e-05
5.73272e-05
5.7416e-05
5.75178e-05
5.76316e-05
5.77593e-05
5.78996e-05
5.80552e-05
5.82248e-05
5.84111e-05
5.86131e-05
5.88349e-05
5.90751e-05
5.93398e-05
5.96269e-05
5.99448e-05
6.02927e-05
6.06816e-05
6.1113e-05
6.16013e-05
6.21519e-05
6.27868e-05
6.35209e-05
6.43852e-05
6.54213e-05
6.66622e-05
6.82166e-05
7.01245e-05
7.26624e-05
7.57514e-05
8.01751e-05
8.56494e-05
9.44528e-05
0.000103605
0.000120344
2.56159e-05
2.56238e-05
2.56487e-05
2.569e-05
2.57475e-05
2.58211e-05
2.59111e-05
2.60181e-05
2.61432e-05
2.6289e-05
2.64597e-05
2.66621e-05
2.69083e-05
2.72183e-05
2.76286e-05
2.82053e-05
2.9084e-05
3.051e-05
3.31913e-05
3.80079e-05
5.27038e-05
-0
-0
-0
-0
-0
-0
-0
-0
-0
-0
-0
-0
-0
-0
-0
-0
-0
-0
-0
-0
-0
-0
-0
-0
-0
-0
-0
-0
-0
-0
-0
-0
-0
-0
-0
-0
-0
-0
-0
-0
-0
SCALARS Stress_R double 1
LOOKUP_TABLE default
2.86809
2.86931
2.86937
2.87089
2.87174
2.87398
2.87558
2.87851
2.88086
2.88439
2.88743
2.8915
2.89514
2.89966
2.90385
2.90868
2.91332
2.91832
2.92329
2.92833
2.9335
2.93843
2.94359
2.94828
2.95327
2.95752
2.96217
2.96576
2.96983
2.9726
2.97585
2.97759
2.9798
2.98032
2.9813
2.98049
2.98032
2.97818
2.97744
2.97438
2.97527
2.90575
2.90668
2.90804
2.91027
2.91332
2.91711
2.92152
2.92644
2.93175
2.93726
2.94283
2.94826
2.95343
2.95818
2.96235
2.96589
2.96873
2.97092
2.97251
2.97368
2.97365
2.89625
2.89737
2.89722
2.89842
2.89876
2.90043
2.90127
2.90339
2.90472
2.90721
2.90901
2.91183
2.91405
2.91714
2.91973
2.92299
2.9259
2.92926
2.93242
2.93577
2.93909
2.94235
2.94572
2.94882
2.95214
2.95495
2.95815
2.96056
2.96353
2.96546
2.9681
2.96946
2.97172
2.9724
2.97425
2.97417
2.97563
2.97464
2.97587
2.97363
2.9753
2.9213
2.92211
2.92303
2.92452
2.92658
2.92914
2.93214
2.93552
2.9392
2.94308
2.94707
2.95105
2.95499
2.95878
2.96231
2.96555
2.96842
2.97086
2.97284
2.97429
2.97452
2.91484
2.916
2.91568
2.91669
2.91671
2.91804
2.91838
2.92002
2.9207
2.92258
2.9236
2.92569
2.927
2.92929
2.93087
2.93326
2.93511
2.93756
2.93963
2.94207
2.94431
2.9467
2.94903
2.95134
2.95374
2.95584
2.9583
2.96012
2.96258
2.96407
2.96651
2.96756
2.96997
2.97048
2.97283
2.97265
2.97485
2.97378
2.97566
2.97341
2.97523
2.92973
2.93049
2.93121
2.93236
2.93397
2.936
2.93839
2.94113
2.94415
2.9474
2.95081
2.95427
2.95778
2.96122
2.96449
2.9675
2.97016
2.97233
2.9739
2.97478
2.97444
2.92587
2.92719
2.92671
2.9277
2.92745
2.92867
2.92866
2.93012
2.93036
2.932
2.9325
2.93431
2.93505
2.93703
2.93801
2.94007
2.94131
2.94343
2.94491
2.94701
2.94872
2.9508
2.95267
2.95469
2.95672
2.95856
2.96078
2.96234
2.96468
2.96592
2.96833
2.96912
2.97158
2.97178
2.97417
2.97364
2.97584
2.9744
2.97616
2.97361
2.97532
2.93497
2.93583
2.93644
2.93742
2.93881
2.94057
2.94267
2.94511
2.94785
2.95084
2.954
2.95724
2.96056
2.96383
2.9669
2.96969
2.97206
2.97385
2.97496
2.97532
2.97446
2.93512
2.93672
2.93602
2.93708
2.93655
2.93778
2.93741
2.93883
2.93864
2.9402
2.94023
2.94193
2.94216
2.944
2.94446
2.94638
2.94711
2.94908
2.95008
2.95203
2.95331
2.95525
2.95674
2.95864
2.96036
2.96206
2.96407
2.96547
2.96767
2.96871
2.97105
2.97157
2.97401
2.97386
2.97625
2.97528
2.97743
2.97549
2.97713
2.97399
2.97551
2.94085
2.9418
2.94229
2.94307
2.94421
2.94567
2.94743
2.94952
2.95191
2.95457
2.95742
2.96037
2.96344
2.96648
2.96931
2.97186
2.97397
2.97545
2.97619
2.97608
2.97463
2.94808
2.94991
2.94901
2.95008
2.94925
2.95042
2.94965
2.95094
2.95026
2.95165
2.95111
2.95259
2.95219
2.9538
2.95357
2.95525
2.95528
2.95702
2.95732
2.95905
2.95966
2.9614
2.96226
2.964
2.96516
2.9667
2.96824
2.96949
2.97131
2.9722
2.97425
2.97457
2.97683
2.97639
2.97869
2.97729
2.97941
2.97686
2.97841
2.97443
2.976
2.9515
2.95246
2.95272
2.95313
2.95376
2.95461
2.95567
2.95701
2.95863
2.96053
2.96264
2.9649
2.96736
2.96988
2.97224
2.9744
2.97615
2.97728
2.97761
2.9771
2.97485
2.97073
2.97262
2.97154
2.97248
2.97133
2.97222
2.97096
2.97187
2.97053
2.97145
2.97011
2.97105
2.96971
2.97076
2.96946
2.97057
2.96945
2.97062
2.96973
2.97092
2.97033
2.9716
2.97126
2.97262
2.97264
2.97388
2.97441
2.9754
2.97635
2.97705
2.9784
2.97851
2.98028
2.97958
2.98157
2.97976
2.9817
2.97852
2.98009
2.97501
2.97644
2.97219
2.97297
2.97278
2.97247
2.97212
2.97177
2.97145
2.97127
2.97129
2.97156
2.97208
2.97282
2.9739
2.97521
2.97653
2.97783
2.97889
2.97946
2.97931
2.97804
2.97524
3.01033
3.01193
3.01079
3.0113
3.00984
3.01009
3.00826
3.00834
3.00617
3.0061
3.00366
3.0035
3.00081
3.00067
2.99778
2.99767
2.99476
2.99473
2.99188
2.99193
2.98927
2.98951
2.98705
2.98754
2.98546
2.98599
2.98454
2.98501
2.98415
2.98452
2.9843
2.98419
2.98473
2.98382
2.985
2.98281
2.98434
2.98047
2.98151
2.97557
2.9773
3.00989
3.01022
3.00928
3.00775
3.00572
3.00328
3.00051
2.9976
2.99469
2.99191
2.98936
2.98713
2.98543
2.98424
2.9834
2.98293
2.98262
2.98209
2.98103
2.97966
2.97514
3.07577
3.07661
3.07557
3.07529
3.07358
3.07273
3.07028
3.06896
3.06578
3.06406
3.06022
3.05818
3.05369
3.05149
3.04641
3.04414
3.03864
3.03641
3.03062
3.02851
3.02261
3.02083
3.01491
3.0136
3.00795
3.00699
3.00201
3.00133
2.99713
2.99672
2.99355
2.99294
2.99105
2.98986
2.98909
2.98675
2.98683
2.98282
2.98378
2.97665
2.97648
3.07393
3.07345
3.07138
3.068
3.06341
3.05772
3.0511
3.04379
3.03602
3.02808
3.0202
3.01266
3.00583
2.9999
2.99483
2.99079
2.98771
2.98533
2.98305
2.97902
2.97597
3.17746
3.17698
3.17626
3.17482
3.173
3.17057
3.1676
3.16428
3.16008
3.156
3.15063
3.14586
3.13931
3.13401
3.12629
3.12065
3.11189
3.10609
3.09638
3.09063
3.08019
3.07479
3.06377
3.05906
3.04783
3.04388
3.03301
3.02994
3.01973
3.01772
3.00862
3.00729
3
2.99892
2.99393
2.992
2.98907
2.98526
2.98251
2.9765
2.9797
3.17625
3.17461
3.17105
3.16522
3.15718
3.14704
3.13503
3.12138
3.1064
3.09051
3.07412
3.05776
3.04207
3.02762
3.01482
3.00415
2.99559
2.98876
2.98406
2.98359
2.97287
3.32628
3.32406
3.32388
3.32105
3.31938
3.3151
3.31188
3.30621
3.30129
3.29438
3.28777
3.27964
3.27131
3.26206
3.25185
3.24174
3.22968
3.21888
3.2049
3.19372
3.17792
3.16673
3.14922
3.13855
3.1196
3.10997
3.09025
3.08219
3.06239
3.05647
3.03782
3.03386
3.01789
3.01516
3.00265
3.00016
2.99195
2.98918
2.98723
2.98103
2.96555
3.33111
3.32814
3.32295
3.3144
3.30246
3.28717
3.26872
3.24724
3.22295
3.19629
3.16773
3.13805
3.10805
3.07884
3.05163
3.02769
3.00846
2.99506
2.98449
2.96876
2.9788
3.53178
3.52777
3.52827
3.52417
3.52293
3.517
3.51397
3.50618
3.50119
3.49168
3.48468
3.47337
3.46429
3.45113
3.4397
3.4249
3.41093
3.39451
3.3777
3.35992
3.34003
3.32106
3.29788
3.27822
3.25136
3.23194
3.20146
3.1834
3.14965
3.13462
3.09885
3.08876
3.05147
3.04835
3.01153
3.01726
2.9835
2.99412
2.96745
2.97423
3.003
3.55356
3.54951
3.54301
3.53226
3.51709
3.49737
3.47313
3.44421
3.41054
3.37223
3.32945
3.28281
3.23283
3.18082
3.12887
3.07947
3.03718
3.00426
2.98641
2.99591
2.93937
3.79997
3.79481
3.79587
3.7911
3.79042
3.78366
3.78123
3.77239
3.76805
3.75721
3.75093
3.73792
3.72966
3.71423
3.70371
3.68597
3.67292
3.65263
3.63659
3.61376
3.59429
3.56853
3.54501
3.51624
3.48721
3.45611
3.42003
3.38717
3.34243
3.30918
3.25508
3.22441
3.16145
3.13712
3.08592
3.06971
3.04119
3.0194
3.00359
2.99628
2.84625
3.85629
3.85191
3.84512
3.83385
3.8178
3.79668
3.77031
3.73816
3.69969
3.65442
3.60167
3.54115
3.47195
3.394
3.30836
3.21609
3.12074
3.02023
2.94161
2.90939
3.09671
4.13227
4.12728
4.12844
4.12399
4.12364
4.11737
4.11556
4.10735
4.10398
4.09388
4.08899
4.07679
4.07048
4.05586
4.048
4.03099
4.02152
4.00171
3.99047
3.96765
3.9546
3.9279
3.91291
3.88149
3.86336
3.82704
3.80402
3.76173
3.73075
3.68144
3.63594
3.58139
3.50612
3.45181
3.33315
3.29692
3.00334
3.0682
2.73441
3.03479
3.10428
4.24518
4.24163
4.23613
4.22697
4.21387
4.19656
4.17477
4.1479
4.11521
4.07584
4.02846
3.97162
3.90263
3.81852
3.71642
3.59251
3.4469
3.2826
3.1706
2.88558
2.09967
4.52747
4.52422
4.52484
4.52171
4.52115
4.51668
4.51497
4.50909
4.5062
4.49895
4.49493
4.48619
4.48116
4.47074
4.4647
4.4526
4.44566
4.43162
4.42393
4.40777
4.39971
4.38079
4.37305
4.35058
4.34362
4.31698
4.31171
4.27903
4.2771
4.23469
4.23698
4.18055
4.18677
4.1053
4.11627
3.99993
3.99395
3.7943
4.35112
4.31516
3.32852
4.71549
4.71387
4.71113
4.70661
4.7002
4.69191
4.68169
4.66946
4.6551
4.6385
4.61941
4.59749
4.57168
4.54044
4.50062
4.44519
4.35835
4.20824
3.90666
3.1228
3.8534
5.00269
5.0016
5.00182
5.00037
5.00024
4.99819
4.99756
4.99492
4.99384
4.99062
4.98914
4.98534
4.98353
4.9791
4.97705
4.97205
4.96989
4.96431
4.96227
4.95624
4.95473
4.94839
4.94826
4.94194
4.94461
4.93928
4.94731
4.94495
4.96397
4.96734
5.00768
5.02882
5.11682
5.15978
5.33413
5.52072
5.9691
6.11381
6.66508
10.3202
17.645
SCALARS Stress_Theta double 1
LOOKUP_TABLE default
2.86809
2.86922
2.86917
2.8703
2.87079
2.87239
2.8734
2.87548
2.87702
2.8795
2.88154
2.88439
2.88687
2.89006
2.89296
2.89638
2.89965
2.90324
2.90681
2.91046
2.91425
2.9179
2.92178
2.92534
2.92921
2.93255
2.93631
2.9393
2.94276
2.94528
2.94828
2.95019
2.95256
2.95369
2.95528
2.95551
2.95637
2.95557
2.95611
2.95452
2.95669
2.90575
2.90653
2.90729
2.90853
2.91024
2.91238
2.91488
2.9177
2.92078
2.92403
2.92738
2.93072
2.93404
2.93725
2.9403
2.94318
2.9459
2.94855
2.95122
2.95409
2.95665
2.89625
2.8973
2.89708
2.898
2.8981
2.89933
2.89976
2.90129
2.90206
2.90382
2.90492
2.9069
2.9083
2.91046
2.91214
2.91442
2.91636
2.9187
2.92086
2.92321
2.92554
2.92784
2.93025
2.93247
2.93493
2.93697
2.93942
2.94122
2.94359
2.94509
2.94731
2.94845
2.9505
2.95122
2.95309
2.95336
2.95515
2.95494
2.95693
2.95617
2.9592
2.9213
2.92198
2.92241
2.92309
2.92404
2.92524
2.92663
2.92822
2.92997
2.93183
2.93378
2.93577
2.93783
2.93991
2.942
2.94413
2.94633
2.94865
2.95125
2.95432
2.95762
2.91484
2.91593
2.91555
2.91629
2.91608
2.91697
2.91692
2.91797
2.91811
2.91926
2.91958
2.92083
2.92132
2.92265
2.9233
2.92466
2.92549
2.92685
2.92784
2.92916
2.9303
2.93157
2.9328
2.93402
2.93537
2.93647
2.93795
2.9389
2.9405
2.9413
2.94305
2.94367
2.94563
2.94605
2.94828
2.94848
2.95101
2.95093
2.95375
2.95326
2.95677
2.92973
2.93035
2.93053
2.93079
2.93116
2.93164
2.93219
2.93283
2.93355
2.93435
2.93521
2.93612
2.93712
2.93823
2.93943
2.94079
2.94236
2.9442
2.94641
2.94914
2.95214
2.92587
2.92711
2.92655
2.92722
2.92669
2.9274
2.92691
2.92765
2.92723
2.92798
2.92764
2.92839
2.92812
2.92889
2.92871
2.92945
2.9294
2.93009
2.93019
2.93081
2.93106
2.93164
2.93203
2.93257
2.93315
2.93359
2.93444
2.93477
2.93588
2.93613
2.93754
2.93766
2.93943
2.9394
2.94154
2.94132
2.9438
2.94334
2.94604
2.94522
2.94857
2.93497
2.93565
2.93559
2.93546
2.93531
2.93513
2.93489
2.93465
2.9344
2.93416
2.93392
2.9337
2.93358
2.93359
2.93372
2.93407
2.93469
2.93565
2.93704
2.93901
2.94134
2.93512
2.93662
2.93583
2.93649
2.93562
2.9362
2.93524
2.93577
2.93476
2.9352
2.93417
2.93453
2.93349
2.93379
2.93276
2.93296
2.93202
2.93213
2.93132
2.9313
2.93065
2.93057
2.93008
2.92996
2.9297
2.92946
2.92956
2.9292
2.92965
2.9292
2.93005
2.92946
2.93077
2.93002
2.93177
2.93082
2.93294
2.93176
2.93411
2.93258
2.9356
2.94085
2.94159
2.94127
2.94071
2.93997
2.93904
2.93791
2.93664
2.93526
2.93377
2.9322
2.93057
2.929
2.92753
2.92617
2.92505
2.92424
2.92384
2.92396
2.92476
2.92602
2.94808
2.9498
2.94879
2.9494
2.94817
2.94858
2.94712
2.94737
2.94572
2.94577
2.94398
2.94385
2.94192
2.94166
2.93963
2.93919
2.93717
2.93658
2.93461
2.93383
2.93199
2.93111
2.92939
2.92844
2.92697
2.92587
2.9248
2.92355
2.92289
2.92154
2.92136
2.91984
2.92024
2.91852
2.91949
2.91751
2.919
2.91673
2.91853
2.91584
2.91855
2.9515
2.95223
2.95159
2.9505
2.94902
2.94716
2.94489
2.94231
2.93944
2.93631
2.93295
2.92939
2.92581
2.92225
2.91874
2.91544
2.91249
2.90999
2.90811
2.90714
2.90663
2.97073
2.97249
2.97132
2.97176
2.97019
2.97029
2.96831
2.9681
2.96574
2.96521
2.96252
2.96169
2.95868
2.95762
2.95432
2.953
2.94954
2.94798
2.94444
2.94261
2.93908
2.9371
2.93358
2.93151
2.92818
2.92591
2.92299
2.92052
2.91805
2.91547
2.91357
2.91076
2.90961
2.90654
2.90615
2.90275
2.90306
2.89927
2.90017
2.89578
2.89774
2.97219
2.97275
2.97169
2.96991
2.96747
2.96437
2.96062
2.95628
2.95142
2.94606
2.94025
2.93402
2.9276
2.92105
2.9144
2.90789
2.90171
2.89601
2.89106
2.88702
2.88393
3.01033
3.01182
3.01059
3.01067
3.00885
3.00839
3.00592
3.00498
3.00187
3.00047
2.99677
2.99491
2.99062
2.98839
2.98353
2.98093
2.97562
2.97268
2.96701
2.96371
2.95781
2.95428
2.94816
2.9445
2.93839
2.93449
2.9287
2.92456
2.91919
2.91492
2.91016
2.90562
2.90179
2.89691
2.89413
2.88876
2.88705
2.88116
2.88014
2.87347
2.87429
3.00989
3.01005
3.00846
3.00579
3.00209
2.99738
2.99166
2.98502
2.97749
2.96913
2.95998
2.95009
2.9397
2.92892
2.91777
2.90659
2.89562
2.88504
2.8752
2.86696
2.85888
3.07577
3.07655
3.07546
3.07492
3.073
3.0717
3.06887
3.06689
3.06311
3.06047
3.05577
3.05249
3.04684
3.04299
3.03636
3.03198
3.02448
3.0196
3.01127
3.00591
2.99688
2.99119
2.98151
2.97561
2.96552
2.95932
2.94925
2.94277
2.93293
2.92629
2.91704
2.91005
2.9019
2.8945
2.88761
2.87962
2.87409
2.86537
2.86158
2.85182
2.84892
3.07393
3.07339
3.07112
3.06733
3.06205
3.0553
3.04707
3.03745
3.02647
3.01418
3.00061
2.98585
2.97008
2.95345
2.936
2.91809
2.90009
2.88239
2.86538
2.84854
2.83477
3.17746
3.177
3.1763
3.17491
3.17315
3.17078
3.16787
3.16456
3.1604
3.15622
3.15079
3.14572
3.13894
3.13304
3.12479
3.11812
3.10841
3.10101
3.08979
3.08169
3.06902
3.06036
3.04624
3.0372
3.02185
3.01241
2.99628
2.98655
2.96991
2.96007
2.94344
2.93334
2.91756
2.90712
2.89299
2.88184
2.86982
2.85779
2.84708
2.8331
2.82821
3.17625
3.17473
3.17164
3.16654
3.15939
3.15017
3.13894
3.1257
3.11045
3.09327
3.07413
3.05312
3.03037
3.006
2.98011
2.95304
2.92504
2.8963
2.86807
2.84384
2.81453
3.32628
3.32418
3.32411
3.32175
3.3205
3.31696
3.31441
3.30971
3.30571
3.29992
3.2944
3.28747
3.2803
3.2722
3.26314
3.25397
3.24286
3.23256
3.21915
3.20779
3.19191
3.17954
3.16099
3.14776
3.12644
3.11252
3.08873
3.07432
3.04843
3.0339
3.00693
2.99217
2.96567
2.95012
2.92512
2.90791
2.88541
2.86701
2.84946
2.83218
2.80668
3.33111
3.32847
3.32454
3.31806
3.30894
3.29712
3.28264
3.26542
3.24541
3.22262
3.197
3.16861
3.13736
3.10326
3.06634
3.02675
2.98523
2.94307
2.89872
2.84616
2.81141
3.53178
3.528
3.5287
3.52549
3.52501
3.52053
3.51881
3.513
3.50985
3.50281
3.49816
3.48978
3.4835
3.47365
3.46542
3.45419
3.44371
3.43095
3.41774
3.40343
3.38702
3.37096
3.35074
3.33288
3.30792
3.28844
3.25806
3.23712
3.20071
3.17889
3.13662
3.11496
3.06658
3.04713
2.99478
2.98094
2.92871
2.91663
2.86927
2.84185
2.83531
3.55356
3.55
3.54543
3.53789
3.52722
3.51329
3.49609
3.47542
3.45106
3.42296
3.3909
3.35489
3.31454
3.26972
3.22038
3.166
3.10724
3.04236
2.97505
2.9229
2.81879
3.79997
3.7951
3.7964
3.79279
3.79307
3.78821
3.78746
3.78127
3.77935
3.77193
3.76883
3.76004
3.75578
3.74541
3.73972
3.72789
3.72053
3.70701
3.69753
3.68226
3.6702
3.65267
3.63724
3.61707
3.59655
3.57377
3.54603
3.52009
3.48238
3.4527
3.40227
3.36864
3.3027
3.26473
3.19837
3.15321
3.09215
3.03195
2.97483
2.94832
2.79136
3.85629
3.85246
3.84779
3.84011
3.82916
3.81477
3.79684
3.77502
3.74892
3.71822
3.68244
3.64132
3.59394
3.53976
3.47863
3.40915
3.32997
3.23046
3.12298
3.00543
3.01076
4.13227
4.12756
4.12893
4.12557
4.12611
4.12163
4.1214
4.11572
4.11465
4.10787
4.10606
4.09807
4.09569
4.08629
4.08333
4.07267
4.06921
4.05709
4.05318
4.03963
4.03545
4.01993
4.01566
3.99772
3.99258
3.97237
3.96504
3.9418
3.92956
3.90209
3.87839
3.8468
3.79512
3.75965
3.66081
3.62413
3.33642
3.35115
2.97729
3.12626
3.01483
4.24518
4.24206
4.23822
4.23188
4.22284
4.21092
4.19602
4.17776
4.1557
4.12936
4.098
4.06085
4.0163
3.96265
3.89857
3.82197
3.73357
3.63376
3.57856
3.30349
2.4331
4.52747
4.52439
4.52514
4.52267
4.52264
4.51926
4.5185
4.51415
4.51267
4.50743
4.50529
4.4991
4.49647
4.48923
4.4862
4.47802
4.4748
4.46559
4.46249
4.4523
4.44992
4.4385
4.43787
4.425
4.42715
4.41311
4.41978
4.4042
4.41847
4.40025
4.4255
4.40456
4.44474
4.41809
4.48152
4.45134
4.52985
4.47578
5.19058
5.24295
4.32009
4.71549
4.71404
4.71194
4.70849
4.70364
4.69738
4.68974
4.68069
4.67025
4.65845
4.64532
4.63089
4.61481
4.59665
4.57526
4.54734
4.50399
4.42759
4.25437
3.6904
4.87459
5.00269
5.0016
5.00182
5.00037
5.00024
4.9982
4.99757
4.99493
4.99385
4.99064
4.98916
4.98536
4.98356
4.97912
4.97708
4.97208
4.96992
4.96435
4.96231
4.95628
4.95478
4.94845
4.94833
4.94202
4.9447
4.93939
4.94747
4.94514
4.96428
4.96775
5.00843
5.02986
5.11888
5.16283
5.34072
5.53095
5.99357
6.15249
6.80122
10.597
18.07
SCALARS Stress_Z double 1
LOOKUP_TABLE default
5.92051
5.92189
5.92141
5.92232
5.92207
5.92312
5.92307
5.92429
5.92449
5.92581
5.92626
5.92768
5.92836
5.92987
5.93081
5.93234
5.93352
5.93505
5.93647
5.93794
5.93956
5.94096
5.94269
5.944
5.9458
5.94693
5.94874
5.94961
5.9513
5.95184
5.95323
5.95334
5.95431
5.95382
5.95421
5.95298
5.9529
5.95063
5.95061
5.94759
5.95048
5.97646
5.97702
5.97668
5.9761
5.97532
5.97435
5.97317
5.97182
5.97032
5.9687
5.96696
5.96514
5.96335
5.96165
5.96009
5.95886
5.9581
5.95807
5.95902
5.96133
5.96452
5.96679
5.96818
5.96754
5.96839
5.96782
5.96873
5.96825
5.96922
5.96888
5.96984
5.96965
5.97059
5.97054
5.97147
5.97157
5.97243
5.97269
5.97345
5.97387
5.9745
5.97506
5.97555
5.97619
5.97655
5.97726
5.9774
5.97818
5.97806
5.97886
5.97848
5.97924
5.97855
5.97933
5.9783
5.97915
5.97783
5.97899
5.97752
5.9796
5.97815
5.98275
6.02085
6.02138
6.02077
6.01975
6.01835
6.0166
6.01448
6.01205
6.00936
6.00644
6.00333
6.00009
5.99687
5.99375
5.99085
5.98834
5.98646
5.9855
5.98594
5.98848
5.99332
6.03048
6.03193
6.03105
6.03162
6.03057
6.03097
6.02975
6.02997
6.02863
6.02863
6.02721
6.02698
6.02546
6.02503
6.02345
6.02277
6.02118
6.02025
6.01867
6.01748
6.01594
6.01453
6.01302
6.01145
6.01004
6.00826
6.00707
6.00513
6.00422
6.0022
6.00169
5.99965
5.99977
5.99781
5.99876
5.99702
5.99905
5.99764
6.00096
5.99994
6.00538
6.07955
6.07993
6.07876
6.07681
6.07412
6.07073
6.06663
6.06192
6.05667
6.05094
6.04483
6.03844
6.03199
6.02566
6.01961
6.01418
6.00968
6.00651
6.00517
6.0063
6.00995
6.10212
6.10377
6.10252
6.10286
6.10115
6.10103
6.09885
6.09828
6.0957
6.09465
6.09171
6.09019
6.0869
6.08496
6.08138
6.07898
6.07522
6.0724
6.06852
6.06528
6.06138
6.05784
6.05393
6.05019
6.04645
6.04249
6.03914
6.03506
6.0322
6.02817
6.02599
6.02208
6.02084
6.01718
6.01704
6.01375
6.01485
6.01205
6.01441
6.01208
6.01651
6.14863
6.14897
6.14708
6.14391
6.13953
6.13399
6.1273
6.11957
6.11092
6.10144
6.09126
6.08056
6.06964
6.05878
6.04821
6.03836
6.02965
6.02254
6.01753
6.01526
6.01574
6.18244
6.18444
6.18273
6.18289
6.18039
6.17977
6.17649
6.17513
6.17111
6.16898
6.16432
6.16143
6.15614
6.15258
6.14673
6.14247
6.13623
6.13132
6.1248
6.11927
6.1126
6.10662
6.09987
6.09357
6.08697
6.08035
6.07422
6.06742
6.06188
6.05511
6.0504
6.04374
6.04015
6.03377
6.03145
6.0255
6.02455
6.01917
6.01958
6.01481
6.01745
6.22646
6.22673
6.22404
6.21953
6.21328
6.20534
6.19571
6.18453
6.17192
6.15803
6.14298
6.12701
6.11051
6.09382
6.07723
6.0613
6.04656
6.03353
6.02288
6.01529
6.01088
6.27263
6.27492
6.27277
6.27271
6.26944
6.26827
6.26386
6.26165
6.25615
6.25286
6.24637
6.24203
6.23457
6.22927
6.22091
6.21463
6.2056
6.19839
6.1888
6.18069
6.17072
6.16193
6.15166
6.14236
6.13209
6.12227
6.11241
6.10222
6.09293
6.08266
6.07424
6.06396
6.05681
6.04674
6.04105
6.03134
6.02729
6.01816
6.0157
6.00718
6.00747
6.3114
6.31155
6.30808
6.30225
6.29415
6.2838
6.27117
6.25641
6.23961
6.2209
6.2004
6.17837
6.15524
6.13141
6.10723
6.08337
6.0605
6.03932
6.02062
6.00548
5.99388
6.37292
6.37528
6.37283
6.37243
6.36852
6.36673
6.36132
6.3582
6.35132
6.34682
6.33857
6.33271
6.32307
6.31596
6.30498
6.29658
6.28449
6.27485
6.26177
6.25089
6.23702
6.22514
6.21057
6.19787
6.18297
6.16942
6.15468
6.14046
6.12613
6.11155
6.09801
6.08317
6.071
6.05614
6.04563
6.03094
6.02232
6.00807
6.0015
5.98778
5.98442
6.40062
6.40053
6.39642
6.3895
6.37984
6.36739
6.35209
6.33402
6.31321
6.28973
6.26362
6.23509
6.20457
6.17247
6.13914
6.10537
6.07201
6.03996
6.01034
5.98427
5.96258
6.4814
6.48339
6.4809
6.48004
6.47583
6.47333
6.46731
6.46324
6.45538
6.44971
6.44005
6.43276
6.42124
6.41241
6.39902
6.38858
6.37349
6.36146
6.34474
6.33108
6.31292
6.29785
6.27831
6.26201
6.24148
6.22386
6.20297
6.1842
6.16323
6.14368
6.12318
6.1029
6.08368
6.06291
6.0455
6.02441
6.00927
5.98838
5.97546
5.95466
5.94603
6.48887
6.48836
6.48389
6.47635
6.46574
6.45195
6.43484
6.41436
6.39042
6.36295
6.33183
6.29712
6.25911
6.21813
6.17445
6.12894
6.0826
6.03647
5.99196
5.95149
5.91437
6.59237
6.59337
6.59129
6.5898
6.58588
6.58267
6.57677
6.57187
6.56386
6.55725
6.54708
6.53868
6.5262
6.51603
6.50107
6.48904
6.47165
6.45768
6.4378
6.42179
6.39949
6.38157
6.35683
6.33712
6.31028
6.28861
6.26035
6.23681
6.20753
6.18248
6.15291
6.12631
6.09759
6.06976
6.04258
6.01365
5.98866
5.95897
5.93724
5.90757
5.88907
6.5676
6.56646
6.56204
6.55459
6.54401
6.5301
6.51265
6.49144
6.46618
6.43659
6.40227
6.363
6.31874
6.2695
6.21529
6.15681
6.0951
6.03155
5.9679
5.90496
5.84806
6.6945
6.69383
6.69271
6.69053
6.68772
6.68394
6.67925
6.67387
6.66705
6.66005
6.65094
6.64218
6.63049
6.61986
6.60522
6.59259
6.5748
6.55996
6.53868
6.52142
6.49643
6.47669
6.44772
6.42549
6.39259
6.36761
6.3313
6.30356
6.26416
6.23392
6.19222
6.15934
6.11685
6.08155
6.03987
6.00228
5.96291
5.92377
5.88667
5.84374
5.81524
6.62483
6.62288
6.61897
6.6124
6.60299
6.59047
6.57459
6.55497
6.5311
6.50247
6.46836
6.42809
6.38098
6.32642
6.26383
6.19328
6.11514
6.03014
5.94112
5.85522
5.76323
6.76947
6.76663
6.76698
6.76421
6.76335
6.75937
6.75711
6.75188
6.74789
6.7414
6.73545
6.72749
6.71921
6.70953
6.69833
6.68681
6.67214
6.65838
6.6395
6.62316
6.59933
6.57998
6.55038
6.52768
6.49153
6.46509
6.42221
6.39177
6.34216
6.30783
6.25266
6.21401
6.15561
6.11171
6.05188
6.00133
5.94176
5.88619
5.8312
5.77955
5.71508
6.64625
6.64347
6.64042
6.63535
6.62803
6.61817
6.60558
6.58981
6.57025
6.5463
6.51699
6.48128
6.43762
6.38432
6.31947
6.24134
6.14962
6.0457
5.92801
5.78884
5.66536
6.79286
6.78794
6.78991
6.78685
6.78836
6.78468
6.78561
6.78123
6.78128
6.77628
6.77527
6.7694
6.76706
6.76001
6.75573
6.74745
6.74052
6.73051
6.71994
6.7078
6.69241
6.67725
6.65545
6.63642
6.60596
6.58226
6.54088
6.51136
6.45665
6.42063
6.35117
6.30872
6.22268
6.17643
6.07672
6.03303
5.92705
5.87991
5.77627
5.69057
5.63444
6.61823
6.61489
6.61276
6.60931
6.60429
6.59749
6.58885
6.57796
6.56431
6.54747
6.52661
6.50085
6.46829
6.42664
6.37285
6.30193
6.20949
6.0868
5.93542
5.7854
5.55586
6.73989
6.73385
6.73691
6.73399
6.73728
6.73429
6.73783
6.7347
6.73835
6.73526
6.73903
6.73581
6.73977
6.73619
6.74003
6.73628
6.73965
6.7354
6.73768
6.73282
6.7332
6.7268
6.72392
6.71504
6.70593
6.69382
6.67431
6.65678
6.62109
6.59486
6.53604
6.49678
6.40599
6.34773
6.24173
6.15318
6.03414
5.90582
5.77783
5.7125
5.45424
6.53196
6.52865
6.52717
6.52489
6.52158
6.51709
6.51151
6.50455
6.49591
6.48542
6.47268
6.45745
6.43847
6.4144
6.38364
6.3411
6.2786
6.16882
6.01254
5.77679
5.62039
6.5963
6.59079
6.59375
6.59128
6.59469
6.59232
6.59631
6.594
6.59858
6.59657
6.60196
6.60021
6.6068
6.60523
6.61322
6.61226
6.62199
6.62167
6.63352
6.63427
6.64894
6.65044
6.66865
6.6709
6.69222
6.69601
6.71915
6.72394
6.74562
6.74982
6.76065
6.76297
6.73724
6.7329
6.63607
6.61354
6.21962
6.2264
5.64904
5.7486
5.4218
6.38719
6.38466
6.38347
6.38163
6.37902
6.37557
6.3714
6.36636
6.36031
6.35323
6.34497
6.33556
6.32432
6.3108
6.2955
6.27818
6.26159
6.24468
6.29356
5.97607
4.67696
6.37024
6.36686
6.36843
6.36651
6.36802
6.36588
6.36741
6.36504
6.36665
6.36419
6.36605
6.36353
6.36594
6.36336
6.36661
6.36429
6.36882
6.36688
6.37338
6.37229
6.38194
6.38187
6.39657
6.39808
6.42008
6.42474
6.45765
6.46695
6.51694
6.5327
6.60777
6.63518
6.74606
6.79051
6.95768
7.03577
7.26174
7.37135
8.56986
8.73559
7.54652
6.19312
6.1919
6.1907
6.18879
6.18614
6.1828
6.17889
6.17452
6.16986
6.16522
6.16103
6.15793
6.15645
6.15757
6.16246
6.17173
6.18263
6.1898
6.13938
5.67409
7.83491
6.11562
6.11429
6.11456
6.11278
6.11261
6.1101
6.10932
6.10608
6.10475
6.1008
6.09898
6.09431
6.09209
6.08665
6.08414
6.078
6.07535
6.06851
6.06602
6.05862
6.0568
6.04904
6.04893
6.04121
6.0446
6.03815
6.04827
6.04559
6.06956
6.07425
6.12531
6.15269
6.26485
6.32174
6.54846
6.79027
7.38532
7.60941
8.57019
13.4399
22.7941
SCALARS Stress_Shear double 1
LOOKUP_TABLE default
-0.000117214
6.53479e-05
0.000171802
0.000241682
0.000335303
0.000401653
0.000497385
0.000554928
0.000654499
0.000699765
0.000798637
0.000833256
0.00092778
0.000950637
0.00104273
0.00104968
0.00113151
0.00112503
0.00119546
0.00117255
0.00122256
0.00118378
0.00121338
0.00115063
0.0011556
0.00106618
0.00103275
0.000916217
0.000838477
0.000685458
0.000555335
0.000364241
0.000167629
-5.2581e-05
-0.000315437
-0.000529661
-0.000844657
-0.000965102
-0.00119505
-0.000868434
-0.000506271
-2.29332e-05
0.00181892
0.00359478
0.00528882
0.00686402
0.0082774
0.00949279
0.0104777
0.0111959
0.0116212
0.0117283
0.0115025
0.01093
0.0100092
0.00875694
0.00720145
0.00540594
0.00348828
0.00166558
0.000307988
-8.98663e-05
2.14929e-05
0.00170018
0.00339668
0.0050557
0.0067211
0.00829827
0.00988795
0.0113511
0.0128304
0.0141414
0.0154716
0.0165963
0.0177434
0.0186508
0.0195825
0.0202436
0.0209281
0.0213177
0.021729
0.0218285
0.0219453
0.0217391
0.0215487
0.0210305
0.0205237
0.019702
0.0188817
0.017776
0.0166634
0.0153086
0.0139392
0.0124031
0.010841
0.00921991
0.00756465
0.00599319
0.00439077
0.00304035
0.00168992
0.000722461
-0.000200246
1.57495e-05
0.00453888
0.00897811
0.0132118
0.0171501
0.0206921
0.0237493
0.026241
0.0280895
0.0292323
0.0296208
0.0292234
0.0280268
0.0260492
0.0233436
0.0199946
0.0161452
0.0119864
0.00774934
0.00368952
-2.24182e-05
5.78127e-06
0.00282465
0.00564882
0.0084136
0.0111751
0.0138171
0.0164516
0.0189158
0.0213692
0.0235943
0.0258046
0.0277369
0.0296509
0.0312415
0.0328108
0.0340136
0.0351899
0.0359672
0.0367137
0.0370375
0.0373243
0.0371737
0.0369848
0.0363525
0.0356809
0.0345787
0.0334338
0.0318887
0.0303019
0.0283552
0.0263722
0.0240934
0.021783
0.0192531
0.0166985
0.0140043
0.0112938
0.00851577
0.00573405
0.00290754
9.66071e-05
-6.29975e-06
0.00655113
0.0129675
0.0191034
0.0248383
0.0300335
0.0345685
0.0383345
0.0412233
0.04315
0.0440456
0.043864
0.0425823
0.0402107
0.0367962
0.0324087
0.0271601
0.0211775
0.0145875
0.00750688
-1.34209e-05
1.09302e-05
0.00374181
0.00748146
0.011153
0.0148148
0.0183377
0.0218423
0.0251498
0.0284315
0.0314475
0.0344297
0.0370868
0.0397035
0.0419407
0.0441315
0.0458882
0.0475913
0.0488175
0.0499848
0.05064
0.0512298
0.0512807
0.0512654
0.0506929
0.0500543
0.048856
0.0475909
0.0457783
0.0439027
0.0414966
0.0390348
0.0360789
0.0330725
0.0296149
0.0261105
0.0221997
0.0182483
0.0139341
0.00959169
0.00489968
0.000188647
-8.09343e-06
0.00829733
0.0164409
0.0242628
0.0316254
0.0383647
0.044337
0.0494101
0.0534458
0.0563307
0.0579635
0.0582629
0.0571694
0.0546506
0.0507072
0.0453558
0.0386521
0.0306692
0.0214916
0.011238
-2.58199e-05
1.10828e-05
0.00458548
0.00916853
0.013678
0.0181764
0.0225247
0.026851
0.0309654
0.0350482
0.038842
0.042595
0.0459905
0.0493368
0.0522616
0.0551294
0.0575069
0.0598189
0.0615819
0.0632732
0.0643616
0.0653705
0.0657281
0.0660036
0.0655866
0.0650859
0.0638634
0.0625551
0.0605091
0.0583797
0.0555004
0.0525426
0.0488455
0.0450725
0.040583
0.0360174
0.0307722
0.0254535
0.0195111
0.0135032
0.00691158
0.000289647
-6.19019e-06
0.00990649
0.0196547
0.0290683
0.0380045
0.0462836
0.0537432
0.0602288
0.0655681
0.0696085
0.072201
0.0732074
0.0725078
0.0700004
0.0656162
0.0593033
0.0510578
0.0409084
0.0289219
0.0152353
-4.0216e-05
1.01044e-05
0.00535188
0.0107023
0.0159791
0.0212476
0.0263637
0.031461
0.0363452
0.0412005
0.04576
0.0502822
0.0544321
0.058536
0.0621941
0.0657968
0.0688686
0.0718753
0.0742721
0.0765962
0.0782313
0.0797833
0.0805681
0.081263
0.0811183
0.0808773
0.079731
0.0784826
0.0762756
0.0739649
0.0706476
0.067227
0.06278
0.0582286
0.0526515
0.0469645
0.0402774
0.0334795
0.0257416
0.0179107
0.00919972
0.000432529
2.5572e-06
0.0112486
0.0223523
0.0331442
0.0434919
0.0532137
0.0621371
0.0700902
0.0768665
0.0822673
0.0860834
0.0881002
0.0881142
0.0859268
0.0813693
0.074292
0.0646037
0.0522632
0.0372847
0.01981
-4.38543e-05
7.56774e-06
0.00591686
0.0118342
0.0176856
0.0235367
0.0292477
0.0349511
0.0404619
0.0459567
0.0511769
0.0563762
0.0612207
0.0660368
0.0704185
0.0747616
0.0785701
0.0823297
0.0854536
0.0885193
0.0908409
0.0930902
0.09448
0.0957837
0.0961157
0.0963471
0.0954913
0.0945228
0.0923605
0.090077
0.0864982
0.0827912
0.0777174
0.072509
0.0658894
0.0591258
0.050945
0.0426175
0.0329212
0.0230663
0.0118883
0.000624285
1.80104e-05
0.0119569
0.023808
0.0354219
0.0467009
0.0574844
0.0676093
0.0769022
0.0851335
0.092061
0.0974105
0.100874
0.102138
0.10087
0.0967502
0.0894752
0.0787979
0.0645374
0.0466056
0.0250409
-7.115e-05
3.30048e-06
0.00603829
0.0120803
0.0180757
0.0240846
0.0299885
0.0359054
0.0416842
0.0474727
0.0530528
0.0586453
0.063955
0.0692739
0.0742335
0.0791931
0.0836856
0.0881693
0.0920664
0.0959444
0.0990983
0.102215
0.10445
0.106625
0.107756
0.108801
0.108618
0.108327
0.106622
0.104788
0.101355
0.097773
0.0924326
0.0869246
0.0795313
0.071942
0.0623825
0.0526125
0.0408595
0.0289348
0.0150693
0.00102375
3.99672e-05
0.0114399
0.0228448
0.0341546
0.0453383
0.0562936
0.0669016
0.0770211
0.0864315
0.0948702
0.102012
0.107452
0.110749
0.111385
0.108822
0.102506
0.0919277
0.0766384
0.0562678
0.0307481
-2.35162e-05
-2.36808e-06
0.00536359
0.0107352
0.0160933
0.0214845
0.0268342
0.0322271
0.0375793
0.0429799
0.0482987
0.0536816
0.0589303
0.0642495
0.0693781
0.0745744
0.0794823
0.0844558
0.0890174
0.0936376
0.0976899
0.101782
0.105111
0.108445
0.110803
0.113124
0.114202
0.115203
0.114668
0.114012
0.111506
0.108831
0.103993
0.0989529
0.0914561
0.0837291
0.073318
0.062645
0.0491519
0.0352623
0.0183947
0.00129472
6.44016e-05
0.00893044
0.0179254
0.027031
0.0363166
0.0457848
0.0554109
0.0651429
0.074836
0.0842705
0.0931296
0.100952
0.107185
0.111105
0.111879
0.108577
0.100215
0.0858633
0.0647582
0.0361578
-0.000149918
-8.64468e-06
0.00347191
0.0069561
0.0104706
0.0140393
0.0176553
0.0213467
0.0251339
0.0290124
0.0329951
0.0371031
0.0413067
0.0456585
0.0500969
0.0546952
0.0593255
0.0641326
0.0688771
0.0738078
0.0785349
0.0834419
0.0879401
0.0925835
0.0965694
0.100649
0.103718
0.106824
0.108489
0.110122
0.109811
0.10939
0.106469
0.103349
0.0971653
0.0906496
0.0805389
0.0700271
0.0555587
0.040814
0.0220717
0.00278455
8.1186e-05
0.00364798
0.00746476
0.0116172
0.0162894
0.021625
0.0277433
0.0347528
0.0426883
0.0514979
0.0610214
0.0708955
0.0805852
0.0892434
0.0957349
0.0986497
0.0963449
0.0869807
0.0686087
0.0402292
0.000198519
-1.41676e-05
-5.0973e-06
4.18585e-06
8.53731e-05
0.00023297
0.000521016
0.00090025
0.00151995
0.00225278
0.00329766
0.00450816
0.00608514
0.00786943
0.0100891
0.0125493
0.0154799
0.0187033
0.02239
0.0264183
0.0308576
0.0356775
0.040779
0.0462616
0.0518265
0.0577478
0.063377
0.0693134
0.0744157
0.0797217
0.0834973
0.0872976
0.0887557
0.090015
0.0880067
0.085651
0.0789048
0.0716856
0.0586817
0.0447655
0.0234465
0.00139308
7.54766e-05
-0.0048699
-0.00950847
-0.0136608
-0.0170631
-0.0194421
-0.0205301
-0.0200234
-0.0176184
-0.0130501
-0.00608984
0.00333326
0.0151149
0.0287276
0.0430572
0.0562669
0.0658052
0.0685295
0.0610055
0.0382272
-0.000520978
-1.67347e-05
-0.00516199
-0.0103125
-0.0153737
-0.0203781
-0.0251858
-0.0299272
-0.0343383
-0.0386722
-0.0425494
-0.0462938
-0.0494668
-0.052462
-0.0547276
-0.0567748
-0.0579333
-0.0587877
-0.0586113
-0.0580355
-0.0562909
-0.0540314
-0.0504919
-0.0463485
-0.0408555
-0.0346624
-0.0272521
-0.0190372
-0.0100348
-0.000164573
0.00962493
0.0202515
0.0292438
0.0390956
0.0448431
0.0513196
0.0516036
0.0519683
0.045918
0.0386389
0.0259983
0.0119738
3.59025e-05
-0.0163059
-0.0324093
-0.0480566
-0.0630035
-0.0769394
-0.0895433
-0.100403
-0.109002
-0.114761
-0.116971
-0.114831
-0.107442
-0.0939912
-0.0740711
-0.0481762
-0.0187952
0.00786809
0.024943
0.0281321
0.0033063
-1.4458e-05
-0.0115581
-0.0231132
-0.0346059
-0.0460766
-0.0573739
-0.0686779
-0.079686
-0.090726
-0.101333
-0.111942
-0.12199
-0.13203
-0.141309
-0.150581
-0.158845
-0.167037
-0.173951
-0.180714
-0.185857
-0.190714
-0.193492
-0.195854
-0.195564
-0.194636
-0.19048
-0.185315
-0.176416
-0.166071
-0.151642
-0.135484
-0.11541
-0.0935839
-0.0690361
-0.0449496
-0.0197932
0.00241283
0.0135579
0.0246722
0.00774973
-0.0112663
-2.83221e-05
-0.029205
-0.0583373
-0.087253
-0.115854
-0.143939
-0.171315
-0.197689
-0.222606
-0.245505
-0.265588
-0.281691
-0.292194
-0.294821
-0.286576
-0.263463
-0.221263
-0.15716
-0.0757284
-0.0223462
-0.0217791
-3.34146e-06
-0.0181121
-0.0362322
-0.0543549
-0.072499
-0.0905724
-0.108742
-0.12678
-0.144988
-0.162975
-0.18115
-0.199041
-0.217178
-0.234888
-0.252944
-0.270364
-0.288171
-0.305102
-0.322497
-0.338661
-0.355349
-0.370184
-0.385697
-0.398436
-0.411961
-0.421447
-0.431611
-0.436007
-0.440683
-0.437223
-0.432975
-0.418211
-0.399031
-0.368752
-0.328268
-0.282434
-0.202753
-0.149255
-0.0702605
-0.00212097
0.0512001
-9.01009e-05
-0.0410969
-0.082289
-0.123589
-0.165105
-0.206834
-0.248842
-0.291151
-0.333671
-0.376308
-0.418856
-0.460795
-0.501283
-0.53871
-0.570358
-0.591052
-0.591668
-0.553567
-0.453831
-0.251104
0.199275
4.93587e-06
-0.023379
-0.0467697
-0.0702296
-0.0937263
-0.117268
-0.140942
-0.164677
-0.188639
-0.212655
-0.236929
-0.261311
-0.286035
-0.310875
-0.336196
-0.361613
-0.387596
-0.413699
-0.440536
-0.467493
-0.495376
-0.5232
-0.552357
-0.581117
-0.611794
-0.641415
-0.673703
-0.703649
-0.737616
-0.766255
-0.801409
-0.825048
-0.859022
-0.867177
-0.896283
-0.868355
-0.881955
-0.745228
-0.809019
-0.493955
0.00903029
-0.000112663
-0.0492967
-0.0987849
-0.148573
-0.198896
-0.249877
-0.301758
-0.354798
-0.409201
-0.465306
-0.523544
-0.584287
-0.64816
-0.715778
-0.788012
-0.865564
-0.948918
-1.03445
-1.11743
-1.06002
-1.09084
-2.08667e-06
-0.0260946
-0.0522132
-0.0783998
-0.104623
-0.130913
-0.157326
-0.18384
-0.210572
-0.237404
-0.264487
-0.291744
-0.319331
-0.347131
-0.3754
-0.403887
-0.432929
-0.462274
-0.492339
-0.522808
-0.554181
-0.585995
-0.619083
-0.652724
-0.6882
-0.724384
-0.763164
-0.803101
-0.847064
-0.892838
-0.945417
-1.00169
-1.07016
-1.1442
-1.2424
-1.36589
-1.54502
-1.72059
-1.98706
-3.0281
-4.72163
SCALARS Radial_Distance double 1
LOOKUP_TABLE default
0
0.0738
0.1476
0.2215
0.2953
0.3691
0.4429
0.5167
0.5906
0.6644
0.7382
0.812
0.8858
0.9596
1.0335
1.1073
1.1811
1.2549
1.3287
1.4026
1.4764
1.5502
1.624
1.6978
1.7717
1.8455
1.9193
1.9931
2.0669
2.1407
2.2146
2.2884
2.3622
2.436
2.5098
2.5837
2.6575
2.7313
2.8051
2.8789
2.9528
0
0.1476
0.2953
0.4429
0.5906
0.7382
0.8858
1.0335
1.1811
1.3287
1.4764
1.624
1.7717
1.9193
2.0669
2.2146
2.3622
2.5098
2.6575
2.8051
2.9528
0
0.0738
0.1476
0.2215
0.2953
0.3691
0.4429
0.5167
0.5906
0.6644
0.7382
0.812
0.8858
0.9596
1.0335
1.1073
1.1811
1.2549
1.3287
1.4026
1.4764
1.5502
1.624
1.6978
1.7717
1.8455
1.9193
1.9931
2.0669
2.1407
2.2146
2.2884
2.3622
2.436
2.5098
2.5837
2.6575
2.7313
2.8051
2.8789
2.9528
0
0.1476
0.2953
0.4429
0.5906
0.7382
0.8858
1.0335
1.1811
1.3287
1.4764
1.624
1.7717
1.9193
2.0669
2.2146
2.3622
2.5098
2.6575
2.8051
2.9528
0
0.0738
0.1476
0.2215
0.2953
0.3691
0.4429
0.5167
0.5906
0.6644
0.7382
0.812
0.8858
0.9596
1.0335
1.1073
1.1811
1.2549
1.3287
1.4026
1.4764
1.5502
1.624
1.6978
1.7717
1.8455
1.9193
1.9931
2.0669
2.1407
2.2146
2.2884
2.3622
2.436
2.5098
2.5837
2.6575
2.7313
2.8051
2.8789
2.9528
0
0.1476
0.2953
0.4429
0.5906
0.7382
0.8858
1.0335
1.1811
1.3287
1.4764
1.624
1.7717
1.9193
2.0669
2.2146
2.3622
2.5098
2.6575
2.8051
2.9528
0
0.0738
0.1476
0.2215
0.2953
0.3691
0.4429
0.5167
0.5906
0.6644
0.7382
0.812
0.8858
0.9596
1.0335
1.1073
1.1811
1.2549
1.3287
1.4026
1.4764
1.5502
1.624
1.6978
1.7717
1.8455
1.9193
1.9931
2.0669
2.1407
2.2146
2.2884
2.3622
2.436
2.5098
2.5837
2.6575
2.7313
2.8051
2.8789
2.9528
0
0.1476
0.2953
0.4429
0.5906
0.7382
0.8858
1.0335
1.1811
1.3287
1.4764
1.624
1.7717
1.9193
2.0669
2.2146
2.3622
2.5098
2.6575
2.8051
2.9528
0
0.0738
0.1476
0.2215
0.2953
0.3691
0.4429
0.5167
0.5906
0.6644
0.7382
0.812
0.8858
0.9596
1.0335
1.1073
1.1811
1.2549
1.3287
1.4026
1.4764
1.5502
1.624
1.6978
1.7717
1.8455
1.9193
1.9931
2.0669
2.1407
2.2146
2.2884
2.3622
2.436
2.5098
2.5837
2.6575
2.7313
2.8051
2.8789
2.9528
0
0.1476
0.2953
0.4429
0.5906
0.7382
0.8858
1.0335
1.1811
1.3287
1.4764
1.624
1.7717
1.9193
2.0669
2.2146
2.3622
2.5098
2.6575
2.8051
2.9528
0
0.0738
0.1476
0.2215
0.2953
0.3691
0.4429
0.5167
0.5906
0.6644
0.7382
0.812
0.8858
0.9596
1.0335
1.1073
1.1811
1.2549
1.3287
1.4026
1.4764
1.5502
1.624
1.6978
1.7717
1.8455
1.9193
1.9931
2.0669
2.1407
2.2146
2.2884
2.3622
2.436
2.5098
2.5837
2.6575
2.7313
2.8051
2.8789
2.9528
0
0.1476
0.2953
0.4429
0.5906
0.7382
0.8858
1.0335
1.1811
1.3287
1.4764
1.624
1.7717
1.9193
2.0669
2.2146
2.3622
2.5098
2.6575
2.8051
2.9528
0
0.0738
0.1476
0.2215
0.2953
0.3691
0.4429
0.5167
0.5906
0.6644
0.7382
0.812
0.8858
0.9596
1.0335
1.1073
1.1811
1.2549
1.3287
1.4026
1.4764
1.5502
1.624
1.6978
1.7717
1.8455
1.9193
1.9931
2.0669
2.1407
2.2146
2.2884
2.3622
2.436
2.5098
2.5837
2.6575
2.7313
2.8051
2.8789
2.9528
0
0.1476
0.2953
0.4429
0.5906
0.7382
0.8858
1.0335
1.1811
1.3287
1.4764
1.624
1.7717
1.9193
2.0669
2.2146
2.3622
2.5098
2.6575
2.8051
2.9528
0
0.0738
0.1476
0.2215
0.2953
0.3691
0.4429
0.5167
0.5906
0.6644
0.7382
0.812
0.8858
0.9596
1.0335
1.1073
1.1811
1.2549
1.3287
1.4026
1.4764
1.5502
1.624
1.6978
1.7717
1.8455
1.9193
1.9931
2.0669
2.1407
2.2146
2.2884
2.3622
2.436
2.5098
2.5837
2.6575
2.7313
2.8051
2.8789
2.9528
0
0.1476
0.2953
0.4429
0.5906
0.7382
0.8858
1.0335
1.1811
1.3287
1.4764
1.624
1.7717
1.9193
2.0669
2.2146
2.3622
2.5098
2.6575
2.8051
2.9528
0
0.0738
0.1476
0.2215
0.2953
0.3691
0.4429
0.5167
0.5906
0.6644
0.7382
0.812
0.8858
0.9596
1.0335
1.1073
1.1811
1.2549
1.3287
1.4026
1.4764
1.5502
1.624
1.6978
1.7717
1.8455
1.9193
1.9931
2.0669
2.1407
2.2146
2.2884
2.3622
2.436
2.5098
2.5837
2.6575
2.7313
2.8051
2.8789
2.9528
0
0.1476
0.2953
0.4429
0.5906
0.7382
0.8858
1.0335
1.1811
1.3287
1.4764
1.624
1.7717
1.9193
2.0669
2.2146
2.3622
2.5098
2.6575
2.8051
2.9528
0
0.0738
0.1476
0.2215
0.2953
0.3691
0.4429
0.5167
0.5906
0.6644
0.7382
0.812
0.8858
0.9596
1.0335
1.1073
1.1811
1.2549
1.3287
1.4026
1.4764
1.5502
1.624
1.6978
1.7717
1.8455
1.9193
1.9931
2.0669
2.1407
2.2146
2.2884
2.3622
2.436
2.5098
2.5837
2.6575
2.7313
2.8051
2.8789
2.9528
0
0.1476
0.2953
0.4429
0.5906
0.7382
0.8858
1.0335
1.1811
1.3287
1.4764
1.624
1.7717
1.9193
2.0669
2.2146
2.3622
2.5098
2.6575
2.8051
2.9528
0
0.0738
0.1476
0.2215
0.2953
0.3691
0.4429
0.5167
0.5906
0.6644
0.7382
0.812
0.8858
0.9596
1.0335
1.1073
1.1811
1.2549
1.3287
1.4026
1.4764
1.5502
1.624
1.6978
1.7717
1.8455
1.9193
1.9931
2.0669
2.1407
2.2146
2.2884
2.3622
2.436
2.5098
2.5837
2.6575
2.7313
2.8051
2.8789
2.9528
0
0.1476
0.2953
0.4429
0.5906
0.7382
0.8858
1.0335
1.1811
1.3287
1.4764
1.624
1.7717
1.9193
2.0669
2.2146
2.3622
2.5098
2.6575
2.8051
2.9528
0
0.0738
0.1476
0.2215
0.2953
0.3691
0.4429
0.5167
0.5906
0.6644
0.7382
0.812
0.8858
0.9596
1.0335
1.1073
1.1811
1.2549
1.3287
1.4026
1.4764
1.5502
1.624
1.6978
1.7717
1.8455
1.9193
1.9931
2.0669
2.1407
2.2146
2.2884
2.3622
2.436
2.5098
2.5837
2.6575
2.7313
2.8051
2.8789
2.9528
0
0.1476
0.2953
0.4429
0.5906
0.7382
0.8858
1.0335
1.1811
1.3287
1.4764
1.624
1.7717
1.9193
2.0669
2.2146
2.3622
2.5098
2.6575
2.8051
2.9528
0
0.0738
0.1476
0.2215
0.2953
0.3691
0.4429
0.5167
0.5906
0.6644
0.7382
0.812
0.8858
0.9596
1.0335
1.1073
1.1811
1.2549
1.3287
1.4026
1.4764
1.5502
1.624
1.6978
1.7717
1.8455
1.9193
1.9931
2.0669
2.1407
2.2146
2.2884
2.3622
2.436
2.5098
2.5837
2.6575
2.7313
2.8051
2.8789
2.9528
0
0.1476
0.2953
0.4429
0.5906
0.7382
0.8858
1.0335
1.1811
1.3287
1.4764
1.624
1.7717
1.9193
2.0669
2.2146
2.3622
2.5098
2.6575
2.8051
2.9528
0
0.0738
0.1476
0.2215
0.2953
0.3691
0.4429
0.5167
0.5906
0.6644
0.7382
0.812
0.8858
0.9596
1.0335
1.1073
1.1811
1.2549
1.3287
1.4026
1.4764
1.5502
1.624
1.6978
1.7717
1.8455
1.9193
1.9931
2.0669
2.1407
2.2146
2.2884
2.3622
2.436
2.5098
2.5837
2.6575
2.7313
2.8051
2.8789
2.9528
0
0.1476
0.2953
0.4429
0.5906
0.7382
0.8858
1.0335
1.1811
1.3287
1.4764
1.624
1.7717
1.9193
2.0669
2.2146
2.3622
2.5098
2.6575
2.8051
2.9528
0
0.0738
0.1476
0.2215
0.2953
0.3691
0.4429
0.5167
0.5906
0.6644
0.7382
0.812
0.8858
0.9596
1.0335
1.1073
1.1811
1.2549
1.3287
1.4026
1.4764
1.5502
1.624
1.6978
1.7717
1.8455
1.9193
1.9931
2.0669
2.1407
2.2146
2.2884
2.3622
2.436
2.5098
2.5837
2.6575
2.7313
2.8051
2.8789
2.9528
0
0.1476
0.2953
0.4429
0.5906
0.7382
0.8858
1.0335
1.1811
1.3287
1.4764
1.624
1.7717
1.9193
2.0669
2.2146
2.3622
2.5098
2.6575
2.8051
2.9528
0
0.0738
0.1476
0.2215
0.2953
0.3691
0.4429
0.5167
0.5906
0.6644
0.7382
0.812
0.8858
0.9596
1.0335
1.1073
1.1811
1.2549
1.3287
1.4026
1.4764
1.5502
1.624
1.6978
1.7717
1.8455
1.9193
1.9931
2.0669
2.1407
2.2146
2.2884
2.3622
2.436
2.5098
2.5837
2.6575
2.7313
2.8051
2.8789
2.9528
SCALARS Depth double 1
LOOKUP_TABLE default
0
0
0
0
0
0
0
0
0
0
0
0
0
0
0
0
0
0
0
0
0
0
0
0
0
0
0
0
0
0
0
0
0
0
0
0
0
0
0
0
0
-0.1969
-0.1969
-0.1969
-0.1969
-0.1969
-0.1969
-0.1969
-0.1969
-0.1969
-0.1969
-0.1969
-0.1969
-0.1969
-0.1969
-0.1969
-0.1969
-0.1969
-0.1969
-0.1969
-0.1969
-0.1969
-0.3937
-0.3937
-0.3937
-0.3937
-0.3937
-0.3937
-0.3937
-0.3937
-0.3937
-0.3937
-0.3937
-0.3937
-0.3937
-0.3937
-0.3937
-0.3937
-0.3937
-0.3937
-0.3937
-0.3937
-0.3937
-0.3937
-0.3937
-0.3937
-0.3937
-0.3937
-0.3937
-0.3937
-0.3937
-0.3937
-0.3937
-0.3937
-0.3937
-0.3937
-0.3937
-0.3937
-0.3937
-0.3937
-0.3937
-0.3937
-0.3937
-0.5906
-0.5906
-0.5906
-0.5906
-0.5906
-0.5906
-0.5906
-0.5906
-0.5906
-0.5906
-0.5906
-0.5906
-0.5906
-0.5906
-0.5906
-0.5906
-0.5906
-0.5906
-0.5906
-0.5906
-0.5906
-0.7874
-0.7874
-0.7874
-0.7874
-0.7874
-0.7874
-0.7874
-0.7874
-0.7874
-0.7874
-0.7874
-0.7874
-0.7874
-0.7874
-0.7874
-0.7874
-0.7874
-0.7874
-0.7874
-0.7874
-0.7874
-0.7874
-0.7874
-0.7874
-0.7874
-0.7874
-0.7874
-0.7874
-0.7874
-0.7874
-0.7874
-0.7874
-0.7874
-0.7874
-0.7874
-0.7874
-0.7874
-0.7874
-0.7874
-0.7874
-0.7874
-0.9843
-0.9843
-0.9843
-0.9843
-0.9843
-0.9843
-0.9843
-0.9843
-0.9843
-0.9843
-0.9843
-0.9843
-0.9843
-0.9843
-0.9843
-0.9843
-0.9843
-0.9843
-0.9843
-0.9843
-0.9843
-1.1811
-1.1811
-1.1811
-1.1811
-1.1811
-1.1811
-1.1811
-1.1811
-1.1811
-1.1811
-1.1811
-1.1811
-1.1811
-1.1811
-1.1811
-1.1811
-1.1811
-1.1811
-1.1811
-1.1811
-1.1811
-1.1811
-1.1811
-1.1811
-1.1811
-1.1811
-1.1811
-1.1811
-1.1811
-1.1811
-1.1811
-1.1811
-1.1811
-1.1811
-1.1811
-1.1811
-1.1811
-1.1811
-1.1811
-1.1811
-1.1811
-1.378
-1.378
-1.378
-1.378
-1.378
-1.378
-1.378
-1.378
-1.378
-1.378
-1.378
-1.378
-1.378
-1.378
-1.378
-1.378
-1.378
-1.378
-1.378
-1.378
-1.378
-1.5748
-1.5748
-1.5748
-1.5748
-1.5748
-1.5748
-1.5748
-1.5748
-1.5748
-1.5748
-1.5748
-1.5748
-1.5748
-1.5748
-1.5748
-1.5748
-1.5748
-1.5748
-1.5748
-1.5748
-1.5748
-1.5748
-1.5748
-1.5748
-1.5748
-1.5748
-1.5748
-1.5748
-1.5748
-1.5748
-1.5748
-1.5748
-1.5748
-1.5748
-1.5748
-1.5748
-1.5748
-1.5748
-1.5748
-1.5748
-1.5748
-1.7717
-1.7717
-1.7717
-1.7717
-1.7717
-1.7717
-1.7717
-1.7717
-1.7717
-1.7717
-1.7717
-1.7717
-1.7717
-1.7717
-1.7717
-1.7717
-1.7717
-1.7717
-1.7717
-1.7717
-1.7717
-1.9685
-1.9685
-1.9685
-1.9685
-1.9685
-1.9685
-1.9685
-1.9685
-1.9685
-1.9685
-1.9685
-1.9685
-1.9685
-1.9685
-1.9685
-1.9685
-1.9685
-1.9685
-1.9685
-1.9685
-1.9685
-1.9685
-1.9685
-1.9685
-1.9685
-1.9685
-1.9685
-1.9685
-1.9685
-1.9685
-1.9685
-1.9685
-1.9685
-1.9685
-1.9685
-1.9685
-1.9685
-1.9685
-1.9685
-1.9685
-1.9685
-2.1654
-2.1654
-2.1654
-2.1654
-2.1654
-2.1654
-2.1654
-2.1654
-2.1654
-2.1654
-2.1654
-2.1654
-2.1654
-2.1654
-2.1654
-2.1654
-2.1654
-2.1654
-2.1654
-2.1654
-2.1654
-2.3622
-2.3622
-2.3622
-2.3622
-2.3622
-2.3622
-2.3622
-2.3622
-2.3622
-2.3622
-2.3622
-2.3622
-2.3622
-2.3622
-2.3622
-2.3622
-2.3622
-2.3622
-2.3622
-2.3622
-2.3622
-2.3622
-2.3622
-2.3622
-2.3622
-2.3622
-2.3622
-2.3622
-2.3622
-2.3622
-2.3622
-2.3622
-2.3622
-2.3622
-2.3622
-2.3622
-2.3622
-2.3622
-2.3622
-2.3622
-2.3622
-2.5591
-2.5591
-2.5591
-2.5591
-2.5591
-2.5591
-2.5591
-2.5591
-2.5591
-2.5591
-2.5591
-2.5591
-2.5591
-2.5591
-2.5591
-2.5591
-2.5591
-2.5591
-2.5591
-2.5591
-2.5591
-2.7559
-2.7559
-2.7559
-2.7559
-2.7559
-2.7559
-2.7559
-2.7559
-2.7559
-2.7559
-2.7559
-2.7559
-2.7559
-2.7559
-2.7559
-2.7559
-2.7559
-2.7559
-2.7559
-2.7559
-2.7559
-2.7559
-2.7559
-2.7559
-2.7559
-2.7559
-2.7559
-2.7559
-2.7559
-2.7559
-2.7559
-2.7559
-2.7559
-2.7559
-2.7559
-2.7559
-2.7559
-2.7559
-2.7559
-2.7559
-2.7559
-2.9528
-2.9528
-2.9528
-2.9528
-2.9528
-2.9528
-2.9528
-2.9528
-2.9528
-2.9528
-2.9528
-2.9528
-2.9528
-2.9528
-2.9528
-2.9528
-2.9528
-2.9528
-2.9528
-2.9528
-2.9528
-3.1496
-3.1496
-3.1496
-3.1496
-3.1496
-3.1496
-3.1496
-3.1496
-3.1496
-3.1496
-3.1496
-3.1496
-3.1496
-3.1496
-3.1496
-3.1496
-3.1496
-3.1496
-3.1496
-3.1496
-3.1496
-3.1496
-3.1496
-3.1496
-3.1496
-3.1496
-3.1496
-3.1496
-3.1496
-3.1496
-3.1496
-3.1496
-3.1496
-3.1496
-3.1496
-3.1496
-3.1496
-3.1496
-3.1496
-3.1496
-3.1496
-3.3465
-3.3465
-3.3465
-3.3465
-3.3465
-3.3465
-3.3465
-3.3465
-3.3465
-3.3465
-3.3465
-3.3465
-3.3465
-3.3465
-3.3465
-3.3465
-3.3465
-3.3465
-3.3465
-3.3465
-3.3465
-3.5433
-3.5433
-3.5433
-3.5433
-3.5433
-3.5433
-3.5433
-3.5433
-3.5433
-3.5433
-3.5433
-3.5433
-3.5433
-3.5433
-3.5433
-3.5433
-3.5433
-3.5433
-3.5433
-3.5433
-3.5433
-3.5433
-3.5433
-3.5433
-3.5433
-3.5433
-3.5433
-3.5433
-3.5433
-3.5433
-3.5433
-3.5433
-3.5433
-3.5433
-3.5433
-3.5433
-3.5433
-3.5433
-3.5433
-3.5433
-3.5433
-3.7402
-3.7402
-3.7402
-3.7402
-3.7402
-3.7402
-3.7402
-3.7402
-3.7402
-3.7402
-3.7402
-3.7402
-3.7402
-3.7402
-3.7402
-3.7402
-3.7402
-3.7402
-3.7402
-3.7402
-3.7402
-3.937
-3.937
-3.937
-3.937
-3.937
-3.937
-3.937
-3.937
-3.937
-3.937
-3.937
-3.937
-3.937
-3.937
-3.937
-3.937
-3.937
-3.937
-3.937
-3.937
-3.937
-3.937
-3.937
-3.937
-3.937
-3.937
-3.937
-3.937
-3.937
-3.937
-3.937
-3.937
-3.937
-3.937
-3.937
-3.937
-3.937
-3.937
-3.937
-3.937
-3.937
-4.1339
-4.1339
-4.1339
-4.1339
-4.1339
-4.1339
-4.1339
-4.1339
-4.1339
-4.1339
-4.1339
-4.1339
-4.1339
-4.1339
-4.1339
-4.1339
-4.1339
-4.1339
-4.1339
-4.1339
-4.1339
-4.3307
-4.3307
-4.3307
-4.3307
-4.3307
-4.3307
-4.3307
-4.3307
-4.3307
-4.3307
-4.3307
-4.3307
-4.3307
-4.3307
-4.3307
-4.3307
-4.3307
-4.3307
-4.3307
-4.3307
-4.3307
-4.3307
-4.3307
-4.3307
-4.3307
-4.3307
-4.3307
-4.3307
-4.3307
-4.3307
-4.3307
-4.3307
-4.3307
-4.3307
-4.3307
-4.3307
-4.3307
-4.3307
-4.3307
-4.3307
-4.3307
-4.5276
-4.5276
-4.5276
-4.5276
-4.5276
-4.5276
-4.5276
-4.5276
-4.5276
-4.5276
-4.5276
-4.5276
-4.5276
-4.5276
-4.5276
-4.5276
-4.5276
-4.5276
-4.5276
-4.5276
-4.5276
-4.7244
-4.7244
-4.7244
-4.7244
-4.7244
-4.7244
-4.7244
-4.7244
-4.7244
-4.7244
-4.7244
-4.7244
-4.7244
-4.7244
-4.7244
-4.7244
-4.7244
-4.7244
-4.7244
-4.7244
-4.7244
-4.7244
-4.7244
-4.7244
-4.7244
-4.7244
-4.7244
-4.7244
-4.7244
-4.7244
-4.7244
-4.7244
-4.7244
-4.7244
-4.7244
-4.7244
-4.7244
-4.7244
-4.7244
-4.7244
-4.7244
-4.9213
-4.9213
-4.9213
-4.9213
-4.9213
-4.9213
-4.9213
-4.9213
-4.9213
-4.9213
-4.9213
-4.9213
-4.9213
-4.9213
-4.9213
-4.9213
-4.9213
-4.9213
-4.9213
-4.9213
-4.9213
-5.1181
-5.1181
-5.1181
-5.1181
-5.1181
-5.1181
-5.1181
-5.1181
-5.1181
-5.1181
-5.1181
-5.1181
-5.1181
-5.1181
-5.1181
-5.1181
-5.1181
-5.1181
-5.1181
-5.1181
-5.1181
-5.1181
-5.1181
-5.1181
-5.1181
-5.1181
-5.1181
-5.1181
-5.1181
-5.1181
-5.1181
-5.1181
-5.1181
-5.1181
-5.1181
-5.1181
-5.1181
-5.1181
-5.1181
-5.1181
-5.1181
-5.315
-5.315
-5.315
-5.315
-5.315
-5.315
-5.315
-5.315
-5.315
-5.315
-5.315
-5.315
-5.315
-5.315
-5.315
-5.315
-5.315
-5.315
-5.315
-5.315
-5.315
-5.5118
-5.5118
-5.5118
-5.5118
-5.5118
-5.5118
-5.5118
-5.5118
-5.5118
-5.5118
-5.5118
-5.5118
-5.5118
-5.5118
-5.5118
-5.5118
-5.5118
-5.5118
-5.5118
-5.5118
-5.5118
-5.5118
-5.5118
-5.5118
-5.5118
-5.5118
-5.5118
-5.5118
-5.5118
-5.5118
-5.5118
-5.5118
-5.5118
-5.5118
-5.5118
-5.5118
-5.5118
-5.5118
-5.5118
-5.5118
-5.5118
-5.7087
-5.7087
-5.7087
-5.7087
-5.7087
-5.7087
-5.7087
-5.7087
-5.7087
-5.7087
-5.7087
-5.7087
-5.7087
-5.7087
-5.7087
-5.7087
-5.7087
-5.7087
-5.7087
-5.7087
-5.7087
-5.9055
-5.9055
-5.9055
-5.9055
-5.9055
-5.9055
-5.9055
-5.9055
-5.9055
-5.9055
-5.9055
-5.9055
-5.9055
-5.9055
-5.9055
-5.9055
-5.9055
-5.9055
-5.9055
-5.9055
-5.9055
-5.9055
-5.9055
-5.9055
-5.9055
-5.9055
-5.9055
-5.9055
-5.9055
-5.9055
-5.9055
-5.9055
-5.9055
-5.9055
-5.9055
-5.9055
-5.9055
-5.9055
-5.9055
-5.9055
-5.9055
